97
Drug@Ti12C7O14 non-overlapping complex
C      4.555995     -2.684501     11.072424
O      4.032203     -2.265266      9.812151
C      3.316091     -1.094398      9.935695
C      1.948753     -1.197730      9.633616
C      1.102730     -0.094490      9.729882
N     -0.269613     -0.130111      9.466989
C     -1.162307     -1.134558      9.107769
N     -0.785538     -2.412742      8.982746
C     -1.736395     -3.301880      8.635874
C     -3.049593     -2.966575      8.413435
Cl     -4.188452     -4.174136      7.968258
C     -3.369346     -1.624492      8.568963
N     -4.704269     -1.199457      8.338387
C     -5.220186      0.115035      8.270720
C     -4.463212      1.163051      7.722893
C     -4.980519      2.454744      7.607873
C     -6.276875      2.721466      8.027116
C     -7.054975      1.694235      8.555401
C     -6.543665      0.388288      8.678951
P     -7.575819     -0.881580      9.360823
O     -6.904333     -2.225220      9.535642
C     -8.241330     -0.331826     10.936895
C     -9.040096     -1.061339      8.335680
N     -2.423567     -0.717920      8.906753
C      1.676901      1.119563     10.129525
C      3.047843      1.232190     10.407715
C      3.907720      0.131361     10.310204
N      5.293754      0.239363     10.520191
C      6.049246      0.112030      9.245610
C      7.512947      0.575588      9.422592
N      7.640433      1.998355      9.818420
C      8.938134      2.239330     10.442675
C      6.520179      2.416022     10.691440
C      5.816612      1.265491     11.444469
H      3.907867     -2.412824     11.914183
H      5.563759     -2.286510     11.221143
H      4.632897     -3.776075     11.051247
H      1.570677     -2.168487      9.330647
H     -0.771936      0.743761      9.522261
H     -1.390081     -4.326571      8.540123
H     -5.351212     -1.866648      8.783010
H     -3.455849      0.976747      7.358493
H     -4.368611      3.245121      7.181230
H     -6.682680      3.725653      7.935380
H     -8.071106      1.919341      8.870047
H     -8.832052      0.580739     10.821129
H     -8.888041     -1.104781     11.361830
H     -7.428794     -0.134749     11.641690
H     -8.757837     -1.366532      7.324254
H     -9.594373     -0.120876      8.273950
H     -9.703296     -1.823140      8.755103
H      1.060433      2.011307     10.217337
H      3.427458      2.215508     10.665866
H      5.579632      0.713324      8.454926
H      6.056916     -0.932034      8.913854
H      7.983491     -0.075324     10.172565
H      8.052326      0.425648      8.480175
H      9.051256      1.694538     11.386826
H      9.074548      3.307801     10.642952
H      9.750274      1.940339      9.770647
H      5.782119      2.910105     10.046968
H      6.842660      3.179737     11.409982
H      6.546158      0.776561     12.103106
H      5.043947      1.660432     12.113920
Ti     -2.141866     -3.008818      2.119748
Ti      0.288991     -1.694759      1.432425
Ti      1.903098     -3.067749     -0.729322
Ti     -2.521502     -0.251928      1.303687
Ti      2.142050      0.499533      2.204434
Ti     -0.681448      0.189635      3.681230
Ti     -2.036770     -3.077740     -1.200512
Ti     -0.605340     -0.770900     -2.035132
Ti      1.945488     -1.587317     -3.412400
Ti     -1.878170      1.746573     -1.240030
Ti      2.412512      0.454231     -0.774247
Ti      0.817742      1.838452     -2.940004
C     -3.678414      1.281398      0.600737
C      4.128193      0.482847      0.387293
C      0.455479      2.267202      0.349695
C     -3.666709      2.118834     -0.313920
C      4.115962      0.632239      1.621354
C     -0.635167      2.741046     -0.118921
C      1.630072      1.780996      0.734224
O     -3.093456     -1.956907      1.037949
O     -0.487250     -2.605849      2.701203
O      0.314079     -2.888890      0.145001
O     -0.800785     -0.435934      0.971227
O      1.902865     -1.158331      1.469449
O     -2.322673     -0.113878      3.024800
O      1.013786      0.441598      3.568761
O     -1.772019     -4.587905     -1.652810
O      0.190605     -1.189189     -3.534030
O      2.831420     -2.170248     -1.918042
O     -2.054558     -0.224445     -1.337505
O      0.768511     -0.390574     -1.063664
O     -0.900039      1.649313     -2.818565
O      2.415313      1.357463     -2.264115
