      -----------------------------------------------------------      
     |                   =====================                   |     
     |                           x T B                           |     
     |                   =====================                   |     
     |                         S. Grimme                         |     
     |          Mulliken Center for Theoretical Chemistry        |     
     |                    University of Bonn                     |     
      -----------------------------------------------------------      

   * xtb version 6.7.1pre (5071a88) compiled by 'Marcel@Raven' on 2024-07-23

   xtb is free software: you can redistribute it and/or modify it under
   the terms of the GNU Lesser General Public License as published by
   the Free Software Foundation, either version 3 of the License, or
   (at your option) any later version.
   
   xtb is distributed in the hope that it will be useful,
   but WITHOUT ANY WARRANTY; without even the implied warranty of
   MERCHANTABILITY or FITNESS FOR A PARTICULAR PURPOSE.  See the
   GNU Lesser General Public License for more details.
   
   Cite this work as:
   * C. Bannwarth, E. Caldeweyher, S. Ehlert, A. Hansen, P. Pracht,
     J. Seibert, S. Spicher, S. Grimme, WIREs Comput. Mol. Sci., 2020, 11,
     e01493. DOI: 10.1002/wcms.1493
   
   for GFN2-xTB:
   * C. Bannwarth, S. Ehlert and S. Grimme., J. Chem. Theory Comput., 2019,
     15, 1652-1671. DOI: 10.1021/acs.jctc.8b01176
   for GFN1-xTB:
   * S. Grimme, C. Bannwarth, P. Shushkov, J. Chem. Theory Comput., 2017,
     13, 1989-2009. DOI: 10.1021/acs.jctc.7b00118
   for GFN0-xTB:
   * P. Pracht, E. Caldeweyher, S. Ehlert, S. Grimme, ChemRxiv, 2019, preprint.
     DOI: 10.26434/chemrxiv.8326202.v1
   for GFN-FF:
   * S. Spicher and S. Grimme, Angew. Chem. Int. Ed., 2020, 59, 15665-15673.
     DOI: 10.1002/anie.202004239
   
   for ALPB and GBSA implicit solvation:
   * S. Ehlert, M. Stahn, S. Spicher, S. Grimme, J. Chem. Theory Comput.,
     2021, 17, 4250-4261. DOI: 10.1021/acs.jctc.1c00471
   
   for ddCOSMO and CPCM-X implicit solvation:
   * M. Stahn, S. Ehlert, S. Grimme, J. Phys. Chem. A,
     2023, XX, XXXX-XXXX. DOI: 10.1021/acs.jpca.3c04382
   
   for DFT-D4:
   * E. Caldeweyher, C. Bannwarth and S. Grimme, J. Chem. Phys., 2017,
     147, 034112. DOI: 10.1063/1.4993215
   * E. Caldeweyher, S. Ehlert, A. Hansen, H. Neugebauer, S. Spicher,
     C. Bannwarth and S. Grimme, J. Chem. Phys., 2019, 150, 154122.
     DOI: 10.1063/1.5090222
   * E. Caldeweyher, J.-M. Mewes, S. Ehlert and S. Grimme, Phys. Chem. Chem. Phys.
     2020, 22, 8499-8512. DOI: 10.1039/D0CP00502A
   
   for sTDA-xTB:
   * S. Grimme and C. Bannwarth, J. Chem. Phys., 2016, 145, 054103.
     DOI: 10.1063/1.4959605
   
   in the mass-spec context:
   * V. Asgeirsson, C. Bauer and S. Grimme, Chem. Sci., 2017, 8, 4879.
     DOI: 10.1039/c7sc00601b
   * J. Koopman and S. Grimme, ACS Omega 2019, 4, 12, 15120-15133.
     DOI: 10.1021/acsomega.9b02011
   
   for metadynamics refer to:
   * S. Grimme, J. Chem. Theory Comput., 2019, 155, 2847-2862
     DOI: 10.1021/acs.jctc.9b00143
   
   for SPH calculations refer to:
   * S. Spicher and S. Grimme, J. Chem. Theory Comput., 2021, 17, 1701-1714
     DOI: 10.1021/acs.jctc.0c01306
   
   for ONIOM refer to:
   * C. Plett, A. Katbashev, S. Ehlert, S. Grimme, M. Bursch,
     Phys. Chem. Chem. Phys., 2023, 25, 17860-17868. DOI: 10.1039/D3CP02178E
   
   for DIPRO refer to:
   * J. Kohn, N. Gildemeister, S. Grimme, D. Fazzi, A. Hansen,
     J. Chem. Phys., 2023, just accepted.
   
   for PTB refer to:
   * S. Grimme, M. Mueller, A. Hansen, J. Chem. Phys., 2023, 158, 124111.
     DOI: 10.1063/5.0137838
   
   with help from (in alphabetical order)
   P. Atkinson, C. Bannwarth, F. Bohle, G. Brandenburg, E. Caldeweyher
   M. Checinski, S. Dohm, S. Ehlert, S. Ehrlich, I. Gerasimov, C. Hölzer
   A. Katbashev, J. Kohn, J. Koopman, C. Lavigne, S. Lehtola, F. März, M. Müller,
   F. Musil, H. Neugebauer, J. Pisarek, C. Plett, P. Pracht, F. Pultar,
   J. Seibert, P. Shushkov, S. Spicher, M. Stahn, M. Steiner, T. Strunk,
   J. Stückrath, T. Rose, and J. Unsleber
   
 * started run on 2026/08/31 at 20:35:28.655     
   ID    Z sym.   atoms
    1    6 C      1, 3-5, 7, 9, 10, 12, 14-19, 22, 23, 25-27, 29, 30, 32-34,
                  77-83
    2    8 O      2, 21, 84-97
    3    7 N      6, 8, 13, 24, 28, 31
    4   17 Cl     11
    5   15 P      20
    6    1 H      35-64
    7   22 Ti     65-76

           -------------------------------------------------
          |                Calculation Setup                |
           -------------------------------------------------

          program call               : "c:\Users\Andre\Proyectos doctorado\kras-pancreatic-gC3N4-ai\tools\xtb\xtb-6.7.1\bin\xtb.exe" "c:\Users\Andre\Proyectos doctorado\mxene-glioblastoma-qsar-ai\calculations\gbm\Brigatinib\Brigatinib_Ti3C2O2_complex.xyz" --gfn 2 --sp --chrg 0 --uhf 0 --iterations 500 --norestart
          coordinate file            : c:\Users\Andre\Proyectos doctorado\mxene-glioblastoma-qsar-ai\calculations\gbm\Brigatinib\Brigatinib_Ti3C2O2_complex.xyz
          omp threads                :                    16


molecular fragmentation (1/2 indicates fragments):
111111111111111111111111111111111111111111111111111111111111111122222222
2222222222222222222222222
# atoms in fragment 1/2:    64    33
 fragment masses (1/2) :      500.96      882.47
CMA distance (Bohr)    :  10.001
constraining FC (au)   :  0.0500

           -------------------------------------------------
          |                 G F N 2 - x T B                 |
           -------------------------------------------------

        Reference                      10.1021/acs.jctc.8b01176
      * Hamiltonian:
        H0-scaling (s, p, d)           1.850000    2.230000    2.230000
        zeta-weighting                 0.500000
      * Dispersion:
        s8                             2.700000
        a1                             0.520000
        a2                             5.000000
        s9                             5.000000
      * Repulsion:
        kExp                           1.500000    1.000000
        rExp                           1.000000
      * Coulomb:
        alpha                          2.000000
        third order                    shell-resolved
        anisotropic                    true
        a3                             3.000000
        a5                             4.000000
        cn-shift                       1.200000
        cn-exp                         4.000000
        max-rad                        5.000000


          ...................................................
          :                      SETUP                      :
          :.................................................:
          :  # basis functions                 382          :
          :  # atomic orbitals                 368          :
          :  # shells                          178          :
          :  # electrons                       340          :
          :  max. iterations                   500          :
          :  Hamiltonian                  GFN2-xTB          :
          :  restarted?                      false          :
          :  GBSA solvation                  false          :
          :  PC potential                    false          :
          :  electronic temp.          300.0000000     K    :
          :  accuracy                    1.0000000          :
          :  -> integral cutoff          0.2500000E+02      :
          :  -> integral neglect         0.1000000E-07      :
          :  -> SCF convergence          0.1000000E-05 Eh   :
          :  -> wf. convergence          0.1000000E-03 e    :
          :  Broyden damping             0.4000000          :
          :  net charge                          0          :
          :  unpaired electrons                  0          :
          ...................................................

 iter      E             dE          RMSdq      gap      omega  full diag
   1   -188.1013726 -0.188101E+03  0.122E+01    0.03       0.0  T
   2   -123.7090297  0.643923E+02  0.175E+01    0.08       1.0  T
   3    -56.6898940  0.670191E+02  0.232E+01    0.13       1.0  T
   4   -187.4610711 -0.130771E+03  0.957E+00    0.03       1.0  T
   5   -190.2702295 -0.280916E+01  0.839E+00    0.08       1.0  T
   6   -178.1789333  0.120913E+02  0.904E+00    0.44       1.0  T
   7   -185.5447508 -0.736582E+01  0.770E+00    0.06       1.0  T
   8   -189.5192786 -0.397453E+01  0.659E+00    0.10       1.0  T
   9   -183.8385822  0.568070E+01  0.716E+00    0.09       1.0  T
  10   -186.0817513 -0.224317E+01  0.675E+00    0.12       1.0  T
  11   -190.8292111 -0.474746E+01  0.495E+00    0.09       1.0  T
  12   -190.7038974  0.125314E+00  0.418E+00    0.01       1.0  T
  13   -191.2828397 -0.578942E+00  0.428E+00    0.09       1.0  T
  14   -191.8995039 -0.616664E+00  0.365E+00    0.06       1.0  T
  15   -191.8423613  0.571427E-01  0.370E+00    0.08       1.0  T
  16   -191.8509266 -0.856527E-02  0.342E+00    0.08       1.0  T
  17   -192.0813987 -0.230472E+00  0.308E+00    0.12       1.0  T
  18   -192.1948053 -0.113407E+00  0.267E+00    0.04       1.0  T
  19   -192.0602297  0.134576E+00  0.233E+00    0.14       1.0  T
  20   -192.3496423 -0.289413E+00  0.221E+00    0.03       1.0  T
  21   -192.3014489  0.481934E-01  0.202E+00    0.04       1.0  T
  22   -192.4286347 -0.127186E+00  0.206E+00    0.19       1.0  T
  23   -192.4956817 -0.670471E-01  0.137E+00    0.04       1.0  T
  24   -192.5299238 -0.342421E-01  0.124E+00    0.20       1.0  T
  25   -192.5285876  0.133627E-02  0.108E+00    0.13       1.0  T
  26   -192.5529732 -0.243856E-01  0.917E-01    0.15       1.0  T
  27   -192.5644125 -0.114393E-01  0.776E-01    0.14       1.0  T
  28   -192.5645942 -0.181743E-03  0.619E-01    0.08       1.0  T
  29   -192.6006340 -0.360398E-01  0.395E-01    0.08       1.0  T
  30   -192.6028793 -0.224523E-02  0.369E-01    0.07       1.0  T
  31   -192.5986080  0.427131E-02  0.365E-01    0.09       1.0  T
  32   -192.6081097 -0.950175E-02  0.273E-01    0.08       1.0  T
  33   -192.6115296 -0.341991E-02  0.234E-01    0.08       1.0  T
  34   -192.6162818 -0.475221E-02  0.163E-01    0.07       1.0  T
  35   -192.6178552 -0.157335E-02  0.104E-01    0.06       1.0  T
  36   -192.6181497 -0.294477E-03  0.832E-02    0.06       1.0  T
  37   -192.6180557  0.939925E-04  0.864E-02    0.05       1.0  T
  38   -192.6180937 -0.379800E-04  0.639E-02    0.06       1.0  T
  39   -192.6175870  0.506645E-03  0.768E-02    0.05       1.0  T
  40   -192.6183324 -0.745386E-03  0.393E-02    0.05       1.0  T
  41   -192.6184738 -0.141437E-03  0.245E-02    0.06       1.0  T
  42   -192.6184994 -0.255687E-04  0.208E-02    0.06       1.0  T
  43   -192.6184382  0.611765E-04  0.230E-02    0.06       1.0  T
  44   -192.6184740 -0.357978E-04  0.191E-02    0.06       1.0  T
  45   -192.6184941 -0.200745E-04  0.158E-02    0.06       1.0  T
  46   -192.6185070 -0.128522E-04  0.111E-02    0.06       1.0  T
  47   -192.6185125 -0.553942E-05  0.645E-03    0.06       1.6  T
  48   -192.6185126 -0.150092E-06  0.448E-03    0.06       2.3  T
  49   -192.6185142 -0.154499E-05  0.227E-03    0.06       4.5  T
  50   -192.6185142 -0.464345E-07  0.214E-03    0.06       4.7  T
  51   -192.6185140  0.232424E-06  0.192E-03    0.06       5.3  T
  52   -192.6185143 -0.320253E-06  0.125E-03    0.06       8.1  T
  53   -192.6185144 -0.950886E-07  0.947E-04    0.06      10.7  T
  54   -192.6185145 -0.419155E-07  0.574E-04    0.06      17.7  T

   *** convergence criteria satisfied after 54 iterations ***

         #    Occupation            Energy/Eh            Energy/eV
      -------------------------------------------------------------
         1        2.0000           -1.0942068             -29.7749
       ...           ...                  ...                  ...
       164        2.0000           -0.3757354             -10.2243
       165        2.0000           -0.3752057             -10.2099
       166        2.0000           -0.3725528             -10.1377
       167        2.0000           -0.3687861             -10.0352
       168        1.9999           -0.3673220              -9.9953
       169        1.9286           -0.3604966              -9.8096
       170        1.5053           -0.3584218              -9.7532 (HOMO)
       171        0.4918           -0.3563000              -9.6954 (LUMO)
       172        0.0645           -0.3541328              -9.6364
       173        0.0099           -0.3523272              -9.5873
       174        0.0000           -0.3419512              -9.3050
       175                         -0.3396974              -9.2436
       ...                                ...                  ...
       368                         18.2403605             496.3455
      -------------------------------------------------------------
                  HL-Gap            0.0021218 Eh            0.0577 eV
             Fermi-level           -0.3573646 Eh           -9.7244 eV

 SCC (total)                   0 d,  0 h,  0 min,  1.602 sec
 SCC setup                      ...        0 min,  0.001 sec (  0.062%)
 Dispersion                     ...        0 min,  0.003 sec (  0.187%)
 classical contributions        ...        0 min,  0.001 sec (  0.062%)
 integral evaluation            ...        0 min,  0.011 sec (  0.687%)
 iterations                     ...        0 min,  1.518 sec ( 94.757%)
 molecular gradient             ...        0 min,  0.066 sec (  4.120%)
 printout                       ...        0 min,  0.002 sec (  0.125%)

         :::::::::::::::::::::::::::::::::::::::::::::::::::::
         ::                     SUMMARY                     ::
         :::::::::::::::::::::::::::::::::::::::::::::::::::::
         :: total energy            -186.526280818143 Eh    ::
         :: gradient norm              5.376152607276 Eh/a0 ::
         :: HOMO-LUMO gap              0.057736965064 eV    ::
         ::.................................................::
         :: SCC energy              -192.612371405463 Eh    ::
         :: -> isotropic ES            0.872948492319 Eh    ::
         :: -> anisotropic ES         -0.043578945405 Eh    ::
         :: -> anisotropic XC         -0.065638870080 Eh    ::
         :: -> dispersion             -0.187653248789 Eh    ::
         :: repulsion energy           6.086090587320 Eh    ::
         :: add. restraining           0.000000000000 Eh    ::
         :: total charge              -0.000000000000 e     ::
         :::::::::::::::::::::::::::::::::::::::::::::::::::::

           -------------------------------------------------
          |                Property Printout                |
           -------------------------------------------------

    * Orbital Energies and Occupations

         #    Occupation            Energy/Eh            Energy/eV
      -------------------------------------------------------------
         1        2.0000           -1.0942068             -29.7749
       ...           ...                  ...                  ...
       158        2.0000           -0.3897501             -10.6056
       159        2.0000           -0.3867935             -10.5252
       160        2.0000           -0.3852087             -10.4821
       161        2.0000           -0.3829426             -10.4204
       162        2.0000           -0.3804946             -10.3538
       163        2.0000           -0.3776193             -10.2755
       164        2.0000           -0.3757354             -10.2243
       165        2.0000           -0.3752057             -10.2099
       166        2.0000           -0.3725528             -10.1377
       167        2.0000           -0.3687861             -10.0352
       168        1.9999           -0.3673220              -9.9953
       169        1.9286           -0.3604966              -9.8096
       170        1.5053           -0.3584218              -9.7532 (HOMO)
       171        0.4918           -0.3563000              -9.6954 (LUMO)
       172        0.0645           -0.3541328              -9.6364
       173        0.0099           -0.3523272              -9.5873
       174        0.0000           -0.3419512              -9.3050
       175                         -0.3396974              -9.2436
       176                         -0.3385027              -9.2111
       177                         -0.3367487              -9.1634
       178                         -0.3320854              -9.0365
       179                         -0.3277243              -8.9178
       180                         -0.3224017              -8.7730
       181                         -0.3202015              -8.7131
       ...                                ...                  ...
       368                         18.2403605             496.3455
      -------------------------------------------------------------
                  HL-Gap            0.0021218 Eh            0.0577 eV
             Fermi-level           -0.3573646 Eh           -9.7244 eV

     #   Z          covCN         q      C6AA      α(0)
     1   6 C        3.667     0.023    20.448     6.484
     2   8 O        1.702    -0.277    18.604     5.823
     3   6 C        2.891     0.134    25.075     8.210
     4   6 C        2.916    -0.057    29.422     8.895
     5   6 C        2.889     0.094    25.922     8.347
     6   7 N        2.700    -0.089    22.986     7.121
     7   6 C        2.833     0.227    23.236     7.899
     8   7 N        1.833    -0.203    26.249     7.592
     9   6 C        2.952     0.031    27.316     8.572
    10   6 C        3.208     0.123    24.729     8.097
    11  17 Cl       1.132     0.005    99.077    15.228
    12   6 C        2.906     0.168    24.382     8.097
    13   7 N        2.690    -0.165    24.567     7.361
    14   6 C        2.972     0.084    26.133     8.385
    15   6 C        2.915    -0.044    29.086     8.844
    16   6 C        2.910    -0.018    28.465     8.748
    17   6 C        2.910    -0.036    28.901     8.815
    18   6 C        3.016    -0.032    28.766     8.798
    19   6 C        2.913    -0.022    28.566     8.764
    20  15 P        3.790     0.179   152.523    22.185
    21   8 O        0.808    -0.451    22.754     6.394
    22   6 C        3.699    -0.120    22.973     6.855
    23   6 C        3.699    -0.122    23.019     6.862
    24   7 N        1.845    -0.242    27.163     7.724
    25   6 C        2.920    -0.048    29.195     8.861
    26   6 C        2.915    -0.048    29.193     8.860
    27   6 C        2.908     0.045    26.996     8.520
    28   7 N        2.727    -0.101    23.223     7.157
    29   6 C        3.749    -0.010    20.824     6.509
    30   6 C        3.749    -0.001    20.667     6.484
    31   7 N        2.719    -0.161    24.471     7.347
    32   6 C        3.702    -0.040    21.449     6.622
    33   6 C        3.746    -0.007    20.763     6.500
    34   6 C        3.735    -0.008    20.812     6.511
    35   1 H        0.924     0.043     2.409     2.427
    36   1 H        0.924     0.049     2.335     2.390
    37   1 H        0.924     0.064     2.150     2.293
    38   1 H        0.925     0.122     1.599     1.978
    39   1 H        0.860     0.232     0.956     1.532
    40   1 H        0.925     0.099     1.796     2.096
    41   1 H        0.859     0.260     0.845     1.440
    42   1 H        0.925     0.129     1.541     1.941
    43   1 H        0.925     0.079     1.994     2.209
    44   1 H        0.925     0.051     2.305     2.374
    45   1 H        0.925     0.049     2.327     2.386
    46   1 H        0.926     0.065     2.138     2.286
    47   1 H        0.926     0.082     1.954     2.186
    48   1 H        0.926     0.077     2.009     2.217
    49   1 H        0.926     0.074     2.043     2.235
    50   1 H        0.926     0.066     2.130     2.282
    51   1 H        0.926     0.082     1.957     2.187
    52   1 H        0.925     0.068     2.104     2.269
    53   1 H        0.925     0.060     2.195     2.317
    54   1 H        0.923     0.059     2.206     2.323
    55   1 H        0.924     0.074     2.046     2.237
    56   1 H        0.923     0.035     2.519     2.482
    57   1 H        0.924     0.052     2.291     2.367
    58   1 H        0.924     0.022     2.701     2.570
    59   1 H        0.924     0.047     2.354     2.400
    60   1 H        0.924     0.046     2.368     2.406
    61   1 H        0.924     0.054     2.274     2.358
    62   1 H        0.924     0.045     2.389     2.417
    63   1 H        0.924     0.049     2.332     2.388
    64   1 H        0.924     0.052     2.301     2.372
    65  22 Ti       4.267     0.774    91.730    15.729
    66  22 Ti       6.350     0.702    92.580    15.622
    67  22 Ti       4.151     0.764    91.690    16.231
    68  22 Ti       7.449     1.011    89.327    15.345
    69  22 Ti       7.449     1.032    89.108    15.326
    70  22 Ti       6.519     1.054    88.880    15.306
    71  22 Ti       4.151     0.767    91.663    16.229
    72  22 Ti       6.350     0.755    92.005    15.573
    73  22 Ti       4.151     0.782    91.498    16.214
    74  22 Ti       7.449     1.053    88.897    15.308
    75  22 Ti       7.449     1.048    88.947    15.312
    76  22 Ti       6.519     1.062    88.807    15.300
    77   6 C        5.128    -0.717    39.197     8.891
    78   6 C        5.128    -0.716    39.142     8.885
    79   6 C        5.649    -0.562    33.786     8.255
    80   6 C        2.445    -0.422    41.179    10.470
    81   6 C        2.445    -0.413    40.831    10.426
    82   6 C        2.445    -0.339    38.189    10.083
    83   6 C        2.445    -0.338    38.131    10.075
    84   8 O        1.132    -0.566    25.124     6.728
    85   8 O        0.729    -0.590    25.952     6.827
    86   8 O        0.728    -0.534    24.611     6.648
    87   8 O        0.729    -0.673    28.064     7.099
    88   8 O        0.729    -0.664    27.818     7.068
    89   8 O        0.753    -0.615    26.539     6.904
    90   8 O        0.753    -0.608    26.381     6.884
    91   8 O        0.728    -0.538    24.717     6.662
    92   8 O        0.729    -0.579    25.676     6.790
    93   8 O        0.728    -0.541    24.788     6.672
    94   8 O        0.729    -0.660    27.709     7.054
    95   8 O        0.729    -0.657    27.645     7.046
    96   8 O        0.753    -0.581    25.717     6.796
    97   8 O        0.753    -0.584    25.778     6.804

 Mol. C6AA /au·bohr⁶  :     204733.643185
 Mol. C8AA /au·bohr⁸  :    8554321.709829
 Mol. α(0) /au        :        701.396300


Wiberg/Mayer (AO) data.
largest (>0.10) Wiberg bond orders for each atom

 ---------------------------------------------------------------------------
     #   Z sym  total        # sym  WBO       # sym  WBO       # sym  WBO
 ---------------------------------------------------------------------------
     1   6 C    3.940 --    35 H    0.982    37 H    0.979    36 H    0.978
                             2 O    0.964
     2   8 O    2.141 --     3 C    1.025     1 C    0.964
     3   6 C    3.922 --     4 C    1.424    27 C    1.292     2 O    1.025
     4   6 C    3.943 --     3 C    1.424     5 C    1.329    38 H    0.939
     5   6 C    3.918 --     4 C    1.329    25 C    1.313     6 N    1.130
     6   7 N    3.449 --     7 C    1.175     5 C    1.130    39 H    0.910
     7   6 C    3.949 --     8 N    1.325    24 N    1.270     6 N    1.175
     8   7 N    3.028 --     9 C    1.375     7 C    1.325
     9   6 C    3.929 --     8 N    1.375    10 C    1.354    40 H    0.926
    10   6 C    3.850 --     9 C    1.354    12 C    1.177    11 Cl   0.916
                            84 O    0.140
    11  17 Cl   1.327 --    10 C    0.916    65 Ti   0.264
    12   6 C    3.958 --    24 N    1.394    10 C    1.177    13 N    1.124
    13   7 N    3.437 --    12 C    1.124    14 C    1.095    41 H    0.834
    14   6 C    3.966 --    15 C    1.360    19 C    1.315    13 N    1.095
    15   6 C    3.983 --    16 C    1.454    14 C    1.360    42 H    0.874
                            18 C    0.108
    16   6 C    3.977 --    15 C    1.454    17 C    1.417    43 H    0.961
    17   6 C    3.980 --    18 C    1.451    16 C    1.417    44 H    0.968
    18   6 C    3.989 --    17 C    1.451    19 C    1.383    45 H    0.962
                            15 C    0.108
    19   6 C    3.971 --    18 C    1.383    14 C    1.315    20 P    0.974
    20  15 P    5.165 --    21 O    1.901    22 C    1.001    23 C    0.997
                            19 C    0.974
    21   8 O    2.160 --    20 P    1.901
    22   6 C    3.992 --    20 P    1.001    46 H    0.959    48 H    0.953
                            47 H    0.949
    23   6 C    3.991 --    20 P    0.997    50 H    0.960    49 H    0.954
                            51 H    0.950
    24   7 N    3.066 --    12 C    1.394     7 C    1.270
    25   6 C    3.939 --    26 C    1.478     5 C    1.313    52 H    0.962
    26   6 C    3.956 --    25 C    1.478    27 C    1.350    53 H    0.964
    27   6 C    3.906 --    26 C    1.350     3 C    1.292    28 N    1.091
    28   7 N    3.184 --    27 C    1.091    34 C    0.998    29 C    0.967
    29   6 C    3.955 --    30 C    1.006    28 N    0.967    54 H    0.961
                            55 H    0.960
    30   6 C    3.980 --    29 C    1.006    31 N    0.995    57 H    0.969
                            56 H    0.964
    31   7 N    3.097 --    32 C    1.015    33 C    1.002    30 C    0.995
    32   6 C    3.982 --    31 N    1.015    60 H    0.982    59 H    0.981
                            58 H    0.974
    33   6 C    3.971 --    31 N    1.002    34 C    0.982    62 H    0.972
                            61 H    0.968
    34   6 C    3.968 --    28 N    0.998    33 C    0.982    64 H    0.969
                            63 H    0.962
    35   1 H    0.998 --     1 C    0.982
    36   1 H    0.997 --     1 C    0.978
    37   1 H    0.995 --     1 C    0.979
    38   1 H    0.983 --     4 C    0.939
    39   1 H    0.945 --     6 N    0.910
    40   1 H    0.987 --     9 C    0.926
    41   1 H    0.931 --    13 N    0.834
    42   1 H    0.983 --    15 C    0.874
    43   1 H    0.993 --    16 C    0.961
    44   1 H    0.996 --    17 C    0.968
    45   1 H    0.997 --    18 C    0.962
    46   1 H    0.996 --    22 C    0.959
    47   1 H    0.993 --    22 C    0.949
    48   1 H    0.994 --    22 C    0.953
    49   1 H    0.994 --    23 C    0.954
    50   1 H    0.996 --    23 C    0.960
    51   1 H    0.992 --    23 C    0.950
    52   1 H    0.994 --    25 C    0.962
    53   1 H    0.996 --    26 C    0.964
    54   1 H    0.982 --    29 C    0.961
    55   1 H    0.988 --    29 C    0.960
    56   1 H    0.991 --    30 C    0.964
    57   1 H    0.994 --    30 C    0.969
    58   1 H    0.995 --    32 C    0.974
    59   1 H    0.997 --    32 C    0.981
    60   1 H    0.997 --    32 C    0.982
    61   1 H    0.993 --    33 C    0.968
    62   1 H    0.998 --    33 C    0.972
    63   1 H    0.986 --    34 C    0.962
    64   1 H    0.997 --    34 C    0.969
    65  22 Ti   4.191 --    84 O    1.751    71 Ti   0.583    66 Ti   0.311
                            77 C    0.290    11 Cl   0.264    68 Ti   0.199
                            80 C    0.175
    66  22 Ti   4.465 --    85 O    1.892    72 Ti   0.367    67 Ti   0.319
                            65 Ti   0.311    77 C    0.263    78 C    0.238
                            69 Ti   0.128    68 Ti   0.113    73 Ti   0.110
    67  22 Ti   3.982 --    86 O    2.027    73 Ti   0.589    66 Ti   0.319
                            78 C    0.273    69 Ti   0.194    81 C    0.173
                            72 Ti   0.106
    68  22 Ti   4.491 --    87 O    1.731    80 C    0.665    77 C    0.490
                            89 O    0.216    65 Ti   0.199    74 Ti   0.158
                            70 Ti   0.141    79 C    0.125    66 Ti   0.113
    69  22 Ti   4.465 --    88 O    1.749    81 C    0.643    78 C    0.524
                            90 O    0.225    67 Ti   0.194    75 Ti   0.179
                            79 C    0.159    70 Ti   0.149    66 Ti   0.128
    70  22 Ti   4.465 --    89 O    1.126    90 O    1.121    79 C    0.494
                            82 C    0.430    83 C    0.425    76 Ti   0.273
                            69 Ti   0.149    68 Ti   0.141
    71  22 Ti   4.017 --    91 O    2.030    65 Ti   0.583    72 Ti   0.320
                            77 C    0.304    74 Ti   0.203    80 C    0.184
    72  22 Ti   4.479 --    92 O    1.902    66 Ti   0.367    73 Ti   0.333
                            71 Ti   0.320    77 C    0.279    78 C    0.276
                            74 Ti   0.138    75 Ti   0.137    67 Ti   0.106
    73  22 Ti   3.990 --    93 O    2.023    67 Ti   0.589    72 Ti   0.333
                            78 C    0.271    75 Ti   0.196    81 C    0.177
                            66 Ti   0.110
    74  22 Ti   4.430 --    94 O    1.727    80 C    0.661    77 C    0.518
                            96 O    0.217    71 Ti   0.203    79 C    0.163
                            68 Ti   0.158    76 Ti   0.152    72 Ti   0.138
    75  22 Ti   4.450 --    95 O    1.739    81 C    0.633    78 C    0.522
                            97 O    0.223    73 Ti   0.196    69 Ti   0.179
                            79 C    0.171    76 Ti   0.160    72 Ti   0.137
    76  22 Ti   4.469 --    96 O    1.114    97 O    1.102    79 C    0.505
                            82 C    0.445    83 C    0.430    70 Ti   0.273
                            75 Ti   0.160    74 Ti   0.152
    77   6 C    3.668 --    80 C    0.859    74 Ti   0.518    68 Ti   0.490
                            71 Ti   0.304    65 Ti   0.290    72 Ti   0.279
                            66 Ti   0.263
    78   6 C    3.642 --    81 C    0.894    69 Ti   0.524    75 Ti   0.522
                            72 Ti   0.276    67 Ti   0.273    73 Ti   0.271
                            66 Ti   0.238
    79   6 C    3.801 --    83 C    0.823    82 C    0.821    76 Ti   0.505
                            70 Ti   0.494    75 Ti   0.171    74 Ti   0.163
                            69 Ti   0.159    68 Ti   0.125
    80   6 C    3.281 --    77 C    0.859    68 Ti   0.665    74 Ti   0.661
                            82 C    0.202    71 Ti   0.184    65 Ti   0.175
    81   6 C    3.302 --    78 C    0.894    69 Ti   0.643    75 Ti   0.633
                            83 C    0.238    73 Ti   0.177    67 Ti   0.173
    82   6 C    3.287 --    79 C    0.821    76 Ti   0.445    70 Ti   0.430
                            96 O    0.405    89 O    0.356    80 C    0.202
                            83 C    0.133
    83   6 C    3.319 --    79 C    0.823    76 Ti   0.430    70 Ti   0.425
                            97 O    0.404    90 O    0.363    81 C    0.238
                            82 C    0.133
    84   8 O    2.261 --    65 Ti   1.751    10 C    0.140
    85   8 O    2.209 --    66 Ti   1.892
    86   8 O    2.271 --    67 Ti   2.027
    87   8 O    2.104 --    68 Ti   1.731
    88   8 O    2.115 --    69 Ti   1.749
    89   8 O    2.116 --    70 Ti   1.126    82 C    0.356    68 Ti   0.216
                            96 O    0.125
    90   8 O    2.126 --    70 Ti   1.121    83 C    0.363    69 Ti   0.225
                            97 O    0.127
    91   8 O    2.267 --    71 Ti   2.030
    92   8 O    2.225 --    72 Ti   1.902
    93   8 O    2.263 --    73 Ti   2.023
    94   8 O    2.118 --    74 Ti   1.727
    95   8 O    2.121 --    75 Ti   1.739
    96   8 O    2.150 --    76 Ti   1.114    82 C    0.405    74 Ti   0.217
                            89 O    0.125
    97   8 O    2.150 --    76 Ti   1.102    83 C    0.404    75 Ti   0.223
                            90 O    0.127
 ---------------------------------------------------------------------------

Topologies differ in total number of bonds
Writing topology from bond orders to xtbtopo.mol

molecular dipole:
                 x           y           z       tot (Debye)
 q only:       -0.760      -7.655      10.040
   full:        0.263      -1.800       6.955      18.272
molecular quadrupole (traceless):
                xx          xy          yy          xz          yz          zz
 q only:       80.955      -7.777     -31.251      12.490      13.811     -49.705
  q+dip:       88.738     -20.850     -20.310      26.440      35.144     -68.428
   full:       85.471     -18.921     -17.464      27.207      35.265     -68.007


           -------------------------------------------------
          | TOTAL ENERGY             -186.526280818143 Eh   |
          | GRADIENT NORM               5.376152607276 Eh/α |
          | HOMO-LUMO GAP               0.057736965064 eV   |
           -------------------------------------------------

------------------------------------------------------------------------
 * finished run on 2026/08/31 at 20:35:30.323     
------------------------------------------------------------------------
 total:
 * wall-time:     0 d,  0 h,  0 min,  1.666 sec
 *  cpu-time:     0 d,  0 h,  0 min, 14.031 sec
 * ratio c/w:     8.422 speedup
 SCF:
 * wall-time:     0 d,  0 h,  0 min,  1.603 sec
 *  cpu-time:     0 d,  0 h,  0 min, 13.516 sec
 * ratio c/w:     8.431 speedup

normal termination of xtb
