97
Drug@Ti3C2O2 complex
C      4.555995     -2.684501      6.972844
O      4.032203     -2.265266      5.712571
C      3.316091     -1.094398      5.836115
C      1.948753     -1.197730      5.534036
C      1.102730     -0.094490      5.630302
N     -0.269613     -0.130111      5.367409
C     -1.162307     -1.134558      5.008189
N     -0.785538     -2.412742      4.883166
C     -1.736395     -3.301880      4.536294
C     -3.049593     -2.966575      4.313855
Cl     -4.188452     -4.174136      3.868678
C     -3.369346     -1.624492      4.469383
N     -4.704269     -1.199457      4.238807
C     -5.220186      0.115035      4.171140
C     -4.463212      1.163051      3.623313
C     -4.980519      2.454744      3.508293
C     -6.276875      2.721466      3.927536
C     -7.054975      1.694235      4.455821
C     -6.543665      0.388288      4.579371
P     -7.575819     -0.881580      5.261243
O     -6.904333     -2.225220      5.436062
C     -8.241330     -0.331826      6.837315
C     -9.040096     -1.061339      4.236100
N     -2.423567     -0.717920      4.807173
C      1.676901      1.119563      6.029945
C      3.047843      1.232190      6.308135
C      3.907720      0.131361      6.210624
N      5.293754      0.239363      6.420611
C      6.049246      0.112030      5.146030
C      7.512947      0.575588      5.323012
N      7.640433      1.998355      5.718840
C      8.938134      2.239330      6.343095
C      6.520179      2.416022      6.591860
C      5.816612      1.265491      7.344889
H      3.907867     -2.412824      7.814603
H      5.563759     -2.286510      7.121563
H      4.632897     -3.776075      6.951667
H      1.570677     -2.168487      5.231067
H     -0.771936      0.743761      5.422681
H     -1.390081     -4.326571      4.440543
H     -5.351212     -1.866648      4.683430
H     -3.455849      0.976747      3.258913
H     -4.368611      3.245121      3.081650
H     -6.682680      3.725653      3.835800
H     -8.071106      1.919341      4.770467
H     -8.832052      0.580739      6.721549
H     -8.888041     -1.104781      7.262250
H     -7.428794     -0.134749      7.542110
H     -8.757837     -1.366532      3.224674
H     -9.594373     -0.120876      4.174370
H     -9.703296     -1.823140      4.655523
H      1.060433      2.011307      6.117757
H      3.427458      2.215508      6.566286
H      5.579632      0.713324      4.355346
H      6.056916     -0.932034      4.814274
H      7.983491     -0.075324      6.072985
H      8.052326      0.425648      4.380595
H      9.051256      1.694538      7.287246
H      9.074548      3.307801      6.543372
H      9.750274      1.940339      5.671067
H      5.782119      2.910105      5.947388
H      6.842660      3.179737      7.310402
H      6.546158      0.776561      8.003526
H      5.043947      1.660432      8.014340
Ti     -3.000000     -2.600000      1.250000
Ti      0.000000     -2.600000      1.250000
Ti      3.000000     -2.600000      1.250000
Ti     -1.500000      0.000000      1.250000
Ti      1.500000      0.000000      1.250000
Ti      0.000000      2.600000      1.250000
Ti     -3.000000     -2.600000     -1.250000
Ti      0.000000     -2.600000     -1.250000
Ti      3.000000     -2.600000     -1.250000
Ti     -1.500000      0.000000     -1.250000
Ti      1.500000      0.000000     -1.250000
Ti      0.000000      2.600000     -1.250000
C     -1.500000     -1.300000      0.000000
C      1.500000     -1.300000      0.000000
C      0.000000      1.300000      0.000000
C     -3.000000      0.000000      0.000000
C      3.000000      0.000000      0.000000
C     -1.500000      2.600000      0.000000
C      1.500000      2.600000      0.000000
O     -3.000000     -2.600000      2.450000
O      0.000000     -2.600000      2.450000
O      3.000000     -2.600000      2.450000
O     -1.500000      0.000000      2.450000
O      1.500000      0.000000      2.450000
O     -1.500000      2.600000      2.450000
O      1.500000      2.600000      2.450000
O     -3.000000     -2.600000     -2.450000
O      0.000000     -2.600000     -2.450000
O      3.000000     -2.600000     -2.450000
O     -1.500000      0.000000     -2.450000
O      1.500000      0.000000     -2.450000
O     -1.500000      2.600000     -2.450000
O      1.500000      2.600000     -2.450000
