64
Brigatinib conformer
C      3.984434      2.952384     -0.371392
O      3.455657      2.028876      0.582342
C      2.849841      0.983289     -0.083191
C      1.465453      1.110504     -0.294515
C      0.752291      0.140091     -0.992403
N     -0.615060      0.214655     -1.268796
C     -1.610699      1.140702     -0.980912
N     -1.357066      2.309257     -0.386490
C     -2.411196      3.118593     -0.160627
C     -3.714647      2.806989     -0.480211
Cl     -4.930712      3.973546     -0.163767
C     -3.897829      1.567423     -1.068966
N     -5.142253      1.020195     -1.471108
C     -6.252161      0.837194     -0.600148
C     -7.287816      1.783225     -0.630509
C     -8.361015      1.707028      0.255196
C     -8.414342      0.677018      1.185074
C     -7.407232     -0.287900      1.211134
C     -6.325160     -0.234236      0.313784
P     -5.118255     -1.533771      0.299550
O     -4.485432     -1.795367     -1.047217
C     -3.868124     -1.181935      1.540217
C     -5.833730     -3.073277      0.901246
N     -2.846785      0.761413     -1.336579
C      1.476635     -0.954019     -1.479032
C      2.855428     -1.090096     -1.246467
C      3.585181     -0.141071     -0.517057
N      4.944789     -0.305061     -0.268166
C      5.487539      0.102127      1.045756
C      6.538369     -0.912695      1.557065
N      7.685290     -1.114044      0.643424
C      8.354421     -2.378743      0.932731
C      7.265374     -1.022207     -0.771851
C      5.759521     -1.261249     -1.031368
H      3.185296      3.394724     -0.976573
H      4.735389      2.484618     -1.017177
H      4.473356      3.759223      0.182780
H      0.973131      1.995329      0.094575
H     -1.044195     -0.597784     -1.691513
H     -2.157328      4.068169      0.302850
H     -4.849370      0.087875     -1.810036
H     -7.256645      2.593060     -1.356514
H     -9.148246      2.455371      0.218678
H     -9.247254      0.616889      1.881367
H     -7.486932     -1.092353      1.937165
H     -3.362808     -0.236701      1.331510
H     -4.322613     -1.114433      2.532804
H     -3.118719     -1.978185      1.558542
H     -5.091277     -3.874627      0.842925
H     -6.694851     -3.356049      0.289564
H     -6.152254     -2.985999      1.943258
H      0.972373     -1.732708     -2.047212
H      3.337012     -1.982487     -1.634481
H      5.951505      1.091140      0.954379
H      4.699233      0.159648      1.806166
H      6.918367     -0.572185      2.527402
H      6.020419     -1.866364      1.731202
H      9.261323     -2.480052      0.326392
H      8.672440     -2.415611      1.980634
H      7.709781     -3.242862      0.735665
H      7.508828     -0.005562     -1.107866
H      7.856735     -1.692946     -1.407555
H      5.499860     -2.290537     -0.754235
H      5.576734     -1.137437     -2.105677
