      -----------------------------------------------------------      
     |                   =====================                   |     
     |                           x T B                           |     
     |                   =====================                   |     
     |                         S. Grimme                         |     
     |          Mulliken Center for Theoretical Chemistry        |     
     |                    University of Bonn                     |     
      -----------------------------------------------------------      

   * xtb version 6.7.1pre (5071a88) compiled by 'Marcel@Raven' on 2024-07-23

   xtb is free software: you can redistribute it and/or modify it under
   the terms of the GNU Lesser General Public License as published by
   the Free Software Foundation, either version 3 of the License, or
   (at your option) any later version.
   
   xtb is distributed in the hope that it will be useful,
   but WITHOUT ANY WARRANTY; without even the implied warranty of
   MERCHANTABILITY or FITNESS FOR A PARTICULAR PURPOSE.  See the
   GNU Lesser General Public License for more details.
   
   Cite this work as:
   * C. Bannwarth, E. Caldeweyher, S. Ehlert, A. Hansen, P. Pracht,
     J. Seibert, S. Spicher, S. Grimme, WIREs Comput. Mol. Sci., 2020, 11,
     e01493. DOI: 10.1002/wcms.1493
   
   for GFN2-xTB:
   * C. Bannwarth, S. Ehlert and S. Grimme., J. Chem. Theory Comput., 2019,
     15, 1652-1671. DOI: 10.1021/acs.jctc.8b01176
   for GFN1-xTB:
   * S. Grimme, C. Bannwarth, P. Shushkov, J. Chem. Theory Comput., 2017,
     13, 1989-2009. DOI: 10.1021/acs.jctc.7b00118
   for GFN0-xTB:
   * P. Pracht, E. Caldeweyher, S. Ehlert, S. Grimme, ChemRxiv, 2019, preprint.
     DOI: 10.26434/chemrxiv.8326202.v1
   for GFN-FF:
   * S. Spicher and S. Grimme, Angew. Chem. Int. Ed., 2020, 59, 15665-15673.
     DOI: 10.1002/anie.202004239
   
   for ALPB and GBSA implicit solvation:
   * S. Ehlert, M. Stahn, S. Spicher, S. Grimme, J. Chem. Theory Comput.,
     2021, 17, 4250-4261. DOI: 10.1021/acs.jctc.1c00471
   
   for ddCOSMO and CPCM-X implicit solvation:
   * M. Stahn, S. Ehlert, S. Grimme, J. Phys. Chem. A,
     2023, XX, XXXX-XXXX. DOI: 10.1021/acs.jpca.3c04382
   
   for DFT-D4:
   * E. Caldeweyher, C. Bannwarth and S. Grimme, J. Chem. Phys., 2017,
     147, 034112. DOI: 10.1063/1.4993215
   * E. Caldeweyher, S. Ehlert, A. Hansen, H. Neugebauer, S. Spicher,
     C. Bannwarth and S. Grimme, J. Chem. Phys., 2019, 150, 154122.
     DOI: 10.1063/1.5090222
   * E. Caldeweyher, J.-M. Mewes, S. Ehlert and S. Grimme, Phys. Chem. Chem. Phys.
     2020, 22, 8499-8512. DOI: 10.1039/D0CP00502A
   
   for sTDA-xTB:
   * S. Grimme and C. Bannwarth, J. Chem. Phys., 2016, 145, 054103.
     DOI: 10.1063/1.4959605
   
   in the mass-spec context:
   * V. Asgeirsson, C. Bauer and S. Grimme, Chem. Sci., 2017, 8, 4879.
     DOI: 10.1039/c7sc00601b
   * J. Koopman and S. Grimme, ACS Omega 2019, 4, 12, 15120-15133.
     DOI: 10.1021/acsomega.9b02011
   
   for metadynamics refer to:
   * S. Grimme, J. Chem. Theory Comput., 2019, 155, 2847-2862
     DOI: 10.1021/acs.jctc.9b00143
   
   for SPH calculations refer to:
   * S. Spicher and S. Grimme, J. Chem. Theory Comput., 2021, 17, 1701-1714
     DOI: 10.1021/acs.jctc.0c01306
   
   for ONIOM refer to:
   * C. Plett, A. Katbashev, S. Ehlert, S. Grimme, M. Bursch,
     Phys. Chem. Chem. Phys., 2023, 25, 17860-17868. DOI: 10.1039/D3CP02178E
   
   for DIPRO refer to:
   * J. Kohn, N. Gildemeister, S. Grimme, D. Fazzi, A. Hansen,
     J. Chem. Phys., 2023, just accepted.
   
   for PTB refer to:
   * S. Grimme, M. Mueller, A. Hansen, J. Chem. Phys., 2023, 158, 124111.
     DOI: 10.1063/5.0137838
   
   with help from (in alphabetical order)
   P. Atkinson, C. Bannwarth, F. Bohle, G. Brandenburg, E. Caldeweyher
   M. Checinski, S. Dohm, S. Ehlert, S. Ehrlich, I. Gerasimov, C. Hölzer
   A. Katbashev, J. Kohn, J. Koopman, C. Lavigne, S. Lehtola, F. März, M. Müller,
   F. Musil, H. Neugebauer, J. Pisarek, C. Plett, P. Pracht, F. Pultar,
   J. Seibert, P. Shushkov, S. Spicher, M. Stahn, M. Steiner, T. Strunk,
   J. Stückrath, T. Rose, and J. Unsleber
   
 * started run on 2026/08/31 at 21:18:57.503     
   ID    Z sym.   atoms
    1    6 C      1, 3-5, 7, 9, 10, 12, 14-19, 22, 23, 25-27, 29, 30, 32-34,
                  77-83
    2    8 O      2, 21, 84-97
    3    7 N      6, 8, 13, 24, 28, 31
    4   17 Cl     11
    5   15 P      20
    6    1 H      35-64
    7   22 Ti     65-76

           -------------------------------------------------
          |                Calculation Setup                |
           -------------------------------------------------

          program call               : "c:\Users\Andre\Proyectos doctorado\kras-pancreatic-gC3N4-ai\tools\xtb\xtb-6.7.1\bin\xtb.exe" "c:\Users\Andre\Proyectos doctorado\mxene-glioblastoma-qsar-ai\calculations\gbm\Brigatinib\Brigatinib_Ti12C7O14_phys_complex.xyz" --gfn 2 --sp --chrg 0 --uhf 0 --etemp 300 --iterations 500 --norestart
          coordinate file            : c:\Users\Andre\Proyectos doctorado\mxene-glioblastoma-qsar-ai\calculations\gbm\Brigatinib\Brigatinib_Ti12C7O14_phys_complex.xyz
          omp threads                :                    16


molecular fragmentation (1/2 indicates fragments):
111111111111111111111111111111111111111111111111111111111111111122222222
2222222222222222222222222
# atoms in fragment 1/2:    64    33
 fragment masses (1/2) :      500.96      882.47
CMA distance (Bohr)    :  17.822
constraining FC (au)   :  0.0500

           -------------------------------------------------
          |                 G F N 2 - x T B                 |
           -------------------------------------------------

        Reference                      10.1021/acs.jctc.8b01176
      * Hamiltonian:
        H0-scaling (s, p, d)           1.850000    2.230000    2.230000
        zeta-weighting                 0.500000
      * Dispersion:
        s8                             2.700000
        a1                             0.520000
        a2                             5.000000
        s9                             5.000000
      * Repulsion:
        kExp                           1.500000    1.000000
        rExp                           1.000000
      * Coulomb:
        alpha                          2.000000
        third order                    shell-resolved
        anisotropic                    true
        a3                             3.000000
        a5                             4.000000
        cn-shift                       1.200000
        cn-exp                         4.000000
        max-rad                        5.000000


          ...................................................
          :                      SETUP                      :
          :.................................................:
          :  # basis functions                 382          :
          :  # atomic orbitals                 368          :
          :  # shells                          178          :
          :  # electrons                       340          :
          :  max. iterations                   500          :
          :  Hamiltonian                  GFN2-xTB          :
          :  restarted?                      false          :
          :  GBSA solvation                  false          :
          :  PC potential                    false          :
          :  electronic temp.          300.0000000     K    :
          :  accuracy                    1.0000000          :
          :  -> integral cutoff          0.2500000E+02      :
          :  -> integral neglect         0.1000000E-07      :
          :  -> SCF convergence          0.1000000E-05 Eh   :
          :  -> wf. convergence          0.1000000E-03 e    :
          :  Broyden damping             0.4000000          :
          :  net charge                          0          :
          :  unpaired electrons                  0          :
          ...................................................

 iter      E             dE          RMSdq      gap      omega  full diag
   1   -189.1259647 -0.189126E+03  0.135E+01    0.04       0.0  T
   2   -122.6563370  0.664696E+02  0.161E+01    0.17       1.0  T
   3    133.4324278  0.256089E+03  0.288E+01    0.15       1.0  T
   4   -148.0972710 -0.281530E+03  0.141E+01    0.04       1.0  T
   5    -95.6408725  0.524564E+02  0.171E+01    0.07       1.0  T
   6   -185.8079705 -0.901671E+02  0.107E+01    0.06       1.0  T
   7   -189.1162531 -0.330828E+01  0.836E+00    0.19       1.0  T
   8   -190.2464432 -0.113019E+01  0.821E+00    0.10       1.0  T
   9   -190.8739999 -0.627557E+00  0.815E+00    0.14       1.0  T
  10   -190.7481143  0.125886E+00  0.814E+00    0.09       1.0  T
  11   -190.8010576 -0.529433E-01  0.821E+00    0.17       1.0  T
  12   -189.7771808  0.102388E+01  0.762E+00    0.23       1.0  T
  13   -191.3017661 -0.152459E+01  0.688E+00    0.09       1.0  T
  14   -188.5780346  0.272373E+01  0.870E+00    0.13       1.0  T
  15   -192.3987335 -0.382070E+01  0.711E+00    0.04       1.0  T
  16   -192.0942854  0.304448E+00  0.718E+00    0.08       1.0  T
  17   -192.0899977  0.428770E-02  0.718E+00    0.06       1.0  T
  18   -192.1174499 -0.274522E-01  0.747E+00    0.13       1.0  T
  19   -190.1903721  0.192708E+01  0.731E+00    0.11       1.0  T
  20   -190.7419428 -0.551571E+00  0.671E+00    0.09       1.0  T
  21   -190.9914139 -0.249471E+00  0.654E+00    0.04       1.0  T
  22   -184.7629574  0.622846E+01  0.693E+00    0.08       1.0  T
  23   -190.0051617 -0.524220E+01  0.524E+00    0.10       1.0  T
  24   -186.1336796  0.387148E+01  0.544E+00    0.04       1.0  T
  25   -190.9398531 -0.480617E+01  0.555E+00    0.00       1.0  T
  26   -185.3255435  0.561431E+01  0.490E+00    0.12       1.0  T
  27   -188.0167484 -0.269120E+01  0.455E+00    0.04       1.0  T
  28   -190.1629037 -0.214616E+01  0.421E+00    0.09       1.0  T
  29   -190.5574950 -0.394591E+00  0.448E+00    0.05       1.0  T
  30   -190.7016625 -0.144167E+00  0.442E+00    0.02       1.0  T
  31   -190.6965832  0.507926E-02  0.442E+00    0.02       1.0  T
  32   -191.2268624 -0.530279E+00  0.432E+00    0.01       1.0  T
  33   -190.6875027  0.539360E+00  0.438E+00    0.01       1.0  T
  34   -191.8583678 -0.117087E+01  0.420E+00    0.03       1.0  T
  35   -191.7292835  0.129084E+00  0.445E+00    0.04       1.0  T
  36   -192.0674758 -0.338192E+00  0.431E+00    0.02       1.0  T
  37   -192.1084812 -0.410053E-01  0.399E+00    0.02       1.0  T
  38   -193.2638535 -0.115537E+01  0.442E+00    0.15       1.0  T
  39   -192.5869618  0.676892E+00  0.346E+00    0.02       1.0  T
  40   -193.3013405 -0.714379E+00  0.393E+00    0.33       1.0  T
  41   -193.3108229 -0.948239E-02  0.365E+00    0.39       1.0  T
  42   -193.3142397 -0.341682E-02  0.362E+00    0.39       1.0  T
  43   -193.3096832  0.455649E-02  0.362E+00    0.22       1.0  T
  44   -192.2278498  0.108183E+01  0.383E+00    0.17       1.0  T
  45   -193.3686457 -0.114080E+01  0.308E+00    0.17       1.0  T
  46   -191.8080318  0.156061E+01  0.618E+00    0.06       1.0  T
  47   -193.4064677 -0.159844E+01  0.254E+00    0.27       1.0  T
  48   -193.4279018 -0.214341E-01  0.251E+00    0.79       1.0  T
  49   -193.4393299 -0.114281E-01  0.218E+00    0.97       1.0  T
  50   -193.4515668 -0.122369E-01  0.154E+00    0.85       1.0  T
  51   -193.4549598 -0.339307E-02  0.147E+00    1.00       1.0  T
  52   -193.4621051 -0.714524E-02  0.143E+00    1.00       1.0  T
  53   -193.4668803 -0.477524E-02  0.123E+00    1.02       1.0  T
  54   -193.4694579 -0.257758E-02  0.122E+00    1.01       1.0  T
  55   -193.4717441 -0.228625E-02  0.106E+00    0.89       1.0  T
  56   -193.4730248 -0.128061E-02  0.990E-01    0.90       1.0  T
  57   -193.4750441 -0.201937E-02  0.913E-01    0.90       1.0  T
  58   -193.4728036  0.224051E-02  0.937E-01    0.92       1.0  T
  59   -193.4775508 -0.474721E-02  0.786E-01    0.87       1.0  T
  60   -193.4786231 -0.107228E-02  0.764E-01    0.90       1.0  T
  61   -193.4809219 -0.229882E-02  0.700E-01    0.89       1.0  T
  62   -193.4827323 -0.181041E-02  0.649E-01    0.92       1.0  T
  63   -193.4833826 -0.650211E-03  0.628E-01    0.95       1.0  T
  64   -193.4855317 -0.214914E-02  0.568E-01    0.93       1.0  T
  65   -193.4879822 -0.245053E-02  0.508E-01    0.93       1.0  T
  66   -193.4885584 -0.576155E-03  0.494E-01    0.92       1.0  T
  67   -193.4904695 -0.191116E-02  0.449E-01    0.91       1.0  T
  68   -193.4921296 -0.166005E-02  0.419E-01    0.90       1.0  T
  69   -193.4929282 -0.798630E-03  0.405E-01    0.90       1.0  T
  70   -193.4931888 -0.260640E-03  0.400E-01    0.90       1.0  T
  71   -193.4940951 -0.906240E-03  0.381E-01    0.89       1.0  T
  72   -193.4957956 -0.170054E-02  0.346E-01    0.88       1.0  T
  73   -193.4977646 -0.196896E-02  0.306E-01    0.86       1.0  T
  74   -193.4999693 -0.220472E-02  0.247E-01    0.83       1.0  T
  75   -193.5009661 -0.996849E-03  0.216E-01    0.82       1.0  T
  76   -193.5021371 -0.117092E-02  0.175E-01    0.80       1.0  T
  77   -193.5030551 -0.918076E-03  0.138E-01    0.77       1.0  T
  78   -193.5035292 -0.474006E-03  0.113E-01    0.75       1.0  T
  79   -193.5038180 -0.288821E-03  0.966E-02    0.73       1.0  T
  80   -193.5040075 -0.189485E-03  0.786E-02    0.72       1.0  T
  81   -193.5041128 -0.105306E-03  0.617E-02    0.71       1.0  T
  82   -193.5042149 -0.102137E-03  0.500E-02    0.70       1.0  T
  83   -193.5042754 -0.604524E-04  0.410E-02    0.68       1.0  T
  84   -193.5043251 -0.497720E-04  0.273E-02    0.67       1.0  T
  85   -193.5043334 -0.827911E-05  0.254E-02    0.66       1.0  T
  86   -193.5043379 -0.454331E-05  0.226E-02    0.66       1.0  T
  87   -193.5043462 -0.824468E-05  0.189E-02    0.66       1.0  T
  88   -193.5043505 -0.434012E-05  0.175E-02    0.65       1.0  T
  89   -193.5043557 -0.516497E-05  0.148E-02    0.65       1.0  T
  90   -193.5043578 -0.207823E-05  0.136E-02    0.65       1.0  T
  91   -193.5043608 -0.302019E-05  0.118E-02    0.64       1.0  T
  92   -193.5043626 -0.184442E-05  0.105E-02    0.64       1.0  T
  93   -193.5043640 -0.133587E-05  0.936E-03    0.64       1.1  T
  94   -193.5043652 -0.124393E-05  0.823E-03    0.64       1.2  T
  95   -193.5043663 -0.107230E-05  0.739E-03    0.64       1.4  T
  96   -193.5043667 -0.423495E-06  0.705E-03    0.64       1.4  T
  97   -193.5043684 -0.167740E-05  0.535E-03    0.64       1.9  T
  98   -193.5043697 -0.133978E-05  0.361E-03    0.63       2.8  T
  99   -193.5043704 -0.700578E-06  0.228E-03    0.63       4.5  T
 100   -193.5043707 -0.297796E-06  0.136E-03    0.63       7.5  T
 101   -193.5043708 -0.699470E-07  0.107E-03    0.63       9.5  T
 102   -193.5043708 -0.179858E-07  0.101E-03    0.63      10.0  T
 103   -193.5043708 -0.137746E-07  0.980E-04    0.63      10.4  T
 104   -193.5043708 -0.105226E-07  0.925E-04    0.63      11.0  T

   *** convergence criteria satisfied after 104 iterations ***

         #    Occupation            Energy/Eh            Energy/eV
      -------------------------------------------------------------
         1        2.0000           -1.0428231             -28.3767
       ...           ...                  ...                  ...
       164        2.0000           -0.3486151              -9.4863
       165        2.0000           -0.3477740              -9.4634
       166        2.0000           -0.3426300              -9.3234
       167        2.0000           -0.3357773              -9.1370
       168        2.0000           -0.3338962              -9.0858
       169        2.0000           -0.3208291              -8.7302
       170        2.0000           -0.3062196              -8.3327 (HOMO)
       171        0.0000           -0.2832205              -7.7068 (LUMO)
       172        0.0000           -0.2827856              -7.6950
       173        0.0000           -0.2811023              -7.6492
       174        0.0000           -0.2796479              -7.6096
       175                         -0.2773802              -7.5479
       ...                                ...                  ...
       368                         13.3704268             363.8278
      -------------------------------------------------------------
                  HL-Gap            0.0229991 Eh            0.6258 eV
             Fermi-level           -0.2949902 Eh           -8.0271 eV

 SCC (total)                   0 d,  0 h,  0 min,  2.387 sec
 SCC setup                      ...        0 min,  0.000 sec (  0.000%)
 Dispersion                     ...        0 min,  0.002 sec (  0.084%)
 classical contributions        ...        0 min,  0.000 sec (  0.000%)
 integral evaluation            ...        0 min,  0.009 sec (  0.377%)
 iterations                     ...        0 min,  2.349 sec ( 98.408%)
 molecular gradient             ...        0 min,  0.025 sec (  1.047%)
 printout                       ...        0 min,  0.002 sec (  0.084%)

         :::::::::::::::::::::::::::::::::::::::::::::::::::::
         ::                     SUMMARY                     ::
         :::::::::::::::::::::::::::::::::::::::::::::::::::::
         :: total energy            -191.550800288431 Eh    ::
         :: gradient norm              0.122553128094 Eh/a0 ::
         :: HOMO-LUMO gap              0.625837833354 eV    ::
         ::.................................................::
         :: SCC energy              -193.501664953382 Eh    ::
         :: -> isotropic ES            1.012433720860 Eh    ::
         :: -> anisotropic ES         -0.374119742151 Eh    ::
         :: -> anisotropic XC         -0.008727907100 Eh    ::
         :: -> dispersion             -0.165828884218 Eh    ::
         :: repulsion energy           1.950864664951 Eh    ::
         :: add. restraining           0.000000000000 Eh    ::
         :: total charge              -0.000000000004 e     ::
         :::::::::::::::::::::::::::::::::::::::::::::::::::::

           -------------------------------------------------
          |                Property Printout                |
           -------------------------------------------------

    * Orbital Energies and Occupations

         #    Occupation            Energy/Eh            Energy/eV
      -------------------------------------------------------------
         1        2.0000           -1.0428231             -28.3767
       ...           ...                  ...                  ...
       158        2.0000           -0.3678510             -10.0097
       159        2.0000           -0.3670129              -9.9869
       160        2.0000           -0.3625347              -9.8651
       161        2.0000           -0.3588796              -9.7656
       162        2.0000           -0.3565209              -9.7014
       163        2.0000           -0.3492843              -9.5045
       164        2.0000           -0.3486151              -9.4863
       165        2.0000           -0.3477740              -9.4634
       166        2.0000           -0.3426300              -9.3234
       167        2.0000           -0.3357773              -9.1370
       168        2.0000           -0.3338962              -9.0858
       169        2.0000           -0.3208291              -8.7302
       170        2.0000           -0.3062196              -8.3327 (HOMO)
       171        0.0000           -0.2832205              -7.7068 (LUMO)
       172        0.0000           -0.2827856              -7.6950
       173        0.0000           -0.2811023              -7.6492
       174        0.0000           -0.2796479              -7.6096
       175                         -0.2773802              -7.5479
       176                         -0.2726918              -7.4203
       177                         -0.2719538              -7.4002
       178                         -0.2697213              -7.3395
       179                         -0.2692830              -7.3276
       180                         -0.2686824              -7.3112
       181                         -0.2686434              -7.3102
       ...                                ...                  ...
       368                         13.3704268             363.8278
      -------------------------------------------------------------
                  HL-Gap            0.0229991 Eh            0.6258 eV
             Fermi-level           -0.2949902 Eh           -8.0271 eV

     #   Z          covCN         q      C6AA      α(0)
     1   6 C        3.667     0.035    20.230     6.450
     2   8 O        1.702    -0.297    18.944     5.876
     3   6 C        2.891     0.121    25.330     8.252
     4   6 C        2.916    -0.075    29.860     8.961
     5   6 C        2.889     0.067    26.505     8.441
     6   7 N        2.700    -0.143    24.103     7.292
     7   6 C        2.833     0.225    23.279     7.907
     8   7 N        1.833    -0.274    27.970     7.837
     9   6 C        2.952     0.055    26.762     8.485
    10   6 C        2.870     0.043    27.036     8.523
    11  17 Cl       0.956    -0.158   104.098    15.609
    12   6 C        2.900     0.160    24.541     8.123
    13   7 N        2.690    -0.183    24.962     7.420
    14   6 C        2.972     0.088    26.036     8.370
    15   6 C        2.915    -0.046    29.149     8.853
    16   6 C        2.910    -0.027    28.679     8.781
    17   6 C        2.910    -0.039    28.979     8.827
    18   6 C        3.016    -0.031    28.754     8.796
    19   6 C        2.913    -0.023    28.579     8.766
    20  15 P        3.790     0.171   152.874    22.210
    21   8 O        0.808    -0.448    22.681     6.384
    22   6 C        3.699    -0.114    22.858     6.838
    23   6 C        3.699    -0.116    22.896     6.843
    24   7 N        1.845    -0.312    28.946     7.974
    25   6 C        2.920    -0.069    29.710     8.938
    26   6 C        2.915    -0.059    29.456     8.900
    27   6 C        2.908     0.039    27.132     8.541
    28   7 N        2.727    -0.152    24.290     7.320
    29   6 C        3.749     0.005    20.564     6.468
    30   6 C        3.749     0.006    20.543     6.464
    31   7 N        2.719    -0.184    24.985     7.424
    32   6 C        3.702    -0.031    21.291     6.598
    33   6 C        3.746     0.001    20.637     6.480
    34   6 C        3.735     0.002    20.635     6.483
    35   1 H        0.924     0.036     2.503     2.474
    36   1 H        0.924     0.047     2.363     2.404
    37   1 H        0.924     0.053     2.280     2.361
    38   1 H        0.925     0.083     1.953     2.185
    39   1 H        0.860     0.192     1.149     1.679
    40   1 H        0.925     0.066     2.131     2.283
    41   1 H        0.859     0.244     0.907     1.492
    42   1 H        0.925     0.060     2.198     2.318
    43   1 H        0.925     0.047     2.352     2.398
    44   1 H        0.925     0.040     2.442     2.444
    45   1 H        0.925     0.042     2.427     2.436
    46   1 H        0.926     0.060     2.195     2.317
    47   1 H        0.926     0.079     1.993     2.208
    48   1 H        0.926     0.073     2.056     2.242
    49   1 H        0.926     0.074     2.045     2.236
    50   1 H        0.926     0.061     2.192     2.315
    51   1 H        0.926     0.078     1.996     2.209
    52   1 H        0.925     0.032     2.553     2.499
    53   1 H        0.925     0.039     2.456     2.451
    54   1 H        0.923     0.030     2.593     2.518
    55   1 H        0.924     0.053     2.278     2.361
    56   1 H        0.923     0.022     2.697     2.568
    57   1 H        0.924     0.040     2.453     2.449
    58   1 H        0.924     0.014     2.823     2.628
    59   1 H        0.924     0.038     2.471     2.458
    60   1 H        0.924     0.039     2.467     2.456
    61   1 H        0.924     0.037     2.492     2.469
    62   1 H        0.924     0.031     2.573     2.508
    63   1 H        0.924     0.032     2.564     2.504
    64   1 H        0.924     0.036     2.503     2.474
    65  22 Ti       3.637     1.054   101.755    24.483
    66  22 Ti       6.855     1.551    84.058    14.885
    67  22 Ti       3.227     1.049   102.634    24.738
    68  22 Ti       5.860     1.378    85.688    15.029
    69  22 Ti       5.627     1.123    88.183    15.246
    70  22 Ti       3.541     1.040   102.477    24.672
    71  22 Ti       2.352     0.880   202.681    34.859
    72  22 Ti       6.011     1.347    85.983    15.055
    73  22 Ti       3.414     1.007   103.063    24.780
    74  22 Ti       5.519     1.093    88.488    15.273
    75  22 Ti       5.687     1.189    87.533    15.190
    76  22 Ti       3.581     1.024   102.491    24.644
    77   6 C        2.246    -0.258    37.656     9.942
    78   6 C        2.142    -0.256    38.347    10.010
    79   6 C        2.248    -0.019    30.617     8.965
    80   6 C        1.838    -0.211    37.351     9.873
    81   6 C        1.894    -0.224    37.724     9.920
    82   6 C        1.821    -0.347    42.204    10.496
    83   6 C        2.631    -0.404    39.939    10.337
    84   8 O        1.554    -0.848    32.021     7.635
    85   8 O        1.464    -0.880    33.197     7.766
    86   8 O        1.557    -0.955    35.584     8.048
    87   8 O        1.523    -1.006    37.457     8.255
    88   8 O        1.523    -0.912    34.134     7.880
    89   8 O        1.458    -0.821    31.352     7.547
    90   8 O        1.455    -0.797    30.646     7.461
    91   8 O        0.727    -0.635    27.066     6.971
    92   8 O        1.453    -0.864    32.684     7.705
    93   8 O        1.476    -0.799    30.655     7.464
    94   8 O        1.603    -0.946    35.197     8.007
    95   8 O        1.547    -0.969    36.066     8.102
    96   8 O        1.700    -0.816    30.955     7.512
    97   8 O        1.453    -0.781    30.157     7.401

 Mol. C6AA /au·bohr⁶  :     215557.615490
 Mol. C8AA /au·bohr⁸  :    8947536.613101
 Mol. α(0) /au        :        781.931188


Wiberg/Mayer (AO) data.
largest (>0.10) Wiberg bond orders for each atom

 ---------------------------------------------------------------------------
     #   Z sym  total        # sym  WBO       # sym  WBO       # sym  WBO
 ---------------------------------------------------------------------------
     1   6 C    3.947 --    35 H    0.983    37 H    0.980    36 H    0.979
                             2 O    0.968
     2   8 O    2.121 --     3 C    1.017     1 C    0.968
     3   6 C    3.941 --     4 C    1.409    27 C    1.316     2 O    1.017
     4   6 C    3.975 --     3 C    1.409     5 C    1.365    38 H    0.958
     5   6 C    3.956 --     4 C    1.365    25 C    1.354     6 N    1.088
     6   7 N    3.471 --     7 C    1.176     5 C    1.088    39 H    0.930
     7   6 C    3.957 --     8 N    1.327    24 N    1.310     6 N    1.176
     8   7 N    3.027 --     9 C    1.402     7 C    1.327
     9   6 C    3.973 --    10 C    1.431     8 N    1.402    40 H    0.960
    10   6 C    3.896 --     9 C    1.431    12 C    1.287    11 Cl   0.975
    11  17 Cl   1.116 --    10 C    0.975
    12   6 C    3.971 --    24 N    1.362    10 C    1.287    13 N    1.132
    13   7 N    3.426 --    12 C    1.132    14 C    1.123    41 H    0.848
    14   6 C    3.972 --    15 C    1.356    19 C    1.309    13 N    1.123
    15   6 C    3.979 --    16 C    1.460    14 C    1.356    42 H    0.957
                            18 C    0.109
    16   6 C    3.982 --    15 C    1.460    17 C    1.417    43 H    0.969
    17   6 C    3.984 --    18 C    1.450    16 C    1.417    44 H    0.969
    18   6 C    3.990 --    17 C    1.450    19 C    1.385    45 H    0.963
                            15 C    0.109
    19   6 C    3.978 --    18 C    1.385    14 C    1.309    20 P    0.978
    20  15 P    5.181 --    21 O    1.910    22 C    0.999    23 C    0.998
                            19 C    0.978
    21   8 O    2.165 --    20 P    1.910
    22   6 C    3.993 --    20 P    0.999    46 H    0.960    48 H    0.954
                            47 H    0.950
    23   6 C    3.992 --    20 P    0.998    50 H    0.960    49 H    0.954
                            51 H    0.950
    24   7 N    3.021 --    12 C    1.362     7 C    1.310
    25   6 C    3.977 --    26 C    1.450     5 C    1.354    52 H    0.968
    26   6 C    3.987 --    25 C    1.450    27 C    1.378    53 H    0.966
    27   6 C    3.960 --    26 C    1.378     3 C    1.316    28 N    1.073
    28   7 N    3.215 --    27 C    1.073    34 C    0.994    29 C    0.970
    29   6 C    3.979 --    30 C    1.005    54 H    0.973    28 N    0.970
                            55 H    0.969
    30   6 C    3.986 --    29 C    1.005    31 N    0.995    57 H    0.972
                            56 H    0.969
    31   7 N    3.099 --    32 C    1.017    33 C    0.998    30 C    0.995
    32   6 C    3.987 --    31 N    1.017    60 H    0.983    59 H    0.982
                            58 H    0.976
    33   6 C    3.986 --    31 N    0.998    34 C    0.991    62 H    0.974
                            61 H    0.972
    34   6 C    3.985 --    28 N    0.994    33 C    0.991    64 H    0.971
                            63 H    0.970
    35   1 H    0.999 --     1 C    0.983
    36   1 H    0.998 --     1 C    0.979
    37   1 H    0.996 --     1 C    0.980
    38   1 H    0.993 --     4 C    0.958
    39   1 H    0.962 --     6 N    0.930
    40   1 H    0.995 --     9 C    0.960
    41   1 H    0.940 --    13 N    0.848
    42   1 H    0.996 --    15 C    0.957
    43   1 H    0.997 --    16 C    0.969
    44   1 H    0.997 --    17 C    0.969
    45   1 H    0.998 --    18 C    0.963
    46   1 H    0.996 --    22 C    0.960
    47   1 H    0.993 --    22 C    0.950
    48   1 H    0.995 --    22 C    0.954
    49   1 H    0.995 --    23 C    0.954
    50   1 H    0.996 --    23 C    0.960
    51   1 H    0.993 --    23 C    0.950
    52   1 H    0.999 --    25 C    0.968
    53   1 H    0.998 --    26 C    0.966
    54   1 H    0.999 --    29 C    0.973
    55   1 H    0.997 --    29 C    0.969
    56   1 H    0.999 --    30 C    0.969
    57   1 H    0.998 --    30 C    0.972
    58   1 H    1.000 --    32 C    0.976
    59   1 H    0.998 --    32 C    0.982
    60   1 H    0.998 --    32 C    0.983
    61   1 H    0.999 --    33 C    0.972
    62   1 H    0.999 --    33 C    0.974
    63   1 H    0.998 --    34 C    0.970
    64   1 H    0.999 --    34 C    0.971
    65  22 Ti   2.827 --    84 O    0.844    85 O    0.816    71 Ti   0.332
                            66 Ti   0.202    68 Ti   0.198
    66  22 Ti   3.854 --    85 O    0.751    88 O    0.747    86 O    0.691
                            87 O    0.606    65 Ti   0.202    67 Ti   0.188
                            69 Ti   0.139    70 Ti   0.134
    67  22 Ti   2.723 --    93 O    0.962    86 O    0.599    73 Ti   0.372
                            66 Ti   0.188    71 Ti   0.140    88 O    0.110
    68  22 Ti   3.923 --    89 O    0.935    77 C    0.721    84 O    0.706
                            87 O    0.564    70 Ti   0.212    65 Ti   0.198
                            74 Ti   0.178    94 O    0.125
    69  22 Ti   4.071 --    83 C    0.891    90 O    0.775    81 C    0.743
                            88 O    0.602    75 Ti   0.284    70 Ti   0.172
                            82 C    0.158    78 C    0.152    66 Ti   0.139
    70  22 Ti   2.646 --    90 O    0.970    89 O    0.713    68 Ti   0.212
                            69 Ti   0.172    66 Ti   0.134    85 O    0.123
    71  22 Ti   3.771 --    91 O    1.997    72 Ti   0.608    65 Ti   0.332
                            86 O    0.152    84 O    0.147    67 Ti   0.140
                            94 O    0.112
    72  22 Ti   4.018 --    94 O    0.802    92 O    0.754    95 O    0.715
                            71 Ti   0.608    96 O    0.196    73 Ti   0.166
                            76 Ti   0.147    74 Ti   0.140
    73  22 Ti   2.746 --    92 O    0.835    93 O    0.765    67 Ti   0.372
                            76 Ti   0.221    72 Ti   0.166    75 Ti   0.130
    74  22 Ti   4.015 --    82 C    1.060    80 C    0.725    96 O    0.615
                            94 O    0.441    83 C    0.235    76 Ti   0.199
                            68 Ti   0.178    77 C    0.154    72 Ti   0.140
    75  22 Ti   4.082 --    97 O    0.967    78 C    0.670    83 C    0.653
                            95 O    0.442    69 Ti   0.284    76 Ti   0.210
                            82 C    0.141    73 Ti   0.130    93 O    0.114
    76  22 Ti   2.791 --    96 O    0.900    97 O    0.735    73 Ti   0.221
                            75 Ti   0.210    74 Ti   0.199    72 Ti   0.147
    77   6 C    3.843 --    80 C    2.739    68 Ti   0.721    74 Ti   0.154
    78   6 C    3.782 --    81 C    2.732    75 Ti   0.670    69 Ti   0.152
    79   6 C    3.979 --    82 C    2.007    83 C    1.605
    80   6 C    3.704 --    77 C    2.739    74 Ti   0.725
    81   6 C    3.747 --    78 C    2.732    69 Ti   0.743
    82   6 C    3.768 --    79 C    2.007    74 Ti   1.060    69 Ti   0.158
                            75 Ti   0.141
    83   6 C    3.830 --    79 C    1.605    69 Ti   0.891    75 Ti   0.653
                            74 Ti   0.235
    84   8 O    1.933 --    65 Ti   0.844    68 Ti   0.706    71 Ti   0.147
    85   8 O    1.894 --    65 Ti   0.816    66 Ti   0.751    70 Ti   0.123
    86   8 O    1.784 --    66 Ti   0.691    67 Ti   0.599    71 Ti   0.152
    87   8 O    1.720 --    66 Ti   0.606    68 Ti   0.564
    88   8 O    1.848 --    66 Ti   0.747    69 Ti   0.602    67 Ti   0.110
    89   8 O    1.973 --    68 Ti   0.935    70 Ti   0.713
    90   8 O    2.015 --    70 Ti   0.970    69 Ti   0.775
    91   8 O    2.172 --    71 Ti   1.997
    92   8 O    1.912 --    73 Ti   0.835    72 Ti   0.754
    93   8 O    2.009 --    67 Ti   0.962    73 Ti   0.765    75 Ti   0.114
    94   8 O    1.799 --    72 Ti   0.802    74 Ti   0.441    68 Ti   0.125
                            71 Ti   0.112
    95   8 O    1.773 --    72 Ti   0.715    75 Ti   0.442
    96   8 O    1.987 --    76 Ti   0.900    74 Ti   0.615    72 Ti   0.196
    97   8 O    2.032 --    75 Ti   0.967    76 Ti   0.735
 ---------------------------------------------------------------------------

Topologies differ in total number of bonds
Writing topology from bond orders to xtbtopo.mol

molecular dipole:
                 x           y           z       tot (Debye)
 q only:        0.363       1.224      -0.303
   full:       -1.637       1.058       0.831       5.385
molecular quadrupole (traceless):
                xx          xy          yy          xz          yz          zz
 q only:       -0.809     -31.424     -42.606     -34.353      47.668      43.415
  q+dip:       18.942     -36.402     -65.858     -16.031      36.385      46.916
   full:       19.571     -32.910     -68.935     -16.215      39.394      49.364


           -------------------------------------------------
          | TOTAL ENERGY             -191.550800288431 Eh   |
          | GRADIENT NORM               0.122553128094 Eh/α |
          | HOMO-LUMO GAP               0.625837833354 eV   |
           -------------------------------------------------

------------------------------------------------------------------------
 * finished run on 2026/08/31 at 21:18:59.942     
------------------------------------------------------------------------
 total:
 * wall-time:     0 d,  0 h,  0 min,  2.437 sec
 *  cpu-time:     0 d,  0 h,  0 min, 25.281 sec
 * ratio c/w:    10.374 speedup
 SCF:
 * wall-time:     0 d,  0 h,  0 min,  2.388 sec
 *  cpu-time:     0 d,  0 h,  0 min, 24.672 sec
 * ratio c/w:    10.332 speedup

normal termination of xtb
