      -----------------------------------------------------------      
     |                   =====================                   |     
     |                           x T B                           |     
     |                   =====================                   |     
     |                         S. Grimme                         |     
     |          Mulliken Center for Theoretical Chemistry        |     
     |                    University of Bonn                     |     
      -----------------------------------------------------------      

   * xtb version 6.7.1pre (5071a88) compiled by 'Marcel@Raven' on 2024-07-23

   xtb is free software: you can redistribute it and/or modify it under
   the terms of the GNU Lesser General Public License as published by
   the Free Software Foundation, either version 3 of the License, or
   (at your option) any later version.
   
   xtb is distributed in the hope that it will be useful,
   but WITHOUT ANY WARRANTY; without even the implied warranty of
   MERCHANTABILITY or FITNESS FOR A PARTICULAR PURPOSE.  See the
   GNU Lesser General Public License for more details.
   
   Cite this work as:
   * C. Bannwarth, E. Caldeweyher, S. Ehlert, A. Hansen, P. Pracht,
     J. Seibert, S. Spicher, S. Grimme, WIREs Comput. Mol. Sci., 2020, 11,
     e01493. DOI: 10.1002/wcms.1493
   
   for GFN2-xTB:
   * C. Bannwarth, S. Ehlert and S. Grimme., J. Chem. Theory Comput., 2019,
     15, 1652-1671. DOI: 10.1021/acs.jctc.8b01176
   for GFN1-xTB:
   * S. Grimme, C. Bannwarth, P. Shushkov, J. Chem. Theory Comput., 2017,
     13, 1989-2009. DOI: 10.1021/acs.jctc.7b00118
   for GFN0-xTB:
   * P. Pracht, E. Caldeweyher, S. Ehlert, S. Grimme, ChemRxiv, 2019, preprint.
     DOI: 10.26434/chemrxiv.8326202.v1
   for GFN-FF:
   * S. Spicher and S. Grimme, Angew. Chem. Int. Ed., 2020, 59, 15665-15673.
     DOI: 10.1002/anie.202004239
   
   for ALPB and GBSA implicit solvation:
   * S. Ehlert, M. Stahn, S. Spicher, S. Grimme, J. Chem. Theory Comput.,
     2021, 17, 4250-4261. DOI: 10.1021/acs.jctc.1c00471
   
   for ddCOSMO and CPCM-X implicit solvation:
   * M. Stahn, S. Ehlert, S. Grimme, J. Phys. Chem. A,
     2023, XX, XXXX-XXXX. DOI: 10.1021/acs.jpca.3c04382
   
   for DFT-D4:
   * E. Caldeweyher, C. Bannwarth and S. Grimme, J. Chem. Phys., 2017,
     147, 034112. DOI: 10.1063/1.4993215
   * E. Caldeweyher, S. Ehlert, A. Hansen, H. Neugebauer, S. Spicher,
     C. Bannwarth and S. Grimme, J. Chem. Phys., 2019, 150, 154122.
     DOI: 10.1063/1.5090222
   * E. Caldeweyher, J.-M. Mewes, S. Ehlert and S. Grimme, Phys. Chem. Chem. Phys.
     2020, 22, 8499-8512. DOI: 10.1039/D0CP00502A
   
   for sTDA-xTB:
   * S. Grimme and C. Bannwarth, J. Chem. Phys., 2016, 145, 054103.
     DOI: 10.1063/1.4959605
   
   in the mass-spec context:
   * V. Asgeirsson, C. Bauer and S. Grimme, Chem. Sci., 2017, 8, 4879.
     DOI: 10.1039/c7sc00601b
   * J. Koopman and S. Grimme, ACS Omega 2019, 4, 12, 15120-15133.
     DOI: 10.1021/acsomega.9b02011
   
   for metadynamics refer to:
   * S. Grimme, J. Chem. Theory Comput., 2019, 155, 2847-2862
     DOI: 10.1021/acs.jctc.9b00143
   
   for SPH calculations refer to:
   * S. Spicher and S. Grimme, J. Chem. Theory Comput., 2021, 17, 1701-1714
     DOI: 10.1021/acs.jctc.0c01306
   
   for ONIOM refer to:
   * C. Plett, A. Katbashev, S. Ehlert, S. Grimme, M. Bursch,
     Phys. Chem. Chem. Phys., 2023, 25, 17860-17868. DOI: 10.1039/D3CP02178E
   
   for DIPRO refer to:
   * J. Kohn, N. Gildemeister, S. Grimme, D. Fazzi, A. Hansen,
     J. Chem. Phys., 2023, just accepted.
   
   for PTB refer to:
   * S. Grimme, M. Mueller, A. Hansen, J. Chem. Phys., 2023, 158, 124111.
     DOI: 10.1063/5.0137838
   
   with help from (in alphabetical order)
   P. Atkinson, C. Bannwarth, F. Bohle, G. Brandenburg, E. Caldeweyher
   M. Checinski, S. Dohm, S. Ehlert, S. Ehrlich, I. Gerasimov, C. Hölzer
   A. Katbashev, J. Kohn, J. Koopman, C. Lavigne, S. Lehtola, F. März, M. Müller,
   F. Musil, H. Neugebauer, J. Pisarek, C. Plett, P. Pracht, F. Pultar,
   J. Seibert, P. Shushkov, S. Spicher, M. Stahn, M. Steiner, T. Strunk,
   J. Stückrath, T. Rose, and J. Unsleber
   
 * started run on 2026/08/31 at 21:55:21.800     
   ID    Z sym.   atoms
    1    6 C      1, 3-5, 7, 9, 10, 12, 14-19, 22, 23, 25-27, 29, 30, 32-34
    2    8 O      2, 21
    3    7 N      6, 8, 13, 24, 28, 31
    4   17 Cl     11
    5   15 P      20
    6    1 H      35-64

           -------------------------------------------------
          |                Calculation Setup                |
           -------------------------------------------------

          program call               : "c:\Users\Andre\Proyectos doctorado\kras-pancreatic-gC3N4-ai\tools\xtb\xtb-6.7.1\bin\xtb.exe" "c:\Users\Andre\Proyectos doctorado\mxene-glioblastoma-qsar-ai\calculations\gbm\Brigatinib\Brigatinib_drug.xyz" --gfn 2 --sp --chrg 0 --uhf 0 --etemp 500 --acc 1.0 --iterations 500 --norestart
          coordinate file            : c:\Users\Andre\Proyectos doctorado\mxene-glioblastoma-qsar-ai\calculations\gbm\Brigatinib\Brigatinib_drug.xyz
          omp threads                :                    16


           -------------------------------------------------
          |                 G F N 2 - x T B                 |
           -------------------------------------------------

        Reference                      10.1021/acs.jctc.8b01176
      * Hamiltonian:
        H0-scaling (s, p, d)           1.850000    2.230000    2.230000
        zeta-weighting                 0.500000
      * Dispersion:
        s8                             2.700000
        a1                             0.520000
        a2                             5.000000
        s9                             5.000000
      * Repulsion:
        kExp                           1.500000    1.000000
        rExp                           1.000000
      * Coulomb:
        alpha                          2.000000
        third order                    shell-resolved
        anisotropic                    true
        a3                             3.000000
        a5                             4.000000
        cn-shift                       1.200000
        cn-exp                         4.000000
        max-rad                        5.000000


          ...................................................
          :                      SETUP                      :
          :.................................................:
          :  # basis functions                 178          :
          :  # atomic orbitals                 176          :
          :  # shells                          100          :
          :  # electrons                       180          :
          :  max. iterations                   500          :
          :  Hamiltonian                  GFN2-xTB          :
          :  restarted?                      false          :
          :  GBSA solvation                  false          :
          :  PC potential                    false          :
          :  electronic temp.          500.0000000     K    :
          :  accuracy                    1.0000000          :
          :  -> integral cutoff          0.2500000E+02      :
          :  -> integral neglect         0.1000000E-07      :
          :  -> SCF convergence          0.1000000E-05 Eh   :
          :  -> wf. convergence          0.1000000E-03 e    :
          :  Broyden damping             0.4000000          :
          :  net charge                          0          :
          :  unpaired electrons                  0          :
          ...................................................

 iter      E             dE          RMSdq      gap      omega  full diag
   1   -100.6636640 -0.100664E+03  0.420E+00    2.37       0.0  T
   2   -100.7725827 -0.108919E+00  0.266E+00    2.31       1.0  T
   3   -100.7731988 -0.616086E-03  0.939E-01    1.88       1.0  T
   4   -100.7850511 -0.118523E-01  0.379E-01    1.97       1.0  T
   5   -100.7882256 -0.317454E-02  0.157E-01    1.95       1.0  T
   6   -100.7887178 -0.492200E-03  0.660E-02    1.95       1.0  T
   7   -100.7887783 -0.604424E-04  0.375E-02    1.95       1.0  T
   8   -100.7887939 -0.156661E-04  0.192E-02    1.96       1.0  T
   9   -100.7888000 -0.600603E-05  0.108E-02    1.96       1.2  T
  10   -100.7888021 -0.209861E-05  0.773E-03    1.96       1.6  T
  11   -100.7888031 -0.109872E-05  0.527E-03    1.96       2.4  T
  12   -100.7888039 -0.759279E-06  0.314E-03    1.96       4.0  T
  13   -100.7888041 -0.234743E-06  0.169E-03    1.96       7.4  T
  14   -100.7888042 -0.658360E-07  0.683E-04    1.96      18.3  T
  15   -100.7888042 -0.130727E-07  0.342E-04    1.96      36.5  T

   *** convergence criteria satisfied after 15 iterations ***

         #    Occupation            Energy/Eh            Energy/eV
      -------------------------------------------------------------
         1        2.0000           -1.0569578             -28.7613
       ...           ...                  ...                  ...
        84        2.0000           -0.3919846             -10.6664
        85        2.0000           -0.3865843             -10.5195
        86        2.0000           -0.3844909             -10.4625
        87        2.0000           -0.3738957             -10.1742
        88        2.0000           -0.3614695              -9.8361
        89        2.0000           -0.3502088              -9.5297
        90        2.0000           -0.3325481              -9.0491 (HOMO)
        91                         -0.2606395              -7.0924 (LUMO)
        92                         -0.2576401              -7.0107
        93                         -0.2445360              -6.6542
        94                         -0.2340944              -6.3700
        95                         -0.2173677              -5.9149
       ...                                ...                  ...
       176                          1.1513687              31.3303
      -------------------------------------------------------------
                  HL-Gap            0.0719086 Eh            1.9567 eV
             Fermi-level           -0.2967045 Eh           -8.0737 eV

 SCC (total)                   0 d,  0 h,  0 min,  0.367 sec
 SCC setup                      ...        0 min,  0.000 sec (  0.000%)
 Dispersion                     ...        0 min,  0.001 sec (  0.272%)
 classical contributions        ...        0 min,  0.001 sec (  0.273%)
 integral evaluation            ...        0 min,  0.005 sec (  1.362%)
 iterations                     ...        0 min,  0.344 sec ( 93.733%)
 molecular gradient             ...        0 min,  0.014 sec (  3.815%)
 printout                       ...        0 min,  0.002 sec (  0.545%)

         :::::::::::::::::::::::::::::::::::::::::::::::::::::
         ::                     SUMMARY                     ::
         :::::::::::::::::::::::::::::::::::::::::::::::::::::
         :: total energy             -99.509257253365 Eh    ::
         :: gradient norm              0.129713722080 Eh/a0 ::
         :: HOMO-LUMO gap              1.956732452414 eV    ::
         ::.................................................::
         :: SCC energy              -100.788335759163 Eh    ::
         :: -> isotropic ES            0.103502184039 Eh    ::
         :: -> anisotropic ES          0.010502817125 Eh    ::
         :: -> anisotropic XC          0.055385256355 Eh    ::
         :: -> dispersion             -0.077902545212 Eh    ::
         :: repulsion energy           1.279078505798 Eh    ::
         :: add. restraining           0.000000000000 Eh    ::
         :: total charge              -0.000000000042 e     ::
         :::::::::::::::::::::::::::::::::::::::::::::::::::::

           -------------------------------------------------
          |                Property Printout                |
           -------------------------------------------------

    * Orbital Energies and Occupations

         #    Occupation            Energy/Eh            Energy/eV
      -------------------------------------------------------------
         1        2.0000           -1.0569578             -28.7613
       ...           ...                  ...                  ...
        78        2.0000           -0.4235990             -11.5267
        79        2.0000           -0.4202650             -11.4360
        80        2.0000           -0.4125785             -11.2268
        81        2.0000           -0.4114396             -11.1958
        82        2.0000           -0.4069593             -11.0739
        83        2.0000           -0.4041172             -10.9966
        84        2.0000           -0.3919846             -10.6664
        85        2.0000           -0.3865843             -10.5195
        86        2.0000           -0.3844909             -10.4625
        87        2.0000           -0.3738957             -10.1742
        88        2.0000           -0.3614695              -9.8361
        89        2.0000           -0.3502088              -9.5297
        90        2.0000           -0.3325481              -9.0491 (HOMO)
        91                         -0.2606395              -7.0924 (LUMO)
        92                         -0.2576401              -7.0107
        93                         -0.2445360              -6.6542
        94                         -0.2340944              -6.3700
        95                         -0.2173677              -5.9149
        96                         -0.1888440              -5.1387
        97                         -0.1388160              -3.7774
        98                         -0.1373398              -3.7372
        99                         -0.1215556              -3.3077
       100                         -0.0831418              -2.2624
       101                         -0.0814491              -2.2163
       ...                                ...                  ...
       176                          1.1513687              31.3303
      -------------------------------------------------------------
                  HL-Gap            0.0719086 Eh            1.9567 eV
             Fermi-level           -0.2967045 Eh           -8.0737 eV

     #   Z          covCN         q      C6AA      α(0)
     1   6 C        3.680     0.042    20.080     6.418
     2   8 O        1.702    -0.311    19.181     5.913
     3   6 C        2.907     0.113    25.509     8.282
     4   6 C        2.916    -0.072    29.783     8.949
     5   6 C        2.889     0.063    26.577     8.452
     6   7 N        2.701    -0.144    24.119     7.294
     7   6 C        2.834     0.231    23.170     7.888
     8   7 N        1.833    -0.281    28.143     7.861
     9   6 C        2.970     0.059    26.681     8.473
    10   6 C        2.867     0.045    26.981     8.515
    11  17 Cl       0.962    -0.180   104.801    15.662
    12   6 C        2.898     0.165    24.447     8.107
    13   7 N        2.693    -0.213    25.636     7.520
    14   6 C        2.978     0.089    26.023     8.368
    15   6 C        2.916    -0.035    28.867     8.810
    16   6 C        2.910    -0.023    28.570     8.765
    17   6 C        2.910    -0.032    28.808     8.801
    18   6 C        3.007    -0.029    28.696     8.787
    19   6 C        2.910    -0.005    28.148     8.700
    20  15 P        3.781     0.110   155.448    22.397
    21   8 O        0.808    -0.421    22.131     6.306
    22   6 C        3.699    -0.099    22.559     6.793
    23   6 C        3.699    -0.100    22.586     6.797
    24   7 N        1.854    -0.305    28.756     7.948
    25   6 C        2.920    -0.064    29.588     8.920
    26   6 C        2.919    -0.064    29.600     8.922
    27   6 C        2.893     0.039    27.130     8.540
    28   7 N        2.730    -0.119    23.595     7.214
    29   6 C        3.736     0.002    20.625     6.481
    30   6 C        3.749     0.007    20.528     6.462
    31   7 N        2.719    -0.183    24.954     7.419
    32   6 C        3.702    -0.030    21.261     6.593
    33   6 C        3.747     0.001    20.623     6.477
    34   6 C        3.735     0.006    20.565     6.472
    35   1 H        0.924     0.036     2.501     2.473
    36   1 H        0.924     0.033     2.540     2.492
    37   1 H        0.924     0.052     2.293     2.368
    38   1 H        0.925     0.073     2.048     2.238
    39   1 H        0.860     0.198     1.118     1.657
    40   1 H        0.925     0.058     2.225     2.333
    41   1 H        0.859     0.233     0.953     1.529
    42   1 H        0.925     0.062     2.174     2.306
    43   1 H        0.925     0.047     2.358     2.402
    44   1 H        0.925     0.041     2.429     2.437
    45   1 H        0.925     0.045     2.383     2.414
    46   1 H        0.926     0.064     2.154     2.295
    47   1 H        0.926     0.058     2.218     2.329
    48   1 H        0.926     0.076     2.016     2.220
    49   1 H        0.926     0.078     2.000     2.212
    50   1 H        0.926     0.071     2.078     2.254
    51   1 H        0.926     0.056     2.245     2.343
    52   1 H        0.925     0.032     2.551     2.498
    53   1 H        0.925     0.032     2.554     2.499
    54   1 H        0.924     0.050     2.324     2.384
    55   1 H        0.924     0.052     2.296     2.369
    56   1 H        0.924     0.038     2.470     2.458
    57   1 H        0.923     0.018     2.769     2.603
    58   1 H        0.924     0.038     2.472     2.459
    59   1 H        0.924     0.038     2.472     2.459
    60   1 H        0.924     0.014     2.826     2.629
    61   1 H        0.923     0.042     2.417     2.431
    62   1 H        0.924     0.036     2.500     2.472
    63   1 H        0.924     0.024     2.666     2.554
    64   1 H        0.924     0.039     2.459     2.453

 Mol. C6AA /au·bohr⁶  :      51691.165413
 Mol. C8AA /au·bohr⁸  :    1310738.746649
 Mol. α(0) /au        :        355.874059


Wiberg/Mayer (AO) data.
largest (>0.10) Wiberg bond orders for each atom

 ---------------------------------------------------------------------------
     #   Z sym  total        # sym  WBO       # sym  WBO       # sym  WBO
 ---------------------------------------------------------------------------
     1   6 C    3.950 --    37 H    0.981    35 H    0.980    36 H    0.980
                             2 O    0.968
     2   8 O    2.086 --     3 C    0.998     1 C    0.968
     3   6 C    3.937 --     4 C    1.419    27 C    1.298     2 O    0.998
     4   6 C    3.977 --     3 C    1.419     5 C    1.361    38 H    0.960
     5   6 C    3.954 --     4 C    1.361    25 C    1.354     6 N    1.084
     6   7 N    3.474 --     7 C    1.185     5 C    1.084    39 H    0.928
     7   6 C    3.958 --     8 N    1.318    24 N    1.312     6 N    1.185
     8   7 N    3.032 --     9 C    1.413     7 C    1.318
     9   6 C    3.978 --    10 C    1.420     8 N    1.413    40 H    0.961
    10   6 C    3.891 --     9 C    1.420    12 C    1.299    11 Cl   0.963
    11  17 Cl   1.097 --    10 C    0.963
    12   6 C    3.971 --    24 N    1.365    10 C    1.299    13 N    1.116
    13   7 N    3.295 --    12 C    1.116    14 C    1.028    41 H    0.877
    14   6 C    3.973 --    15 C    1.397    19 C    1.336    13 N    1.028
    15   6 C    3.986 --    16 C    1.443    14 C    1.397    42 H    0.965
                            18 C    0.108
    16   6 C    3.982 --    15 C    1.443    17 C    1.431    43 H    0.970
    17   6 C    3.989 --    18 C    1.446    16 C    1.431    44 H    0.969
    18   6 C    3.990 --    17 C    1.446    19 C    1.385    45 H    0.961
                            15 C    0.108
    19   6 C    3.985 --    18 C    1.385    14 C    1.336    20 P    0.975
    20  15 P    5.261 --    21 O    1.972    23 C    1.005    22 C    1.001
                            19 C    0.975
    21   8 O    2.187 --    20 P    1.972
    22   6 C    3.993 --    20 P    1.001    47 H    0.959    46 H    0.953
                            48 H    0.947
    23   6 C    3.993 --    20 P    1.005    51 H    0.959    50 H    0.953
                            49 H    0.948
    24   7 N    3.035 --    12 C    1.365     7 C    1.312
    25   6 C    3.978 --    26 C    1.455     5 C    1.354    52 H    0.968
    26   6 C    3.984 --    25 C    1.455    27 C    1.346    53 H    0.968
    27   6 C    3.958 --    26 C    1.346     3 C    1.298    28 N    1.135
    28   7 N    3.332 --    27 C    1.135    34 C    0.994    29 C    0.983
    29   6 C    3.978 --    30 C    1.000    28 N    0.983    55 H    0.972
                            54 H    0.970
    30   6 C    3.986 --    29 C    1.000    31 N    0.996    56 H    0.972
                            57 H    0.969
    31   7 N    3.100 --    32 C    1.016    33 C    0.999    30 C    0.996
    32   6 C    3.986 --    31 N    1.016    59 H    0.983    58 H    0.982
                            60 H    0.976
    33   6 C    3.986 --    31 N    0.999    34 C    0.994    62 H    0.973
                            61 H    0.973
    34   6 C    3.984 --    33 C    0.994    28 N    0.994    64 H    0.971
                            63 H    0.967
    35   1 H    0.999 --     1 C    0.980
    36   1 H    0.999 --     1 C    0.980
    37   1 H    0.996 --     1 C    0.981
    38   1 H    0.994 --     4 C    0.960
    39   1 H    0.960 --     6 N    0.928
    40   1 H    0.996 --     9 C    0.961
    41   1 H    0.946 --    13 N    0.877
    42   1 H    0.995 --    15 C    0.965
    43   1 H    0.997 --    16 C    0.970
    44   1 H    0.997 --    17 C    0.969
    45   1 H    0.997 --    18 C    0.961
    46   1 H    0.996 --    22 C    0.953
    47   1 H    0.997 --    22 C    0.959
    48   1 H    0.993 --    22 C    0.947
    49   1 H    0.993 --    23 C    0.948
    50   1 H    0.995 --    23 C    0.953
    51   1 H    0.997 --    23 C    0.959
    52   1 H    0.999 --    25 C    0.968
    53   1 H    0.998 --    26 C    0.968
    54   1 H    0.996 --    29 C    0.970
    55   1 H    0.997 --    29 C    0.972
    56   1 H    0.998 --    30 C    0.972
    57   1 H    1.000 --    30 C    0.969
    58   1 H    0.998 --    32 C    0.982
    59   1 H    0.999 --    32 C    0.983
    60   1 H    1.000 --    32 C    0.976
    61   1 H    0.998 --    33 C    0.973
    62   1 H    0.998 --    33 C    0.973
    63   1 H    0.997 --    34 C    0.967
    64   1 H    0.998 --    34 C    0.971
 ---------------------------------------------------------------------------

Topologies differ in total number of bonds
Writing topology from bond orders to xtbtopo.mol

molecular dipole:
                 x           y           z       tot (Debye)
 q only:        0.330      -1.120       0.802
   full:       -0.420      -1.332       1.175       4.639
molecular quadrupole (traceless):
                xx          xy          yy          xz          yz          zz
 q only:       29.706       7.463     -18.169     -20.897      -7.927     -11.537
  q+dip:       27.312      -3.692     -11.792     -31.209      -9.303     -15.520
   full:       25.814      -2.618     -12.546     -30.287     -10.680     -13.268


           -------------------------------------------------
          | TOTAL ENERGY              -99.509257253365 Eh   |
          | GRADIENT NORM               0.129713722080 Eh/α |
          | HOMO-LUMO GAP               1.956732452414 eV   |
           -------------------------------------------------

------------------------------------------------------------------------
 * finished run on 2026/08/31 at 21:55:22.210     
------------------------------------------------------------------------
 total:
 * wall-time:     0 d,  0 h,  0 min,  0.408 sec
 *  cpu-time:     0 d,  0 h,  0 min,  1.078 sec
 * ratio c/w:     2.642 speedup
 SCF:
 * wall-time:     0 d,  0 h,  0 min,  0.367 sec
 *  cpu-time:     0 d,  0 h,  0 min,  1.000 sec
 * ratio c/w:     2.725 speedup

normal termination of xtb
