      -----------------------------------------------------------      
     |                   =====================                   |     
     |                           x T B                           |     
     |                   =====================                   |     
     |                         S. Grimme                         |     
     |          Mulliken Center for Theoretical Chemistry        |     
     |                    University of Bonn                     |     
      -----------------------------------------------------------      

   * xtb version 6.7.1pre (5071a88) compiled by 'Marcel@Raven' on 2024-07-23

   xtb is free software: you can redistribute it and/or modify it under
   the terms of the GNU Lesser General Public License as published by
   the Free Software Foundation, either version 3 of the License, or
   (at your option) any later version.
   
   xtb is distributed in the hope that it will be useful,
   but WITHOUT ANY WARRANTY; without even the implied warranty of
   MERCHANTABILITY or FITNESS FOR A PARTICULAR PURPOSE.  See the
   GNU Lesser General Public License for more details.
   
   Cite this work as:
   * C. Bannwarth, E. Caldeweyher, S. Ehlert, A. Hansen, P. Pracht,
     J. Seibert, S. Spicher, S. Grimme, WIREs Comput. Mol. Sci., 2020, 11,
     e01493. DOI: 10.1002/wcms.1493
   
   for GFN2-xTB:
   * C. Bannwarth, S. Ehlert and S. Grimme., J. Chem. Theory Comput., 2019,
     15, 1652-1671. DOI: 10.1021/acs.jctc.8b01176
   for GFN1-xTB:
   * S. Grimme, C. Bannwarth, P. Shushkov, J. Chem. Theory Comput., 2017,
     13, 1989-2009. DOI: 10.1021/acs.jctc.7b00118
   for GFN0-xTB:
   * P. Pracht, E. Caldeweyher, S. Ehlert, S. Grimme, ChemRxiv, 2019, preprint.
     DOI: 10.26434/chemrxiv.8326202.v1
   for GFN-FF:
   * S. Spicher and S. Grimme, Angew. Chem. Int. Ed., 2020, 59, 15665-15673.
     DOI: 10.1002/anie.202004239
   
   for ALPB and GBSA implicit solvation:
   * S. Ehlert, M. Stahn, S. Spicher, S. Grimme, J. Chem. Theory Comput.,
     2021, 17, 4250-4261. DOI: 10.1021/acs.jctc.1c00471
   
   for ddCOSMO and CPCM-X implicit solvation:
   * M. Stahn, S. Ehlert, S. Grimme, J. Phys. Chem. A,
     2023, XX, XXXX-XXXX. DOI: 10.1021/acs.jpca.3c04382
   
   for DFT-D4:
   * E. Caldeweyher, C. Bannwarth and S. Grimme, J. Chem. Phys., 2017,
     147, 034112. DOI: 10.1063/1.4993215
   * E. Caldeweyher, S. Ehlert, A. Hansen, H. Neugebauer, S. Spicher,
     C. Bannwarth and S. Grimme, J. Chem. Phys., 2019, 150, 154122.
     DOI: 10.1063/1.5090222
   * E. Caldeweyher, J.-M. Mewes, S. Ehlert and S. Grimme, Phys. Chem. Chem. Phys.
     2020, 22, 8499-8512. DOI: 10.1039/D0CP00502A
   
   for sTDA-xTB:
   * S. Grimme and C. Bannwarth, J. Chem. Phys., 2016, 145, 054103.
     DOI: 10.1063/1.4959605
   
   in the mass-spec context:
   * V. Asgeirsson, C. Bauer and S. Grimme, Chem. Sci., 2017, 8, 4879.
     DOI: 10.1039/c7sc00601b
   * J. Koopman and S. Grimme, ACS Omega 2019, 4, 12, 15120-15133.
     DOI: 10.1021/acsomega.9b02011
   
   for metadynamics refer to:
   * S. Grimme, J. Chem. Theory Comput., 2019, 155, 2847-2862
     DOI: 10.1021/acs.jctc.9b00143
   
   for SPH calculations refer to:
   * S. Spicher and S. Grimme, J. Chem. Theory Comput., 2021, 17, 1701-1714
     DOI: 10.1021/acs.jctc.0c01306
   
   for ONIOM refer to:
   * C. Plett, A. Katbashev, S. Ehlert, S. Grimme, M. Bursch,
     Phys. Chem. Chem. Phys., 2023, 25, 17860-17868. DOI: 10.1039/D3CP02178E
   
   for DIPRO refer to:
   * J. Kohn, N. Gildemeister, S. Grimme, D. Fazzi, A. Hansen,
     J. Chem. Phys., 2023, just accepted.
   
   for PTB refer to:
   * S. Grimme, M. Mueller, A. Hansen, J. Chem. Phys., 2023, 158, 124111.
     DOI: 10.1063/5.0137838
   
   with help from (in alphabetical order)
   P. Atkinson, C. Bannwarth, F. Bohle, G. Brandenburg, E. Caldeweyher
   M. Checinski, S. Dohm, S. Ehlert, S. Ehrlich, I. Gerasimov, C. Hölzer
   A. Katbashev, J. Kohn, J. Koopman, C. Lavigne, S. Lehtola, F. März, M. Müller,
   F. Musil, H. Neugebauer, J. Pisarek, C. Plett, P. Pracht, F. Pultar,
   J. Seibert, P. Shushkov, S. Spicher, M. Stahn, M. Steiner, T. Strunk,
   J. Stückrath, T. Rose, and J. Unsleber
   
 * started run on 2026/08/31 at 20:38:51.198     
   ID    Z sym.   atoms
    1    6 C      1, 2, 4, 5, 7-11, 13, 15, 16, 18, 20-24, 26-29, 33-35
    2    7 N      3, 6, 12, 14, 19, 25, 30-32
    3    9 F      17
    4    1 H      36-65

           -------------------------------------------------
          |                Calculation Setup                |
           -------------------------------------------------

          program call               : "c:\Users\Andre\Proyectos doctorado\kras-pancreatic-gC3N4-ai\tools\xtb\xtb-6.7.1\bin\xtb.exe" "c:\Users\Andre\Proyectos doctorado\mxene-glioblastoma-qsar-ai\calculations\gbm\Abemaciclib\Abemaciclib_drug.xyz" --gfn 2 --sp --chrg 0 --uhf 0 --iterations 500 --norestart
          coordinate file            : c:\Users\Andre\Proyectos doctorado\mxene-glioblastoma-qsar-ai\calculations\gbm\Abemaciclib\Abemaciclib_drug.xyz
          omp threads                :                    16


           -------------------------------------------------
          |                 G F N 2 - x T B                 |
           -------------------------------------------------

        Reference                      10.1021/acs.jctc.8b01176
      * Hamiltonian:
        H0-scaling (s, p, d)           1.850000    2.230000    2.230000
        zeta-weighting                 0.500000
      * Dispersion:
        s8                             2.700000
        a1                             0.520000
        a2                             5.000000
        s9                             5.000000
      * Repulsion:
        kExp                           1.500000    1.000000
        rExp                           1.000000
      * Coulomb:
        alpha                          2.000000
        third order                    shell-resolved
        anisotropic                    true
        a3                             3.000000
        a5                             4.000000
        cn-shift                       1.200000
        cn-exp                         4.000000
        max-rad                        5.000000


          ...................................................
          :                      SETUP                      :
          :.................................................:
          :  # basis functions                 170          :
          :  # atomic orbitals                 170          :
          :  # shells                          100          :
          :  # electrons                       182          :
          :  max. iterations                   500          :
          :  Hamiltonian                  GFN2-xTB          :
          :  restarted?                      false          :
          :  GBSA solvation                  false          :
          :  PC potential                    false          :
          :  electronic temp.          300.0000000     K    :
          :  accuracy                    1.0000000          :
          :  -> integral cutoff          0.2500000E+02      :
          :  -> integral neglect         0.1000000E-07      :
          :  -> SCF convergence          0.1000000E-05 Eh   :
          :  -> wf. convergence          0.1000000E-03 e    :
          :  Broyden damping             0.4000000          :
          :  net charge                          0          :
          :  unpaired electrons                  0          :
          ...................................................

 iter      E             dE          RMSdq      gap      omega  full diag
   1   -101.1315923 -0.101132E+03  0.378E+00    2.65       0.0  T
   2   -101.2118073 -0.802149E-01  0.241E+00    2.85       1.0  T
   3   -101.1661496  0.456577E-01  0.146E+00    2.00       1.0  T
   4   -101.2325260 -0.663763E-01  0.563E-01    1.61       1.0  T
   5   -101.2479529 -0.154270E-01  0.143E-01    1.56       1.0  T
   6   -101.2484140 -0.461053E-03  0.680E-02    1.60       1.0  T
   7   -101.2485156 -0.101652E-03  0.225E-02    1.63       1.0  T
   8   -101.2485239 -0.823350E-05  0.936E-03    1.64       1.3  T
   9   -101.2485258 -0.195767E-05  0.385E-03    1.64       3.2  T
  10   -101.2485262 -0.379030E-06  0.125E-03    1.64       9.9  T
  11   -101.2485263 -0.480139E-07  0.459E-04    1.64      27.0  T
  12   -101.2485263 -0.327383E-08  0.216E-04    1.64      57.4  T

   *** convergence criteria satisfied after 12 iterations ***

         #    Occupation            Energy/Eh            Energy/eV
      -------------------------------------------------------------
         1        2.0000           -0.8362430             -22.7553
       ...           ...                  ...                  ...
        85        2.0000           -0.4011004             -10.9145
        86        2.0000           -0.3925055             -10.6806
        87        2.0000           -0.3901340             -10.6161
        88        2.0000           -0.3810103             -10.3678
        89        2.0000           -0.3744919             -10.1904
        90        2.0000           -0.3603061              -9.8044
        91        2.0000           -0.3476903              -9.4611 (HOMO)
        92                         -0.2873550              -7.8193 (LUMO)
        93                         -0.2678251              -7.2879
        94                         -0.2648879              -7.2080
        95                         -0.2601522              -7.0791
        96                         -0.2515643              -6.8454
       ...                                ...                  ...
       170                          1.0858396              29.5472
      -------------------------------------------------------------
                  HL-Gap            0.0603352 Eh            1.6418 eV
             Fermi-level           -0.3175226 Eh           -8.6402 eV

 SCC (total)                   0 d,  0 h,  0 min,  0.113 sec
 SCC setup                      ...        0 min,  0.001 sec (  0.885%)
 Dispersion                     ...        0 min,  0.001 sec (  0.885%)
 classical contributions        ...        0 min,  0.000 sec (  0.000%)
 integral evaluation            ...        0 min,  0.003 sec (  2.655%)
 iterations                     ...        0 min,  0.098 sec ( 86.726%)
 molecular gradient             ...        0 min,  0.009 sec (  7.964%)
 printout                       ...        0 min,  0.000 sec (  0.000%)

         :::::::::::::::::::::::::::::::::::::::::::::::::::::
         ::                     SUMMARY                     ::
         :::::::::::::::::::::::::::::::::::::::::::::::::::::
         :: total energy             -99.882978337461 Eh    ::
         :: gradient norm              0.113247993453 Eh/a0 ::
         :: HOMO-LUMO gap              1.641805684251 eV    ::
         ::.................................................::
         :: SCC energy              -101.248852078698 Eh    ::
         :: -> isotropic ES            0.081072917161 Eh    ::
         :: -> anisotropic ES          0.015040712787 Eh    ::
         :: -> anisotropic XC          0.081381430018 Eh    ::
         :: -> dispersion             -0.068753100452 Eh    ::
         :: repulsion energy           1.365873741237 Eh    ::
         :: add. restraining           0.000000000000 Eh    ::
         :: total charge              -0.000000000000 e     ::
         :::::::::::::::::::::::::::::::::::::::::::::::::::::

           -------------------------------------------------
          |                Property Printout                |
           -------------------------------------------------

    * Orbital Energies and Occupations

         #    Occupation            Energy/Eh            Energy/eV
      -------------------------------------------------------------
         1        2.0000           -0.8362430             -22.7553
       ...           ...                  ...                  ...
        79        2.0000           -0.4354523             -11.8493
        80        2.0000           -0.4334179             -11.7939
        81        2.0000           -0.4333538             -11.7922
        82        2.0000           -0.4302938             -11.7089
        83        2.0000           -0.4273785             -11.6296
        84        2.0000           -0.4258471             -11.5879
        85        2.0000           -0.4011004             -10.9145
        86        2.0000           -0.3925055             -10.6806
        87        2.0000           -0.3901340             -10.6161
        88        2.0000           -0.3810103             -10.3678
        89        2.0000           -0.3744919             -10.1904
        90        2.0000           -0.3603061              -9.8044
        91        2.0000           -0.3476903              -9.4611 (HOMO)
        92                         -0.2873550              -7.8193 (LUMO)
        93                         -0.2678251              -7.2879
        94                         -0.2648879              -7.2080
        95                         -0.2601522              -7.0791
        96                         -0.2515643              -6.8454
        97                         -0.2289866              -6.2310
        98                         -0.2152003              -5.8559
        99                         -0.1836197              -4.9965
       100                         -0.1375092              -3.7418
       101                         -0.1214316              -3.3043
       102                         -0.1038237              -2.8252
       ...                                ...                  ...
       170                          1.0858396              29.5472
      -------------------------------------------------------------
                  HL-Gap            0.0603352 Eh            1.6418 eV
             Fermi-level           -0.3175226 Eh           -8.6402 eV

     #   Z          covCN         q      C6AA      α(0)
     1   6 C        3.747    -0.105    22.581     6.778
     2   6 C        3.744     0.007    20.527     6.463
     3   7 N        2.722    -0.184    24.987     7.424
     4   6 C        3.750     0.010    20.472     6.453
     5   6 C        3.751     0.010    20.466     6.452
     6   7 N        2.720    -0.184    24.987     7.424
     7   6 C        3.756     0.008    20.489     6.454
     8   6 C        2.957    -0.001    28.058     8.688
     9   6 C        2.926    -0.016    28.409     8.741
    10   6 C        2.914    -0.059    29.475     8.903
    11   6 C        2.861     0.156    24.623     8.134
    12   7 N        2.699    -0.165    24.572     7.362
    13   6 C        2.837     0.239    23.022     7.863
    14   7 N        1.835    -0.249    27.327     7.747
    15   6 C        2.908     0.054    26.783     8.486
    16   6 C        2.767     0.125    25.238     8.227
    17   9 F        0.786    -0.220    11.445     3.996
    18   6 C        2.879     0.155    24.641     8.138
    19   7 N        2.698    -0.155    24.348     7.329
    20   6 C        2.851     0.163    24.483     8.110
    21   6 C        2.910    -0.054    29.351     8.884
    22   6 C        2.930    -0.007    28.199     8.709
    23   6 C        2.961    -0.004    28.122     8.698
    24   6 C        1.905     0.108    28.445     8.613
    25   7 N        0.911    -0.236    26.172     7.399
    26   6 C        2.927     0.104    25.700     8.314
    27   6 C        3.853    -0.010    20.721     6.474
    28   6 C        3.753    -0.099    22.442     6.755
    29   6 C        3.751    -0.103    22.531     6.769
    30   7 N        1.844    -0.265    27.724     7.803
    31   7 N        1.843    -0.309    28.854     7.961
    32   7 N        1.834    -0.238    27.074     7.711
    33   6 C        2.887     0.049    26.904     8.504
    34   6 C        3.755     0.009    20.475     6.452
    35   6 C        3.750     0.010    20.470     6.452
    36   1 H        0.924     0.033     2.548     2.496
    37   1 H        0.924     0.032     2.552     2.498
    38   1 H        0.924     0.033     2.547     2.496
    39   1 H        0.924     0.034     2.530     2.488
    40   1 H        0.924     0.034     2.535     2.490
    41   1 H        0.924     0.034     2.524     2.484
    42   1 H        0.924     0.021     2.719     2.579
    43   1 H        0.924     0.033     2.550     2.497
    44   1 H        0.923     0.019     2.746     2.591
    45   1 H        0.923     0.044     2.401     2.423
    46   1 H        0.923     0.016     2.789     2.612
    47   1 H        0.925     0.054     2.269     2.356
    48   1 H        0.925     0.042     2.416     2.431
    49   1 H        0.860     0.198     1.117     1.656
    50   1 H        0.925     0.074     2.043     2.235
    51   1 H        0.860     0.209     1.062     1.614
    52   1 H        0.925     0.056     2.248     2.345
    53   1 H        0.925     0.046     2.375     2.410
    54   1 H        0.924     0.041     2.431     2.438
    55   1 H        0.924     0.034     2.532     2.488
    56   1 H        0.924     0.046     2.366     2.406
    57   1 H        0.924     0.045     2.381     2.413
    58   1 H        0.924     0.035     2.523     2.484
    59   1 H        0.924     0.052     2.299     2.371
    60   1 H        0.924     0.040     2.448     2.447
    61   1 H        0.925     0.047     2.356     2.401
    62   1 H        0.924     0.031     2.568     2.506
    63   1 H        0.923     0.018     2.759     2.598
    64   1 H        0.924     0.034     2.531     2.488
    65   1 H        0.924     0.021     2.712     2.575

 Mol. C6AA /au·bohr⁶  :      47863.869501
 Mol. C8AA /au·bohr⁸  :    1109705.650177
 Mol. α(0) /au        :        336.983855


Wiberg/Mayer (AO) data.
largest (>0.10) Wiberg bond orders for each atom

 ---------------------------------------------------------------------------
     #   Z sym  total        # sym  WBO       # sym  WBO       # sym  WBO
 ---------------------------------------------------------------------------
     1   6 C    3.997 --     2 C    1.007    36 H    0.985    37 H    0.985
                            38 H    0.985
     2   6 C    3.985 --     1 C    1.007     3 N    1.003    39 H    0.973
                            40 H    0.973
     3   7 N    3.114 --     2 C    1.003    35 C    1.002     4 C    1.001
     4   6 C    3.988 --     3 N    1.001     5 C    1.000    41 H    0.973
                            42 H    0.966
     5   6 C    3.987 --     4 C    1.000     6 N    0.997    43 H    0.974
                            44 H    0.968
     6   7 N    3.096 --    34 C    0.997     5 C    0.997     7 C    0.995
     7   6 C    3.987 --     8 C    1.004     6 N    0.995    46 H    0.963
                            45 H    0.957
     8   6 C    3.981 --    33 C    1.421     9 C    1.389     7 C    1.004
     9   6 C    3.987 --    10 C    1.468     8 C    1.389    47 H    0.967
                            32 N    0.101
    10   6 C    3.986 --     9 C    1.468    11 C    1.356    48 H    0.968
                            33 C    0.111
    11   6 C    3.962 --    32 N    1.387    10 C    1.356    12 N    1.060
    12   7 N    3.399 --    13 C    1.152    11 C    1.060    49 H    0.921
    13   6 C    3.964 --    14 N    1.349    31 N    1.322    12 N    1.152
    14   7 N    3.035 --    15 C    1.412    13 C    1.349
    15   6 C    3.974 --    16 C    1.419    14 N    1.412    50 H    0.958
    16   6 C    3.874 --    15 C    1.419    18 C    1.294    17 F    0.956
    17   9 F    1.085 --    16 C    0.956
    18   6 C    3.971 --    31 N    1.366    16 C    1.294    19 N    1.117
    19   7 N    3.435 --    20 C    1.119    18 C    1.117    51 H    0.919
    20   6 C    3.948 --    30 N    1.355    21 C    1.340    19 N    1.119
    21   6 C    3.984 --    22 C    1.475    20 C    1.340    52 H    0.964
    22   6 C    3.988 --    21 C    1.475    23 C    1.347    53 H    0.970
    23   6 C    3.981 --    22 C    1.347    26 C    1.337    24 C    1.088
    24   6 C    3.941 --    25 N    2.797    23 C    1.088
    25   7 N    2.976 --    24 C    2.797
    26   6 C    3.969 --    30 N    1.405    23 C    1.337    27 C    0.997
    27   6 C    3.993 --    29 C    1.000    26 C    0.997    28 C    0.988
                            54 H    0.963
    28   6 C    3.994 --    27 C    0.988    55 H    0.987    56 H    0.986
                            57 H    0.983
    29   6 C    3.994 --    27 C    1.000    58 H    0.987    60 H    0.986
                            59 H    0.985
    30   7 N    3.041 --    26 C    1.405    20 C    1.355
    31   7 N    3.021 --    18 C    1.366    13 C    1.322
    32   7 N    3.049 --    33 C    1.416    11 C    1.387     9 C    0.101
    33   6 C    3.978 --     8 C    1.421    32 N    1.416    61 H    0.962
                            10 C    0.111
    34   6 C    3.986 --    35 C    0.999     6 N    0.997    62 H    0.974
                            63 H    0.968
    35   6 C    3.988 --     3 N    1.002    34 C    0.999    64 H    0.973
                            65 H    0.966
    36   1 H    0.999 --     1 C    0.985
    37   1 H    0.999 --     1 C    0.985
    38   1 H    0.999 --     1 C    0.985
    39   1 H    0.999 --     2 C    0.973
    40   1 H    0.999 --     2 C    0.973
    41   1 H    0.998 --     4 C    0.973
    42   1 H    1.000 --     4 C    0.966
    43   1 H    0.999 --     5 C    0.974
    44   1 H    1.000 --     5 C    0.968
    45   1 H    0.997 --     7 C    0.957
    46   1 H    0.999 --     7 C    0.963
    47   1 H    0.997 --     9 C    0.967
    48   1 H    0.998 --    10 C    0.968
    49   1 H    0.961 --    12 N    0.921
    50   1 H    0.994 --    15 C    0.958
    51   1 H    0.956 --    19 N    0.919
    52   1 H    0.995 --    21 C    0.964
    53   1 H    0.997 --    22 C    0.970
    54   1 H    0.998 --    27 C    0.963
    55   1 H    0.999 --    28 C    0.987
    56   1 H    0.998 --    28 C    0.986
    57   1 H    0.997 --    28 C    0.983
    58   1 H    0.999 --    29 C    0.987
    59   1 H    0.997 --    29 C    0.985
    60   1 H    0.998 --    29 C    0.986
    61   1 H    0.998 --    33 C    0.962
    62   1 H    0.999 --    34 C    0.974
    63   1 H    1.000 --    34 C    0.968
    64   1 H    0.998 --    35 C    0.973
    65   1 H    1.000 --    35 C    0.966
 ---------------------------------------------------------------------------

Topologies differ in total number of bonds
Writing topology from bond orders to xtbtopo.mol

molecular dipole:
                 x           y           z       tot (Debye)
 q only:       -1.195      -0.206      -0.157
   full:       -1.496      -0.133      -0.128       3.832
molecular quadrupole (traceless):
                xx          xy          yy          xz          yz          zz
 q only:        7.767       9.083      -2.596     -20.903      11.756      -5.171
  q+dip:        1.436      14.590       1.719     -29.933      13.390      -3.155
   full:        0.537      17.053       1.705     -29.349      18.254      -2.242


           -------------------------------------------------
          | TOTAL ENERGY              -99.882978337461 Eh   |
          | GRADIENT NORM               0.113247993453 Eh/α |
          | HOMO-LUMO GAP               1.641805684251 eV   |
           -------------------------------------------------

------------------------------------------------------------------------
 * finished run on 2026/08/31 at 20:38:51.363     
------------------------------------------------------------------------
 total:
 * wall-time:     0 d,  0 h,  0 min,  0.164 sec
 *  cpu-time:     0 d,  0 h,  0 min,  0.953 sec
 * ratio c/w:     5.812 speedup
 SCF:
 * wall-time:     0 d,  0 h,  0 min,  0.113 sec
 *  cpu-time:     0 d,  0 h,  0 min,  0.781 sec
 * ratio c/w:     6.914 speedup

normal termination of xtb
