98
Drug@Ti12C7O14 non-overlapping complex
C     -9.416797     -1.767274      9.238365
C     -9.366419     -0.242227      9.218853
N     -8.203327      0.396461      9.840492
C     -6.931037      0.069152      9.175733
C     -5.742516      0.834959      9.804439
N     -5.617356      0.584007     11.258663
C     -4.534365      1.383420     11.853398
C     -3.158463      0.935546     11.430718
C     -2.741854     -0.388769     11.555283
C     -1.453856     -0.747307     11.159931
C     -0.589101      0.222889     10.652402
N      0.699604     -0.186337     10.270734
C      1.650608      0.589056      9.611984
N      1.308081      1.392206      8.592321
C      2.296436      2.075050      7.989045
C      3.611130      1.960961      8.352417
F      4.568147      2.649600      7.715206
C      3.902743      1.090491      9.389004
N      5.247133      0.974670      9.801361
C      5.797420      0.207359     10.824373
C      5.153322     -0.030100     12.029383
C      5.795063     -0.782574     13.011097
C      7.075790     -1.282552     12.774207
C      7.730185     -2.039475     13.797344
N      8.257221     -2.652507     14.630008
C      7.673279     -1.007154     11.542787
C      9.080548     -1.473510     11.199350
C     10.083549     -0.348216     11.456598
C      9.181274     -1.960817      9.749681
N      7.045498     -0.255840     10.593104
N      2.922404      0.406781     10.019220
N     -0.976256      1.509809     10.543325
C     -2.233296      1.836983     10.923881
C     -6.905268      0.902410     11.911433
C     -8.091052      0.133120     11.283667
H    -10.332261     -2.110777      8.744621
H     -9.429519     -2.161602     10.258513
H     -8.572215     -2.209899      8.702542
H     -9.433465      0.094258      8.176501
H    -10.274099      0.141311      9.701798
H     -6.988937      0.339811      8.114699
H     -6.721188     -1.006317      9.231119
H     -4.831091      0.513671      9.287143
H     -5.867771      1.908876      9.609627
H     -4.564828      1.289366     12.947393
H     -4.676434      2.449701     11.632052
H     -3.422225     -1.143469     11.942267
H     -1.137726     -1.782590     11.235105
H      1.174337     -0.672022     11.017481
H      1.992840      2.730994      7.181230
H      5.895473      0.977570      9.020304
H      4.167047      0.377677     12.223455
H      5.291636     -0.963669     13.958442
H      9.352415     -2.329189     11.827812
H     10.051396     -0.022977     12.502391
H      9.876147      0.527203     10.830675
H     11.104317     -0.681930     11.241565
H      8.452037     -2.754477      9.552538
H      9.000397     -1.152803      9.031969
H     10.179570     -2.364671      9.548815
H     -2.476722      2.888761     10.799198
H     -6.851167      0.633716     12.973461
H     -7.108376      1.980739     11.856712
H     -9.010655      0.450113     11.789824
H     -7.957408     -0.937647     11.481915
Ti     -2.141866     -3.008818      2.119748
Ti      0.288991     -1.694759      1.432425
Ti      1.903098     -3.067749     -0.729322
Ti     -2.521502     -0.251928      1.303687
Ti      2.142050      0.499533      2.204434
Ti     -0.681448      0.189635      3.681230
Ti     -2.036770     -3.077740     -1.200512
Ti     -0.605340     -0.770900     -2.035132
Ti      1.945488     -1.587317     -3.412400
Ti     -1.878170      1.746573     -1.240030
Ti      2.412512      0.454231     -0.774247
Ti      0.817742      1.838452     -2.940004
C     -3.678414      1.281398      0.600737
C      4.128193      0.482847      0.387293
C      0.455479      2.267202      0.349695
C     -3.666709      2.118834     -0.313920
C      4.115962      0.632239      1.621354
C     -0.635167      2.741046     -0.118921
C      1.630072      1.780996      0.734224
O     -3.093456     -1.956907      1.037949
O     -0.487250     -2.605849      2.701203
O      0.314079     -2.888890      0.145001
O     -0.800785     -0.435934      0.971227
O      1.902865     -1.158331      1.469449
O     -2.322673     -0.113878      3.024800
O      1.013786      0.441598      3.568761
O     -1.772019     -4.587905     -1.652810
O      0.190605     -1.189189     -3.534030
O      2.831420     -2.170248     -1.918042
O     -2.054558     -0.224445     -1.337505
O      0.768511     -0.390574     -1.063664
O     -0.900039      1.649313     -2.818565
O      2.415313      1.357463     -2.264115
