      -----------------------------------------------------------      
     |                   =====================                   |     
     |                           x T B                           |     
     |                   =====================                   |     
     |                         S. Grimme                         |     
     |          Mulliken Center for Theoretical Chemistry        |     
     |                    University of Bonn                     |     
      -----------------------------------------------------------      

   * xtb version 6.7.1pre (5071a88) compiled by 'Marcel@Raven' on 2024-07-23

   xtb is free software: you can redistribute it and/or modify it under
   the terms of the GNU Lesser General Public License as published by
   the Free Software Foundation, either version 3 of the License, or
   (at your option) any later version.
   
   xtb is distributed in the hope that it will be useful,
   but WITHOUT ANY WARRANTY; without even the implied warranty of
   MERCHANTABILITY or FITNESS FOR A PARTICULAR PURPOSE.  See the
   GNU Lesser General Public License for more details.
   
   Cite this work as:
   * C. Bannwarth, E. Caldeweyher, S. Ehlert, A. Hansen, P. Pracht,
     J. Seibert, S. Spicher, S. Grimme, WIREs Comput. Mol. Sci., 2020, 11,
     e01493. DOI: 10.1002/wcms.1493
   
   for GFN2-xTB:
   * C. Bannwarth, S. Ehlert and S. Grimme., J. Chem. Theory Comput., 2019,
     15, 1652-1671. DOI: 10.1021/acs.jctc.8b01176
   for GFN1-xTB:
   * S. Grimme, C. Bannwarth, P. Shushkov, J. Chem. Theory Comput., 2017,
     13, 1989-2009. DOI: 10.1021/acs.jctc.7b00118
   for GFN0-xTB:
   * P. Pracht, E. Caldeweyher, S. Ehlert, S. Grimme, ChemRxiv, 2019, preprint.
     DOI: 10.26434/chemrxiv.8326202.v1
   for GFN-FF:
   * S. Spicher and S. Grimme, Angew. Chem. Int. Ed., 2020, 59, 15665-15673.
     DOI: 10.1002/anie.202004239
   
   for ALPB and GBSA implicit solvation:
   * S. Ehlert, M. Stahn, S. Spicher, S. Grimme, J. Chem. Theory Comput.,
     2021, 17, 4250-4261. DOI: 10.1021/acs.jctc.1c00471
   
   for ddCOSMO and CPCM-X implicit solvation:
   * M. Stahn, S. Ehlert, S. Grimme, J. Phys. Chem. A,
     2023, XX, XXXX-XXXX. DOI: 10.1021/acs.jpca.3c04382
   
   for DFT-D4:
   * E. Caldeweyher, C. Bannwarth and S. Grimme, J. Chem. Phys., 2017,
     147, 034112. DOI: 10.1063/1.4993215
   * E. Caldeweyher, S. Ehlert, A. Hansen, H. Neugebauer, S. Spicher,
     C. Bannwarth and S. Grimme, J. Chem. Phys., 2019, 150, 154122.
     DOI: 10.1063/1.5090222
   * E. Caldeweyher, J.-M. Mewes, S. Ehlert and S. Grimme, Phys. Chem. Chem. Phys.
     2020, 22, 8499-8512. DOI: 10.1039/D0CP00502A
   
   for sTDA-xTB:
   * S. Grimme and C. Bannwarth, J. Chem. Phys., 2016, 145, 054103.
     DOI: 10.1063/1.4959605
   
   in the mass-spec context:
   * V. Asgeirsson, C. Bauer and S. Grimme, Chem. Sci., 2017, 8, 4879.
     DOI: 10.1039/c7sc00601b
   * J. Koopman and S. Grimme, ACS Omega 2019, 4, 12, 15120-15133.
     DOI: 10.1021/acsomega.9b02011
   
   for metadynamics refer to:
   * S. Grimme, J. Chem. Theory Comput., 2019, 155, 2847-2862
     DOI: 10.1021/acs.jctc.9b00143
   
   for SPH calculations refer to:
   * S. Spicher and S. Grimme, J. Chem. Theory Comput., 2021, 17, 1701-1714
     DOI: 10.1021/acs.jctc.0c01306
   
   for ONIOM refer to:
   * C. Plett, A. Katbashev, S. Ehlert, S. Grimme, M. Bursch,
     Phys. Chem. Chem. Phys., 2023, 25, 17860-17868. DOI: 10.1039/D3CP02178E
   
   for DIPRO refer to:
   * J. Kohn, N. Gildemeister, S. Grimme, D. Fazzi, A. Hansen,
     J. Chem. Phys., 2023, just accepted.
   
   for PTB refer to:
   * S. Grimme, M. Mueller, A. Hansen, J. Chem. Phys., 2023, 158, 124111.
     DOI: 10.1063/5.0137838
   
   with help from (in alphabetical order)
   P. Atkinson, C. Bannwarth, F. Bohle, G. Brandenburg, E. Caldeweyher
   M. Checinski, S. Dohm, S. Ehlert, S. Ehrlich, I. Gerasimov, C. Hölzer
   A. Katbashev, J. Kohn, J. Koopman, C. Lavigne, S. Lehtola, F. März, M. Müller,
   F. Musil, H. Neugebauer, J. Pisarek, C. Plett, P. Pracht, F. Pultar,
   J. Seibert, P. Shushkov, S. Spicher, M. Stahn, M. Steiner, T. Strunk,
   J. Stückrath, T. Rose, and J. Unsleber
   
 * started run on 2026/08/31 at 20:39:21.362     
   ID    Z sym.   atoms
    1    6 C      1, 2, 4, 5, 7-11, 13, 15, 16, 18, 20-24, 26-29, 33-35, 78-84
    2    7 N      3, 6, 12, 14, 19, 25, 30-32
    3    9 F      17
    4    1 H      36-65
    5   22 Ti     66-77
    6    8 O      85-98

           -------------------------------------------------
          |                Calculation Setup                |
           -------------------------------------------------

          program call               : "c:\Users\Andre\Proyectos doctorado\kras-pancreatic-gC3N4-ai\tools\xtb\xtb-6.7.1\bin\xtb.exe" "c:\Users\Andre\Proyectos doctorado\mxene-glioblastoma-qsar-ai\calculations\gbm\Abemaciclib\Abemaciclib_Ti3C2O2_complex.xyz" --gfn 2 --sp --chrg 0 --uhf 0 --iterations 500 --norestart
          coordinate file            : c:\Users\Andre\Proyectos doctorado\mxene-glioblastoma-qsar-ai\calculations\gbm\Abemaciclib\Abemaciclib_Ti3C2O2_complex.xyz
          omp threads                :                    16


molecular fragmentation (1/2 indicates fragments):
111111111111111111111111111111111111111111111111111111111111111111111111
11111221221122222222222222
# atoms in fragment 1/2:    80    18
 fragment masses (1/2) :     1086.00      272.03
CMA distance (Bohr)    :   4.556
constraining FC (au)   :  0.0500

           -------------------------------------------------
          |                 G F N 2 - x T B                 |
           -------------------------------------------------

        Reference                      10.1021/acs.jctc.8b01176
      * Hamiltonian:
        H0-scaling (s, p, d)           1.850000    2.230000    2.230000
        zeta-weighting                 0.500000
      * Dispersion:
        s8                             2.700000
        a1                             0.520000
        a2                             5.000000
        s9                             5.000000
      * Repulsion:
        kExp                           1.500000    1.000000
        rExp                           1.000000
      * Coulomb:
        alpha                          2.000000
        third order                    shell-resolved
        anisotropic                    true
        a3                             3.000000
        a5                             4.000000
        cn-shift                       1.200000
        cn-exp                         4.000000
        max-rad                        5.000000


          ...................................................
          :                      SETUP                      :
          :.................................................:
          :  # basis functions                 374          :
          :  # atomic orbitals                 362          :
          :  # shells                          178          :
          :  # electrons                       342          :
          :  max. iterations                   500          :
          :  Hamiltonian                  GFN2-xTB          :
          :  restarted?                      false          :
          :  GBSA solvation                  false          :
          :  PC potential                    false          :
          :  electronic temp.          300.0000000     K    :
          :  accuracy                    1.0000000          :
          :  -> integral cutoff          0.2500000E+02      :
          :  -> integral neglect         0.1000000E-07      :
          :  -> SCF convergence          0.1000000E-05 Eh   :
          :  -> wf. convergence          0.1000000E-03 e    :
          :  Broyden damping             0.4000000          :
          :  net charge                          0          :
          :  unpaired electrons                  0          :
          ...................................................

 iter      E             dE          RMSdq      gap      omega  full diag
   1   -184.4503199 -0.184450E+03  0.123E+01    0.03       0.0  T
   2    -57.4924327  0.126958E+03  0.228E+01    0.07       1.0  T
   3    -97.0461056 -0.395537E+02  0.208E+01    0.04       1.0  T
   4   -185.0194251 -0.879733E+02  0.103E+01    0.05       1.0  T
   5   -174.7802521  0.102392E+02  0.114E+01    0.08       1.0  T
   6   -176.5821106 -0.180186E+01  0.105E+01    0.05       1.0  T
   7   -189.4248719 -0.128428E+02  0.751E+00    0.15       1.0  T
   8   -188.5541026  0.870769E+00  0.701E+00    0.17       1.0  T
   9   -188.0425325  0.511570E+00  0.670E+00    0.09       1.0  T
  10   -190.5370915 -0.249456E+01  0.612E+00    0.04       1.0  T
  11   -188.7540216  0.178307E+01  0.537E+00    0.10       1.0  T
  12   -189.4992550 -0.745233E+00  0.489E+00    0.13       1.0  T
  13   -190.3100415 -0.810787E+00  0.407E+00    0.04       1.0  T
  14   -191.5681604 -0.125812E+01  0.345E+00    0.09       1.0  T
  15   -191.9514101 -0.383250E+00  0.325E+00    0.03       1.0  T
  16   -192.2158219 -0.264412E+00  0.293E+00    0.10       1.0  T
  17   -192.1528112  0.630107E-01  0.294E+00    0.04       1.0  T
  18   -192.1741434 -0.213322E-01  0.295E+00    0.09       1.0  T
  19   -192.4212662 -0.247123E+00  0.255E+00    0.05       1.0  T
  20   -192.5138785 -0.926124E-01  0.212E+00    0.05       1.0  T
  21   -192.6430681 -0.129190E+00  0.182E+00    0.07       1.0  T
  22   -192.6428856  0.182536E-03  0.151E+00    0.01       1.0  T
  23   -192.5671222  0.757634E-01  0.177E+00    0.11       1.0  T
  24   -192.5708548 -0.373263E-02  0.138E+00    0.11       1.0  T
  25   -192.5784180 -0.756317E-02  0.133E+00    0.11       1.0  T
  26   -191.8635209  0.714897E+00  0.214E+00    0.06       1.0  T
  27   -192.5247527 -0.661232E+00  0.120E+00    0.03       1.0  T
  28   -192.6259885 -0.101236E+00  0.963E-01    0.06       1.0  T
  29   -191.9856013  0.640387E+00  0.194E+00    0.04       1.0  T
  30   -192.7341110 -0.748510E+00  0.418E-01    0.01       1.0  T
  31   -192.7409999 -0.688891E-02  0.347E-01    0.01       1.0  T
  32   -192.7431233 -0.212348E-02  0.337E-01    0.02       1.0  T
  33   -192.7380812  0.504213E-02  0.359E-01    0.03       1.0  T
  34   -192.7382180 -0.136777E-03  0.314E-01    0.02       1.0  T
  35   -192.7437273 -0.550930E-02  0.259E-01    0.01       1.0  T
  36   -192.7450983 -0.137104E-02  0.214E-01    0.01       1.0  T
  37   -192.7465598 -0.146152E-02  0.182E-01    0.01       1.0  T
  38   -192.7484151 -0.185520E-02  0.221E-01    0.01       1.0  T
  39   -192.7493777 -0.962682E-03  0.159E-01    0.01       1.0  T
  40   -192.7496808 -0.303107E-03  0.118E-01    0.01       1.0  T
  41   -192.7493071  0.373736E-03  0.117E-01    0.01       1.0  T
  42   -192.7501989 -0.891771E-03  0.955E-02    0.01       1.0  T
  43   -192.7505363 -0.337442E-03  0.837E-02    0.01       1.0  T
  44   -192.7505482 -0.118595E-04  0.811E-02    0.01       1.0  T
  45   -192.7510961 -0.547935E-03  0.624E-02    0.01       1.0  T
  46   -192.7512972 -0.201100E-03  0.516E-02    0.01       1.0  T
  47   -192.7513997 -0.102444E-03  0.453E-02    0.01       1.0  T
  48   -192.7515802 -0.180535E-03  0.297E-02    0.01       1.0  T
  49   -192.7516745 -0.942610E-04  0.125E-02    0.01       1.0  T
  50   -192.7516877 -0.132599E-04  0.744E-03    0.01       1.4  T
  51   -192.7516924 -0.467155E-05  0.338E-03    0.01       3.0  T
  52   -192.7516844  0.798034E-05  0.667E-03    0.01       1.5  T
  53   -192.7516907 -0.631716E-05  0.455E-03    0.01       2.2  T
  54   -192.7516930 -0.232252E-05  0.314E-03    0.01       3.2  T
  55   -192.7516937 -0.700752E-06  0.238E-03    0.01       4.2  T
  56   -192.7516940 -0.203963E-06  0.159E-03    0.01       6.3  T
  57   -192.7516939  0.931566E-07  0.140E-03    0.01       7.2  T
  58   -192.7516930  0.875370E-06  0.247E-03    0.01       4.1  T
  59   -192.7516942 -0.123549E-05  0.797E-04    0.01      12.7  T
  60   -192.7516942 -0.249503E-07  0.585E-04    0.01      17.3  T
  61   -192.7516943 -0.327933E-07  0.210E-04    0.01      48.2  T

   *** convergence criteria satisfied after 61 iterations ***

         #    Occupation            Energy/Eh            Energy/eV
      -------------------------------------------------------------
         1        2.0000           -0.9380055             -25.5244
       ...           ...                  ...                  ...
       165        2.0000           -0.3776995             -10.2777
       166        2.0000           -0.3767308             -10.2514
       167        2.0000           -0.3763600             -10.2413
       168        1.9998           -0.3690339             -10.0419
       169        1.9972           -0.3664851              -9.9726
       170        1.8898           -0.3629410              -9.8761
       171        0.9469           -0.3601398              -9.7999 (HOMO)
       172        0.7188           -0.3596917              -9.7877 (LUMO)
       173        0.4298           -0.3590099              -9.7692
       174        0.0177           -0.3557556              -9.6806
       175                         -0.3431236              -9.3369
       176                         -0.3422917              -9.3142
       ...                                ...                  ...
       362                         18.6703422             508.0459
      -------------------------------------------------------------
                  HL-Gap            0.0004480 Eh            0.0122 eV
             Fermi-level           -0.3602408 Eh           -9.8027 eV

 SCC (total)                   0 d,  0 h,  0 min,  1.983 sec
 SCC setup                      ...        0 min,  0.001 sec (  0.050%)
 Dispersion                     ...        0 min,  0.002 sec (  0.101%)
 classical contributions        ...        0 min,  0.000 sec (  0.000%)
 integral evaluation            ...        0 min,  0.013 sec (  0.656%)
 iterations                     ...        0 min,  1.940 sec ( 97.832%)
 molecular gradient             ...        0 min,  0.024 sec (  1.210%)
 printout                       ...        0 min,  0.003 sec (  0.151%)

         :::::::::::::::::::::::::::::::::::::::::::::::::::::
         ::                     SUMMARY                     ::
         :::::::::::::::::::::::::::::::::::::::::::::::::::::
         :: total energy            -186.207764503285 Eh    ::
         :: gradient norm              5.694229287671 Eh/a0 ::
         :: HOMO-LUMO gap              0.012191527688 eV    ::
         ::.................................................::
         :: SCC energy              -192.746939019412 Eh    ::
         :: -> isotropic ES            0.800530835316 Eh    ::
         :: -> anisotropic ES          0.004286490320 Eh    ::
         :: -> anisotropic XC         -0.024732933350 Eh    ::
         :: -> dispersion             -0.177535762341 Eh    ::
         :: repulsion energy           6.539174516127 Eh    ::
         :: add. restraining           0.000000000000 Eh    ::
         :: total charge              -0.000000000004 e     ::
         :::::::::::::::::::::::::::::::::::::::::::::::::::::

           -------------------------------------------------
          |                Property Printout                |
           -------------------------------------------------

    * Orbital Energies and Occupations

         #    Occupation            Energy/Eh            Energy/eV
      -------------------------------------------------------------
         1        2.0000           -0.9380055             -25.5244
       ...           ...                  ...                  ...
       159        2.0000           -0.3963036             -10.7840
       160        2.0000           -0.3948686             -10.7449
       161        2.0000           -0.3928252             -10.6893
       162        2.0000           -0.3917273             -10.6594
       163        2.0000           -0.3840585             -10.4508
       164        2.0000           -0.3828008             -10.4165
       165        2.0000           -0.3776995             -10.2777
       166        2.0000           -0.3767308             -10.2514
       167        2.0000           -0.3763600             -10.2413
       168        1.9998           -0.3690339             -10.0419
       169        1.9972           -0.3664851              -9.9726
       170        1.8898           -0.3629410              -9.8761
       171        0.9469           -0.3601398              -9.7999 (HOMO)
       172        0.7188           -0.3596917              -9.7877 (LUMO)
       173        0.4298           -0.3590099              -9.7692
       174        0.0177           -0.3557556              -9.6806
       175                         -0.3431236              -9.3369
       176                         -0.3422917              -9.3142
       177                         -0.3376214              -9.1871
       178                         -0.3348945              -9.1129
       179                         -0.3337557              -9.0820
       180                         -0.3299520              -8.9784
       181                         -0.3287922              -8.9469
       182                         -0.3255260              -8.8580
       ...                                ...                  ...
       362                         18.6703422             508.0459
      -------------------------------------------------------------
                  HL-Gap            0.0004480 Eh            0.0122 eV
             Fermi-level           -0.3602408 Eh           -9.8027 eV

     #   Z          covCN         q      C6AA      α(0)
     1   6 C        3.747    -0.112    22.720     6.799
     2   6 C        3.744    -0.001    20.675     6.487
     3   7 N        2.722    -0.152    24.282     7.319
     4   6 C        3.750    -0.003    20.702     6.489
     5   6 C        3.751    -0.006    20.746     6.496
     6   7 N        2.720    -0.161    24.486     7.349
     7   6 C        3.756    -0.003    20.681     6.484
     8   6 C        2.957     0.005    27.916     8.666
     9   6 C        2.926    -0.014    28.369     8.735
    10   6 C        2.914    -0.051    29.276     8.873
    11   6 C        2.861     0.158    24.584     8.127
    12   7 N        2.699    -0.134    23.909     7.262
    13   6 C        2.920     0.239    23.030     7.870
    14   7 N        3.834    -0.121    23.629     7.220
    15   6 C        4.253     0.222    17.072     5.868
    16   6 C        2.770     0.050    26.857     8.487
    17   9 F        0.786    -0.216    11.406     3.989
    18   6 C        2.879     0.152    24.701     8.148
    19   7 N        2.698    -0.136    23.947     7.268
    20   6 C        2.851     0.159    24.551     8.121
    21   6 C        2.910    -0.055    29.358     8.885
    22   6 C        2.930    -0.006    28.173     8.705
    23   6 C        2.961     0.001    28.015     8.682
    24   6 C        1.905     0.108    28.423     8.610
    25   7 N        0.911    -0.227    25.956     7.368
    26   6 C        2.927     0.105    25.687     8.312
    27   6 C        3.853    -0.012    20.750     6.479
    28   6 C        3.753    -0.103    22.517     6.767
    29   6 C        3.751    -0.110    22.667     6.790
    30   7 N        1.844    -0.254    27.459     7.766
    31   7 N        1.843    -0.287    28.301     7.884
    32   7 N        1.834    -0.221    26.669     7.653
    33   6 C        2.887     0.053    26.812     8.489
    34   6 C        3.755    -0.000    20.636     6.477
    35   6 C        3.750     0.000    20.633     6.478
    36   1 H        0.924     0.040     2.445     2.445
    37   1 H        0.924     0.038     2.475     2.460
    38   1 H        0.924     0.038     2.481     2.463
    39   1 H        0.924     0.043     2.414     2.430
    40   1 H        0.924     0.042     2.420     2.433
    41   1 H        0.924     0.047     2.354     2.400
    42   1 H        0.924     0.040     2.443     2.444
    43   1 H        0.924     0.061     2.186     2.312
    44   1 H        0.923     0.038     2.481     2.463
    45   1 H        0.923     0.052     2.290     2.366
    46   1 H        0.923     0.029     2.607     2.525
    47   1 H        0.925     0.070     2.091     2.261
    48   1 H        0.925     0.070     2.081     2.256
    49   1 H        0.860     0.228     0.976     1.547
    50   1 H        2.036     0.500     0.329     0.896
    51   1 H        0.860     0.222     1.000     1.567
    52   1 H        0.925     0.063     2.163     2.300
    53   1 H        0.925     0.055     2.259     2.351
    54   1 H        0.924     0.046     2.365     2.405
    55   1 H        0.924     0.036     2.499     2.472
    56   1 H        0.924     0.048     2.349     2.397
    57   1 H        0.924     0.049     2.331     2.388
    58   1 H        0.924     0.038     2.474     2.460
    59   1 H        0.924     0.053     2.281     2.362
    60   1 H        0.924     0.045     2.385     2.415
    61   1 H        0.925     0.065     2.142     2.289
    62   1 H        0.924     0.040     2.448     2.447
    63   1 H        0.923     0.029     2.603     2.523
    64   1 H        0.924     0.043     2.406     2.426
    65   1 H        0.924     0.036     2.507     2.476
    66  22 Ti       4.151     0.762    91.710    16.233
    67  22 Ti       6.350     0.705    92.549    15.619
    68  22 Ti       4.151     0.750    91.842    16.245
    69  22 Ti       7.449     1.001    89.421    15.353
    70  22 Ti       8.141     0.796    91.567    15.536
    71  22 Ti       7.133     0.714    92.442    15.610
    72  22 Ti       4.151     0.782    91.499    16.214
    73  22 Ti       6.350     0.736    92.214    15.591
    74  22 Ti       4.151     0.771    91.616    16.225
    75  22 Ti       7.449     1.021    89.222    15.336
    76  22 Ti       7.449     1.030    89.127    15.328
    77  22 Ti       6.519     1.052    88.901    15.308
    78   6 C        5.128    -0.695    38.352     8.795
    79   6 C        5.128    -0.675    37.611     8.710
    80   6 C        5.649    -0.516    32.370     8.080
    81   6 C        2.445    -0.403    40.453    10.377
    82   6 C        2.445    -0.442    41.934    10.566
    83   6 C        2.445    -0.298    36.801     9.898
    84   6 C        2.445    -0.468    42.933    10.691
    85   8 O        0.728    -0.530    24.519     6.635
    86   8 O        0.729    -0.565    25.341     6.746
    87   8 O        0.728    -0.540    24.754     6.667
    88   8 O        0.729    -0.639    27.164     6.984
    89   8 O        1.451    -0.650    26.624     6.954
    90   8 O        0.753    -0.579    25.664     6.789
    91   8 O        3.265    -0.185    17.074     5.581
    92   8 O        0.728    -0.529    24.508     6.634
    93   8 O        0.729    -0.563    25.299     6.740
    94   8 O        0.728    -0.527    24.468     6.629
    95   8 O        0.729    -0.637    27.115     6.978
    96   8 O        0.729    -0.645    27.322     7.004
    97   8 O        0.753    -0.552    25.016     6.703
    98   8 O        0.753    -0.552    25.029     6.705

 Mol. C6AA /au·bohr⁶  :     195453.296120
 Mol. C8AA /au·bohr⁸  :    7995715.360448
 Mol. α(0) /au        :        679.839298


Wiberg/Mayer (AO) data.
largest (>0.10) Wiberg bond orders for each atom

 ---------------------------------------------------------------------------
     #   Z sym  total        # sym  WBO       # sym  WBO       # sym  WBO
 ---------------------------------------------------------------------------
     1   6 C    3.986 --     2 C    1.005    37 H    0.985    36 H    0.984
                            38 H    0.984
     2   6 C    3.980 --     1 C    1.005     3 N    1.001    40 H    0.972
                            39 H    0.971
     3   7 N    3.096 --     2 C    1.001     4 C    1.001    35 C    1.001
     4   6 C    3.972 --     3 N    1.001     5 C    0.999    41 H    0.969
                            42 H    0.953
     5   6 C    3.967 --     4 C    0.999     6 N    0.998    44 H    0.963
                            43 H    0.957
     6   7 N    3.090 --    34 C    0.998     5 C    0.998     7 C    0.993
     7   6 C    3.983 --     8 C    1.004     6 N    0.993    46 H    0.961
                            45 H    0.957
     8   6 C    3.974 --    33 C    1.419     9 C    1.389     7 C    1.004
     9   6 C    3.984 --    10 C    1.464     8 C    1.389    47 H    0.965
                            32 N    0.101
    10   6 C    3.977 --     9 C    1.464    11 C    1.352    48 H    0.962
                            33 C    0.110
    11   6 C    3.952 --    32 N    1.384    10 C    1.352    12 N    1.040
    12   7 N    3.442 --    13 C    1.199    11 C    1.040    49 H    0.909
    13   6 C    3.950 --    31 N    1.303    12 N    1.199    14 N    1.189
    14   7 N    3.190 --    13 C    1.189    15 C    1.068    89 O    0.180
                            70 Ti   0.151    71 Ti   0.132
    15   6 C    3.897 --    16 C    1.265    91 O    1.172    14 N    1.068
    16   6 C    3.796 --    15 C    1.265    18 C    1.234    17 F    0.927
                            91 O    0.111
    17   9 F    1.069 --    16 C    0.927
    18   6 C    3.966 --    31 N    1.339    16 C    1.234    19 N    1.145
    19   7 N    3.436 --    18 C    1.145    20 C    1.099    51 H    0.911
    20   6 C    3.941 --    30 N    1.362    21 C    1.347    19 N    1.099
    21   6 C    3.981 --    22 C    1.469    20 C    1.347    52 H    0.963
    22   6 C    3.986 --    21 C    1.469    23 C    1.352    53 H    0.969
    23   6 C    3.979 --    22 C    1.352    26 C    1.336    24 C    1.087
    24   6 C    3.942 --    25 N    2.801    23 C    1.087
    25   7 N    2.978 --    24 C    2.801
    26   6 C    3.967 --    30 N    1.402    23 C    1.336    27 C    0.997
    27   6 C    3.993 --    29 C    1.000    26 C    0.997    28 C    0.987
                            54 H    0.963
    28   6 C    3.993 --    27 C    0.987    55 H    0.987    56 H    0.986
                            57 H    0.983
    29   6 C    3.993 --    27 C    1.000    58 H    0.987    59 H    0.985
                            60 H    0.985
    30   7 N    3.041 --    26 C    1.402    20 C    1.362
    31   7 N    3.008 --    18 C    1.339    13 C    1.303
    32   7 N    3.062 --    33 C    1.409    11 C    1.384     9 C    0.101
    33   6 C    3.972 --     8 C    1.419    32 N    1.409    61 H    0.958
                            10 C    0.110
    34   6 C    3.982 --    35 C    0.999     6 N    0.998    62 H    0.973
                            63 H    0.965
    35   6 C    3.981 --     3 N    1.001    34 C    0.999    64 H    0.972
                            65 H    0.961
    36   1 H    0.998 --     1 C    0.984
    37   1 H    0.998 --     1 C    0.985
    38   1 H    0.998 --     1 C    0.984
    39   1 H    0.997 --     2 C    0.971
    40   1 H    0.997 --     2 C    0.972
    41   1 H    0.996 --     4 C    0.969
    42   1 H    0.985 --     4 C    0.953
    43   1 H    0.995 --     5 C    0.957
    44   1 H    0.990 --     5 C    0.963
    45   1 H    0.996 --     7 C    0.957
    46   1 H    0.995 --     7 C    0.961
    47   1 H    0.994 --     9 C    0.965
    48   1 H    0.994 --    10 C    0.962
    49   1 H    0.946 --    12 N    0.909
    50   1 H    0.750 --    91 O    0.635
    51   1 H    0.950 --    19 N    0.911
    52   1 H    0.994 --    21 C    0.963
    53   1 H    0.996 --    22 C    0.969
    54   1 H    0.997 --    27 C    0.963
    55   1 H    0.999 --    28 C    0.987
    56   1 H    0.998 --    28 C    0.986
    57   1 H    0.997 --    28 C    0.983
    58   1 H    0.998 --    29 C    0.987
    59   1 H    0.997 --    29 C    0.985
    60   1 H    0.997 --    29 C    0.985
    61   1 H    0.995 --    33 C    0.958
    62   1 H    0.997 --    34 C    0.973
    63   1 H    0.992 --    34 C    0.965
    64   1 H    0.997 --    35 C    0.972
    65   1 H    0.987 --    35 C    0.961
    66  22 Ti   3.943 --    85 O    2.035    72 Ti   0.580    67 Ti   0.300
                            78 C    0.251    69 Ti   0.202    81 C    0.176
                            73 Ti   0.103
    67  22 Ti   4.445 --    86 O    1.935    73 Ti   0.376    68 Ti   0.324
                            66 Ti   0.300    78 C    0.255    79 C    0.250
                            69 Ti   0.133    70 Ti   0.129    74 Ti   0.111
                            72 Ti   0.104
    68  22 Ti   3.962 --    87 O    2.030    74 Ti   0.570    67 Ti   0.324
                            79 C    0.261    70 Ti   0.208    82 C    0.171
                            73 Ti   0.109
    69  22 Ti   4.477 --    88 O    1.782    81 C    0.653    78 C    0.533
                            90 O    0.205    66 Ti   0.202    75 Ti   0.166
                            71 Ti   0.166    80 C    0.141    67 Ti   0.133
    70  22 Ti   4.753 --    89 O    1.459    82 C    0.768    79 C    0.663
                            68 Ti   0.208    76 Ti   0.205    14 N    0.151
                            80 C    0.149    67 Ti   0.129    71 Ti   0.126
                            84 C    0.114
    71  22 Ti   4.845 --    90 O    1.295    83 C    0.765    80 C    0.624
                            84 C    0.563    77 Ti   0.351    91 O    0.246
                            69 Ti   0.166    14 N    0.132    70 Ti   0.126
    72  22 Ti   3.972 --    92 O    2.029    66 Ti   0.580    73 Ti   0.321
                            78 C    0.263    75 Ti   0.205    81 C    0.180
                            67 Ti   0.104
    73  22 Ti   4.452 --    93 O    1.923    67 Ti   0.376    74 Ti   0.331
                            72 Ti   0.321    79 C    0.263    78 C    0.260
                            75 Ti   0.136    76 Ti   0.121    68 Ti   0.109
                            66 Ti   0.103
    74  22 Ti   3.984 --    94 O    2.036    68 Ti   0.570    73 Ti   0.331
                            79 C    0.258    76 Ti   0.188    82 C    0.176
                            67 Ti   0.111
    75  22 Ti   4.454 --    95 O    1.768    81 C    0.660    78 C    0.527
                            97 O    0.214    72 Ti   0.205    69 Ti   0.166
                            80 C    0.154    73 Ti   0.136    77 Ti   0.133
    76  22 Ti   4.442 --    96 O    1.749    82 C    0.657    79 C    0.505
                            98 O    0.218    70 Ti   0.205    74 Ti   0.188
                            80 C    0.166    77 Ti   0.156    73 Ti   0.121
    77  22 Ti   4.451 --    98 O    1.082    97 O    1.075    80 C    0.493
                            84 C    0.487    83 C    0.418    71 Ti   0.351
                            76 Ti   0.156    75 Ti   0.133
    78   6 C    3.625 --    81 C    0.870    69 Ti   0.533    75 Ti   0.527
                            72 Ti   0.263    73 Ti   0.260    67 Ti   0.255
                            66 Ti   0.251
    79   6 C    3.660 --    82 C    0.822    70 Ti   0.663    76 Ti   0.505
                            73 Ti   0.263    68 Ti   0.261    74 Ti   0.258
                            67 Ti   0.250
    80   6 C    3.822 --    84 C    0.803    83 C    0.766    71 Ti   0.624
                            77 Ti   0.493    76 Ti   0.166    75 Ti   0.154
                            70 Ti   0.149    69 Ti   0.141
    81   6 C    3.130 --    78 C    0.870    75 Ti   0.660    69 Ti   0.653
                            72 Ti   0.180    66 Ti   0.176    83 C    0.101
    82   6 C    3.160 --    79 C    0.822    70 Ti   0.768    76 Ti   0.657
                            74 Ti   0.176    68 Ti   0.171
    83   6 C    3.237 --    80 C    0.766    71 Ti   0.765    97 O    0.427
                            77 Ti   0.418    90 O    0.300    84 C    0.122
                            81 C    0.101
    84   6 C    3.136 --    80 C    0.803    71 Ti   0.563    77 Ti   0.487
                            98 O    0.449    83 C    0.122    70 Ti   0.114
    85   8 O    2.276 --    66 Ti   2.035
    86   8 O    2.244 --    67 Ti   1.935
    87   8 O    2.266 --    68 Ti   2.030
    88   8 O    2.141 --    69 Ti   1.782
    89   8 O    2.113 --    70 Ti   1.459    14 N    0.180
    90   8 O    2.172 --    71 Ti   1.295    83 C    0.300    69 Ti   0.205
                            97 O    0.105
    91   8 O    2.483 --    15 C    1.172    50 H    0.635    71 Ti   0.246
                            16 C    0.111
    92   8 O    2.276 --    72 Ti   2.029
    93   8 O    2.245 --    73 Ti   1.923
    94   8 O    2.279 --    74 Ti   2.036
    95   8 O    2.140 --    75 Ti   1.768
    96   8 O    2.133 --    76 Ti   1.749
    97   8 O    2.177 --    77 Ti   1.075    83 C    0.427    75 Ti   0.214
                            90 O    0.105
    98   8 O    2.072 --    77 Ti   1.082    84 C    0.449    76 Ti   0.218
 ---------------------------------------------------------------------------

Topologies differ in total number of bonds
Writing topology from bond orders to xtbtopo.mol

molecular dipole:
                 x           y           z       tot (Debye)
 q only:       -0.585      -5.543       7.012
   full:       -0.567      -0.241       5.908      15.098
molecular quadrupole (traceless):
                xx          xy          yy          xz          yz          zz
 q only:       58.502      26.721      20.186     -35.298      34.308     -78.687
  q+dip:       47.330      38.807      38.877     -49.620      44.508     -86.207
   full:       44.559      41.254      45.470     -48.467      47.803     -90.029


           -------------------------------------------------
          | TOTAL ENERGY             -186.207764503285 Eh   |
          | GRADIENT NORM               5.694229287671 Eh/α |
          | HOMO-LUMO GAP               0.012191527688 eV   |
           -------------------------------------------------

------------------------------------------------------------------------
 * finished run on 2026/08/31 at 20:39:23.407     
------------------------------------------------------------------------
 total:
 * wall-time:     0 d,  0 h,  0 min,  2.043 sec
 *  cpu-time:     0 d,  0 h,  0 min, 14.469 sec
 * ratio c/w:     7.082 speedup
 SCF:
 * wall-time:     0 d,  0 h,  0 min,  1.984 sec
 *  cpu-time:     0 d,  0 h,  0 min, 14.031 sec
 * ratio c/w:     7.072 speedup

normal termination of xtb
