      -----------------------------------------------------------      
     |                   =====================                   |     
     |                           x T B                           |     
     |                   =====================                   |     
     |                         S. Grimme                         |     
     |          Mulliken Center for Theoretical Chemistry        |     
     |                    University of Bonn                     |     
      -----------------------------------------------------------      

   * xtb version 6.7.1pre (5071a88) compiled by 'Marcel@Raven' on 2024-07-23

   xtb is free software: you can redistribute it and/or modify it under
   the terms of the GNU Lesser General Public License as published by
   the Free Software Foundation, either version 3 of the License, or
   (at your option) any later version.
   
   xtb is distributed in the hope that it will be useful,
   but WITHOUT ANY WARRANTY; without even the implied warranty of
   MERCHANTABILITY or FITNESS FOR A PARTICULAR PURPOSE.  See the
   GNU Lesser General Public License for more details.
   
   Cite this work as:
   * C. Bannwarth, E. Caldeweyher, S. Ehlert, A. Hansen, P. Pracht,
     J. Seibert, S. Spicher, S. Grimme, WIREs Comput. Mol. Sci., 2020, 11,
     e01493. DOI: 10.1002/wcms.1493
   
   for GFN2-xTB:
   * C. Bannwarth, S. Ehlert and S. Grimme., J. Chem. Theory Comput., 2019,
     15, 1652-1671. DOI: 10.1021/acs.jctc.8b01176
   for GFN1-xTB:
   * S. Grimme, C. Bannwarth, P. Shushkov, J. Chem. Theory Comput., 2017,
     13, 1989-2009. DOI: 10.1021/acs.jctc.7b00118
   for GFN0-xTB:
   * P. Pracht, E. Caldeweyher, S. Ehlert, S. Grimme, ChemRxiv, 2019, preprint.
     DOI: 10.26434/chemrxiv.8326202.v1
   for GFN-FF:
   * S. Spicher and S. Grimme, Angew. Chem. Int. Ed., 2020, 59, 15665-15673.
     DOI: 10.1002/anie.202004239
   
   for ALPB and GBSA implicit solvation:
   * S. Ehlert, M. Stahn, S. Spicher, S. Grimme, J. Chem. Theory Comput.,
     2021, 17, 4250-4261. DOI: 10.1021/acs.jctc.1c00471
   
   for ddCOSMO and CPCM-X implicit solvation:
   * M. Stahn, S. Ehlert, S. Grimme, J. Phys. Chem. A,
     2023, XX, XXXX-XXXX. DOI: 10.1021/acs.jpca.3c04382
   
   for DFT-D4:
   * E. Caldeweyher, C. Bannwarth and S. Grimme, J. Chem. Phys., 2017,
     147, 034112. DOI: 10.1063/1.4993215
   * E. Caldeweyher, S. Ehlert, A. Hansen, H. Neugebauer, S. Spicher,
     C. Bannwarth and S. Grimme, J. Chem. Phys., 2019, 150, 154122.
     DOI: 10.1063/1.5090222
   * E. Caldeweyher, J.-M. Mewes, S. Ehlert and S. Grimme, Phys. Chem. Chem. Phys.
     2020, 22, 8499-8512. DOI: 10.1039/D0CP00502A
   
   for sTDA-xTB:
   * S. Grimme and C. Bannwarth, J. Chem. Phys., 2016, 145, 054103.
     DOI: 10.1063/1.4959605
   
   in the mass-spec context:
   * V. Asgeirsson, C. Bauer and S. Grimme, Chem. Sci., 2017, 8, 4879.
     DOI: 10.1039/c7sc00601b
   * J. Koopman and S. Grimme, ACS Omega 2019, 4, 12, 15120-15133.
     DOI: 10.1021/acsomega.9b02011
   
   for metadynamics refer to:
   * S. Grimme, J. Chem. Theory Comput., 2019, 155, 2847-2862
     DOI: 10.1021/acs.jctc.9b00143
   
   for SPH calculations refer to:
   * S. Spicher and S. Grimme, J. Chem. Theory Comput., 2021, 17, 1701-1714
     DOI: 10.1021/acs.jctc.0c01306
   
   for ONIOM refer to:
   * C. Plett, A. Katbashev, S. Ehlert, S. Grimme, M. Bursch,
     Phys. Chem. Chem. Phys., 2023, 25, 17860-17868. DOI: 10.1039/D3CP02178E
   
   for DIPRO refer to:
   * J. Kohn, N. Gildemeister, S. Grimme, D. Fazzi, A. Hansen,
     J. Chem. Phys., 2023, just accepted.
   
   for PTB refer to:
   * S. Grimme, M. Mueller, A. Hansen, J. Chem. Phys., 2023, 158, 124111.
     DOI: 10.1063/5.0137838
   
   with help from (in alphabetical order)
   P. Atkinson, C. Bannwarth, F. Bohle, G. Brandenburg, E. Caldeweyher
   M. Checinski, S. Dohm, S. Ehlert, S. Ehrlich, I. Gerasimov, C. Hölzer
   A. Katbashev, J. Kohn, J. Koopman, C. Lavigne, S. Lehtola, F. März, M. Müller,
   F. Musil, H. Neugebauer, J. Pisarek, C. Plett, P. Pracht, F. Pultar,
   J. Seibert, P. Shushkov, S. Spicher, M. Stahn, M. Steiner, T. Strunk,
   J. Stückrath, T. Rose, and J. Unsleber
   
 * started run on 2026/08/31 at 21:19:10.627     
   ID    Z sym.   atoms
    1    6 C      1, 2, 4, 5, 7-11, 13, 15, 16, 18, 20-24, 26-29, 33-35, 78-84
    2    7 N      3, 6, 12, 14, 19, 25, 30-32
    3    9 F      17
    4    1 H      36-65
    5   22 Ti     66-77
    6    8 O      85-98

           -------------------------------------------------
          |                Calculation Setup                |
           -------------------------------------------------

          program call               : "c:\Users\Andre\Proyectos doctorado\kras-pancreatic-gC3N4-ai\tools\xtb\xtb-6.7.1\bin\xtb.exe" "c:\Users\Andre\Proyectos doctorado\mxene-glioblastoma-qsar-ai\calculations\gbm\Abemaciclib\Abemaciclib_Ti12C7O14_phys_complex.xyz" --gfn 2 --sp --chrg 0 --uhf 0 --etemp 300 --iterations 500 --norestart
          coordinate file            : c:\Users\Andre\Proyectos doctorado\mxene-glioblastoma-qsar-ai\calculations\gbm\Abemaciclib\Abemaciclib_Ti12C7O14_phys_complex.xyz
          omp threads                :                    16


molecular fragmentation (1/2 indicates fragments):
111111111111111111111111111111111111111111111111111111111111111112222222
22222222222222222222222222
# atoms in fragment 1/2:    65    33
 fragment masses (1/2) :      475.57      882.47
CMA distance (Bohr)    :  20.307
constraining FC (au)   :  0.0500

           -------------------------------------------------
          |                 G F N 2 - x T B                 |
           -------------------------------------------------

        Reference                      10.1021/acs.jctc.8b01176
      * Hamiltonian:
        H0-scaling (s, p, d)           1.850000    2.230000    2.230000
        zeta-weighting                 0.500000
      * Dispersion:
        s8                             2.700000
        a1                             0.520000
        a2                             5.000000
        s9                             5.000000
      * Repulsion:
        kExp                           1.500000    1.000000
        rExp                           1.000000
      * Coulomb:
        alpha                          2.000000
        third order                    shell-resolved
        anisotropic                    true
        a3                             3.000000
        a5                             4.000000
        cn-shift                       1.200000
        cn-exp                         4.000000
        max-rad                        5.000000


          ...................................................
          :                      SETUP                      :
          :.................................................:
          :  # basis functions                 374          :
          :  # atomic orbitals                 362          :
          :  # shells                          178          :
          :  # electrons                       342          :
          :  max. iterations                   500          :
          :  Hamiltonian                  GFN2-xTB          :
          :  restarted?                      false          :
          :  GBSA solvation                  false          :
          :  PC potential                    false          :
          :  electronic temp.          300.0000000     K    :
          :  accuracy                    1.0000000          :
          :  -> integral cutoff          0.2500000E+02      :
          :  -> integral neglect         0.1000000E-07      :
          :  -> SCF convergence          0.1000000E-05 Eh   :
          :  -> wf. convergence          0.1000000E-03 e    :
          :  Broyden damping             0.4000000          :
          :  net charge                          0          :
          :  unpaired electrons                  0          :
          ...................................................

 iter      E             dE          RMSdq      gap      omega  full diag
   1   -190.9709679 -0.190971E+03  0.128E+01    0.11       0.0  T
   2   -150.1496552  0.408213E+02  0.142E+01    0.22       1.0  T
   3    -14.2370314  0.135913E+03  0.262E+01    0.17       1.0  T
   4   -160.4828554 -0.146246E+03  0.118E+01    0.08       1.0  T
   5     18.6169185  0.179100E+03  0.202E+01    0.01       1.0  T
   6   -191.7451737 -0.210362E+03  0.741E+00    0.03       1.0  T
   7   -193.2062972 -0.146112E+01  0.526E+00    0.08       1.0  T
   8   -193.4325543 -0.226257E+00  0.502E+00    0.21       1.0  T
   9   -192.9003149  0.532239E+00  0.534E+00    0.06       1.0  T
  10   -193.3501196 -0.449805E+00  0.479E+00    0.05       1.0  T
  11   -192.7491846  0.600935E+00  0.489E+00    0.16       1.0  T
  12   -188.9604211  0.378876E+01  0.505E+00    0.22       1.0  T
  13   -190.0973549 -0.113693E+01  0.447E+00    0.01       1.0  T
  14   -189.1469951  0.950360E+00  0.450E+00    0.13       1.0  T
  15   -188.9216923  0.225303E+00  0.458E+00    0.23       1.0  T
  16   -190.8087967 -0.188710E+01  0.412E+00    0.09       1.0  T
  17   -188.4161214  0.239268E+01  0.437E+00    0.10       1.0  T
  18   -190.2526094 -0.183649E+01  0.357E+00    0.01       1.0  T
  19   -192.7786029 -0.252599E+01  0.301E+00    0.06       1.0  T
  20   -191.4230979  0.135551E+01  0.307E+00    0.10       1.0  T
  21   -191.8656390 -0.442541E+00  0.289E+00    0.08       1.0  T
  22   -191.6924542  0.173185E+00  0.274E+00    0.14       1.0  T
  23   -192.6240138 -0.931560E+00  0.225E+00    0.01       1.0  T
  24   -193.2827665 -0.658753E+00  0.198E+00    0.03       1.0  T
  25   -193.2819869  0.779576E-03  0.198E+00    0.04       1.0  T
  26   -193.8662100 -0.584223E+00  0.213E+00    0.20       1.0  T
  27   -193.8682673 -0.205733E-02  0.211E+00    0.18       1.0  T
  28   -193.8603667  0.790064E-02  0.226E+00    0.25       1.0  T
  29   -193.8708014 -0.104347E-01  0.208E+00    0.18       1.0  T
  30   -193.0642530  0.806548E+00  0.218E+00    0.13       1.0  T
  31   -193.6668870 -0.602634E+00  0.141E+00    0.00       1.0  T
  32   -193.9132536 -0.246367E+00  0.110E+00    0.15       1.0  T
  33   -193.9235537 -0.103001E-01  0.101E+00    0.21       1.0  T
  34   -193.9290290 -0.547529E-02  0.829E-01    0.14       1.0  T
  35   -193.9404906 -0.114617E-01  0.611E-01    0.23       1.0  T
  36   -193.9425021 -0.201147E-02  0.565E-01    0.32       1.0  T
  37   -193.9438415 -0.133941E-02  0.550E-01    0.46       1.0  T
  38   -193.9455451 -0.170362E-02  0.499E-01    0.58       1.0  T
  39   -193.9486881 -0.314300E-02  0.433E-01    0.77       1.0  T
  40   -193.9504716 -0.178343E-02  0.382E-01    0.76       1.0  T
  41   -193.9518859 -0.141435E-02  0.329E-01    0.71       1.0  T
  42   -193.9530299 -0.114401E-02  0.265E-01    0.61       1.0  T
  43   -193.9539120 -0.882113E-03  0.202E-01    0.60       1.0  T
  44   -193.9544151 -0.503093E-03  0.170E-01    0.63       1.0  T
  45   -193.9545711 -0.155951E-03  0.151E-01    0.64       1.0  T
  46   -193.9548674 -0.296375E-03  0.103E-01    0.63       1.0  T
  47   -193.9549768 -0.109310E-03  0.789E-02    0.61       1.0  T
  48   -193.9550319 -0.551054E-04  0.674E-02    0.61       1.0  T
  49   -193.9550768 -0.449150E-04  0.590E-02    0.62       1.0  T
  50   -193.9550905 -0.137053E-04  0.534E-02    0.61       1.0  T
  51   -193.9551103 -0.197893E-04  0.460E-02    0.60       1.0  T
  52   -193.9551192 -0.888927E-05  0.405E-02    0.60       1.0  T
  53   -193.9551276 -0.839335E-05  0.309E-02    0.60       1.0  T
  54   -193.9551339 -0.638005E-05  0.216E-02    0.60       1.0  T
  55   -193.9551374 -0.350654E-05  0.178E-02    0.60       1.0  T
  56   -193.9551398 -0.233005E-05  0.163E-02    0.60       1.0  T
  57   -193.9551422 -0.244464E-05  0.146E-02    0.60       1.0  T
  58   -193.9551444 -0.216347E-05  0.130E-02    0.61       1.0  T
  59   -193.9551469 -0.250297E-05  0.107E-02    0.61       1.0  T
  60   -193.9551485 -0.159656E-05  0.866E-03    0.61       1.2  T
  61   -193.9551497 -0.126761E-05  0.723E-03    0.61       1.4  T
  62   -193.9551507 -0.986108E-06  0.558E-03    0.61       1.8  T
  63   -193.9551511 -0.408694E-06  0.474E-03    0.62       2.1  T
  64   -193.9551513 -0.144124E-06  0.423E-03    0.62       2.4  T
  65   -193.9551514 -0.739947E-07  0.393E-03    0.62       2.6  T
  66   -193.9551514 -0.774729E-07  0.375E-03    0.62       2.7  T
  67   -193.9551516 -0.168604E-06  0.343E-03    0.62       2.9  T
  68   -193.9551518 -0.205906E-06  0.300E-03    0.62       3.4  T
  69   -193.9551520 -0.207297E-06  0.263E-03    0.62       3.8  T
  70   -193.9551522 -0.146014E-06  0.235E-03    0.62       4.3  T
  71   -193.9551523 -0.173411E-06  0.196E-03    0.62       5.2  T
  72   -193.9551525 -0.146817E-06  0.157E-03    0.61       6.4  T
  73   -193.9551526 -0.129932E-06  0.113E-03    0.61       8.9  T
  74   -193.9551527 -0.935012E-07  0.648E-04    0.61      15.6  T
  75   -193.9551527 -0.281397E-07  0.393E-04    0.61      25.7  T

   *** convergence criteria satisfied after 75 iterations ***

         #    Occupation            Energy/Eh            Energy/eV
      -------------------------------------------------------------
         1        2.0000           -0.8331616             -22.6715
       ...           ...                  ...                  ...
       165        2.0000           -0.3512269              -9.5574
       166        2.0000           -0.3506378              -9.5413
       167        2.0000           -0.3465041              -9.4289
       168        2.0000           -0.3459737              -9.4144
       169        2.0000           -0.3387339              -9.2174
       170        2.0000           -0.3233878              -8.7998
       171        2.0000           -0.3087629              -8.4019 (HOMO)
       172        0.0000           -0.2862286              -7.7887 (LUMO)
       173        0.0000           -0.2860861              -7.7848
       174        0.0000           -0.2856951              -7.7742
       175        0.0000           -0.2845656              -7.7434
       176        0.0000           -0.2841075              -7.7310
       ...           ...                  ...                  ...
       362                         13.3273432             362.6555
      -------------------------------------------------------------
                  HL-Gap            0.0225343 Eh            0.6132 eV
             Fermi-level           -0.2979700 Eh           -8.1082 eV

 SCC (total)                   0 d,  0 h,  0 min,  1.601 sec
 SCC setup                      ...        0 min,  0.000 sec (  0.000%)
 Dispersion                     ...        0 min,  0.002 sec (  0.125%)
 classical contributions        ...        0 min,  0.000 sec (  0.000%)
 integral evaluation            ...        0 min,  0.009 sec (  0.562%)
 iterations                     ...        0 min,  1.565 sec ( 97.751%)
 molecular gradient             ...        0 min,  0.023 sec (  1.437%)
 printout                       ...        0 min,  0.002 sec (  0.125%)

         :::::::::::::::::::::::::::::::::::::::::::::::::::::
         ::                     SUMMARY                     ::
         :::::::::::::::::::::::::::::::::::::::::::::::::::::
         :: total energy            -191.913457476820 Eh    ::
         :: gradient norm              0.113423065666 Eh/a0 ::
         :: HOMO-LUMO gap              0.613189897636 eV    ::
         ::.................................................::
         :: SCC energy              -193.953485080316 Eh    ::
         :: -> isotropic ES            0.985939103328 Eh    ::
         :: -> anisotropic ES         -0.365544564317 Eh    ::
         :: -> anisotropic XC          0.017759247718 Eh    ::
         :: -> dispersion             -0.158680101545 Eh    ::
         :: repulsion energy           2.040027603495 Eh    ::
         :: add. restraining           0.000000000000 Eh    ::
         :: total charge              -0.000000000873 e     ::
         :::::::::::::::::::::::::::::::::::::::::::::::::::::

           -------------------------------------------------
          |                Property Printout                |
           -------------------------------------------------

    * Orbital Energies and Occupations

         #    Occupation            Energy/Eh            Energy/eV
      -------------------------------------------------------------
         1        2.0000           -0.8331616             -22.6715
       ...           ...                  ...                  ...
       159        2.0000           -0.3778745             -10.2825
       160        2.0000           -0.3731858             -10.1549
       161        2.0000           -0.3693357             -10.0501
       162        2.0000           -0.3616167              -9.8401
       163        2.0000           -0.3592230              -9.7750
       164        2.0000           -0.3591573              -9.7732
       165        2.0000           -0.3512269              -9.5574
       166        2.0000           -0.3506378              -9.5413
       167        2.0000           -0.3465041              -9.4289
       168        2.0000           -0.3459737              -9.4144
       169        2.0000           -0.3387339              -9.2174
       170        2.0000           -0.3233878              -8.7998
       171        2.0000           -0.3087629              -8.4019 (HOMO)
       172        0.0000           -0.2862286              -7.7887 (LUMO)
       173        0.0000           -0.2860861              -7.7848
       174        0.0000           -0.2856951              -7.7742
       175        0.0000           -0.2845656              -7.7434
       176        0.0000           -0.2841075              -7.7310
       177                         -0.2801841              -7.6242
       178                         -0.2756344              -7.5004
       179                         -0.2746702              -7.4742
       180                         -0.2727153              -7.4210
       181                         -0.2725464              -7.4164
       182                         -0.2714844              -7.3875
       ...                                ...                  ...
       362                         13.3273432             362.6555
      -------------------------------------------------------------
                  HL-Gap            0.0225343 Eh            0.6132 eV
             Fermi-level           -0.2979700 Eh           -8.1082 eV

     #   Z          covCN         q      C6AA      α(0)
     1   6 C        3.747    -0.108    22.638     6.786
     2   6 C        3.744     0.005    20.573     6.470
     3   7 N        2.722    -0.183    24.952     7.419
     4   6 C        3.750     0.006    20.540     6.464
     5   6 C        3.751     0.006    20.542     6.464
     6   7 N        2.720    -0.183    24.959     7.420
     7   6 C        3.756     0.005    20.542     6.462
     8   6 C        2.957    -0.001    28.063     8.689
     9   6 C        2.926    -0.018    28.455     8.748
    10   6 C        2.914    -0.062    29.538     8.912
    11   6 C        2.861     0.154    24.670     8.141
    12   7 N        2.699    -0.166    24.597     7.366
    13   6 C        2.837     0.235    23.082     7.873
    14   7 N        1.835    -0.248    27.304     7.743
    15   6 C        2.908     0.049    26.901     8.505
    16   6 C        2.767     0.126    25.216     8.224
    17   9 F        0.786    -0.219    11.431     3.994
    18   6 C        2.879     0.154    24.666     8.142
    19   7 N        2.698    -0.154    24.333     7.326
    20   6 C        2.851     0.162    24.502     8.113
    21   6 C        2.910    -0.056    29.383     8.889
    22   6 C        2.930    -0.008    28.220     8.712
    23   6 C        2.961    -0.004    28.130     8.700
    24   6 C        1.905     0.107    28.451     8.614
    25   7 N        0.911    -0.236    26.182     7.401
    26   6 C        2.927     0.104    25.710     8.315
    27   6 C        3.853    -0.011    20.730     6.476
    28   6 C        3.753    -0.100    22.475     6.760
    29   6 C        3.751    -0.106    22.584     6.777
    30   7 N        1.844    -0.263    27.698     7.800
    31   7 N        1.843    -0.307    28.796     7.953
    32   7 N        1.834    -0.237    27.043     7.706
    33   6 C        2.887     0.046    26.963     8.513
    34   6 C        3.755     0.007    20.513     6.458
    35   6 C        3.750     0.008    20.504     6.458
    36   1 H        0.924     0.034     2.536     2.490
    37   1 H        0.924     0.033     2.539     2.492
    38   1 H        0.924     0.033     2.538     2.492
    39   1 H        0.924     0.035     2.511     2.478
    40   1 H        0.924     0.035     2.516     2.481
    41   1 H        0.924     0.036     2.497     2.471
    42   1 H        0.924     0.022     2.704     2.571
    43   1 H        0.924     0.034     2.533     2.489
    44   1 H        0.923     0.022     2.708     2.573
    45   1 H        0.923     0.046     2.376     2.410
    46   1 H        0.923     0.018     2.759     2.598
    47   1 H        0.925     0.056     2.248     2.345
    48   1 H        0.925     0.044     2.398     2.422
    49   1 H        0.860     0.200     1.105     1.647
    50   1 H        0.925     0.080     1.979     2.200
    51   1 H        0.860     0.212     1.049     1.604
    52   1 H        0.925     0.057     2.232     2.336
    53   1 H        0.925     0.046     2.367     2.406
    54   1 H        0.924     0.042     2.422     2.434
    55   1 H        0.924     0.034     2.524     2.485
    56   1 H        0.924     0.047     2.352     2.398
    57   1 H        0.924     0.046     2.372     2.408
    58   1 H        0.924     0.035     2.516     2.481
    59   1 H        0.924     0.053     2.279     2.361
    60   1 H        0.924     0.041     2.435     2.440
    61   1 H        0.925     0.050     2.320     2.382
    62   1 H        0.924     0.032     2.554     2.499
    63   1 H        0.923     0.020     2.739     2.588
    64   1 H        0.924     0.035     2.517     2.481
    65   1 H        0.924     0.022     2.701     2.570
    66  22 Ti       3.637     1.050   101.806    24.489
    67  22 Ti       6.855     1.550    84.070    14.886
    68  22 Ti       3.227     1.048   102.643    24.739
    69  22 Ti       5.860     1.378    85.686    15.029
    70  22 Ti       5.627     1.120    88.217    15.249
    71  22 Ti       3.541     1.043   102.432    24.667
    72  22 Ti       2.352     0.881   202.672    34.858
    73  22 Ti       6.011     1.348    85.975    15.054
    74  22 Ti       3.414     1.008   103.054    24.779
    75  22 Ti       5.519     1.095    88.466    15.271
    76  22 Ti       5.687     1.189    87.531    15.190
    77  22 Ti       3.581     1.026   102.476    24.643
    78   6 C        2.246    -0.257    37.627     9.938
    79   6 C        2.142    -0.255    38.322    10.007
    80   6 C        2.248    -0.019    30.611     8.964
    81   6 C        1.838    -0.209    37.310     9.868
    82   6 C        1.894    -0.223    37.718     9.919
    83   6 C        1.821    -0.346    42.146    10.489
    84   6 C        2.631    -0.404    39.906    10.333
    85   8 O        1.554    -0.846    31.980     7.630
    86   8 O        1.464    -0.881    33.210     7.768
    87   8 O        1.557    -0.955    35.570     8.047
    88   8 O        1.523    -1.006    37.470     8.256
    89   8 O        1.523    -0.913    34.176     7.885
    90   8 O        1.458    -0.821    31.338     7.545
    91   8 O        1.455    -0.796    30.605     7.456
    92   8 O        0.727    -0.635    27.077     6.973
    93   8 O        1.453    -0.864    32.685     7.705
    94   8 O        1.476    -0.799    30.651     7.464
    95   8 O        1.603    -0.945    35.184     8.005
    96   8 O        1.547    -0.969    36.070     8.103
    97   8 O        1.700    -0.817    30.960     7.512
    98   8 O        1.453    -0.780    30.154     7.401

 Mol. C6AA /au·bohr⁶  :     207482.633651
 Mol. C8AA /au·bohr⁸  :    8400380.707694
 Mol. α(0) /au        :        762.944350


Wiberg/Mayer (AO) data.
largest (>0.10) Wiberg bond orders for each atom

 ---------------------------------------------------------------------------
     #   Z sym  total        # sym  WBO       # sym  WBO       # sym  WBO
 ---------------------------------------------------------------------------
     1   6 C    3.997 --     2 C    1.007    36 H    0.985    37 H    0.985
                            38 H    0.985
     2   6 C    3.985 --     1 C    1.007     3 N    1.003    39 H    0.972
                            40 H    0.972
     3   7 N    3.114 --     2 C    1.003    35 C    1.002     4 C    1.001
     4   6 C    3.988 --     3 N    1.001     5 C    1.000    41 H    0.973
                            42 H    0.966
     5   6 C    3.986 --     4 C    1.000     6 N    0.997    43 H    0.973
                            44 H    0.967
     6   7 N    3.097 --     5 C    0.997    34 C    0.997     7 C    0.995
     7   6 C    3.987 --     8 C    1.004     6 N    0.995    46 H    0.963
                            45 H    0.957
     8   6 C    3.981 --    33 C    1.421     9 C    1.389     7 C    1.004
     9   6 C    3.987 --    10 C    1.468     8 C    1.389    47 H    0.967
                            32 N    0.101
    10   6 C    3.986 --     9 C    1.468    11 C    1.356    48 H    0.968
                            33 C    0.111
    11   6 C    3.962 --    32 N    1.387    10 C    1.356    12 N    1.061
    12   7 N    3.398 --    13 C    1.151    11 C    1.061    49 H    0.920
    13   6 C    3.965 --    14 N    1.349    31 N    1.323    12 N    1.151
    14   7 N    3.034 --    15 C    1.411    13 C    1.349
    15   6 C    3.970 --    16 C    1.419    14 N    1.411    50 H    0.954
    16   6 C    3.875 --    15 C    1.419    18 C    1.294    17 F    0.957
    17   9 F    1.086 --    16 C    0.957
    18   6 C    3.971 --    31 N    1.365    16 C    1.294    19 N    1.118
    19   7 N    3.436 --    20 C    1.120    18 C    1.118    51 H    0.918
    20   6 C    3.948 --    30 N    1.355    21 C    1.339    19 N    1.120
    21   6 C    3.984 --    22 C    1.475    20 C    1.339    52 H    0.964
    22   6 C    3.988 --    21 C    1.475    23 C    1.347    53 H    0.969
    23   6 C    3.981 --    22 C    1.347    26 C    1.336    24 C    1.089
    24   6 C    3.941 --    25 N    2.797    23 C    1.089
    25   7 N    2.976 --    24 C    2.797
    26   6 C    3.969 --    30 N    1.405    23 C    1.336    27 C    0.997
    27   6 C    3.993 --    29 C    1.000    26 C    0.997    28 C    0.988
                            54 H    0.963
    28   6 C    3.994 --    27 C    0.988    55 H    0.987    56 H    0.986
                            57 H    0.983
    29   6 C    3.994 --    27 C    1.000    58 H    0.987    60 H    0.985
                            59 H    0.985
    30   7 N    3.041 --    26 C    1.405    20 C    1.355
    31   7 N    3.021 --    18 C    1.365    13 C    1.323
    32   7 N    3.049 --    33 C    1.416    11 C    1.387     9 C    0.101
    33   6 C    3.978 --     8 C    1.421    32 N    1.416    61 H    0.961
                            10 C    0.111
    34   6 C    3.986 --    35 C    1.000     6 N    0.997    62 H    0.974
                            63 H    0.968
    35   6 C    3.988 --     3 N    1.002    34 C    1.000    64 H    0.973
                            65 H    0.966
    36   1 H    0.999 --     1 C    0.985
    37   1 H    0.999 --     1 C    0.985
    38   1 H    0.999 --     1 C    0.985
    39   1 H    0.998 --     2 C    0.972
    40   1 H    0.999 --     2 C    0.972
    41   1 H    0.998 --     4 C    0.973
    42   1 H    1.000 --     4 C    0.966
    43   1 H    0.999 --     5 C    0.973
    44   1 H    0.999 --     5 C    0.967
    45   1 H    0.997 --     7 C    0.957
    46   1 H    0.999 --     7 C    0.963
    47   1 H    0.996 --     9 C    0.967
    48   1 H    0.998 --    10 C    0.968
    49   1 H    0.960 --    12 N    0.920
    50   1 H    0.992 --    15 C    0.954
    51   1 H    0.954 --    19 N    0.918
    52   1 H    0.995 --    21 C    0.964
    53   1 H    0.997 --    22 C    0.969
    54   1 H    0.998 --    27 C    0.963
    55   1 H    0.999 --    28 C    0.987
    56   1 H    0.998 --    28 C    0.986
    57   1 H    0.997 --    28 C    0.983
    58   1 H    0.999 --    29 C    0.987
    59   1 H    0.997 --    29 C    0.985
    60   1 H    0.998 --    29 C    0.985
    61   1 H    0.997 --    33 C    0.961
    62   1 H    0.999 --    34 C    0.974
    63   1 H    1.000 --    34 C    0.968
    64   1 H    0.998 --    35 C    0.973
    65   1 H    1.000 --    35 C    0.966
    66  22 Ti   2.827 --    85 O    0.846    86 O    0.814    72 Ti   0.332
                            67 Ti   0.202    69 Ti   0.198
    67  22 Ti   3.855 --    86 O    0.751    89 O    0.746    87 O    0.693
                            88 O    0.606    66 Ti   0.202    68 Ti   0.189
                            71 Ti   0.138    70 Ti   0.137
    68  22 Ti   2.723 --    94 O    0.964    87 O    0.599    74 Ti   0.372
                            67 Ti   0.189    72 Ti   0.140    89 O    0.110
    69  22 Ti   3.921 --    90 O    0.940    78 C    0.721    85 O    0.706
                            88 O    0.562    71 Ti   0.211    66 Ti   0.198
                            75 Ti   0.177    95 O    0.124
    70  22 Ti   4.073 --    84 C    0.893    91 O    0.773    82 C    0.744
                            89 O    0.600    76 Ti   0.283    71 Ti   0.176
                            83 C    0.160    79 C    0.152    67 Ti   0.137
    71  22 Ti   2.652 --    91 O    0.974    90 O    0.708    69 Ti   0.211
                            70 Ti   0.176    67 Ti   0.138    86 O    0.123
    72  22 Ti   3.767 --    92 O    1.997    73 Ti   0.607    66 Ti   0.332
                            87 O    0.152    85 O    0.147    68 Ti   0.140
                            95 O    0.112
    73  22 Ti   4.018 --    95 O    0.803    93 O    0.753    96 O    0.715
                            72 Ti   0.607    97 O    0.196    74 Ti   0.166
                            77 Ti   0.148    75 Ti   0.141
    74  22 Ti   2.746 --    93 O    0.835    94 O    0.764    68 Ti   0.372
                            77 Ti   0.221    73 Ti   0.166    76 Ti   0.130
    75  22 Ti   4.012 --    83 C    1.057    81 C    0.726    97 O    0.614
                            95 O    0.441    84 C    0.233    77 Ti   0.199
                            69 Ti   0.177    78 C    0.155    73 Ti   0.141
    76  22 Ti   4.082 --    98 O    0.968    79 C    0.669    84 C    0.654
                            96 O    0.442    70 Ti   0.283    77 Ti   0.210
                            83 C    0.142    74 Ti   0.130    94 O    0.114
    77  22 Ti   2.792 --    97 O    0.901    98 O    0.734    74 Ti   0.221
                            76 Ti   0.210    75 Ti   0.199    73 Ti   0.148
    78   6 C    3.843 --    81 C    2.739    69 Ti   0.721    75 Ti   0.155
    79   6 C    3.781 --    82 C    2.732    76 Ti   0.669    70 Ti   0.152
    80   6 C    3.979 --    83 C    2.008    84 C    1.604
    81   6 C    3.705 --    78 C    2.739    75 Ti   0.726
    82   6 C    3.749 --    79 C    2.732    70 Ti   0.744
    83   6 C    3.769 --    80 C    2.008    75 Ti   1.057    70 Ti   0.160
                            76 Ti   0.142
    84   6 C    3.829 --    80 C    1.604    70 Ti   0.893    76 Ti   0.654
                            75 Ti   0.233
    85   8 O    1.935 --    66 Ti   0.846    69 Ti   0.706    72 Ti   0.147
    86   8 O    1.893 --    66 Ti   0.814    67 Ti   0.751    71 Ti   0.123
    87   8 O    1.784 --    67 Ti   0.693    68 Ti   0.599    72 Ti   0.152
    88   8 O    1.720 --    67 Ti   0.606    69 Ti   0.562
    89   8 O    1.847 --    67 Ti   0.746    70 Ti   0.600    68 Ti   0.110
    90   8 O    1.974 --    69 Ti   0.940    71 Ti   0.708
    91   8 O    2.017 --    71 Ti   0.974    70 Ti   0.773
    92   8 O    2.171 --    72 Ti   1.997
    93   8 O    1.911 --    74 Ti   0.835    73 Ti   0.753
    94   8 O    2.009 --    68 Ti   0.964    74 Ti   0.764    76 Ti   0.114
    95   8 O    1.799 --    73 Ti   0.803    75 Ti   0.441    69 Ti   0.124
                            72 Ti   0.112
    96   8 O    1.773 --    73 Ti   0.715    76 Ti   0.442
    97   8 O    1.987 --    77 Ti   0.901    75 Ti   0.614    73 Ti   0.196
    98   8 O    2.032 --    76 Ti   0.968    77 Ti   0.734
 ---------------------------------------------------------------------------

Topologies differ in total number of bonds
Writing topology from bond orders to xtbtopo.mol

molecular dipole:
                 x           y           z       tot (Debye)
 q only:       -0.469      -1.178      -1.215
   full:       -2.102      -1.259      -0.295       6.273
molecular quadrupole (traceless):
                xx          xy          yy          xz          yz          zz
 q only:      -18.878       6.144      -1.539     -89.481      -2.958      20.416
  q+dip:      -12.226       5.775     -15.968     -76.511     -15.285      28.194
   full:      -10.834      10.066     -15.002     -76.594      -7.679      25.836


           -------------------------------------------------
          | TOTAL ENERGY             -191.913457476820 Eh   |
          | GRADIENT NORM               0.113423065666 Eh/α |
          | HOMO-LUMO GAP               0.613189897636 eV   |
           -------------------------------------------------

------------------------------------------------------------------------
 * finished run on 2026/08/31 at 21:19:12.275     
------------------------------------------------------------------------
 total:
 * wall-time:     0 d,  0 h,  0 min,  1.647 sec
 *  cpu-time:     0 d,  0 h,  0 min, 17.391 sec
 * ratio c/w:    10.559 speedup
 SCF:
 * wall-time:     0 d,  0 h,  0 min,  1.603 sec
 *  cpu-time:     0 d,  0 h,  0 min, 17.047 sec
 * ratio c/w:    10.634 speedup

normal termination of xtb
