      -----------------------------------------------------------      
     |                   =====================                   |     
     |                           x T B                           |     
     |                   =====================                   |     
     |                         S. Grimme                         |     
     |          Mulliken Center for Theoretical Chemistry        |     
     |                    University of Bonn                     |     
      -----------------------------------------------------------      

   * xtb version 6.7.1pre (5071a88) compiled by 'Marcel@Raven' on 2024-07-23

   xtb is free software: you can redistribute it and/or modify it under
   the terms of the GNU Lesser General Public License as published by
   the Free Software Foundation, either version 3 of the License, or
   (at your option) any later version.
   
   xtb is distributed in the hope that it will be useful,
   but WITHOUT ANY WARRANTY; without even the implied warranty of
   MERCHANTABILITY or FITNESS FOR A PARTICULAR PURPOSE.  See the
   GNU Lesser General Public License for more details.
   
   Cite this work as:
   * C. Bannwarth, E. Caldeweyher, S. Ehlert, A. Hansen, P. Pracht,
     J. Seibert, S. Spicher, S. Grimme, WIREs Comput. Mol. Sci., 2020, 11,
     e01493. DOI: 10.1002/wcms.1493
   
   for GFN2-xTB:
   * C. Bannwarth, S. Ehlert and S. Grimme., J. Chem. Theory Comput., 2019,
     15, 1652-1671. DOI: 10.1021/acs.jctc.8b01176
   for GFN1-xTB:
   * S. Grimme, C. Bannwarth, P. Shushkov, J. Chem. Theory Comput., 2017,
     13, 1989-2009. DOI: 10.1021/acs.jctc.7b00118
   for GFN0-xTB:
   * P. Pracht, E. Caldeweyher, S. Ehlert, S. Grimme, ChemRxiv, 2019, preprint.
     DOI: 10.26434/chemrxiv.8326202.v1
   for GFN-FF:
   * S. Spicher and S. Grimme, Angew. Chem. Int. Ed., 2020, 59, 15665-15673.
     DOI: 10.1002/anie.202004239
   
   for ALPB and GBSA implicit solvation:
   * S. Ehlert, M. Stahn, S. Spicher, S. Grimme, J. Chem. Theory Comput.,
     2021, 17, 4250-4261. DOI: 10.1021/acs.jctc.1c00471
   
   for ddCOSMO and CPCM-X implicit solvation:
   * M. Stahn, S. Ehlert, S. Grimme, J. Phys. Chem. A,
     2023, XX, XXXX-XXXX. DOI: 10.1021/acs.jpca.3c04382
   
   for DFT-D4:
   * E. Caldeweyher, C. Bannwarth and S. Grimme, J. Chem. Phys., 2017,
     147, 034112. DOI: 10.1063/1.4993215
   * E. Caldeweyher, S. Ehlert, A. Hansen, H. Neugebauer, S. Spicher,
     C. Bannwarth and S. Grimme, J. Chem. Phys., 2019, 150, 154122.
     DOI: 10.1063/1.5090222
   * E. Caldeweyher, J.-M. Mewes, S. Ehlert and S. Grimme, Phys. Chem. Chem. Phys.
     2020, 22, 8499-8512. DOI: 10.1039/D0CP00502A
   
   for sTDA-xTB:
   * S. Grimme and C. Bannwarth, J. Chem. Phys., 2016, 145, 054103.
     DOI: 10.1063/1.4959605
   
   in the mass-spec context:
   * V. Asgeirsson, C. Bauer and S. Grimme, Chem. Sci., 2017, 8, 4879.
     DOI: 10.1039/c7sc00601b
   * J. Koopman and S. Grimme, ACS Omega 2019, 4, 12, 15120-15133.
     DOI: 10.1021/acsomega.9b02011
   
   for metadynamics refer to:
   * S. Grimme, J. Chem. Theory Comput., 2019, 155, 2847-2862
     DOI: 10.1021/acs.jctc.9b00143
   
   for SPH calculations refer to:
   * S. Spicher and S. Grimme, J. Chem. Theory Comput., 2021, 17, 1701-1714
     DOI: 10.1021/acs.jctc.0c01306
   
   for ONIOM refer to:
   * C. Plett, A. Katbashev, S. Ehlert, S. Grimme, M. Bursch,
     Phys. Chem. Chem. Phys., 2023, 25, 17860-17868. DOI: 10.1039/D3CP02178E
   
   for DIPRO refer to:
   * J. Kohn, N. Gildemeister, S. Grimme, D. Fazzi, A. Hansen,
     J. Chem. Phys., 2023, just accepted.
   
   for PTB refer to:
   * S. Grimme, M. Mueller, A. Hansen, J. Chem. Phys., 2023, 158, 124111.
     DOI: 10.1063/5.0137838
   
   with help from (in alphabetical order)
   P. Atkinson, C. Bannwarth, F. Bohle, G. Brandenburg, E. Caldeweyher
   M. Checinski, S. Dohm, S. Ehlert, S. Ehrlich, I. Gerasimov, C. Hölzer
   A. Katbashev, J. Kohn, J. Koopman, C. Lavigne, S. Lehtola, F. März, M. Müller,
   F. Musil, H. Neugebauer, J. Pisarek, C. Plett, P. Pracht, F. Pultar,
   J. Seibert, P. Shushkov, S. Spicher, M. Stahn, M. Steiner, T. Strunk,
   J. Stückrath, T. Rose, and J. Unsleber
   
 * started run on 2026/08/31 at 21:19:18.092     
   ID    Z sym.   atoms
    1    7 N      1, 8
    2    6 C      2, 4, 5, 7, 9-12, 14, 15, 17, 19, 20, 22, 23, 25, 53-59
    3    8 O      3, 21, 24, 26, 60-73
    4   17 Cl     6
    5   53 I      13
    6    9 F      16, 18
    7    1 H      27-40
    8   22 Ti     41-52

           -------------------------------------------------
          |                Calculation Setup                |
           -------------------------------------------------

          program call               : "c:\Users\Andre\Proyectos doctorado\kras-pancreatic-gC3N4-ai\tools\xtb\xtb-6.7.1\bin\xtb.exe" "c:\Users\Andre\Proyectos doctorado\mxene-glioblastoma-qsar-ai\calculations\gbm\Selumetinib\Selumetinib_Ti12C7O14_phys_complex.xyz" --gfn 2 --sp --chrg 0 --uhf 0 --etemp 300 --iterations 500 --norestart
          coordinate file            : c:\Users\Andre\Proyectos doctorado\mxene-glioblastoma-qsar-ai\calculations\gbm\Selumetinib\Selumetinib_Ti12C7O14_phys_complex.xyz
          omp threads                :                    16


molecular fragmentation (1/2 indicates fragments):
111111111111111111111111111111111111111122222222222222222222222222222222
2
# atoms in fragment 1/2:    40    33
 fragment masses (1/2) :      498.65      882.47
CMA distance (Bohr)    :  19.181
constraining FC (au)   :  0.0500

           -------------------------------------------------
          |                 G F N 2 - x T B                 |
           -------------------------------------------------

        Reference                      10.1021/acs.jctc.8b01176
      * Hamiltonian:
        H0-scaling (s, p, d)           1.850000    2.230000    2.230000
        zeta-weighting                 0.500000
      * Dispersion:
        s8                             2.700000
        a1                             0.520000
        a2                             5.000000
        s9                             5.000000
      * Repulsion:
        kExp                           1.500000    1.000000
        rExp                           1.000000
      * Coulomb:
        alpha                          2.000000
        third order                    shell-resolved
        anisotropic                    true
        a3                             3.000000
        a5                             4.000000
        cn-shift                       1.200000
        cn-exp                         4.000000
        max-rad                        5.000000


          ...................................................
          :                      SETUP                      :
          :.................................................:
          :  # basis functions                 334          :
          :  # atomic orbitals                 320          :
          :  # shells                          146          :
          :  # electrons                       300          :
          :  max. iterations                   500          :
          :  Hamiltonian                  GFN2-xTB          :
          :  restarted?                      false          :
          :  GBSA solvation                  false          :
          :  PC potential                    false          :
          :  electronic temp.          300.0000000     K    :
          :  accuracy                    1.0000000          :
          :  -> integral cutoff          0.2500000E+02      :
          :  -> integral neglect         0.1000000E-07      :
          :  -> SCF convergence          0.1000000E-05 Eh   :
          :  -> wf. convergence          0.1000000E-03 e    :
          :  Broyden damping             0.4000000          :
          :  net charge                          0          :
          :  unpaired electrons                  0          :
          ...................................................

 iter      E             dE          RMSdq      gap      omega  full diag
   1   -171.7304500 -0.171730E+03  0.149E+01    0.11       0.0  T
   2   -128.1026993  0.436278E+02  0.164E+01    0.16       1.0  T
   3     44.2959547  0.172399E+03  0.309E+01    0.01       1.0  T
   4   -143.6630483 -0.187959E+03  0.139E+01    0.04       1.0  T
   5    -94.5621664  0.491009E+02  0.162E+01    0.02       1.0  T
   6   -173.0490860 -0.784869E+02  0.750E+00    0.04       1.0  T
   7   -167.4848499  0.556424E+01  0.674E+00    0.05       1.0  T
   8   -174.1322472 -0.664740E+01  0.604E+00    0.06       1.0  T
   9   -173.8614959  0.270751E+00  0.617E+00    0.05       1.0  T
  10   -173.9145850 -0.530891E-01  0.610E+00    0.04       1.0  T
  11   -173.4703234  0.444262E+00  0.648E+00    0.43       1.0  T
  12   -173.5149495 -0.446261E-01  0.595E+00    0.16       1.0  T
  13   -171.8930917  0.162186E+01  0.544E+00    0.27       1.0  T
  14   -170.9915984  0.901493E+00  0.542E+00    0.01       1.0  T
  15   -171.9249992 -0.933401E+00  0.494E+00    0.18       1.0  T
  16   -173.4609159 -0.153592E+01  0.462E+00    0.09       1.0  T
  17   -173.8478739 -0.386958E+00  0.394E+00    0.14       1.0  T
  18   -173.4108696  0.437004E+00  0.384E+00    0.00       1.0  T
  19   -173.9406999 -0.529830E+00  0.357E+00    0.26       1.0  T
  20   -174.4514864 -0.510787E+00  0.295E+00    0.01       1.0  T
  21   -174.2441890  0.207297E+00  0.277E+00    0.07       1.0  T
  22   -174.7766419 -0.532453E+00  0.178E+00    0.58       1.0  T
  23   -174.7871000 -0.104581E-01  0.163E+00    0.70       1.0  T
  24   -174.8004135 -0.133135E-01  0.138E+00    0.93       1.0  T
  25   -174.8181683 -0.177549E-01  0.115E+00    0.95       1.0  T
  26   -174.8270451 -0.887676E-02  0.100E+00    0.90       1.0  T
  27   -174.8397397 -0.126946E-01  0.698E-01    0.89       1.0  T
  28   -174.8469166 -0.717684E-02  0.502E-01    0.90       1.0  T
  29   -174.8479820 -0.106543E-02  0.469E-01    0.90       1.0  T
  30   -174.8500643 -0.208225E-02  0.420E-01    0.88       1.0  T
  31   -174.8532272 -0.316296E-02  0.372E-01    0.84       1.0  T
  32   -174.8536807 -0.453476E-03  0.309E-01    0.85       1.0  T
  33   -174.8540789 -0.398168E-03  0.266E-01    0.84       1.0  T
  34   -174.8552954 -0.121655E-02  0.239E-01    0.82       1.0  T
  35   -174.8559017 -0.606274E-03  0.224E-01    0.80       1.0  T
  36   -174.8562863 -0.384569E-03  0.219E-01    0.78       1.0  T
  37   -174.8566698 -0.383535E-03  0.192E-01    0.75       1.0  T
  38   -174.8568618 -0.191999E-03  0.168E-01    0.71       1.0  T
  39   -174.8571939 -0.332067E-03  0.143E-01    0.65       1.0  T
  40   -174.8573355 -0.141618E-03  0.123E-01    0.61       1.0  T
  41   -174.8574880 -0.152555E-03  0.927E-02    0.53       1.0  T
  42   -174.8575527 -0.646197E-04  0.667E-02    0.48       1.0  T
  43   -174.8575889 -0.362221E-04  0.497E-02    0.44       1.0  T
  44   -174.8575900 -0.116531E-05  0.429E-02    0.44       1.0  T
  45   -174.8575937 -0.362997E-05  0.399E-02    0.45       1.0  T
  46   -174.8575958 -0.209570E-05  0.350E-02    0.45       1.0  T
  47   -174.8575988 -0.299595E-05  0.292E-02    0.45       1.0  T
  48   -174.8576044 -0.566982E-05  0.225E-02    0.45       1.0  T
  49   -174.8576073 -0.290853E-05  0.207E-02    0.46       1.0  T
  50   -174.8576098 -0.243362E-05  0.186E-02    0.46       1.0  T
  51   -174.8576125 -0.270102E-05  0.158E-02    0.47       1.0  T
  52   -174.8576152 -0.275424E-05  0.121E-02    0.48       1.0  T
  53   -174.8576176 -0.232472E-05  0.971E-03    0.49       1.2  T
  54   -174.8576196 -0.207182E-05  0.675E-03    0.50       1.7  T
  55   -174.8576210 -0.138600E-05  0.375E-03    0.51       3.1  T
  56   -174.8576213 -0.300768E-06  0.283E-03    0.52       4.1  T
  57   -174.8576214 -0.104095E-06  0.213E-03    0.52       5.5  T
  58   -174.8576215 -0.307118E-07  0.159E-03    0.52       7.4  T
  59   -174.8576215 -0.157354E-07  0.137E-03    0.52       8.5  T
  60   -174.8576215 -0.136380E-07  0.106E-03    0.53      11.0  T
  61   -174.8576215 -0.883352E-08  0.856E-04    0.53      13.7  T
  62   -174.8576215 -0.935657E-08  0.612E-04    0.53      19.1  T

   *** convergence criteria satisfied after 62 iterations ***

         #    Occupation            Energy/Eh            Energy/eV
      -------------------------------------------------------------
         1        2.0000           -1.0763830             -29.2899
       ...           ...                  ...                  ...
       144        2.0000           -0.3606587              -9.8140
       145        2.0000           -0.3537416              -9.6258
       146        2.0000           -0.3527435              -9.5986
       147        2.0000           -0.3460156              -9.4156
       148        2.0000           -0.3392567              -9.2316
       149        2.0000           -0.3250337              -8.8446
       150        1.9999           -0.3103378              -8.4447 (HOMO)
       151        0.0001           -0.2909908              -7.9183 (LUMO)
       152        0.0000           -0.2864313              -7.7942
       153        0.0000           -0.2859934              -7.7823
       154                         -0.2843227              -7.7368
       155                         -0.2828314              -7.6962
       ...                                ...                  ...
       320                         13.3757905             363.9738
      -------------------------------------------------------------
                  HL-Gap            0.0193470 Eh            0.5265 eV
             Fermi-level           -0.3006711 Eh           -8.1817 eV

 SCC (total)                   0 d,  0 h,  0 min,  1.039 sec
 SCC setup                      ...        0 min,  0.001 sec (  0.096%)
 Dispersion                     ...        0 min,  0.001 sec (  0.096%)
 classical contributions        ...        0 min,  0.000 sec (  0.000%)
 integral evaluation            ...        0 min,  0.008 sec (  0.770%)
 iterations                     ...        0 min,  1.010 sec ( 97.209%)
 molecular gradient             ...        0 min,  0.018 sec (  1.732%)
 printout                       ...        0 min,  0.001 sec (  0.096%)

         :::::::::::::::::::::::::::::::::::::::::::::::::::::
         ::                     SUMMARY                     ::
         :::::::::::::::::::::::::::::::::::::::::::::::::::::
         :: total energy            -173.381087395004 Eh    ::
         :: gradient norm              0.076028175525 Eh/a0 ::
         :: HOMO-LUMO gap              0.526459215223 eV    ::
         ::.................................................::
         :: SCC energy              -174.855081799039 Eh    ::
         :: -> isotropic ES            1.040139518087 Eh    ::
         :: -> anisotropic ES         -0.384976139961 Eh    ::
         :: -> anisotropic XC         -0.062758167986 Eh    ::
         :: -> dispersion             -0.141650046994 Eh    ::
         :: repulsion energy           1.473994404035 Eh    ::
         :: add. restraining           0.000000000000 Eh    ::
         :: total charge              -0.000000000019 e     ::
         :::::::::::::::::::::::::::::::::::::::::::::::::::::

           -------------------------------------------------
          |                Property Printout                |
           -------------------------------------------------

    * Orbital Energies and Occupations

         #    Occupation            Energy/Eh            Energy/eV
      -------------------------------------------------------------
         1        2.0000           -1.0763830             -29.2899
       ...           ...                  ...                  ...
       138        2.0000           -0.3885468             -10.5729
       139        2.0000           -0.3861874             -10.5087
       140        2.0000           -0.3835705             -10.4375
       141        2.0000           -0.3783223             -10.2947
       142        2.0000           -0.3701521             -10.0724
       143        2.0000           -0.3627154              -9.8700
       144        2.0000           -0.3606587              -9.8140
       145        2.0000           -0.3537416              -9.6258
       146        2.0000           -0.3527435              -9.5986
       147        2.0000           -0.3460156              -9.4156
       148        2.0000           -0.3392567              -9.2316
       149        2.0000           -0.3250337              -8.8446
       150        1.9999           -0.3103378              -8.4447 (HOMO)
       151        0.0001           -0.2909908              -7.9183 (LUMO)
       152        0.0000           -0.2864313              -7.7942
       153        0.0000           -0.2859934              -7.7823
       154                         -0.2843227              -7.7368
       155                         -0.2828314              -7.6962
       156                         -0.2807064              -7.6384
       157                         -0.2759928              -7.5101
       158                         -0.2757745              -7.5042
       159                         -0.2754054              -7.4942
       160                         -0.2733837              -7.4391
       161                         -0.2730580              -7.4303
       ...                                ...                  ...
       320                         13.3757905             363.9738
      -------------------------------------------------------------
                  HL-Gap            0.0193470 Eh            0.5265 eV
             Fermi-level           -0.3006711 Eh           -8.1817 eV

     #   Z          covCN         q      C6AA      α(0)
     1   7 N        2.636    -0.248    26.453     7.639
     2   6 C        2.752     0.303    21.852     7.655
     3   8 O        0.859    -0.436    22.412     6.347
     4   6 C        2.988    -0.047    29.168     8.859
     5   6 C        2.877     0.074    26.351     8.415
     6  17 Cl       0.943    -0.125   103.064    15.531
     7   6 C        2.919     0.044    27.006     8.522
     8   7 N        2.688    -0.164    24.542     7.358
     9   6 C        2.890     0.057    26.724     8.475
    10   6 C        2.919    -0.054    29.340     8.883
    11   6 C        3.059    -0.040    28.925     8.820
    12   6 C        2.950     0.052    26.843     8.498
    13  53 I        1.263    -0.100   379.322    33.621
    14   6 C        3.063    -0.055    29.303     8.877
    15   6 C        2.776     0.153    24.679     8.137
    16   9 F        0.787    -0.222    11.468     4.000
    17   6 C        2.778     0.151    24.705     8.141
    18   9 F        0.787    -0.203    11.271     3.966
    19   6 C        2.908    -0.085    30.117     8.999
    20   6 C        2.870     0.152    24.693     8.146
    21   8 O        1.701    -0.252    18.177     5.756
    22   6 C        3.694     0.058    19.766     6.361
    23   6 C        3.719     0.090    19.202     6.259
    24   8 O        1.650    -0.482    22.517     6.406
    25   6 C        3.672     0.064    19.741     6.368
    26   8 O        1.652    -0.457    21.991     6.330
    27   1 H        0.860     0.210     1.059     1.612
    28   1 H        0.860     0.203     1.089     1.634
    29   1 H        0.860     0.194     1.139     1.672
    30   1 H        0.925     0.065     2.145     2.290
    31   1 H        0.925     0.066     2.129     2.282
    32   1 H        0.925     0.076     2.021     2.223
    33   1 H        0.925     0.096     1.817     2.108
    34   1 H        0.924     0.050     2.316     2.380
    35   1 H        0.924     0.058     2.225     2.332
    36   1 H        0.924     0.050     2.323     2.383
    37   1 H        0.803     0.332     0.633     1.250
    38   1 H        0.924     0.044     2.401     2.423
    39   1 H        0.924     0.046     2.376     2.411
    40   1 H        0.803     0.317     0.672     1.288
    41  22 Ti       3.637     1.054   101.754    24.483
    42  22 Ti       6.855     1.551    84.060    14.885
    43  22 Ti       3.227     1.047   102.655    24.740
    44  22 Ti       5.860     1.381    85.665    15.027
    45  22 Ti       5.627     1.116    88.260    15.253
    46  22 Ti       3.541     1.035   102.534    24.679
    47  22 Ti       2.352     0.881   202.653    34.856
    48  22 Ti       6.011     1.348    85.980    15.054
    49  22 Ti       3.414     1.007   103.065    24.781
    50  22 Ti       5.519     1.098    88.442    15.269
    51  22 Ti       5.687     1.189    87.527    15.189
    52  22 Ti       3.581     1.025   102.485    24.644
    53   6 C        2.246    -0.258    37.640     9.940
    54   6 C        2.142    -0.255    38.315    10.006
    55   6 C        2.248    -0.020    30.623     8.966
    56   6 C        1.838    -0.211    37.353     9.873
    57   6 C        1.894    -0.227    37.836     9.934
    58   6 C        1.821    -0.347    42.177    10.493
    59   6 C        2.631    -0.405    39.949    10.339
    60   8 O        1.554    -0.848    32.023     7.635
    61   8 O        1.464    -0.883    33.280     7.776
    62   8 O        1.557    -0.957    35.629     8.053
    63   8 O        1.523    -1.006    37.462     8.256
    64   8 O        1.523    -0.914    34.199     7.888
    65   8 O        1.458    -0.821    31.352     7.547
    66   8 O        1.455    -0.800    30.715     7.469
    67   8 O        0.727    -0.636    27.104     6.976
    68   8 O        1.453    -0.865    32.717     7.709
    69   8 O        1.476    -0.800    30.685     7.468
    70   8 O        1.603    -0.946    35.201     8.007
    71   8 O        1.547    -0.969    36.061     8.101
    72   8 O        1.700    -0.818    30.994     7.517
    73   8 O        1.453    -0.782    30.189     7.405

 Mol. C6AA /au·bohr⁶  :     160077.562431
 Mol. C8AA /au·bohr⁸  :    7574391.493589
 Mol. α(0) /au        :        680.874943


Wiberg/Mayer (AO) data.
largest (>0.10) Wiberg bond orders for each atom

 ---------------------------------------------------------------------------
     #   Z sym  total        # sym  WBO       # sym  WBO       # sym  WBO
 ---------------------------------------------------------------------------
     1   7 N    3.411 --     2 C    1.288    28 H    0.939    27 H    0.936
                             3 O    0.196
     2   6 C    3.951 --     3 O    1.618     1 N    1.288     4 C    0.991
     3   8 O    2.029 --     2 C    1.618     1 N    0.196
     4   6 C    3.980 --     5 C    1.370    20 C    1.321     2 C    0.991
     5   6 C    3.921 --     4 C    1.370     7 C    1.338     6 Cl   0.997
     6  17 Cl   1.148 --     5 C    0.997
     7   6 C    3.972 --     5 C    1.338    17 C    1.314     8 N    1.084
     8   7 N    3.326 --     7 C    1.084     9 C    1.077    29 H    0.920
     9   6 C    3.969 --    10 C    1.363    15 C    1.327     8 N    1.077
    10   6 C    3.983 --    11 C    1.453     9 C    1.363    30 H    0.964
                            14 C    0.104
    11   6 C    3.987 --    10 C    1.453    12 C    1.406    31 H    0.968
    12   6 C    3.953 --    14 C    1.414    11 C    1.406    13 I    0.991
    13  53 I    1.101 --    12 C    0.991
    14   6 C    3.985 --    12 C    1.414    15 C    1.401    32 H    0.964
                            10 C    0.104
    15   6 C    3.880 --    14 C    1.401     9 C    1.327    16 F    0.959
    16   9 F    1.092 --    15 C    0.959
    17   6 C    3.882 --    19 C    1.405     7 C    1.314    18 F    0.968
    18   9 F    1.115 --    17 C    0.968
    19   6 C    3.980 --    17 C    1.405    20 C    1.361    33 H    0.955
    20   6 C    3.951 --    19 C    1.361     4 C    1.321    21 O    1.076
    21   8 O    2.200 --    20 C    1.076    22 C    0.943
    22   6 C    3.924 --    23 C    0.975    35 H    0.969    34 H    0.961
                            21 O    0.943
    23   6 C    3.963 --    24 O    1.002    25 C    0.978    22 C    0.975
                            36 H    0.959
    24   8 O    1.929 --    23 C    1.002    37 H    0.822
    25   6 C    3.966 --    26 O    1.010    23 C    0.978    39 H    0.972
                            38 H    0.968
    26   8 O    1.942 --    25 C    1.010    40 H    0.852
    27   1 H    0.955 --     1 N    0.936
    28   1 H    0.958 --     1 N    0.939
    29   1 H    0.961 --     8 N    0.920
    30   1 H    0.995 --    10 C    0.964
    31   1 H    0.995 --    11 C    0.968
    32   1 H    0.994 --    14 C    0.964
    33   1 H    0.989 --    19 C    0.955
    34   1 H    0.997 --    22 C    0.961
    35   1 H    0.996 --    22 C    0.969
    36   1 H    0.997 --    23 C    0.959
    37   1 H    0.890 --    24 O    0.822
    38   1 H    0.998 --    25 C    0.968
    39   1 H    0.998 --    25 C    0.972
    40   1 H    0.899 --    26 O    0.852
    41  22 Ti   2.828 --    60 O    0.846    61 O    0.812    47 Ti   0.334
                            42 Ti   0.204    44 Ti   0.200
    42  22 Ti   3.854 --    61 O    0.751    64 O    0.747    62 O    0.687
                            63 O    0.609    41 Ti   0.204    43 Ti   0.187
                            45 Ti   0.138    46 Ti   0.134
    43  22 Ti   2.723 --    69 O    0.962    62 O    0.601    49 Ti   0.371
                            42 Ti   0.187    47 Ti   0.140    64 O    0.110
    44  22 Ti   3.920 --    65 O    0.944    53 C    0.718    60 O    0.703
                            63 O    0.566    46 Ti   0.205    41 Ti   0.200
                            50 Ti   0.179    70 O    0.123
    45  22 Ti   4.074 --    59 C    0.896    66 O    0.768    57 C    0.744
                            64 O    0.599    51 Ti   0.282    46 Ti   0.174
                            58 C    0.165    54 C    0.152    42 Ti   0.138
    46  22 Ti   2.660 --    66 O    0.972    65 O    0.703    44 Ti   0.205
                            45 Ti   0.174    42 Ti   0.134    61 O    0.122
    47  22 Ti   3.773 --    67 O    1.995    48 Ti   0.610    41 Ti   0.334
                            62 O    0.153    60 O    0.148    43 Ti   0.140
                            70 O    0.112
    48  22 Ti   4.018 --    70 O    0.801    68 O    0.752    71 O    0.714
                            47 Ti   0.610    72 O    0.195    49 Ti   0.167
                            52 Ti   0.147    50 Ti   0.141
    49  22 Ti   2.747 --    68 O    0.836    69 O    0.764    43 Ti   0.371
                            52 Ti   0.221    48 Ti   0.167    51 Ti   0.130
    50  22 Ti   4.010 --    58 C    1.053    56 C    0.728    72 O    0.614
                            70 O    0.443    59 C    0.228    52 Ti   0.199
                            44 Ti   0.179    53 C    0.157    48 Ti   0.141
    51  22 Ti   4.081 --    73 O    0.967    54 C    0.668    59 C    0.655
                            71 O    0.443    45 Ti   0.282    52 Ti   0.210
                            58 C    0.141    49 Ti   0.130    69 O    0.113
    52  22 Ti   2.791 --    72 O    0.901    73 O    0.734    49 Ti   0.221
                            51 Ti   0.210    50 Ti   0.199    48 Ti   0.147
    53   6 C    3.840 --    56 C    2.739    44 Ti   0.718    50 Ti   0.157
    54   6 C    3.779 --    57 C    2.732    51 Ti   0.668    45 Ti   0.152
    55   6 C    3.979 --    58 C    2.011    59 C    1.602
    56   6 C    3.707 --    53 C    2.739    50 Ti   0.728
    57   6 C    3.748 --    54 C    2.732    45 Ti   0.744
    58   6 C    3.768 --    55 C    2.011    50 Ti   1.053    45 Ti   0.165
                            51 Ti   0.141
    59   6 C    3.829 --    55 C    1.602    45 Ti   0.896    51 Ti   0.655
                            50 Ti   0.228
    60   8 O    1.934 --    41 Ti   0.846    44 Ti   0.703    47 Ti   0.148
    61   8 O    1.889 --    41 Ti   0.812    42 Ti   0.751    46 Ti   0.122
    62   8 O    1.782 --    42 Ti   0.687    43 Ti   0.601    47 Ti   0.153
    63   8 O    1.719 --    42 Ti   0.609    44 Ti   0.566
    64   8 O    1.845 --    42 Ti   0.747    45 Ti   0.599    43 Ti   0.110
    65   8 O    1.972 --    44 Ti   0.944    46 Ti   0.703
    66   8 O    2.011 --    46 Ti   0.972    45 Ti   0.768
    67   8 O    2.170 --    47 Ti   1.995
    68   8 O    1.910 --    49 Ti   0.836    48 Ti   0.752
    69   8 O    2.007 --    43 Ti   0.962    49 Ti   0.764    51 Ti   0.113
    70   8 O    1.799 --    48 Ti   0.801    50 Ti   0.443    44 Ti   0.123
                            47 Ti   0.112
    71   8 O    1.773 --    48 Ti   0.714    51 Ti   0.443
    72   8 O    1.986 --    52 Ti   0.901    50 Ti   0.614    48 Ti   0.195
    73   8 O    2.031 --    51 Ti   0.967    52 Ti   0.734
 ---------------------------------------------------------------------------

Topologies differ in total number of bonds
Writing topology from bond orders to xtbtopo.mol

molecular dipole:
                 x           y           z       tot (Debye)
 q only:        1.773      -0.885      -0.923
   full:        0.228      -1.010      -0.882       3.456
molecular quadrupole (traceless):
                xx          xy          yy          xz          yz          zz
 q only:      -40.175     -10.405       4.373     -11.602     -14.727      35.803
  q+dip:      -33.741      -9.788       9.774       3.755     -27.399      23.967
   full:      -31.857      -7.984      11.855       5.410     -24.421      20.001


           -------------------------------------------------
          | TOTAL ENERGY             -173.381087395004 Eh   |
          | GRADIENT NORM               0.076028175525 Eh/α |
          | HOMO-LUMO GAP               0.526459215223 eV   |
           -------------------------------------------------

------------------------------------------------------------------------
 * finished run on 2026/08/31 at 21:19:19.171     
------------------------------------------------------------------------
 total:
 * wall-time:     0 d,  0 h,  0 min,  1.078 sec
 *  cpu-time:     0 d,  0 h,  0 min, 11.297 sec
 * ratio c/w:    10.479 speedup
 SCF:
 * wall-time:     0 d,  0 h,  0 min,  1.040 sec
 *  cpu-time:     0 d,  0 h,  0 min, 11.156 sec
 * ratio c/w:    10.727 speedup

normal termination of xtb
