73
Drug@Ti3C2O2 complex
N     -1.212734     -1.751320      7.585918
C     -1.695513     -1.213907      6.427817
O     -2.857059     -1.392012      6.074023
C     -0.771907     -0.359253      5.644614
C      0.507608     -0.798013      5.254771
Cl      1.012364     -2.438434      5.550254
C      1.362242      0.067252      4.537487
N      2.699146     -0.264835      4.183391
C      3.776370     -0.524822      5.072313
C      4.974272     -1.003808      4.519193
C      6.073086     -1.307148      5.330444
C      5.983926     -1.135521      6.710739
I      7.613953     -1.585432      7.916751
C      4.807416     -0.663887      7.284218
C      3.717772     -0.365913      6.466978
F      2.611820      0.111383      7.059714
C      0.888335      1.348005      4.209793
F      1.689640      2.188839      3.536148
C     -0.382152      1.780450      4.565340
C     -1.223086      0.919293      5.266294
O     -2.453868      1.340235      5.693162
C     -3.317722      1.854672      4.669611
C     -4.600641      1.016842      4.543973
O     -4.278731     -0.294705      4.063846
C     -5.453939      0.925450      5.819449
O     -4.752185      0.464691      6.967007
H     -1.821475     -2.352985      8.125488
H     -0.246350     -1.667348      7.874019
H      3.027683      0.344044      3.431184
H      5.053515     -1.161475      3.445482
H      6.984606     -1.681330      4.870066
H      4.713825     -0.517749      8.355596
H     -0.686702      2.791078      4.314134
H     -2.826275      1.875310      3.688756
H     -3.571790      2.884493      4.943237
H     -5.222123      1.470931      3.763483
H     -3.764169     -0.749977      4.766112
H     -6.291488      0.238875      5.657628
H     -5.863173      1.910670      6.064065
H     -4.204500     -0.302637      6.700653
Ti     -3.000000     -2.600000      1.250000
Ti      0.000000     -2.600000      1.250000
Ti      3.000000     -2.600000      1.250000
Ti     -1.500000      0.000000      1.250000
Ti      1.500000      0.000000      1.250000
Ti      0.000000      2.600000      1.250000
Ti     -3.000000     -2.600000     -1.250000
Ti      0.000000     -2.600000     -1.250000
Ti      3.000000     -2.600000     -1.250000
Ti     -1.500000      0.000000     -1.250000
Ti      1.500000      0.000000     -1.250000
Ti      0.000000      2.600000     -1.250000
C     -1.500000     -1.300000      0.000000
C      1.500000     -1.300000      0.000000
C      0.000000      1.300000      0.000000
C     -3.000000      0.000000      0.000000
C      3.000000      0.000000      0.000000
C     -1.500000      2.600000      0.000000
C      1.500000      2.600000      0.000000
O     -3.000000     -2.600000      2.450000
O      0.000000     -2.600000      2.450000
O      3.000000     -2.600000      2.450000
O     -1.500000      0.000000      2.450000
O      1.500000      0.000000      2.450000
O     -1.500000      2.600000      2.450000
O      1.500000      2.600000      2.450000
O     -3.000000     -2.600000     -2.450000
O      0.000000     -2.600000     -2.450000
O      3.000000     -2.600000     -2.450000
O     -1.500000      0.000000     -2.450000
O      1.500000      0.000000     -2.450000
O     -1.500000      2.600000     -2.450000
O      1.500000      2.600000     -2.450000
