      -----------------------------------------------------------      
     |                   =====================                   |     
     |                           x T B                           |     
     |                   =====================                   |     
     |                         S. Grimme                         |     
     |          Mulliken Center for Theoretical Chemistry        |     
     |                    University of Bonn                     |     
      -----------------------------------------------------------      

   * xtb version 6.7.1pre (5071a88) compiled by 'Marcel@Raven' on 2024-07-23

   xtb is free software: you can redistribute it and/or modify it under
   the terms of the GNU Lesser General Public License as published by
   the Free Software Foundation, either version 3 of the License, or
   (at your option) any later version.
   
   xtb is distributed in the hope that it will be useful,
   but WITHOUT ANY WARRANTY; without even the implied warranty of
   MERCHANTABILITY or FITNESS FOR A PARTICULAR PURPOSE.  See the
   GNU Lesser General Public License for more details.
   
   Cite this work as:
   * C. Bannwarth, E. Caldeweyher, S. Ehlert, A. Hansen, P. Pracht,
     J. Seibert, S. Spicher, S. Grimme, WIREs Comput. Mol. Sci., 2020, 11,
     e01493. DOI: 10.1002/wcms.1493
   
   for GFN2-xTB:
   * C. Bannwarth, S. Ehlert and S. Grimme., J. Chem. Theory Comput., 2019,
     15, 1652-1671. DOI: 10.1021/acs.jctc.8b01176
   for GFN1-xTB:
   * S. Grimme, C. Bannwarth, P. Shushkov, J. Chem. Theory Comput., 2017,
     13, 1989-2009. DOI: 10.1021/acs.jctc.7b00118
   for GFN0-xTB:
   * P. Pracht, E. Caldeweyher, S. Ehlert, S. Grimme, ChemRxiv, 2019, preprint.
     DOI: 10.26434/chemrxiv.8326202.v1
   for GFN-FF:
   * S. Spicher and S. Grimme, Angew. Chem. Int. Ed., 2020, 59, 15665-15673.
     DOI: 10.1002/anie.202004239
   
   for ALPB and GBSA implicit solvation:
   * S. Ehlert, M. Stahn, S. Spicher, S. Grimme, J. Chem. Theory Comput.,
     2021, 17, 4250-4261. DOI: 10.1021/acs.jctc.1c00471
   
   for ddCOSMO and CPCM-X implicit solvation:
   * M. Stahn, S. Ehlert, S. Grimme, J. Phys. Chem. A,
     2023, XX, XXXX-XXXX. DOI: 10.1021/acs.jpca.3c04382
   
   for DFT-D4:
   * E. Caldeweyher, C. Bannwarth and S. Grimme, J. Chem. Phys., 2017,
     147, 034112. DOI: 10.1063/1.4993215
   * E. Caldeweyher, S. Ehlert, A. Hansen, H. Neugebauer, S. Spicher,
     C. Bannwarth and S. Grimme, J. Chem. Phys., 2019, 150, 154122.
     DOI: 10.1063/1.5090222
   * E. Caldeweyher, J.-M. Mewes, S. Ehlert and S. Grimme, Phys. Chem. Chem. Phys.
     2020, 22, 8499-8512. DOI: 10.1039/D0CP00502A
   
   for sTDA-xTB:
   * S. Grimme and C. Bannwarth, J. Chem. Phys., 2016, 145, 054103.
     DOI: 10.1063/1.4959605
   
   in the mass-spec context:
   * V. Asgeirsson, C. Bauer and S. Grimme, Chem. Sci., 2017, 8, 4879.
     DOI: 10.1039/c7sc00601b
   * J. Koopman and S. Grimme, ACS Omega 2019, 4, 12, 15120-15133.
     DOI: 10.1021/acsomega.9b02011
   
   for metadynamics refer to:
   * S. Grimme, J. Chem. Theory Comput., 2019, 155, 2847-2862
     DOI: 10.1021/acs.jctc.9b00143
   
   for SPH calculations refer to:
   * S. Spicher and S. Grimme, J. Chem. Theory Comput., 2021, 17, 1701-1714
     DOI: 10.1021/acs.jctc.0c01306
   
   for ONIOM refer to:
   * C. Plett, A. Katbashev, S. Ehlert, S. Grimme, M. Bursch,
     Phys. Chem. Chem. Phys., 2023, 25, 17860-17868. DOI: 10.1039/D3CP02178E
   
   for DIPRO refer to:
   * J. Kohn, N. Gildemeister, S. Grimme, D. Fazzi, A. Hansen,
     J. Chem. Phys., 2023, just accepted.
   
   for PTB refer to:
   * S. Grimme, M. Mueller, A. Hansen, J. Chem. Phys., 2023, 158, 124111.
     DOI: 10.1063/5.0137838
   
   with help from (in alphabetical order)
   P. Atkinson, C. Bannwarth, F. Bohle, G. Brandenburg, E. Caldeweyher
   M. Checinski, S. Dohm, S. Ehlert, S. Ehrlich, I. Gerasimov, C. Hölzer
   A. Katbashev, J. Kohn, J. Koopman, C. Lavigne, S. Lehtola, F. März, M. Müller,
   F. Musil, H. Neugebauer, J. Pisarek, C. Plett, P. Pracht, F. Pultar,
   J. Seibert, P. Shushkov, S. Spicher, M. Stahn, M. Steiner, T. Strunk,
   J. Stückrath, T. Rose, and J. Unsleber
   
 * started run on 2026/08/31 at 20:41:20.258     
   ID    Z sym.   atoms
    1    7 N      1, 8
    2    6 C      2, 4, 5, 7, 9-12, 14, 15, 17, 19, 20, 22, 23, 25, 53-59
    3    8 O      3, 21, 24, 26, 60-73
    4   17 Cl     6
    5   53 I      13
    6    9 F      16, 18
    7    1 H      27-40
    8   22 Ti     41-52

           -------------------------------------------------
          |                Calculation Setup                |
           -------------------------------------------------

          program call               : "c:\Users\Andre\Proyectos doctorado\kras-pancreatic-gC3N4-ai\tools\xtb\xtb-6.7.1\bin\xtb.exe" "c:\Users\Andre\Proyectos doctorado\mxene-glioblastoma-qsar-ai\calculations\gbm\Selumetinib\Selumetinib_Ti3C2O2_complex.xyz" --gfn 2 --sp --chrg 0 --uhf 0 --iterations 500 --norestart
          coordinate file            : c:\Users\Andre\Proyectos doctorado\mxene-glioblastoma-qsar-ai\calculations\gbm\Selumetinib\Selumetinib_Ti3C2O2_complex.xyz
          omp threads                :                    16


molecular fragmentation (1/2 indicates fragments):
111111111111111111111111111111111111111111111111111122122112222221222222
2
# atoms in fragment 1/2:    56    17
 fragment masses (1/2) :     1125.08      256.04
CMA distance (Bohr)    :   5.811
constraining FC (au)   :  0.0500

           -------------------------------------------------
          |                 G F N 2 - x T B                 |
           -------------------------------------------------

        Reference                      10.1021/acs.jctc.8b01176
      * Hamiltonian:
        H0-scaling (s, p, d)           1.850000    2.230000    2.230000
        zeta-weighting                 0.500000
      * Dispersion:
        s8                             2.700000
        a1                             0.520000
        a2                             5.000000
        s9                             5.000000
      * Repulsion:
        kExp                           1.500000    1.000000
        rExp                           1.000000
      * Coulomb:
        alpha                          2.000000
        third order                    shell-resolved
        anisotropic                    true
        a3                             3.000000
        a5                             4.000000
        cn-shift                       1.200000
        cn-exp                         4.000000
        max-rad                        5.000000


          ...................................................
          :                      SETUP                      :
          :.................................................:
          :  # basis functions                 334          :
          :  # atomic orbitals                 320          :
          :  # shells                          146          :
          :  # electrons                       300          :
          :  max. iterations                   500          :
          :  Hamiltonian                  GFN2-xTB          :
          :  restarted?                      false          :
          :  GBSA solvation                  false          :
          :  PC potential                    false          :
          :  electronic temp.          300.0000000     K    :
          :  accuracy                    1.0000000          :
          :  -> integral cutoff          0.2500000E+02      :
          :  -> integral neglect         0.1000000E-07      :
          :  -> SCF convergence          0.1000000E-05 Eh   :
          :  -> wf. convergence          0.1000000E-03 e    :
          :  Broyden damping             0.4000000          :
          :  net charge                          0          :
          :  unpaired electrons                  0          :
          ...................................................

 iter      E             dE          RMSdq      gap      omega  full diag
   1   -168.9286592 -0.168929E+03  0.142E+01    0.04       0.0  T
   2    -97.1815942  0.717471E+02  0.214E+01    0.03       1.0  T
   3    -54.2861577  0.428954E+02  0.260E+01    0.14       1.0  T
   4   -168.7614784 -0.114475E+03  0.114E+01    0.08       1.0  T
   5   -169.4897248 -0.728246E+00  0.950E+00    0.14       1.0  T
   6   -160.9685711  0.852115E+01  0.105E+01    0.05       1.0  T
   7   -170.1815943 -0.921302E+01  0.876E+00    0.23       1.0  T
   8   -171.3601853 -0.117859E+01  0.792E+00    0.05       1.0  T
   9   -167.5726440  0.378754E+01  0.802E+00    0.18       1.0  T
  10   -171.6008941 -0.402825E+01  0.709E+00    0.14       1.0  T
  11   -169.9352720  0.166562E+01  0.649E+00    0.08       1.0  T
  12   -171.8108885 -0.187562E+01  0.511E+00    0.28       1.0  T
  13   -172.5421116 -0.731223E+00  0.472E+00    0.06       1.0  T
  14   -173.1437072 -0.601596E+00  0.401E+00    0.06       1.0  T
  15   -173.4040719 -0.260365E+00  0.376E+00    0.04       1.0  T
  16   -173.4015310  0.254094E-02  0.376E+00    0.04       1.0  T
  17   -173.3428886  0.586424E-01  0.362E+00    0.05       1.0  T
  18   -173.3976747 -0.547861E-01  0.318E+00    0.07       1.0  T
  19   -173.4594757 -0.618010E-01  0.285E+00    0.04       1.0  T
  20   -173.4773472 -0.178715E-01  0.273E+00    0.02       1.0  T
  21   -173.5441948 -0.668476E-01  0.239E+00    0.08       1.0  T
  22   -173.4143900  0.129805E+00  0.199E+00    0.01       1.0  T
  23   -173.5683870 -0.153997E+00  0.161E+00    0.01       1.0  T
  24   -173.6180709 -0.496840E-01  0.148E+00    0.04       1.0  T
  25   -173.7209823 -0.102911E+00  0.108E+00    0.04       1.0  T
  26   -173.7178686  0.311376E-02  0.104E+00    0.01       1.0  T
  27   -173.7324800 -0.146114E-01  0.946E-01    0.04       1.0  T
  28   -173.7523540 -0.198740E-01  0.669E-01    0.02       1.0  T
  29   -173.7518048  0.549238E-03  0.756E-01    0.01       1.0  T
  30   -173.7397737  0.120310E-01  0.902E-01    0.01       1.0  T
  31   -173.7514588 -0.116851E-01  0.812E-01    0.02       1.0  T
  32   -173.7723804 -0.209216E-01  0.390E-01    0.02       1.0  T
  33   -173.7810608 -0.868037E-02  0.237E-01    0.02       1.0  T
  34   -173.7827086 -0.164777E-02  0.184E-01    0.01       1.0  T
  35   -173.7822335  0.475056E-03  0.223E-01    0.01       1.0  T
  36   -173.7822482 -0.147045E-04  0.202E-01    0.01       1.0  T
  37   -173.7819856  0.262592E-03  0.175E-01    0.01       1.0  T
  38   -173.7819937 -0.806567E-05  0.162E-01    0.00       1.0  T
  39   -173.7841447 -0.215097E-02  0.712E-02    0.01       1.0  T
  40   -173.7844706 -0.325924E-03  0.551E-02    0.01       1.0  T
  41   -173.7845483 -0.776805E-04  0.313E-02    0.01       1.0  T
  42   -173.7845099  0.384112E-04  0.372E-02    0.01       1.0  T
  43   -173.7845297 -0.198112E-04  0.324E-02    0.01       1.0  T
  44   -173.7845540 -0.243406E-04  0.266E-02    0.01       1.0  T
  45   -173.7845813 -0.272817E-04  0.179E-02    0.01       1.0  T
  46   -173.7845575  0.238028E-04  0.241E-02    0.01       1.0  T
  47   -173.7845846 -0.271384E-04  0.117E-02    0.01       1.0  T
  48   -173.7845842  0.413591E-06  0.960E-03    0.01       1.2  T
  49   -173.7845780  0.619358E-05  0.114E-02    0.01       1.0  T
  50   -173.7845835 -0.549826E-05  0.854E-03    0.01       1.4  T
  51   -173.7845879 -0.442111E-05  0.627E-03    0.01       1.9  T
  52   -173.7845887 -0.753241E-06  0.448E-03    0.01       2.6  T
  53   -173.7845886  0.795961E-07  0.348E-03    0.01       3.4  T
  54   -173.7845890 -0.332976E-06  0.126E-03    0.01       9.3  T
  55   -173.7845890 -0.353988E-07  0.718E-04    0.01      16.3  T
  56   -173.7845890 -0.229923E-07  0.315E-04    0.01      37.1  T

   *** convergence criteria satisfied after 56 iterations ***

         #    Occupation            Energy/Eh            Energy/eV
      -------------------------------------------------------------
         1        2.0000           -1.0691281             -29.0925
       ...           ...                  ...                  ...
       144        2.0000           -0.3966292             -10.7928
       145        2.0000           -0.3884441             -10.5701
       146        2.0000           -0.3844925             -10.4626
       147        2.0000           -0.3821141             -10.3979
       148        2.0000           -0.3806546             -10.3581
       149        1.9952           -0.3711713             -10.1001
       150        0.8741           -0.3652091              -9.9378 (HOMO)
       151        0.6871           -0.3648344              -9.9276 (LUMO)
       152        0.3888           -0.3640988              -9.9076
       153        0.0549           -0.3620611              -9.8522
       154                         -0.3483769              -9.4798
       155                         -0.3456006              -9.4043
       ...                                ...                  ...
       320                         18.3776285             500.0807
      -------------------------------------------------------------
                  HL-Gap            0.0003747 Eh            0.0102 eV
             Fermi-level           -0.3654496 Eh           -9.9444 eV

 SCC (total)                   0 d,  0 h,  0 min,  1.447 sec
 SCC setup                      ...        0 min,  0.001 sec (  0.069%)
 Dispersion                     ...        0 min,  0.001 sec (  0.069%)
 classical contributions        ...        0 min,  0.000 sec (  0.000%)
 integral evaluation            ...        0 min,  0.011 sec (  0.760%)
 iterations                     ...        0 min,  1.408 sec ( 97.305%)
 molecular gradient             ...        0 min,  0.023 sec (  1.589%)
 printout                       ...        0 min,  0.003 sec (  0.207%)

         :::::::::::::::::::::::::::::::::::::::::::::::::::::
         ::                     SUMMARY                     ::
         :::::::::::::::::::::::::::::::::::::::::::::::::::::
         :: total energy            -168.160425428018 Eh    ::
         :: gradient norm              5.403330332678 Eh/a0 ::
         :: HOMO-LUMO gap              0.010196712116 eV    ::
         ::.................................................::
         :: SCC energy              -173.778764322215 Eh    ::
         :: -> isotropic ES            0.859312322537 Eh    ::
         :: -> anisotropic ES         -0.039683715402 Eh    ::
         :: -> anisotropic XC         -0.134431178087 Eh    ::
         :: -> dispersion             -0.164628331551 Eh    ::
         :: repulsion energy           5.618338894197 Eh    ::
         :: add. restraining           0.000000000000 Eh    ::
         :: total charge              -0.000000001404 e     ::
         :::::::::::::::::::::::::::::::::::::::::::::::::::::

           -------------------------------------------------
          |                Property Printout                |
           -------------------------------------------------

    * Orbital Energies and Occupations

         #    Occupation            Energy/Eh            Energy/eV
      -------------------------------------------------------------
         1        2.0000           -1.0691281             -29.0925
       ...           ...                  ...                  ...
       138        2.0000           -0.4096263             -11.1465
       139        2.0000           -0.4052607             -11.0277
       140        2.0000           -0.4026445             -10.9565
       141        2.0000           -0.4006527             -10.9023
       142        2.0000           -0.4003078             -10.8929
       143        2.0000           -0.3971751             -10.8077
       144        2.0000           -0.3966292             -10.7928
       145        2.0000           -0.3884441             -10.5701
       146        2.0000           -0.3844925             -10.4626
       147        2.0000           -0.3821141             -10.3979
       148        2.0000           -0.3806546             -10.3581
       149        1.9952           -0.3711713             -10.1001
       150        0.8741           -0.3652091              -9.9378 (HOMO)
       151        0.6871           -0.3648344              -9.9276 (LUMO)
       152        0.3888           -0.3640988              -9.9076
       153        0.0549           -0.3620611              -9.8522
       154                         -0.3483769              -9.4798
       155                         -0.3456006              -9.4043
       156                         -0.3423544              -9.3159
       157                         -0.3407369              -9.2719
       158                         -0.3391599              -9.2290
       159                         -0.3347102              -9.1079
       160                         -0.3334476              -9.0736
       161                         -0.3308182              -9.0020
       ...                                ...                  ...
       320                         18.3776285             500.0807
      -------------------------------------------------------------
                  HL-Gap            0.0003747 Eh            0.0102 eV
             Fermi-level           -0.3654496 Eh           -9.9444 eV

     #   Z          covCN         q      C6AA      α(0)
     1   7 N        2.636    -0.243    26.337     7.622
     2   6 C        2.752     0.303    21.849     7.654
     3   8 O        0.859    -0.406    21.790     6.259
     4   6 C        2.988    -0.022    28.537     8.763
     5   6 C        2.877     0.078    26.246     8.398
     6  17 Cl       0.943    -0.034   100.214    15.315
     7   6 C        2.984     0.103    25.713     8.318
     8   7 N        2.714    -0.126    23.745     7.237
     9   6 C        2.890     0.052    26.840     8.494
    10   6 C        2.919    -0.045    29.105     8.847
    11   6 C        3.059    -0.038    28.882     8.813
    12   6 C        2.950     0.056    26.739     8.481
    13  53 I        1.263    -0.081   377.896    33.558
    14   6 C        3.063    -0.053    29.256     8.870
    15   6 C        2.776     0.157    24.596     8.123
    16   9 F        0.787    -0.219    11.437     3.995
    17   6 C        2.794     0.078    26.246     8.392
    18   9 F        1.722     0.283     7.261     3.184
    19   6 C        2.909    -0.059    29.470     8.902
    20   6 C        2.870     0.174    24.272     8.076
    21   8 O        1.701    -0.224    17.719     5.683
    22   6 C        3.694     0.033    20.184     6.428
    23   6 C        3.719     0.085    19.284     6.272
    24   8 O        1.650    -0.446    21.760     6.297
    25   6 C        3.672     0.058    19.838     6.384
    26   8 O        1.652    -0.457    21.979     6.329
    27   1 H        0.860     0.219     1.012     1.576
    28   1 H        0.860     0.211     1.051     1.606
    29   1 H        0.860     0.223     0.995     1.562
    30   1 H        0.925     0.097     1.810     2.104
    31   1 H        0.925     0.080     1.982     2.202
    32   1 H        0.925     0.091     1.873     2.140
    33   1 H        0.925     0.153     1.374     1.833
    34   1 H        0.924     0.129     1.541     1.942
    35   1 H        0.924     0.068     2.105     2.269
    36   1 H        0.924     0.063     2.167     2.302
    37   1 H        0.803     0.352     0.583     1.199
    38   1 H        0.924     0.047     2.352     2.398
    39   1 H        0.924     0.052     2.291     2.367
    40   1 H        0.803     0.319     0.666     1.282
    41  22 Ti       4.151     0.792    91.391    16.205
    42  22 Ti       6.350     0.713    92.455    15.611
    43  22 Ti       4.151     0.733    92.023    16.261
    44  22 Ti       7.449     1.018    89.255    15.339
    45  22 Ti       7.461     0.964    89.807    15.386
    46  22 Ti       6.552     0.915    90.312    15.429
    47  22 Ti       4.151     0.801    91.302    16.197
    48  22 Ti       6.350     0.749    92.069    15.578
    49  22 Ti       4.151     0.781    91.510    16.215
    50  22 Ti       7.449     1.041    89.017    15.318
    51  22 Ti       7.449     1.045    88.972    15.314
    52  22 Ti       6.519     1.062    88.801    15.299
    53   6 C        5.128    -0.710    38.921     8.860
    54   6 C        5.128    -0.710    38.934     8.862
    55   6 C        5.649    -0.549    33.381     8.205
    56   6 C        2.445    -0.410    40.704    10.409
    57   6 C        2.445    -0.444    41.995    10.573
    58   6 C        2.445    -0.326    37.725    10.021
    59   6 C        2.445    -0.392    40.047    10.325
    60   8 O        0.728    -0.527    24.457     6.627
    61   8 O        0.729    -0.594    26.036     6.838
    62   8 O        0.728    -0.542    24.810     6.675
    63   8 O        0.729    -0.673    28.059     7.098
    64   8 O        0.815    -0.763    30.510     7.404
    65   8 O        0.753    -0.674    28.064     7.100
    66   8 O        1.664    -0.346    19.828     6.011
    67   8 O        0.728    -0.541    24.788     6.672
    68   8 O        0.729    -0.576    25.602     6.780
    69   8 O        0.728    -0.535    24.636     6.651
    70   8 O        0.729    -0.652    27.518     7.030
    71   8 O        0.729    -0.658    27.657     7.047
    72   8 O        0.753    -0.558    25.173     6.724
    73   8 O        0.753    -0.550    24.981     6.698

 Mol. C6AA /au·bohr⁶  :     151200.013676
 Mol. C8AA /au·bohr⁸  :    7220180.383517
 Mol. α(0) /au        :        602.239828


Wiberg/Mayer (AO) data.
largest (>0.10) Wiberg bond orders for each atom

 ---------------------------------------------------------------------------
     #   Z sym  total        # sym  WBO       # sym  WBO       # sym  WBO
 ---------------------------------------------------------------------------
     1   7 N    3.416 --     2 C    1.294    28 H    0.936    27 H    0.932
                             3 O    0.204
     2   6 C    3.957 --     3 O    1.630     1 N    1.294     4 C    0.982
     3   8 O    2.056 --     2 C    1.630     1 N    0.204
     4   6 C    3.977 --     5 C    1.361    20 C    1.318     2 C    0.982
     5   6 C    3.934 --     4 C    1.361     7 C    1.314     6 Cl   1.021
     6  17 Cl   1.228 --     5 C    1.021
     7   6 C    3.968 --     5 C    1.314    17 C    1.271     8 N    1.066
     8   7 N    3.362 --     7 C    1.066     9 C    1.056    29 H    0.847
     9   6 C    3.961 --    10 C    1.360    15 C    1.330     8 N    1.056
    10   6 C    3.973 --    11 C    1.453     9 C    1.360    30 H    0.900
                            14 C    0.104
    11   6 C    3.984 --    10 C    1.453    12 C    1.404    31 H    0.965
    12   6 C    3.955 --    14 C    1.416    11 C    1.404    13 I    0.995
    13  53 I    1.105 --    12 C    0.995
    14   6 C    3.981 --    12 C    1.416    15 C    1.398    32 H    0.962
                            10 C    0.104
    15   6 C    3.875 --    14 C    1.398     9 C    1.330    16 F    0.961
    16   9 F    1.094 --    15 C    0.961
    17   6 C    3.695 --    19 C    1.379     7 C    1.271    18 F    0.744
    18   9 F    1.794 --    66 O    0.861    17 C    0.744
    19   6 C    3.961 --    17 C    1.379    20 C    1.324    33 H    0.901
    20   6 C    3.962 --    19 C    1.324     4 C    1.318    21 O    1.102
    21   8 O    2.221 --    20 C    1.102    22 C    0.928
    22   6 C    3.905 --    23 C    0.974    35 H    0.966    21 O    0.928
                            34 H    0.903
    23   6 C    3.956 --    24 O    0.993    25 C    0.976    22 C    0.974
                            36 H    0.953
    24   8 O    2.031 --    23 C    0.993    37 H    0.804
    25   6 C    3.960 --    26 O    1.010    23 C    0.976    39 H    0.971
                            38 H    0.967
    26   8 O    1.941 --    25 C    1.010    40 H    0.851
    27   1 H    0.951 --     1 N    0.932
    28   1 H    0.955 --     1 N    0.936
    29   1 H    0.950 --     8 N    0.847
    30   1 H    0.991 --    10 C    0.900
    31   1 H    0.993 --    11 C    0.965
    32   1 H    0.991 --    14 C    0.962
    33   1 H    0.974 --    19 C    0.901
    34   1 H    0.983 --    22 C    0.903
    35   1 H    0.994 --    22 C    0.966
    36   1 H    0.995 --    23 C    0.953
    37   1 H    0.876 --    24 O    0.804
    38   1 H    0.997 --    25 C    0.967
    39   1 H    0.996 --    25 C    0.971
    40   1 H    0.898 --    26 O    0.851
    41  22 Ti   4.014 --    60 O    2.029    47 Ti   0.595    42 Ti   0.302
                            53 C    0.272    44 Ti   0.202    56 C    0.163
                            48 Ti   0.103
    42  22 Ti   4.418 --    61 O    1.901    48 Ti   0.377    43 Ti   0.318
                            41 Ti   0.302    54 C    0.275    53 C    0.230
                            45 Ti   0.135    49 Ti   0.119    44 Ti   0.113
    43  22 Ti   4.000 --    62 O    2.024    49 Ti   0.551    42 Ti   0.318
                            54 C    0.243    45 Ti   0.192    57 C    0.170
    44  22 Ti   4.466 --    63 O    1.743    56 C    0.661    53 C    0.514
                            41 Ti   0.202    65 O    0.182    46 Ti   0.162
                            50 Ti   0.161    55 C    0.135    42 Ti   0.113
    45  22 Ti   4.544 --    64 O    1.561    57 C    0.739    54 C    0.601
                            43 Ti   0.192    51 Ti   0.182    55 C    0.146
                            42 Ti   0.135    46 Ti   0.121    59 C    0.108
    46  22 Ti   4.563 --    65 O    1.177    58 C    0.662    55 C    0.597
                            59 C    0.533    66 O    0.402    52 Ti   0.331
                            44 Ti   0.162    45 Ti   0.121
    47  22 Ti   4.008 --    67 O    2.019    41 Ti   0.595    48 Ti   0.316
                            53 C    0.284    50 Ti   0.209    56 C    0.184
    48  22 Ti   4.451 --    68 O    1.903    42 Ti   0.377    49 Ti   0.354
                            47 Ti   0.316    54 C    0.283    53 C    0.252
                            51 Ti   0.138    50 Ti   0.134    41 Ti   0.103
    49  22 Ti   3.999 --    69 O    2.023    43 Ti   0.551    48 Ti   0.354
                            54 C    0.263    51 Ti   0.197    57 C    0.179
                            42 Ti   0.119
    50  22 Ti   4.438 --    70 O    1.746    56 C    0.652    53 C    0.521
                            47 Ti   0.209    72 O    0.208    55 C    0.164
                            44 Ti   0.161    52 Ti   0.146    48 Ti   0.134
    51  22 Ti   4.417 --    71 O    1.727    57 C    0.662    54 C    0.521
                            73 O    0.205    49 Ti   0.197    45 Ti   0.182
                            55 C    0.162    52 Ti   0.154    48 Ti   0.138
    52  22 Ti   4.420 --    72 O    1.088    73 O    1.065    55 C    0.491
                            59 C    0.475    58 C    0.428    46 Ti   0.331
                            51 Ti   0.154    50 Ti   0.146
    53   6 C    3.645 --    56 C    0.875    50 Ti   0.521    44 Ti   0.514
                            47 Ti   0.284    41 Ti   0.272    48 Ti   0.252
                            42 Ti   0.230
    54   6 C    3.663 --    57 C    0.832    45 Ti   0.601    51 Ti   0.521
                            48 Ti   0.283    42 Ti   0.275    49 Ti   0.263
                            43 Ti   0.243
    55   6 C    3.813 --    59 C    0.813    58 C    0.783    46 Ti   0.597
                            52 Ti   0.491    50 Ti   0.164    51 Ti   0.162
                            45 Ti   0.146    44 Ti   0.135
    56   6 C    3.141 --    53 C    0.875    44 Ti   0.661    50 Ti   0.652
                            47 Ti   0.184    41 Ti   0.163    58 C    0.119
    57   6 C    3.181 --    54 C    0.832    45 Ti   0.739    51 Ti   0.662
                            49 Ti   0.179    43 Ti   0.170    59 C    0.116
    58   6 C    3.201 --    55 C    0.783    46 Ti   0.662    72 O    0.430
                            52 Ti   0.428    65 O    0.274    59 C    0.122
                            56 C    0.119
    59   6 C    3.056 --    55 C    0.813    46 Ti   0.533    73 O    0.479
                            52 Ti   0.475    58 C    0.122    57 C    0.116
                            45 Ti   0.108
    60   8 O    2.277 --    41 Ti   2.029
    61   8 O    2.210 --    42 Ti   1.901
    62   8 O    2.263 --    43 Ti   2.024
    63   8 O    2.102 --    44 Ti   1.743
    64   8 O    2.009 --    45 Ti   1.561
    65   8 O    2.059 --    46 Ti   1.177    58 C    0.274    44 Ti   0.182
    66   8 O    1.544 --    18 F    0.861    46 Ti   0.402
    67   8 O    2.263 --    47 Ti   2.019
    68   8 O    2.230 --    48 Ti   1.903
    69   8 O    2.269 --    49 Ti   2.023
    70   8 O    2.123 --    50 Ti   1.746
    71   8 O    2.118 --    51 Ti   1.727
    72   8 O    2.151 --    52 Ti   1.088    58 C    0.430    50 Ti   0.208
    73   8 O    2.056 --    52 Ti   1.065    59 C    0.479    51 Ti   0.205
 ---------------------------------------------------------------------------

Topologies differ in total number of bonds
Writing topology from bond orders to xtbtopo.mol

molecular dipole:
                 x           y           z       tot (Debye)
 q only:        2.557      -6.405       7.943
   full:        1.839      -1.058       4.562      12.789
molecular quadrupole (traceless):
                xx          xy          yy          xz          yz          zz
 q only:       11.964       3.594      32.263      32.730       9.223     -44.227
  q+dip:        1.737      24.646      75.274      14.491      26.616     -77.012
   full:       -0.471      24.254      82.503      17.203      25.405     -82.032


           -------------------------------------------------
          | TOTAL ENERGY             -168.160425428018 Eh   |
          | GRADIENT NORM               5.403330332678 Eh/α |
          | HOMO-LUMO GAP               0.010196712116 eV   |
           -------------------------------------------------

------------------------------------------------------------------------
 * finished run on 2026/08/31 at 20:41:21.771     
------------------------------------------------------------------------
 total:
 * wall-time:     0 d,  0 h,  0 min,  1.512 sec
 *  cpu-time:     0 d,  0 h,  0 min, 11.562 sec
 * ratio c/w:     7.647 speedup
 SCF:
 * wall-time:     0 d,  0 h,  0 min,  1.448 sec
 *  cpu-time:     0 d,  0 h,  0 min, 11.312 sec
 * ratio c/w:     7.813 speedup

normal termination of xtb
