94
Drug@Ti12C7O14 non-overlapping complex
C     -8.884549     -2.000498     13.193608
O     -8.406677     -0.890193     12.447221
C     -7.193358     -1.020896     11.816995
C     -6.410159     -2.180924     11.841231
C     -5.190374     -2.259091     11.183780
N     -4.497037     -3.409876     11.248849
C     -3.315928     -3.486350     10.599861
C     -2.773060     -2.451228      9.870494
C     -3.486015     -1.256795      9.822490
O     -3.027851     -0.192122      9.069600
C     -1.734259      0.217549      9.292866
C     -0.922391      0.391133      8.174351
C      0.394104      0.834800      8.333706
C      0.905452      1.122105      9.608052
N      2.240981      1.562928      9.677848
C      2.973408      1.841859     10.811902
O      2.625517      1.736834     11.978838
C      4.368215      2.301079     10.514488
C      5.337907      1.213585     10.166014
O      5.502575      0.938176      8.986282
N      5.915923      0.624725     11.269382
C      6.868411     -0.411901     11.288610
C      7.430897     -0.974351     10.138627
C      8.375510     -2.000488     10.243391
C      8.756278     -2.461232     11.496464
F      9.661039     -3.443553     11.594032
C      8.210803     -1.914844     12.649966
C      7.267450     -0.889565     12.545921
C      4.898914      3.525592     11.261303
C      4.532916      3.652858      9.817083
C      0.076292      0.971698     10.720675
C     -1.236319      0.529832     10.557613
F     -2.017470      0.428424     11.642687
C     -4.731433     -1.136009     10.471605
C     -5.515164      0.039735     10.442349
C     -6.739471      0.104761     11.110680
O     -7.558593      1.205048     11.130028
C     -7.087305      2.389727     10.504050
H     -9.846594     -1.718887     13.632527
H     -9.056122     -2.866817     12.546379
H     -8.204325     -2.247006     14.015484
H     -6.732427     -3.067149     12.378068
H     -2.805550     -4.441840     10.682460
H     -1.830262     -2.579897      9.353713
H     -1.308840      0.176998      7.181230
H      1.012762      0.951737      7.446423
H      2.741751      1.638731      8.797610
H      5.586062      0.950257     12.172091
H      7.159304     -0.636048      9.143611
H      8.813775     -2.439161      9.352488
H      8.520788     -2.288918     13.620430
H      6.848825     -0.474683     13.459573
H      4.252033      3.996031     11.994939
H      5.951924      3.567012     11.517506
H      3.644614      4.224875      9.572046
H      5.335669      3.760459      9.094791
H      0.406393      1.196972     11.728533
H     -5.139740      0.894073      9.888623
H     -7.840283      3.169455     10.654118
H     -6.154692      2.736319     10.961506
H     -6.970245      2.244956      9.425117
Ti     -2.141866     -3.008818      2.119748
Ti      0.288991     -1.694759      1.432425
Ti      1.903098     -3.067749     -0.729322
Ti     -2.521502     -0.251928      1.303687
Ti      2.142050      0.499533      2.204434
Ti     -0.681448      0.189635      3.681230
Ti     -2.036770     -3.077740     -1.200512
Ti     -0.605340     -0.770900     -2.035132
Ti      1.945488     -1.587317     -3.412400
Ti     -1.878170      1.746573     -1.240030
Ti      2.412512      0.454231     -0.774247
Ti      0.817742      1.838452     -2.940004
C     -3.678414      1.281398      0.600737
C      4.128193      0.482847      0.387293
C      0.455479      2.267202      0.349695
C     -3.666709      2.118834     -0.313920
C      4.115962      0.632239      1.621354
C     -0.635167      2.741046     -0.118921
C      1.630072      1.780996      0.734224
O     -3.093456     -1.956907      1.037949
O     -0.487250     -2.605849      2.701203
O      0.314079     -2.888890      0.145001
O     -0.800785     -0.435934      0.971227
O      1.902865     -1.158331      1.469449
O     -2.322673     -0.113878      3.024800
O      1.013786      0.441598      3.568761
O     -1.772019     -4.587905     -1.652810
O      0.190605     -1.189189     -3.534030
O      2.831420     -2.170248     -1.918042
O     -2.054558     -0.224445     -1.337505
O      0.768511     -0.390574     -1.063664
O     -0.900039      1.649313     -2.818565
O      2.415313      1.357463     -2.264115
