94
Drug@Ti3C2O2 complex
C     -8.884549     -2.000498      8.043158
O     -8.406677     -0.890193      7.296771
C     -7.193358     -1.020896      6.666545
C     -6.410159     -2.180924      6.690781
C     -5.190374     -2.259091      6.033330
N     -4.497037     -3.409876      6.098399
C     -3.315928     -3.486350      5.449411
C     -2.773060     -2.451228      4.720044
C     -3.486015     -1.256795      4.672040
O     -3.027851     -0.192122      3.919150
C     -1.734259      0.217549      4.142416
C     -0.922391      0.391133      3.023901
C      0.394104      0.834800      3.183256
C      0.905452      1.122105      4.457602
N      2.240981      1.562928      4.527398
C      2.973408      1.841859      5.661452
O      2.625517      1.736834      6.828388
C      4.368215      2.301079      5.364038
C      5.337907      1.213585      5.015564
O      5.502575      0.938176      3.835832
N      5.915923      0.624725      6.118932
C      6.868411     -0.411901      6.138160
C      7.430897     -0.974351      4.988177
C      8.375510     -2.000488      5.092941
C      8.756278     -2.461232      6.346014
F      9.661039     -3.443553      6.443582
C      8.210803     -1.914844      7.499516
C      7.267450     -0.889565      7.395471
C      4.898914      3.525592      6.110853
C      4.532916      3.652858      4.666633
C      0.076292      0.971698      5.570225
C     -1.236319      0.529832      5.407163
F     -2.017470      0.428424      6.492237
C     -4.731433     -1.136009      5.321155
C     -5.515164      0.039735      5.291899
C     -6.739471      0.104761      5.960230
O     -7.558593      1.205048      5.979578
C     -7.087305      2.389727      5.353600
H     -9.846594     -1.718887      8.482077
H     -9.056122     -2.866817      7.395929
H     -8.204325     -2.247006      8.865034
H     -6.732427     -3.067149      7.227618
H     -2.805550     -4.441840      5.532010
H     -1.830262     -2.579897      4.203263
H     -1.308840      0.176998      2.030780
H      1.012762      0.951737      2.295973
H      2.741751      1.638731      3.647160
H      5.586062      0.950257      7.021641
H      7.159304     -0.636048      3.993161
H      8.813775     -2.439161      4.202038
H      8.520788     -2.288918      8.469980
H      6.848825     -0.474683      8.309123
H      4.252033      3.996031      6.844489
H      5.951924      3.567012      6.367056
H      3.644614      4.224875      4.421596
H      5.335669      3.760459      3.944341
H      0.406393      1.196972      6.578083
H     -5.139740      0.894073      4.738173
H     -7.840283      3.169455      5.503668
H     -6.154692      2.736319      5.811056
H     -6.970245      2.244956      4.274667
Ti     -3.000000     -2.600000      1.250000
Ti      0.000000     -2.600000      1.250000
Ti      3.000000     -2.600000      1.250000
Ti     -1.500000      0.000000      1.250000
Ti      1.500000      0.000000      1.250000
Ti      0.000000      2.600000      1.250000
Ti     -3.000000     -2.600000     -1.250000
Ti      0.000000     -2.600000     -1.250000
Ti      3.000000     -2.600000     -1.250000
Ti     -1.500000      0.000000     -1.250000
Ti      1.500000      0.000000     -1.250000
Ti      0.000000      2.600000     -1.250000
C     -1.500000     -1.300000      0.000000
C      1.500000     -1.300000      0.000000
C      0.000000      1.300000      0.000000
C     -3.000000      0.000000      0.000000
C      3.000000      0.000000      0.000000
C     -1.500000      2.600000      0.000000
C      1.500000      2.600000      0.000000
O     -3.000000     -2.600000      2.450000
O      0.000000     -2.600000      2.450000
O      3.000000     -2.600000      2.450000
O     -1.500000      0.000000      2.450000
O      1.500000      0.000000      2.450000
O     -1.500000      2.600000      2.450000
O      1.500000      2.600000      2.450000
O     -3.000000     -2.600000     -2.450000
O      0.000000     -2.600000     -2.450000
O      3.000000     -2.600000     -2.450000
O     -1.500000      0.000000     -2.450000
O      1.500000      0.000000     -2.450000
O     -1.500000      2.600000     -2.450000
O      1.500000      2.600000     -2.450000
