      -----------------------------------------------------------      
     |                   =====================                   |     
     |                           x T B                           |     
     |                   =====================                   |     
     |                         S. Grimme                         |     
     |          Mulliken Center for Theoretical Chemistry        |     
     |                    University of Bonn                     |     
      -----------------------------------------------------------      

   * xtb version 6.7.1pre (5071a88) compiled by 'Marcel@Raven' on 2024-07-23

   xtb is free software: you can redistribute it and/or modify it under
   the terms of the GNU Lesser General Public License as published by
   the Free Software Foundation, either version 3 of the License, or
   (at your option) any later version.
   
   xtb is distributed in the hope that it will be useful,
   but WITHOUT ANY WARRANTY; without even the implied warranty of
   MERCHANTABILITY or FITNESS FOR A PARTICULAR PURPOSE.  See the
   GNU Lesser General Public License for more details.
   
   Cite this work as:
   * C. Bannwarth, E. Caldeweyher, S. Ehlert, A. Hansen, P. Pracht,
     J. Seibert, S. Spicher, S. Grimme, WIREs Comput. Mol. Sci., 2020, 11,
     e01493. DOI: 10.1002/wcms.1493
   
   for GFN2-xTB:
   * C. Bannwarth, S. Ehlert and S. Grimme., J. Chem. Theory Comput., 2019,
     15, 1652-1671. DOI: 10.1021/acs.jctc.8b01176
   for GFN1-xTB:
   * S. Grimme, C. Bannwarth, P. Shushkov, J. Chem. Theory Comput., 2017,
     13, 1989-2009. DOI: 10.1021/acs.jctc.7b00118
   for GFN0-xTB:
   * P. Pracht, E. Caldeweyher, S. Ehlert, S. Grimme, ChemRxiv, 2019, preprint.
     DOI: 10.26434/chemrxiv.8326202.v1
   for GFN-FF:
   * S. Spicher and S. Grimme, Angew. Chem. Int. Ed., 2020, 59, 15665-15673.
     DOI: 10.1002/anie.202004239
   
   for ALPB and GBSA implicit solvation:
   * S. Ehlert, M. Stahn, S. Spicher, S. Grimme, J. Chem. Theory Comput.,
     2021, 17, 4250-4261. DOI: 10.1021/acs.jctc.1c00471
   
   for ddCOSMO and CPCM-X implicit solvation:
   * M. Stahn, S. Ehlert, S. Grimme, J. Phys. Chem. A,
     2023, XX, XXXX-XXXX. DOI: 10.1021/acs.jpca.3c04382
   
   for DFT-D4:
   * E. Caldeweyher, C. Bannwarth and S. Grimme, J. Chem. Phys., 2017,
     147, 034112. DOI: 10.1063/1.4993215
   * E. Caldeweyher, S. Ehlert, A. Hansen, H. Neugebauer, S. Spicher,
     C. Bannwarth and S. Grimme, J. Chem. Phys., 2019, 150, 154122.
     DOI: 10.1063/1.5090222
   * E. Caldeweyher, J.-M. Mewes, S. Ehlert and S. Grimme, Phys. Chem. Chem. Phys.
     2020, 22, 8499-8512. DOI: 10.1039/D0CP00502A
   
   for sTDA-xTB:
   * S. Grimme and C. Bannwarth, J. Chem. Phys., 2016, 145, 054103.
     DOI: 10.1063/1.4959605
   
   in the mass-spec context:
   * V. Asgeirsson, C. Bauer and S. Grimme, Chem. Sci., 2017, 8, 4879.
     DOI: 10.1039/c7sc00601b
   * J. Koopman and S. Grimme, ACS Omega 2019, 4, 12, 15120-15133.
     DOI: 10.1021/acsomega.9b02011
   
   for metadynamics refer to:
   * S. Grimme, J. Chem. Theory Comput., 2019, 155, 2847-2862
     DOI: 10.1021/acs.jctc.9b00143
   
   for SPH calculations refer to:
   * S. Spicher and S. Grimme, J. Chem. Theory Comput., 2021, 17, 1701-1714
     DOI: 10.1021/acs.jctc.0c01306
   
   for ONIOM refer to:
   * C. Plett, A. Katbashev, S. Ehlert, S. Grimme, M. Bursch,
     Phys. Chem. Chem. Phys., 2023, 25, 17860-17868. DOI: 10.1039/D3CP02178E
   
   for DIPRO refer to:
   * J. Kohn, N. Gildemeister, S. Grimme, D. Fazzi, A. Hansen,
     J. Chem. Phys., 2023, just accepted.
   
   for PTB refer to:
   * S. Grimme, M. Mueller, A. Hansen, J. Chem. Phys., 2023, 158, 124111.
     DOI: 10.1063/5.0137838
   
   with help from (in alphabetical order)
   P. Atkinson, C. Bannwarth, F. Bohle, G. Brandenburg, E. Caldeweyher
   M. Checinski, S. Dohm, S. Ehlert, S. Ehrlich, I. Gerasimov, C. Hölzer
   A. Katbashev, J. Kohn, J. Koopman, C. Lavigne, S. Lehtola, F. März, M. Müller,
   F. Musil, H. Neugebauer, J. Pisarek, C. Plett, P. Pracht, F. Pultar,
   J. Seibert, P. Shushkov, S. Spicher, M. Stahn, M. Steiner, T. Strunk,
   J. Stückrath, T. Rose, and J. Unsleber
   
 * started run on 2026/08/31 at 20:37:20.418     
   ID    Z sym.   atoms
    1    6 C      1, 3-5, 7-9, 11-14, 16, 18, 19, 22-25, 27-32, 34-36, 38,
                  74-80
    2    8 O      2, 10, 17, 20, 37, 81-94
    3    7 N      6, 15, 21
    4    9 F      26, 33
    5    1 H      39-61
    6   22 Ti     62-73

           -------------------------------------------------
          |                Calculation Setup                |
           -------------------------------------------------

          program call               : "c:\Users\Andre\Proyectos doctorado\kras-pancreatic-gC3N4-ai\tools\xtb\xtb-6.7.1\bin\xtb.exe" "c:\Users\Andre\Proyectos doctorado\mxene-glioblastoma-qsar-ai\calculations\gbm\Cabozantinib\Cabozantinib_Ti3C2O2_complex.xyz" --gfn 2 --sp --chrg 0 --uhf 0 --iterations 500 --norestart
          coordinate file            : c:\Users\Andre\Proyectos doctorado\mxene-glioblastoma-qsar-ai\calculations\gbm\Cabozantinib\Cabozantinib_Ti3C2O2_complex.xyz
          omp threads                :                    16


molecular fragmentation (1/2 indicates fragments):
111111111111111111111111111111111111111111111111111111111111111111111111
1221221122212222222222
# atoms in fragment 1/2:    77    17
 fragment masses (1/2) :     1145.93      256.04
CMA distance (Bohr)    :   5.154
constraining FC (au)   :  0.0500

           -------------------------------------------------
          |                 G F N 2 - x T B                 |
           -------------------------------------------------

        Reference                      10.1021/acs.jctc.8b01176
      * Hamiltonian:
        H0-scaling (s, p, d)           1.850000    2.230000    2.230000
        zeta-weighting                 0.500000
      * Dispersion:
        s8                             2.700000
        a1                             0.520000
        a2                             5.000000
        s9                             5.000000
      * Repulsion:
        kExp                           1.500000    1.000000
        rExp                           1.000000
      * Coulomb:
        alpha                          2.000000
        third order                    shell-resolved
        anisotropic                    true
        a3                             3.000000
        a5                             4.000000
        cn-shift                       1.200000
        cn-exp                         4.000000
        max-rad                        5.000000


          ...................................................
          :                      SETUP                      :
          :.................................................:
          :  # basis functions                 379          :
          :  # atomic orbitals                 367          :
          :  # shells                          177          :
          :  # electrons                       354          :
          :  max. iterations                   500          :
          :  Hamiltonian                  GFN2-xTB          :
          :  restarted?                      false          :
          :  GBSA solvation                  false          :
          :  PC potential                    false          :
          :  electronic temp.          300.0000000     K    :
          :  accuracy                    1.0000000          :
          :  -> integral cutoff          0.2500000E+02      :
          :  -> integral neglect         0.1000000E-07      :
          :  -> SCF convergence          0.1000000E-05 Eh   :
          :  -> wf. convergence          0.1000000E-03 e    :
          :  Broyden damping             0.4000000          :
          :  net charge                          0          :
          :  unpaired electrons                  0          :
          ...................................................

 iter      E             dE          RMSdq      gap      omega  full diag
   1   -196.5614737 -0.196561E+03  0.122E+01    0.01       0.0  T
   2    -93.0440014  0.103517E+03  0.228E+01    0.05       1.0  T
   3    -93.9521565 -0.908155E+00  0.214E+01    0.17       1.0  T
   4   -190.2443703 -0.962922E+02  0.113E+01    0.05       1.0  T
   5   -193.1983019 -0.295393E+01  0.123E+01    0.24       1.0  T
   6   -194.7049775 -0.150668E+01  0.103E+01    0.25       1.0  T
   7   -179.2702855  0.154347E+02  0.115E+01    0.01       1.0  T
   8   -197.1471906 -0.178769E+02  0.101E+01    0.09       1.0  T
   9   -197.7238912 -0.576701E+00  0.920E+00    0.09       1.0  T
  10   -196.0658300  0.165806E+01  0.929E+00    0.09       1.0  T
  11   -201.7020833 -0.563625E+01  0.904E+00    0.12       1.0  T
  12   -201.7398333 -0.377500E-01  0.897E+00    0.06       1.0  T
  13   -201.3053413  0.434492E+00  0.906E+00    0.06       1.0  T
  14   -198.0595100  0.324583E+01  0.903E+00    0.17       1.0  T
  15   -197.6103784  0.449132E+00  0.886E+00    0.11       1.0  T
  16   -199.3032815 -0.169290E+01  0.838E+00    0.12       1.0  T
  17   -198.6426221  0.660659E+00  0.844E+00    0.10       1.0  T
  18   -202.9581366 -0.431551E+01  0.126E+01    0.16       1.0  T
  19   -202.0782132  0.879923E+00  0.114E+01    0.09       1.0  T
  20   -201.5450369  0.533176E+00  0.844E+00    0.17       1.0  T
  21   -201.1041281  0.440909E+00  0.697E+00    0.12       1.0  T
  22   -202.2339746 -0.112985E+01  0.695E+00    0.10       1.0  T
  23   -205.1316529 -0.289768E+01  0.726E+00    0.07       1.0  T
  24   -205.7068039 -0.575151E+00  0.726E+00    0.03       1.0  T
  25   -205.7591796 -0.523757E-01  0.725E+00    0.03       1.0  T
  26   -205.7845992 -0.254196E-01  0.724E+00    0.03       1.0  T
  27   -206.1175794 -0.332980E+00  0.719E+00    0.04       1.0  T
  28   -206.6530593 -0.535480E+00  0.706E+00    0.08       1.0  T
  29   -206.5628528  0.902066E-01  0.672E+00    0.02       1.0  T
  30   -207.4030203 -0.840167E+00  0.650E+00    0.04       1.0  T
  31   -207.5168246 -0.113804E+00  0.641E+00    0.05       1.0  T
  32   -207.8115597 -0.294735E+00  0.609E+00    0.06       1.0  T
  33   -207.8922019 -0.806421E-01  0.594E+00    0.03       1.0  T
  34   -207.8879395  0.426236E-02  0.594E+00    0.03       1.0  T
  35   -208.8604255 -0.972486E+00  0.497E+00    0.08       1.0  T
  36   -208.9536743 -0.932488E-01  0.477E+00    0.09       1.0  T
  37   -209.0303290 -0.766546E-01  0.465E+00    0.06       1.0  T
  38   -209.7966919 -0.766363E+00  0.360E+00    0.05       1.0  T
  39   -209.3407192  0.455973E+00  0.336E+00    0.16       1.0  T
  40   -210.0532528 -0.712534E+00  0.275E+00    0.04       1.0  T
  41   -210.1149255 -0.616727E-01  0.259E+00    0.04       1.0  T
  42   -210.1231238 -0.819832E-02  0.242E+00    0.04       1.0  T
  43   -210.3130409 -0.189917E+00  0.174E+00    0.01       1.0  T
  44   -210.3448511 -0.318103E-01  0.156E+00    0.02       1.0  T
  45   -210.3514180 -0.656689E-02  0.143E+00    0.00       1.0  T
  46   -210.4113452 -0.599272E-01  0.114E+00    0.03       1.0  T
  47   -210.4202991 -0.895382E-02  0.104E+00    0.01       1.0  T
  48   -210.4244722 -0.417316E-02  0.853E-01    0.01       1.0  T
  49   -210.4640157 -0.395435E-01  0.627E-01    0.02       1.0  T
  50   -210.4737035 -0.968777E-02  0.439E-01    0.01       1.0  T
  51   -210.4773451 -0.364164E-02  0.380E-01    0.01       1.0  T
  52   -210.4471531  0.301920E-01  0.583E-01    0.00       1.0  T
  53   -210.4615238 -0.143706E-01  0.503E-01    0.01       1.0  T
  54   -210.4635561 -0.203230E-02  0.435E-01    0.01       1.0  T
  55   -210.4872279 -0.236718E-01  0.312E-01    0.02       1.0  T
  56   -210.4583383  0.288895E-01  0.461E-01    0.01       1.0  T
  57   -210.4920176 -0.336792E-01  0.173E-01    0.02       1.0  T
  58   -210.4932245 -0.120696E-02  0.135E-01    0.02       1.0  T
  59   -210.4929250  0.299523E-03  0.117E-01    0.02       1.0  T
  60   -210.4936599 -0.734922E-03  0.116E-01    0.03       1.0  T
  61   -210.4936099  0.500935E-04  0.124E-01    0.03       1.0  T
  62   -210.4933859  0.223913E-03  0.124E-01    0.03       1.0  T
  63   -210.4937905 -0.404595E-03  0.107E-01    0.03       1.0  T
  64   -210.4941337 -0.343201E-03  0.900E-02    0.02       1.0  T
  65   -210.4942217 -0.880001E-04  0.740E-02    0.02       1.0  T
  66   -210.4944483 -0.226586E-03  0.600E-02    0.02       1.0  T
  67   -210.4944943 -0.459832E-04  0.597E-02    0.03       1.0  T
  68   -210.4944311  0.632064E-04  0.573E-02    0.03       1.0  T
  69   -210.4943815  0.496139E-04  0.598E-02    0.03       1.0  T
  70   -210.4945398 -0.158285E-03  0.418E-02    0.03       1.0  T
  71   -210.4947061 -0.166286E-03  0.301E-02    0.03       1.0  T
  72   -210.4947569 -0.508141E-04  0.231E-02    0.03       1.0  T
  73   -210.4948294 -0.725641E-04  0.148E-02    0.03       1.0  T
  74   -210.4948470 -0.175234E-04  0.119E-02    0.03       1.0  T
  75   -210.4948662 -0.192276E-04  0.743E-03    0.03       1.4  T
  76   -210.4948753 -0.915090E-05  0.400E-03    0.03       2.6  T
  77   -210.4948760 -0.706938E-06  0.353E-03    0.03       2.9  T
  78   -210.4948747  0.133594E-05  0.439E-03    0.03       2.4  T
  79   -210.4948750 -0.333937E-06  0.411E-03    0.03       2.5  T
  80   -210.4948761 -0.101258E-05  0.301E-03    0.03       3.4  T
  81   -210.4948770 -0.926388E-06  0.231E-03    0.03       4.5  T
  82   -210.4948774 -0.465674E-06  0.147E-03    0.03       7.0  T
  83   -210.4948777 -0.258920E-06  0.867E-04    0.03      11.9  T
  84   -210.4948778 -0.957841E-07  0.619E-04    0.03      16.7  T

   *** convergence criteria satisfied after 84 iterations ***

         #    Occupation            Energy/Eh            Energy/eV
      -------------------------------------------------------------
         1        2.0000           -3.9414323            -107.2518
       ...           ...                  ...                  ...
       171        2.0000           -0.4223294             -11.4922
       172        1.9990           -0.4195107             -11.4155
       173        1.9955           -0.4180458             -11.3756
       174        1.9871           -0.4170340             -11.3481
       175        1.9667           -0.4161228             -11.3233
       176        1.9178           -0.4152413             -11.2993
       177        1.3014           -0.4128404             -11.2340 (HOMO)
       178        0.8235           -0.4119104             -11.2087 (LUMO)
       179        0.0081           -0.4070183             -11.0755
       180        0.0008           -0.4048106             -11.0155
       181        0.0001           -0.4029134             -10.9638
       182        0.0000           -0.4006966             -10.9035
       ...           ...                  ...                  ...
       367                         19.2736243             524.4620
      -------------------------------------------------------------
                  HL-Gap            0.0009300 Eh            0.0253 eV
             Fermi-level           -0.4122493 Eh          -11.2179 eV

 SCC (total)                   0 d,  0 h,  0 min,  2.489 sec
 SCC setup                      ...        0 min,  0.001 sec (  0.040%)
 Dispersion                     ...        0 min,  0.005 sec (  0.201%)
 classical contributions        ...        0 min,  0.000 sec (  0.000%)
 integral evaluation            ...        0 min,  0.011 sec (  0.442%)
 iterations                     ...        0 min,  2.443 sec ( 98.152%)
 molecular gradient             ...        0 min,  0.026 sec (  1.045%)
 printout                       ...        0 min,  0.003 sec (  0.121%)

         :::::::::::::::::::::::::::::::::::::::::::::::::::::
         ::                     SUMMARY                     ::
         :::::::::::::::::::::::::::::::::::::::::::::::::::::
         :: total energy            -202.180084085364 Eh    ::
         :: gradient norm              8.671062030827 Eh/a0 ::
         :: HOMO-LUMO gap              0.025306299296 eV    ::
         ::.................................................::
         :: SCC energy              -210.490342832370 Eh    ::
         :: -> isotropic ES           -9.018522761606 Eh    ::
         :: -> anisotropic ES         -0.086604727504 Eh    ::
         :: -> anisotropic XC         -0.082093552800 Eh    ::
         :: -> dispersion             -0.168166314769 Eh    ::
         :: repulsion energy           8.310258747006 Eh    ::
         :: add. restraining           0.000000000000 Eh    ::
         :: total charge              -0.000000000000 e     ::
         :::::::::::::::::::::::::::::::::::::::::::::::::::::

           -------------------------------------------------
          |                Property Printout                |
           -------------------------------------------------

    * Orbital Energies and Occupations

         #    Occupation            Energy/Eh            Energy/eV
      -------------------------------------------------------------
         1        2.0000           -3.9414323            -107.2518
       ...           ...                  ...                  ...
       165        2.0000           -0.4380341             -11.9195
       166        2.0000           -0.4360580             -11.8657
       167        2.0000           -0.4330329             -11.7834
       168        2.0000           -0.4306948             -11.7198
       169        2.0000           -0.4289687             -11.6728
       170        2.0000           -0.4267305             -11.6119
       171        2.0000           -0.4223294             -11.4922
       172        1.9990           -0.4195107             -11.4155
       173        1.9955           -0.4180458             -11.3756
       174        1.9871           -0.4170340             -11.3481
       175        1.9667           -0.4161228             -11.3233
       176        1.9178           -0.4152413             -11.2993
       177        1.3014           -0.4128404             -11.2340 (HOMO)
       178        0.8235           -0.4119104             -11.2087 (LUMO)
       179        0.0081           -0.4070183             -11.0755
       180        0.0008           -0.4048106             -11.0155
       181        0.0001           -0.4029134             -10.9638
       182        0.0000           -0.4006966             -10.9035
       183                         -0.3932661             -10.7013
       184                         -0.3905536             -10.6275
       185                         -0.3890222             -10.5858
       186                         -0.3886631             -10.5761
       187                         -0.3858927             -10.5007
       188                         -0.3834597             -10.4345
       ...                                ...                  ...
       367                         19.2736243             524.4620
      -------------------------------------------------------------
                  HL-Gap            0.0009300 Eh            0.0253 eV
             Fermi-level           -0.4122493 Eh          -11.2179 eV

     #   Z          covCN         q      C6AA      α(0)
     1   6 C        3.640     0.023    20.549     6.519
     2   8 O        1.703    -0.226    17.742     5.687
     3   6 C        2.856     0.141    24.914     8.181
     4   6 C        2.926    -0.075    29.868     8.962
     5   6 C        2.953     0.094    25.915     8.350
     6   7 N        1.843    -0.191    25.970     7.553
     7   6 C        2.887     0.055    26.759     8.481
     8   6 C        2.907    -0.018    28.454     8.747
     9   6 C        2.890     0.179    24.175     8.061
    10   8 O        1.712    -0.162    16.741     5.524
    11   6 C        3.619     0.063    19.962     6.443
    12   6 C        4.716     0.144    18.179     6.055
    13   6 C        5.026     0.112    18.667     6.136
    14   6 C        2.898     0.077    26.289     8.407
    15   7 N        2.693    -0.116    23.536     7.205
    16   6 C        2.750     0.283    22.212     7.717
    17   8 O        0.857    -0.383    21.338     6.193
    18   6 C        3.918    -0.042    21.262     6.554
    19   6 C        2.750     0.276    22.326     7.737
    20   8 O        0.858    -0.406    21.811     6.261
    21   7 N        2.693    -0.149    24.221     7.309
    22   6 C        2.896     0.076    26.310     8.410
    23   6 C        2.915    -0.042    29.039     8.837
    24   6 C        2.913    -0.048    29.196     8.860
    25   6 C        2.774     0.170    24.331     8.079
    26   9 F        0.787    -0.213    11.372     3.983
    27   6 C        2.912    -0.047    29.161     8.855
    28   6 C        2.921    -0.050    29.245     8.868
    29   6 C        3.804    -0.061    21.671     6.627
    30   6 C        3.804    -0.055    21.563     6.611
    31   6 C        2.915    -0.056    29.382     8.889
    32   6 C        2.773     0.147    24.793     8.155
    33   9 F        0.787    -0.166    10.889     3.898
    34   6 C        2.980     0.003    27.952     8.672
    35   6 C        2.914    -0.053    29.327     8.880
    36   6 C        2.854     0.144    24.872     8.174
    37   8 O        1.703    -0.221    17.670     5.675
    38   6 C        3.640     0.026    20.490     6.510
    39   1 H        0.924     0.078     1.999     2.211
    40   1 H        0.924     0.056     2.243     2.342
    41   1 H        0.924     0.057     2.239     2.340
    42   1 H        0.925     0.082     1.959     2.189
    43   1 H        0.925     0.076     2.024     2.225
    44   1 H        0.925     0.099     1.796     2.096
    45   1 H        2.621     0.675     0.188     0.677
    46   1 H        2.772     0.485     0.346     0.919
    47   1 H        0.860     0.254     0.870     1.461
    48   1 H        0.860     0.199     1.112     1.652
    49   1 H        0.925     0.082     1.957     2.188
    50   1 H        0.925     0.067     2.121     2.277
    51   1 H        0.925     0.067     2.114     2.274
    52   1 H        0.925     0.051     2.310     2.377
    53   1 H        0.925     0.063     2.163     2.300
    54   1 H        0.925     0.052     2.290     2.366
    55   1 H        0.925     0.057     2.240     2.340
    56   1 H        0.925     0.064     2.152     2.294
    57   1 H        0.925     0.151     1.383     1.839
    58   1 H        0.925     0.086     1.921     2.167
    59   1 H        0.924     0.078     2.002     2.213
    60   1 H        0.924     0.058     2.227     2.334
    61   1 H        0.924     0.065     2.146     2.291
    62  22 Ti       4.151     0.739    91.958    16.253
    63  22 Ti       6.350     0.592    93.776    15.722
    64  22 Ti       4.151     0.745    91.899    16.250
    65  22 Ti       9.454    -6.620   289.061    27.603
    66  22 Ti       9.086     0.341    96.628    15.959
    67  22 Ti       7.175     0.727    92.303    15.598
    68  22 Ti       4.151     0.611    93.343    16.377
    69  22 Ti       6.350     0.454    95.329    15.852
    70  22 Ti       4.151     0.754    91.803    16.241
    71  22 Ti       7.449     0.721    92.374    15.604
    72  22 Ti       7.449     0.757    91.980    15.571
    73  22 Ti       6.519     0.747    92.086    15.580
    74   6 C        5.128     0.614    12.590     5.039
    75   6 C        5.128    -0.327    27.233     7.411
    76   6 C        5.649     0.203    17.335     5.913
    77   6 C        2.445     0.616    17.426     6.811
    78   6 C        2.445    -0.254    35.382     9.705
    79   6 C        2.445     0.079    26.596     8.414
    80   6 C        2.445    -0.205    33.879     9.497
    81   8 O        0.732    -0.386    21.453     6.207
    82   8 O        0.729    -0.407    21.875     6.267
    83   8 O        0.728    -0.470    23.199     6.454
    84   8 O        3.056     1.866     3.245     2.433
    85   8 O        2.297    -0.319    19.297     5.933
    86   8 O        0.754    -0.377    21.273     6.181
    87   8 O        0.767    -0.624    26.767     6.934
    88   8 O        0.728    -0.359    20.933     6.131
    89   8 O        0.729    -0.378    21.291     6.183
    90   8 O        0.728    -0.445    22.652     6.378
    91   8 O        0.729    -0.396    21.658     6.236
    92   8 O        0.729    -0.454    22.840     6.404
    93   8 O        0.753    -0.361    20.965     6.136
    94   8 O        0.753    -0.418    22.093     6.299

 Mol. C6AA /au·bohr⁶  :     186124.724156
 Mol. C8AA /au·bohr⁸  :    8110900.929662
 Mol. α(0) /au        :        667.018383


Wiberg/Mayer (AO) data.
largest (>0.10) Wiberg bond orders for each atom

 ---------------------------------------------------------------------------
     #   Z sym  total        # sym  WBO       # sym  WBO       # sym  WBO
 ---------------------------------------------------------------------------
     1   6 C    3.931 --    39 H    0.977     2 O    0.976    41 H    0.975
                            40 H    0.974
     2   8 O    2.258 --     3 C    1.102     1 C    0.976
     3   6 C    3.927 --     4 C    1.438    36 C    1.202     2 O    1.102
     4   6 C    3.950 --     3 C    1.438     5 C    1.288    42 H    0.958
     5   6 C    3.962 --     6 N    1.311     4 C    1.288    34 C    1.191
     6   7 N    3.016 --     7 C    1.460     5 C    1.311
     7   6 C    3.942 --     6 N    1.460     8 C    1.355    43 H    0.952
     8   6 C    3.929 --     9 C    1.372     7 C    1.355    44 H    0.887
     9   6 C    3.872 --     8 C    1.372    34 C    1.267    10 O    0.960
    10   8 O    2.380 --    11 C    1.056     9 C    0.960
    11   6 C    3.846 --    32 C    1.405    10 O    1.056    12 C    0.926
    12   6 C    3.920 --    84 O    1.616    13 C    0.992    11 C    0.926
    13   6 C    3.796 --    14 C    1.181    12 C    0.992    85 O    0.580
                            46 H    0.319    66 Ti   0.120    67 Ti   0.116
    14   6 C    3.952 --    31 C    1.397    13 C    1.181    15 N    1.121
    15   7 N    3.516 --    16 C    1.155    14 C    1.121    47 H    0.860
                            17 O    0.144
    16   6 C    3.936 --    17 O    1.726    15 N    1.155    18 C    0.952
    17   8 O    2.030 --    16 C    1.726    15 N    0.144
    18   6 C    3.934 --    16 C    0.952    29 C    0.947    30 C    0.942
                            19 C    0.940
    19   6 C    3.950 --    20 O    1.692    21 N    1.210    18 C    0.940
    20   8 O    2.033 --    19 C    1.692    21 N    0.171
    21   7 N    3.500 --    19 C    1.210    22 C    1.071    48 H    0.928
                            20 O    0.171
    22   6 C    3.952 --    23 C    1.373    28 C    1.363    21 N    1.071
    23   6 C    3.975 --    24 C    1.445    22 C    1.373    49 H    0.958
                            27 C    0.106
    24   6 C    3.986 --    23 C    1.445    25 C    1.392    50 H    0.966
                            28 C    0.109
    25   6 C    3.874 --    24 C    1.392    27 C    1.384    26 F    0.970
    26   9 F    1.099 --    25 C    0.970
    27   6 C    3.985 --    28 C    1.455    25 C    1.384    51 H    0.966
                            23 C    0.106
    28   6 C    3.982 --    27 C    1.455    22 C    1.363    52 H    0.966
                            24 C    0.109
    29   6 C    3.942 --    30 C    0.987    54 H    0.979    53 H    0.977
                            18 C    0.947
    30   6 C    3.942 --    29 C    0.987    55 H    0.977    56 H    0.977
                            18 C    0.942
    31   6 C    3.864 --    14 C    1.397    32 C    1.293    57 H    0.940
    32   6 C    3.868 --    11 C    1.405    31 C    1.293    33 F    0.990
    33   9 F    1.129 --    32 C    0.990
    34   6 C    3.960 --    35 C    1.282     9 C    1.267     5 C    1.191
    35   6 C    3.924 --    36 C    1.433    34 C    1.282    58 H    0.954
    36   6 C    3.916 --    35 C    1.433     3 C    1.202    37 O    1.107
    37   8 O    2.249 --    36 C    1.107    38 C    0.974
    38   6 C    3.925 --    59 H    0.977    37 O    0.974    60 H    0.973
                            61 H    0.972
    39   1 H    0.993 --     1 C    0.977
    40   1 H    0.994 --     1 C    0.974
    41   1 H    0.994 --     1 C    0.975
    42   1 H    0.991 --     4 C    0.958
    43   1 H    0.989 --     7 C    0.952
    44   1 H    0.984 --     8 C    0.887
    45   1 H    0.541 --    84 O    0.459
    46   1 H    0.757 --    13 C    0.319    85 O    0.281
    47   1 H    0.935 --    15 N    0.860
    48   1 H    0.960 --    21 N    0.928
    49   1 H    0.991 --    23 C    0.958
    50   1 H    0.995 --    24 C    0.966
    51   1 H    0.995 --    27 C    0.966
    52   1 H    0.997 --    28 C    0.966
    53   1 H    0.996 --    29 C    0.977
    54   1 H    0.997 --    29 C    0.979
    55   1 H    0.996 --    30 C    0.977
    56   1 H    0.996 --    30 C    0.977
    57   1 H    0.974 --    31 C    0.940
    58   1 H    0.988 --    35 C    0.954
    59   1 H    0.993 --    38 C    0.977
    60   1 H    0.992 --    38 C    0.973
    61   1 H    0.990 --    38 C    0.972
    62  22 Ti   4.423 --    81 O    2.168    68 Ti   0.506    63 Ti   0.447
                            74 C    0.245    77 C    0.230    84 O    0.185
                            71 Ti   0.116    69 Ti   0.116
    63  22 Ti   4.752 --    82 O    2.138    62 Ti   0.447    69 Ti   0.320
                            64 Ti   0.261    74 C    0.257    75 C    0.220
                            66 Ti   0.215    77 C    0.135    68 Ti   0.120
                            84 O    0.106
    64  22 Ti   4.031 --    83 O    2.114    70 Ti   0.590    75 C    0.283
                            63 Ti   0.261    66 Ti   0.241    78 C    0.185
                            69 Ti   0.111
    65  22 Ti  -1.431
    66  22 Ti   5.279 --    85 O    1.180    75 C    0.859    78 C    0.831
                            72 Ti   0.265    64 Ti   0.241    67 Ti   0.218
                            63 Ti   0.215    76 C    0.199    87 O    0.164
                            77 C    0.126    80 C    0.123    13 C    0.120
                            70 Ti   0.101
    67  22 Ti   4.956 --    86 O    1.327    87 O    0.984    79 C    0.509
                            76 C    0.502    80 C    0.419    73 Ti   0.291
                            66 Ti   0.218    13 C    0.116
    68  22 Ti   4.261 --    88 O    2.237    62 Ti   0.506    69 Ti   0.426
                            74 C    0.298    77 C    0.224    71 Ti   0.215
                            63 Ti   0.120
    69  22 Ti   4.736 --    89 O    2.110    68 Ti   0.426    70 Ti   0.368
                            63 Ti   0.320    74 C    0.275    75 C    0.260
                            72 Ti   0.137    71 Ti   0.136    62 Ti   0.116
                            64 Ti   0.111
    70  22 Ti   4.075 --    90 O    2.116    64 Ti   0.590    69 Ti   0.368
                            75 C    0.251    72 Ti   0.201    78 C    0.171
                            66 Ti   0.101
    71  22 Ti   4.882 --    91 O    2.026    77 C    0.582    74 C    0.464
                            93 O    0.240    68 Ti   0.215    76 C    0.202
                            73 Ti   0.174    69 Ti   0.136    84 O    0.129
                            62 Ti   0.116    79 C    0.103
    72  22 Ti   4.835 --    92 O    1.950    78 C    0.700    75 C    0.507
                            66 Ti   0.265    94 O    0.224    70 Ti   0.201
                            76 C    0.160    73 Ti   0.158    69 Ti   0.137
    73  22 Ti   4.919 --    94 O    1.243    93 O    1.222    76 C    0.547
                            80 C    0.493    79 C    0.463    67 Ti   0.291
                            71 Ti   0.174    72 Ti   0.158
    74   6 C    3.258 --    77 C    0.586    84 O    0.514    71 Ti   0.464
                            68 Ti   0.298    69 Ti   0.275    63 Ti   0.257
                            62 Ti   0.245    76 C    0.117
    75   6 C    3.674 --    66 Ti   0.859    78 C    0.782    72 Ti   0.507
                            64 Ti   0.283    69 Ti   0.260    70 Ti   0.251
                            63 Ti   0.220
    76   6 C    3.842 --    79 C    0.720    80 C    0.683    73 Ti   0.547
                            67 Ti   0.502    71 Ti   0.202    66 Ti   0.199
                            84 O    0.180    72 Ti   0.160    74 C    0.117
    77   6 C    2.929 --    74 C    0.586    71 Ti   0.582    84 O    0.402
                            62 Ti   0.230    68 Ti   0.224    79 C    0.142
                            63 Ti   0.135    66 Ti   0.126
    78   6 C    3.413 --    66 Ti   0.831    75 C    0.782    72 Ti   0.700
                            80 C    0.230    64 Ti   0.185    70 Ti   0.171
    79   6 C    3.262 --    76 C    0.720    67 Ti   0.509    73 Ti   0.463
                            93 O    0.409    86 O    0.305    80 C    0.177
                            77 C    0.142    71 Ti   0.103
    80   6 C    3.274 --    76 C    0.683    73 Ti   0.493    94 O    0.453
                            67 Ti   0.419    87 O    0.245    78 C    0.230
                            79 C    0.177    66 Ti   0.123
    81   8 O    2.421 --    62 Ti   2.168
    82   8 O    2.415 --    63 Ti   2.138
    83   8 O    2.342 --    64 Ti   2.114
    84   8 O    3.764 --    12 C    1.616    74 C    0.514    45 H    0.459
                            77 C    0.402    62 Ti   0.185    76 C    0.180
                            71 Ti   0.129    63 Ti   0.106
    85   8 O    2.414 --    66 Ti   1.180    13 C    0.580    46 H    0.281
    86   8 O    2.178 --    67 Ti   1.327    79 C    0.305    93 O    0.108
    87   8 O    2.013 --    67 Ti   0.984    80 C    0.245    66 Ti   0.164
    88   8 O    2.457 --    68 Ti   2.237
    89   8 O    2.441 --    69 Ti   2.110
    90   8 O    2.371 --    70 Ti   2.116
    91   8 O    2.392 --    71 Ti   2.026
    92   8 O    2.342 --    72 Ti   1.950
    93   8 O    2.305 --    73 Ti   1.222    79 C    0.409    71 Ti   0.240
                            86 O    0.108
    94   8 O    2.313 --    73 Ti   1.243    80 C    0.453    72 Ti   0.224
 ---------------------------------------------------------------------------

Topologies differ in total number of bonds
Writing topology from bond orders to xtbtopo.mol

molecular dipole:
                 x           y           z       tot (Debye)
 q only:        0.164      -7.350       6.374
   full:        1.380      -3.653       8.091      22.835
molecular quadrupole (traceless):
                xx          xy          yy          xz          yz          zz
 q only:       27.544      38.364     -11.469     -32.513       3.664     -16.075
  q+dip:       27.670      42.961      12.917     -23.038       7.132     -40.587
   full:       24.978      45.123      22.764     -21.946       7.609     -47.743


           -------------------------------------------------
          | TOTAL ENERGY             -202.180084085364 Eh   |
          | GRADIENT NORM               8.671062030827 Eh/α |
          | HOMO-LUMO GAP               0.025306299296 eV   |
           -------------------------------------------------

------------------------------------------------------------------------
 * finished run on 2026/08/31 at 20:37:22.971     
------------------------------------------------------------------------
 total:
 * wall-time:     0 d,  0 h,  0 min,  2.551 sec
 *  cpu-time:     0 d,  0 h,  0 min, 22.422 sec
 * ratio c/w:     8.789 speedup
 SCF:
 * wall-time:     0 d,  0 h,  0 min,  2.490 sec
 *  cpu-time:     0 d,  0 h,  0 min, 22.109 sec
 * ratio c/w:     8.879 speedup

normal termination of xtb
