94
Drug@Ti12C7O14 clean complex
C     -6.611848      2.049977     14.480806
O     -7.220124      1.103084     13.614084
C     -6.491065     -0.005479     13.266302
C     -5.172843     -0.242728     13.660268
C     -4.492532     -1.412309     13.253037
C     -3.160127     -1.699359     13.608247
O     -2.479451     -0.820100     14.425698
C     -1.308448     -0.290640     13.932487
C     -1.166863      0.166358     12.621744
C      0.047398      0.726488     12.202715
C      1.122378      0.846609     13.089166
N      2.369531      1.399572     12.739943
C      2.773441      1.844064     11.499035
O      2.147891      1.823296     10.449052
C      4.170273      2.386294     11.493140
C      5.255767      1.354843     11.443856
O      5.743930      0.973770     12.497872
N      5.551122      0.935772     10.164937
C      6.519302     -0.008484      9.773516
C      6.597331     -0.314276      8.406530
C      7.533620     -1.239110      7.937518
C      8.392903     -1.857002      8.835586
F      9.291329     -2.743282      8.387912
C      8.332171     -1.566098     10.191722
C      7.394868     -0.640514     10.661837
C      4.436655      3.664207     12.291111
C      4.420021      3.725116     10.797163
C      0.964637      0.407187     14.407572
C     -0.244491     -0.149357     14.819159
F     -0.366742     -0.559934     16.090042
C     -2.552644     -2.884200     13.205463
C     -3.290586     -3.736815     12.414886
N     -4.559937     -3.489447     12.025839
C     -5.150362     -2.354647     12.442354
C     -6.459780     -2.104360     12.056514
C     -7.141574     -0.947462     12.452461
O     -8.434880     -0.649687     12.099258
C     -9.130319     -1.587459     11.289676
H     -5.735032      2.507709     14.011217
H     -7.339342      2.845015     14.670847
H     -6.355175      1.597373     15.444287
H     -4.644262      0.468647     14.286839
H     -1.990063      0.105168     11.914373
H      0.115182      1.068199     11.173676
H      3.071945      1.434897     13.472749
H      4.976558      1.325337      9.424908
H      5.930731      0.158658      7.689566
H      7.596246     -1.480203      6.881230
H      9.012899     -2.058476     10.879053
H      7.377571     -0.434512     11.727489
H      3.613207      4.128790     12.822522
H      5.392763      3.761298     12.795322
H      3.579601      4.214987     10.315918
H      5.366064      3.883569     10.291079
H      1.767577      0.485640     15.133927
H     -1.541949     -3.137600     13.501545
H     -2.873890     -4.675919     12.061512
H     -6.935269     -2.851954     11.429875
H     -8.644900     -1.704369     10.315221
H     -9.233611     -2.550570     11.800227
H    -10.136805     -1.195573     11.113932
Ti     -2.141866     -3.008818      2.119748
Ti      0.288991     -1.694759      1.432425
Ti      1.903098     -3.067749     -0.729322
Ti     -2.521502     -0.251928      1.303687
Ti      2.142050      0.499533      2.204434
Ti     -0.681448      0.189635      3.681230
Ti     -2.036770     -3.077740     -1.200512
Ti     -0.605340     -0.770900     -2.035132
Ti      1.945488     -1.587317     -3.412400
Ti     -1.878170      1.746573     -1.240030
Ti      2.412512      0.454231     -0.774247
Ti      0.817742      1.838452     -2.940004
C     -3.678414      1.281398      0.600737
C      4.128193      0.482847      0.387293
C      0.455479      2.267202      0.349695
C     -3.666709      2.118834     -0.313920
C      4.115962      0.632239      1.621354
C     -0.635167      2.741046     -0.118921
C      1.630072      1.780996      0.734224
O     -3.093456     -1.956907      1.037949
O     -0.487250     -2.605849      2.701203
O      0.314079     -2.888890      0.145001
O     -0.800785     -0.435934      0.971227
O      1.902865     -1.158331      1.469449
O     -2.322673     -0.113878      3.024800
O      1.013786      0.441598      3.568761
O     -1.772019     -4.587905     -1.652810
O      0.190605     -1.189189     -3.534030
O      2.831420     -2.170248     -1.918042
O     -2.054558     -0.224445     -1.337505
O      0.768511     -0.390574     -1.063664
O     -0.900039      1.649313     -2.818565
O      2.415313      1.357463     -2.264115
