61
Cabozantinib - ETKDG+MMFF conformer
C     -8.884549     -2.000498      2.543158
O     -8.406677     -0.890193      1.796771
C     -7.193358     -1.020896      1.166545
C     -6.410159     -2.180924      1.190781
C     -5.190374     -2.259091      0.533330
N     -4.497037     -3.409876      0.598399
C     -3.315928     -3.486350     -0.050589
C     -2.773060     -2.451228     -0.779956
C     -3.486015     -1.256795     -0.827960
O     -3.027851     -0.192122     -1.580850
C     -1.734259      0.217549     -1.357584
C     -0.922391      0.391133     -2.476099
C      0.394104      0.834800     -2.316744
C      0.905452      1.122105     -1.042398
N      2.240981      1.562928     -0.972602
C      2.973408      1.841859      0.161452
O      2.625517      1.736834      1.328388
C      4.368215      2.301079     -0.135962
C      5.337907      1.213585     -0.484436
O      5.502575      0.938176     -1.664168
N      5.915923      0.624725      0.618932
C      6.868411     -0.411901      0.638160
C      7.430897     -0.974351     -0.511823
C      8.375510     -2.000488     -0.407059
C      8.756278     -2.461232      0.846014
F      9.661039     -3.443553      0.943582
C      8.210803     -1.914844      1.999516
C      7.267450     -0.889565      1.895471
C      4.898914      3.525592      0.610853
C      4.532916      3.652858     -0.833367
C      0.076292      0.971698      0.070225
C     -1.236319      0.529832     -0.092837
F     -2.017470      0.428424      0.992237
C     -4.731433     -1.136009     -0.178845
C     -5.515164      0.039735     -0.208101
C     -6.739471      0.104761      0.460230
O     -7.558593      1.205048      0.479578
C     -7.087305      2.389727     -0.146400
H     -9.846594     -1.718887      2.982077
H     -9.056122     -2.866817      1.895929
H     -8.204325     -2.247006      3.365034
H     -6.732427     -3.067149      1.727618
H     -2.805550     -4.441840      0.032010
H     -1.830262     -2.579897     -1.296737
H     -1.308840      0.176998     -3.469220
H      1.012762      0.951737     -3.204027
H      2.741751      1.638731     -1.852840
H      5.586062      0.950257      1.521641
H      7.159304     -0.636048     -1.506839
H      8.813775     -2.439161     -1.297962
H      8.520788     -2.288918      2.969980
H      6.848825     -0.474683      2.809123
H      4.252033      3.996031      1.344489
H      5.951924      3.567012      0.867056
H      3.644614      4.224875     -1.078404
H      5.335669      3.760459     -1.555659
H      0.406393      1.196972      1.078083
H     -5.139740      0.894073     -0.761827
H     -7.840283      3.169455      0.003668
H     -6.154692      2.736319      0.311056
H     -6.970245      2.244956     -1.225333
