      -----------------------------------------------------------      
     |                   =====================                   |     
     |                           x T B                           |     
     |                   =====================                   |     
     |                         S. Grimme                         |     
     |          Mulliken Center for Theoretical Chemistry        |     
     |                    University of Bonn                     |     
      -----------------------------------------------------------      

   * xtb version 6.7.1pre (5071a88) compiled by 'Marcel@Raven' on 2024-07-23

   xtb is free software: you can redistribute it and/or modify it under
   the terms of the GNU Lesser General Public License as published by
   the Free Software Foundation, either version 3 of the License, or
   (at your option) any later version.
   
   xtb is distributed in the hope that it will be useful,
   but WITHOUT ANY WARRANTY; without even the implied warranty of
   MERCHANTABILITY or FITNESS FOR A PARTICULAR PURPOSE.  See the
   GNU Lesser General Public License for more details.
   
   Cite this work as:
   * C. Bannwarth, E. Caldeweyher, S. Ehlert, A. Hansen, P. Pracht,
     J. Seibert, S. Spicher, S. Grimme, WIREs Comput. Mol. Sci., 2020, 11,
     e01493. DOI: 10.1002/wcms.1493
   
   for GFN2-xTB:
   * C. Bannwarth, S. Ehlert and S. Grimme., J. Chem. Theory Comput., 2019,
     15, 1652-1671. DOI: 10.1021/acs.jctc.8b01176
   for GFN1-xTB:
   * S. Grimme, C. Bannwarth, P. Shushkov, J. Chem. Theory Comput., 2017,
     13, 1989-2009. DOI: 10.1021/acs.jctc.7b00118
   for GFN0-xTB:
   * P. Pracht, E. Caldeweyher, S. Ehlert, S. Grimme, ChemRxiv, 2019, preprint.
     DOI: 10.26434/chemrxiv.8326202.v1
   for GFN-FF:
   * S. Spicher and S. Grimme, Angew. Chem. Int. Ed., 2020, 59, 15665-15673.
     DOI: 10.1002/anie.202004239
   
   for ALPB and GBSA implicit solvation:
   * S. Ehlert, M. Stahn, S. Spicher, S. Grimme, J. Chem. Theory Comput.,
     2021, 17, 4250-4261. DOI: 10.1021/acs.jctc.1c00471
   
   for ddCOSMO and CPCM-X implicit solvation:
   * M. Stahn, S. Ehlert, S. Grimme, J. Phys. Chem. A,
     2023, XX, XXXX-XXXX. DOI: 10.1021/acs.jpca.3c04382
   
   for DFT-D4:
   * E. Caldeweyher, C. Bannwarth and S. Grimme, J. Chem. Phys., 2017,
     147, 034112. DOI: 10.1063/1.4993215
   * E. Caldeweyher, S. Ehlert, A. Hansen, H. Neugebauer, S. Spicher,
     C. Bannwarth and S. Grimme, J. Chem. Phys., 2019, 150, 154122.
     DOI: 10.1063/1.5090222
   * E. Caldeweyher, J.-M. Mewes, S. Ehlert and S. Grimme, Phys. Chem. Chem. Phys.
     2020, 22, 8499-8512. DOI: 10.1039/D0CP00502A
   
   for sTDA-xTB:
   * S. Grimme and C. Bannwarth, J. Chem. Phys., 2016, 145, 054103.
     DOI: 10.1063/1.4959605
   
   in the mass-spec context:
   * V. Asgeirsson, C. Bauer and S. Grimme, Chem. Sci., 2017, 8, 4879.
     DOI: 10.1039/c7sc00601b
   * J. Koopman and S. Grimme, ACS Omega 2019, 4, 12, 15120-15133.
     DOI: 10.1021/acsomega.9b02011
   
   for metadynamics refer to:
   * S. Grimme, J. Chem. Theory Comput., 2019, 155, 2847-2862
     DOI: 10.1021/acs.jctc.9b00143
   
   for SPH calculations refer to:
   * S. Spicher and S. Grimme, J. Chem. Theory Comput., 2021, 17, 1701-1714
     DOI: 10.1021/acs.jctc.0c01306
   
   for ONIOM refer to:
   * C. Plett, A. Katbashev, S. Ehlert, S. Grimme, M. Bursch,
     Phys. Chem. Chem. Phys., 2023, 25, 17860-17868. DOI: 10.1039/D3CP02178E
   
   for DIPRO refer to:
   * J. Kohn, N. Gildemeister, S. Grimme, D. Fazzi, A. Hansen,
     J. Chem. Phys., 2023, just accepted.
   
   for PTB refer to:
   * S. Grimme, M. Mueller, A. Hansen, J. Chem. Phys., 2023, 158, 124111.
     DOI: 10.1063/5.0137838
   
   with help from (in alphabetical order)
   P. Atkinson, C. Bannwarth, F. Bohle, G. Brandenburg, E. Caldeweyher
   M. Checinski, S. Dohm, S. Ehlert, S. Ehrlich, I. Gerasimov, C. Hölzer
   A. Katbashev, J. Kohn, J. Koopman, C. Lavigne, S. Lehtola, F. März, M. Müller,
   F. Musil, H. Neugebauer, J. Pisarek, C. Plett, P. Pracht, F. Pultar,
   J. Seibert, P. Shushkov, S. Spicher, M. Stahn, M. Steiner, T. Strunk,
   J. Stückrath, T. Rose, and J. Unsleber
   
 * started run on 2026/08/31 at 21:55:41.246     
   ID    Z sym.   atoms
    1    6 C      1, 3-6, 8-11, 13, 15, 16, 19-22, 24-29, 31, 32, 34-36, 38,
                  74-80
    2    8 O      2, 7, 14, 17, 37, 81-94
    3    7 N      12, 18, 33
    4    9 F      23, 30
    5    1 H      39-61
    6   22 Ti     62-73

           -------------------------------------------------
          |                Calculation Setup                |
           -------------------------------------------------

          program call               : "c:\Users\Andre\Proyectos doctorado\kras-pancreatic-gC3N4-ai\tools\xtb\xtb-6.7.1\bin\xtb.exe" "c:\Users\Andre\Proyectos doctorado\mxene-glioblastoma-qsar-ai\calculations\gbm\Cabozantinib\Cabozantinib_Ti12C7O14_clean_complex.xyz" --gfn 2 --sp --chrg 0 --uhf 0 --etemp 500 --acc 1.0 --iterations 500 --norestart
          coordinate file            : c:\Users\Andre\Proyectos doctorado\mxene-glioblastoma-qsar-ai\calculations\gbm\Cabozantinib\Cabozantinib_Ti12C7O14_clean_complex.xyz
          omp threads                :                    16


molecular fragmentation (1/2 indicates fragments):
111111111111111111111111111111111111111111111111111111111111122222222222
2222222222222222222222
# atoms in fragment 1/2:    61    33
 fragment masses (1/2) :      519.50      882.47
CMA distance (Bohr)    :  23.000
constraining FC (au)   :  0.0500

           -------------------------------------------------
          |                 G F N 2 - x T B                 |
           -------------------------------------------------

        Reference                      10.1021/acs.jctc.8b01176
      * Hamiltonian:
        H0-scaling (s, p, d)           1.850000    2.230000    2.230000
        zeta-weighting                 0.500000
      * Dispersion:
        s8                             2.700000
        a1                             0.520000
        a2                             5.000000
        s9                             5.000000
      * Repulsion:
        kExp                           1.500000    1.000000
        rExp                           1.000000
      * Coulomb:
        alpha                          2.000000
        third order                    shell-resolved
        anisotropic                    true
        a3                             3.000000
        a5                             4.000000
        cn-shift                       1.200000
        cn-exp                         4.000000
        max-rad                        5.000000


          ...................................................
          :                      SETUP                      :
          :.................................................:
          :  # basis functions                 379          :
          :  # atomic orbitals                 367          :
          :  # shells                          177          :
          :  # electrons                       354          :
          :  max. iterations                   500          :
          :  Hamiltonian                  GFN2-xTB          :
          :  restarted?                      false          :
          :  GBSA solvation                  false          :
          :  PC potential                    false          :
          :  electronic temp.          500.0000000     K    :
          :  accuracy                    1.0000000          :
          :  -> integral cutoff          0.2500000E+02      :
          :  -> integral neglect         0.1000000E-07      :
          :  -> SCF convergence          0.1000000E-05 Eh   :
          :  -> wf. convergence          0.1000000E-03 e    :
          :  Broyden damping             0.4000000          :
          :  net charge                          0          :
          :  unpaired electrons                  0          :
          ...................................................

 iter      E             dE          RMSdq      gap      omega  full diag
   1   -202.5094198 -0.202509E+03  0.122E+01    0.04       0.0  T
   2   -190.9572669  0.115522E+02  0.962E+00    0.09       1.0  T
   3   -138.7899116  0.521674E+02  0.194E+01    0.25       1.0  T
   4   -201.9492328 -0.631593E+02  0.832E+00    0.02       1.0  T
   5   -203.8088001 -0.185957E+01  0.536E+00    0.32       1.0  T
   6   -204.0586228 -0.249823E+00  0.421E+00    0.41       1.0  T
   7   -204.0657887 -0.716591E-02  0.330E+00    0.47       1.0  T
   8   -203.3510628  0.714726E+00  0.478E+00    0.01       1.0  T
   9   -204.2053808 -0.854318E+00  0.215E+00    0.27       1.0  T
  10   -203.1376783  0.106770E+01  0.479E+00    0.01       1.0  T
  11   -203.7093467 -0.571668E+00  0.298E+00    0.02       1.0  T
  12   -204.1749415 -0.465595E+00  0.131E+00    0.17       1.0  T
  13   -204.2718683 -0.969269E-01  0.116E+00    0.27       1.0  T
  14   -204.3138796 -0.420113E-01  0.106E+00    0.61       1.0  T
  15   -204.3264728 -0.125932E-01  0.967E-01    0.70       1.0  T
  16   -204.3381310 -0.116582E-01  0.780E-01    0.83       1.0  T
  17   -204.3482559 -0.101249E-01  0.585E-01    0.87       1.0  T
  18   -204.3581030 -0.984709E-02  0.356E-01    0.79       1.0  T
  19   -204.3604532 -0.235018E-02  0.273E-01    0.84       1.0  T
  20   -204.3627522 -0.229900E-02  0.243E-01    0.78       1.0  T
  21   -204.3647394 -0.198723E-02  0.198E-01    0.72       1.0  T
  22   -204.3652544 -0.515056E-03  0.196E-01    0.70       1.0  T
  23   -204.3657720 -0.517561E-03  0.196E-01    0.68       1.0  T
  24   -204.3660361 -0.264113E-03  0.187E-01    0.68       1.0  T
  25   -204.3663370 -0.300904E-03  0.173E-01    0.67       1.0  T
  26   -204.3666036 -0.266619E-03  0.155E-01    0.66       1.0  T
  27   -204.3667794 -0.175776E-03  0.135E-01    0.66       1.0  T
  28   -204.3670113 -0.231897E-03  0.108E-01    0.66       1.0  T
  29   -204.3673018 -0.290458E-03  0.599E-02    0.65       1.0  T
  30   -204.3674002 -0.984512E-04  0.313E-02    0.65       1.0  T
  31   -204.3674299 -0.297191E-04  0.175E-02    0.65       1.0  T
  32   -204.3674443 -0.143354E-04  0.766E-03    0.64       1.3  T
  33   -204.3674446 -0.311689E-06  0.779E-03    0.64       1.3  T
  34   -204.3674461 -0.155040E-05  0.406E-03    0.64       2.5  T
  35   -204.3674465 -0.373622E-06  0.269E-03    0.64       3.8  T
  36   -204.3674467 -0.194235E-06  0.161E-03    0.64       6.4  T
  37   -204.3674468 -0.464430E-07  0.947E-04    0.64      10.9  T
  38   -204.3674468 -0.147605E-07  0.624E-04    0.64      16.5  T

   *** convergence criteria satisfied after 38 iterations ***

         #    Occupation            Energy/Eh            Energy/eV
      -------------------------------------------------------------
         1        2.0000           -0.8257405             -22.4695
       ...           ...                  ...                  ...
       171        2.0000           -0.3609184              -9.8211
       172        2.0000           -0.3539526              -9.6315
       173        2.0000           -0.3530874              -9.6080
       174        2.0000           -0.3471328              -9.4460
       175        2.0000           -0.3398644              -9.2482
       176        2.0000           -0.3252326              -8.8500
       177        1.9981           -0.3106155              -8.4523 (HOMO)
       178        0.0008           -0.2871475              -7.8137 (LUMO)
       179        0.0006           -0.2866468              -7.8001
       180        0.0003           -0.2854704              -7.7680
       181        0.0002           -0.2848534              -7.7513
       182        0.0000           -0.2815901              -7.6625
       ...           ...                  ...                  ...
       367                         13.3235278             362.5516
      -------------------------------------------------------------
                  HL-Gap            0.0234680 Eh            0.6386 eV
             Fermi-level           -0.2995588 Eh           -8.1514 eV

 SCC (total)                   0 d,  0 h,  0 min,  2.681 sec
 SCC setup                      ...        0 min,  0.000 sec (  0.000%)
 Dispersion                     ...        0 min,  0.003 sec (  0.112%)
 classical contributions        ...        0 min,  0.001 sec (  0.037%)
 integral evaluation            ...        0 min,  0.011 sec (  0.410%)
 iterations                     ...        0 min,  2.636 sec ( 98.322%)
 molecular gradient             ...        0 min,  0.026 sec (  0.970%)
 printout                       ...        0 min,  0.004 sec (  0.149%)

         :::::::::::::::::::::::::::::::::::::::::::::::::::::
         ::                     SUMMARY                     ::
         :::::::::::::::::::::::::::::::::::::::::::::::::::::
         :: total energy            -202.288094032813 Eh    ::
         :: gradient norm              0.114182205508 Eh/a0 ::
         :: HOMO-LUMO gap              0.638596269125 eV    ::
         ::.................................................::
         :: SCC energy              -204.365747356736 Eh    ::
         :: -> isotropic ES            1.046710692784 Eh    ::
         :: -> anisotropic ES         -0.374469111448 Eh    ::
         :: -> anisotropic XC         -0.036365396101 Eh    ::
         :: -> dispersion             -0.156783803515 Eh    ::
         :: repulsion energy           2.077653323923 Eh    ::
         :: add. restraining           0.000000000000 Eh    ::
         :: total charge              -0.000000000009 e     ::
         :::::::::::::::::::::::::::::::::::::::::::::::::::::

           -------------------------------------------------
          |                Property Printout                |
           -------------------------------------------------

    * Orbital Energies and Occupations

         #    Occupation            Energy/Eh            Energy/eV
      -------------------------------------------------------------
         1        2.0000           -0.8257405             -22.4695
       ...           ...                  ...                  ...
       165        2.0000           -0.3838254             -10.4444
       166        2.0000           -0.3807574             -10.3609
       167        2.0000           -0.3791908             -10.3183
       168        2.0000           -0.3709651             -10.0945
       169        2.0000           -0.3688752             -10.0376
       170        2.0000           -0.3631493              -9.8818
       171        2.0000           -0.3609184              -9.8211
       172        2.0000           -0.3539526              -9.6315
       173        2.0000           -0.3530874              -9.6080
       174        2.0000           -0.3471328              -9.4460
       175        2.0000           -0.3398644              -9.2482
       176        2.0000           -0.3252326              -8.8500
       177        1.9981           -0.3106155              -8.4523 (HOMO)
       178        0.0008           -0.2871475              -7.8137 (LUMO)
       179        0.0006           -0.2866468              -7.8001
       180        0.0003           -0.2854704              -7.7680
       181        0.0002           -0.2848534              -7.7513
       182        0.0000           -0.2815901              -7.6625
       183        0.0000           -0.2794978              -7.6055
       184        0.0000           -0.2767038              -7.5295
       185        0.0000           -0.2758363              -7.5059
       186        0.0000           -0.2737423              -7.4489
       187        0.0000           -0.2735498              -7.4437
       188                         -0.2727383              -7.4216
       ...                                ...                  ...
       367                         13.3235278             362.5516
      -------------------------------------------------------------
                  HL-Gap            0.0234680 Eh            0.6386 eV
             Fermi-level           -0.2995588 Eh           -8.1514 eV

     #   Z          covCN         q      C6AA      α(0)
     1   6 C        3.640     0.031    20.417     6.498
     2   8 O        1.703    -0.250    18.143     5.751
     3   6 C        2.854     0.129    25.169     8.223
     4   6 C        2.914    -0.076    29.889     8.965
     5   6 C        2.981    -0.021    28.517     8.760
     6   6 C        2.892     0.147    24.795     8.164
     7   8 O        1.707    -0.257    18.255     5.769
     8   6 C        2.870     0.125    25.257     8.238
     9   6 C        2.912    -0.059    29.456     8.900
    10   6 C        2.914    -0.054    29.330     8.881
    11   6 C        2.897     0.073    26.366     8.419
    12   7 N        2.693    -0.153    24.300     7.321
    13   6 C        2.750     0.274    22.365     7.744
    14   8 O        0.857    -0.413    21.946     6.281
    15   6 C        3.918    -0.044    21.292     6.558
    16   6 C        2.750     0.274    22.369     7.745
    17   8 O        0.858    -0.416    22.001     6.289
    18   7 N        2.693    -0.155    24.356     7.330
    19   6 C        2.896     0.074    26.352     8.417
    20   6 C        2.921    -0.054    29.354     8.885
    21   6 C        2.912    -0.051    29.255     8.869
    22   6 C        2.774     0.167    24.394     8.089
    23   9 F        0.787    -0.219    11.437     3.995
    24   6 C        2.913    -0.050    29.240     8.867
    25   6 C        2.915    -0.045    29.106     8.847
    26   6 C        3.804    -0.062    21.685     6.630
    27   6 C        3.804    -0.064    21.727     6.636
    28   6 C        2.920    -0.077    29.912     8.969
    29   6 C        2.774     0.153    24.671     8.135
    30   9 F        0.787    -0.203    11.269     3.965
    31   6 C        2.902    -0.066    29.636     8.926
    32   6 C        2.887     0.051    26.858     8.497
    33   7 N        1.843    -0.247    27.292     7.742
    34   6 C        2.953     0.087    26.056     8.372
    35   6 C        2.926    -0.084    30.105     8.998
    36   6 C        2.856     0.131    25.130     8.217
    37   8 O        1.703    -0.247    18.097     5.744
    38   6 C        3.639     0.027    20.474     6.508
    39   1 H        0.924     0.046     2.368     2.406
    40   1 H        0.924     0.066     2.129     2.282
    41   1 H        0.924     0.049     2.337     2.391
    42   1 H        0.925     0.057     2.238     2.339
    43   1 H        0.925     0.060     2.201     2.320
    44   1 H        0.925     0.089     1.892     2.151
    45   1 H        0.860     0.200     1.105     1.646
    46   1 H        0.860     0.197     1.122     1.659
    47   1 H        0.925     0.049     2.327     2.386
    48   1 H        0.925     0.065     2.145     2.290
    49   1 H        0.925     0.066     2.134     2.285
    50   1 H        0.925     0.084     1.940     2.178
    51   1 H        0.925     0.045     2.379     2.412
    52   1 H        0.925     0.057     2.236     2.338
    53   1 H        0.925     0.058     2.222     2.331
    54   1 H        0.925     0.046     2.373     2.409
    55   1 H        0.925     0.067     2.119     2.276
    56   1 H        0.925     0.043     2.407     2.426
    57   1 H        0.925     0.045     2.378     2.412
    58   1 H        0.925     0.066     2.126     2.280
    59   1 H        0.924     0.050     2.325     2.385
    60   1 H        0.924     0.050     2.321     2.382
    61   1 H        0.924     0.067     2.115     2.274
    62  22 Ti       3.637     1.052   101.780    24.486
    63  22 Ti       6.855     1.550    84.066    14.886
    64  22 Ti       3.227     1.049   102.633    24.738
    65  22 Ti       5.860     1.379    85.680    15.028
    66  22 Ti       5.627     1.119    88.225    15.250
    67  22 Ti       3.541     1.043   102.434    24.667
    68  22 Ti       2.352     0.881   202.654    34.856
    69  22 Ti       6.011     1.348    85.975    15.054
    70  22 Ti       3.414     1.008   103.051    24.779
    71  22 Ti       5.519     1.097    88.454    15.270
    72  22 Ti       5.687     1.189    87.527    15.189
    73  22 Ti       3.581     1.026   102.474    24.642
    74   6 C        2.246    -0.257    37.621     9.938
    75   6 C        2.142    -0.254    38.305    10.005
    76   6 C        2.248    -0.019    30.617     8.965
    77   6 C        1.838    -0.209    37.307     9.867
    78   6 C        1.894    -0.225    37.762     9.925
    79   6 C        1.821    -0.346    42.157    10.491
    80   6 C        2.631    -0.404    39.930    10.336
    81   8 O        1.554    -0.847    31.986     7.630
    82   8 O        1.464    -0.880    33.188     7.765
    83   8 O        1.557    -0.955    35.578     8.048
    84   8 O        1.523    -1.007    37.483     8.258
    85   8 O        1.523    -0.912    34.145     7.882
    86   8 O        1.458    -0.820    31.329     7.544
    87   8 O        1.455    -0.796    30.599     7.455
    88   8 O        0.727    -0.635    27.064     6.971
    89   8 O        1.453    -0.864    32.687     7.705
    90   8 O        1.476    -0.799    30.654     7.464
    91   8 O        1.603    -0.946    35.194     8.007
    92   8 O        1.547    -0.969    36.081     8.104
    93   8 O        1.700    -0.817    30.962     7.513
    94   8 O        1.453    -0.780    30.156     7.401

 Mol. C6AA /au·bohr⁶  :     208201.639438
 Mol. C8AA /au·bohr⁸  :    8552740.472476
 Mol. α(0) /au        :        767.516060


Wiberg/Mayer (AO) data.
largest (>0.10) Wiberg bond orders for each atom

 ---------------------------------------------------------------------------
     #   Z sym  total        # sym  WBO       # sym  WBO       # sym  WBO
 ---------------------------------------------------------------------------
     1   6 C    3.941 --     2 O    0.982    40 H    0.979    41 H    0.977
                            39 H    0.977
     2   8 O    2.239 --     3 C    1.073     1 C    0.982
     3   6 C    3.939 --     4 C    1.463    36 C    1.216     2 O    1.073
     4   6 C    3.982 --     3 C    1.463     5 C    1.277    42 H    0.962
                            35 C    0.101
     5   6 C    3.988 --     4 C    1.277     6 C    1.273    34 C    1.214
     6   6 C    3.928 --    31 C    1.433     5 C    1.273     7 O    0.999
                            33 N    0.105
     7   8 O    2.256 --     8 C    1.023     6 C    0.999
     8   6 C    3.928 --     9 C    1.378    29 C    1.325     7 O    1.023
     9   6 C    3.986 --    10 C    1.445     8 C    1.378    43 H    0.967
                            28 C    0.103
    10   6 C    3.982 --     9 C    1.445    11 C    1.372    44 H    0.959
    11   6 C    3.961 --    10 C    1.372    28 C    1.362    12 N    1.076
    12   7 N    3.501 --    13 C    1.200    11 C    1.076    45 H    0.928
                            14 O    0.170
    13   6 C    3.950 --    14 O    1.700    12 N    1.200    15 C    0.946
    14   8 O    2.021 --    13 C    1.700    12 N    0.170
    15   6 C    3.938 --    27 C    0.950    13 C    0.946    16 C    0.946
                            26 C    0.945
    16   6 C    3.952 --    17 O    1.695    18 N    1.206    15 C    0.946
    17   8 O    2.018 --    16 C    1.695    18 N    0.172
    18   7 N    3.502 --    16 C    1.206    19 C    1.071    46 H    0.929
                            17 O    0.172
    19   6 C    3.961 --    25 C    1.377    20 C    1.366    18 N    1.071
    20   6 C    3.986 --    21 C    1.453    19 C    1.366    47 H    0.966
                            24 C    0.109
    21   6 C    3.988 --    20 C    1.453    22 C    1.388    48 H    0.967
                            25 C    0.107
    22   6 C    3.878 --    24 C    1.394    21 C    1.388    23 F    0.965
    23   9 F    1.094 --    22 C    0.965
    24   6 C    3.988 --    25 C    1.443    22 C    1.394    49 H    0.967
                            20 C    0.109
    25   6 C    3.984 --    24 C    1.443    19 C    1.377    50 H    0.961
                            21 C    0.107
    26   6 C    3.945 --    27 C    0.988    51 H    0.980    52 H    0.978
                            15 C    0.945
    27   6 C    3.946 --    26 C    0.988    54 H    0.980    53 H    0.978
                            15 C    0.950
    28   6 C    3.981 --    29 C    1.411    11 C    1.362    55 H    0.963
                             9 C    0.103
    29   6 C    3.889 --    28 C    1.411     8 C    1.325    30 F    0.975
    30   9 F    1.112 --    29 C    0.975
    31   6 C    3.979 --     6 C    1.433    32 C    1.385    56 H    0.966
    32   6 C    3.971 --    33 N    1.474    31 C    1.385    57 H    0.964
    33   7 N    3.042 --    32 C    1.474    34 C    1.311     6 C    0.105
    34   6 C    3.985 --    33 N    1.311    35 C    1.286     5 C    1.214
    35   6 C    3.981 --    36 C    1.454    34 C    1.286    58 H    0.961
                             4 C    0.101
    36   6 C    3.940 --    35 C    1.454     3 C    1.216    37 O    1.078
    37   8 O    2.244 --    36 C    1.078    38 C    0.981
    38   6 C    3.940 --    37 O    0.981    61 H    0.979    60 H    0.976
                            59 H    0.976
    39   1 H    0.997 --     1 C    0.977
    40   1 H    0.995 --     1 C    0.979
    41   1 H    0.997 --     1 C    0.977
    42   1 H    0.996 --     4 C    0.962
    43   1 H    0.996 --     9 C    0.967
    44   1 H    0.992 --    10 C    0.959
    45   1 H    0.959 --    12 N    0.928
    46   1 H    0.961 --    18 N    0.929
    47   1 H    0.997 --    20 C    0.966
    48   1 H    0.995 --    21 C    0.967
    49   1 H    0.995 --    24 C    0.967
    50   1 H    0.993 --    25 C    0.961
    51   1 H    0.998 --    26 C    0.980
    52   1 H    0.997 --    26 C    0.978
    53   1 H    0.997 --    27 C    0.978
    54   1 H    0.997 --    27 C    0.980
    55   1 H    0.995 --    28 C    0.963
    56   1 H    0.998 --    31 C    0.966
    57   1 H    0.997 --    32 C    0.964
    58   1 H    0.994 --    35 C    0.961
    59   1 H    0.997 --    38 C    0.976
    60   1 H    0.997 --    38 C    0.976
    61   1 H    0.995 --    38 C    0.979
    62  22 Ti   2.826 --    81 O    0.845    82 O    0.814    68 Ti   0.332
                            63 Ti   0.202    65 Ti   0.198
    63  22 Ti   3.855 --    82 O    0.752    85 O    0.747    83 O    0.692
                            84 O    0.604    62 Ti   0.202    64 Ti   0.189
                            66 Ti   0.137    67 Ti   0.137
    64  22 Ti   2.723 --    90 O    0.963    83 O    0.599    70 Ti   0.371
                            63 Ti   0.189    68 Ti   0.140    85 O    0.110
    65  22 Ti   3.920 --    86 O    0.938    74 C    0.721    81 O    0.707
                            84 O    0.562    67 Ti   0.211    62 Ti   0.198
                            71 Ti   0.177    91 O    0.124
    66  22 Ti   4.073 --    80 C    0.894    87 O    0.773    78 C    0.744
                            85 O    0.600    72 Ti   0.283    67 Ti   0.174
                            79 C    0.162    75 C    0.152    63 Ti   0.137
    67  22 Ti   2.650 --    87 O    0.975    86 O    0.711    65 Ti   0.211
                            66 Ti   0.174    63 Ti   0.137    82 O    0.123
    68  22 Ti   3.769 --    88 O    1.997    69 Ti   0.608    62 Ti   0.332
                            83 O    0.152    81 O    0.147    64 Ti   0.140
                            91 O    0.112
    69  22 Ti   4.017 --    91 O    0.801    89 O    0.754    92 O    0.715
                            68 Ti   0.608    93 O    0.196    70 Ti   0.166
                            73 Ti   0.147    71 Ti   0.141
    70  22 Ti   2.745 --    89 O    0.835    90 O    0.764    64 Ti   0.371
                            73 Ti   0.221    69 Ti   0.166    72 Ti   0.130
    71  22 Ti   4.010 --    79 C    1.055    77 C    0.726    93 O    0.615
                            91 O    0.442    80 C    0.231    73 Ti   0.200
                            65 Ti   0.177    74 C    0.155    69 Ti   0.141
    72  22 Ti   4.081 --    94 O    0.968    75 C    0.669    80 C    0.654
                            92 O    0.442    66 Ti   0.283    73 Ti   0.210
                            79 C    0.141    70 Ti   0.130    90 O    0.114
    73  22 Ti   2.791 --    93 O    0.900    94 O    0.734    70 Ti   0.221
                            72 Ti   0.210    71 Ti   0.200    69 Ti   0.147
    74   6 C    3.843 --    77 C    2.739    65 Ti   0.721    71 Ti   0.155
    75   6 C    3.781 --    78 C    2.732    72 Ti   0.669    66 Ti   0.152
    76   6 C    3.979 --    79 C    2.009    80 C    1.603
    77   6 C    3.706 --    74 C    2.739    71 Ti   0.726
    78   6 C    3.748 --    75 C    2.732    66 Ti   0.744
    79   6 C    3.768 --    76 C    2.009    71 Ti   1.055    66 Ti   0.162
                            72 Ti   0.141
    80   6 C    3.828 --    76 C    1.603    66 Ti   0.894    72 Ti   0.654
                            71 Ti   0.231
    81   8 O    1.935 --    62 Ti   0.845    65 Ti   0.707    68 Ti   0.147
    82   8 O    1.894 --    62 Ti   0.814    63 Ti   0.752    67 Ti   0.123
    83   8 O    1.784 --    63 Ti   0.692    64 Ti   0.599    68 Ti   0.152
    84   8 O    1.720 --    63 Ti   0.604    65 Ti   0.562
    85   8 O    1.848 --    63 Ti   0.747    66 Ti   0.600    64 Ti   0.110
    86   8 O    1.974 --    65 Ti   0.938    67 Ti   0.711
    87   8 O    2.018 --    67 Ti   0.975    66 Ti   0.773
    88   8 O    2.172 --    68 Ti   1.997
    89   8 O    1.911 --    70 Ti   0.835    69 Ti   0.754
    90   8 O    2.009 --    64 Ti   0.963    70 Ti   0.764    72 Ti   0.114
    91   8 O    1.799 --    69 Ti   0.801    71 Ti   0.442    65 Ti   0.124
                            68 Ti   0.112
    92   8 O    1.772 --    69 Ti   0.715    72 Ti   0.442
    93   8 O    1.987 --    73 Ti   0.900    71 Ti   0.615    69 Ti   0.196
    94   8 O    2.032 --    72 Ti   0.968    73 Ti   0.734
 ---------------------------------------------------------------------------

Topologies differ in total number of bonds
Writing topology from bond orders to xtbtopo.mol

molecular dipole:
                 x           y           z       tot (Debye)
 q only:        0.245       0.366      -1.789
   full:       -0.754       0.480      -0.728       2.931
molecular quadrupole (traceless):
                xx          xy          yy          xz          yz          zz
 q only:      -15.952      16.824      19.615     -41.390      42.027      -3.663
  q+dip:      -12.718       7.950      -3.711       1.876      33.954      16.429
   full:      -12.228      12.145       0.323      -1.181      36.147      11.905


           -------------------------------------------------
          | TOTAL ENERGY             -202.288094032813 Eh   |
          | GRADIENT NORM               0.114182205508 Eh/α |
          | HOMO-LUMO GAP               0.638596269125 eV   |
           -------------------------------------------------

------------------------------------------------------------------------
 * finished run on 2026/08/31 at 21:55:43.988     
------------------------------------------------------------------------
 total:
 * wall-time:     0 d,  0 h,  0 min,  2.740 sec
 *  cpu-time:     0 d,  0 h,  0 min,  7.797 sec
 * ratio c/w:     2.846 speedup
 SCF:
 * wall-time:     0 d,  0 h,  0 min,  2.684 sec
 *  cpu-time:     0 d,  0 h,  0 min,  7.609 sec
 * ratio c/w:     2.835 speedup

normal termination of xtb
