      -----------------------------------------------------------      
     |                   =====================                   |     
     |                           x T B                           |     
     |                   =====================                   |     
     |                         S. Grimme                         |     
     |          Mulliken Center for Theoretical Chemistry        |     
     |                    University of Bonn                     |     
      -----------------------------------------------------------      

   * xtb version 6.7.1pre (5071a88) compiled by 'Marcel@Raven' on 2024-07-23

   xtb is free software: you can redistribute it and/or modify it under
   the terms of the GNU Lesser General Public License as published by
   the Free Software Foundation, either version 3 of the License, or
   (at your option) any later version.
   
   xtb is distributed in the hope that it will be useful,
   but WITHOUT ANY WARRANTY; without even the implied warranty of
   MERCHANTABILITY or FITNESS FOR A PARTICULAR PURPOSE.  See the
   GNU Lesser General Public License for more details.
   
   Cite this work as:
   * C. Bannwarth, E. Caldeweyher, S. Ehlert, A. Hansen, P. Pracht,
     J. Seibert, S. Spicher, S. Grimme, WIREs Comput. Mol. Sci., 2020, 11,
     e01493. DOI: 10.1002/wcms.1493
   
   for GFN2-xTB:
   * C. Bannwarth, S. Ehlert and S. Grimme., J. Chem. Theory Comput., 2019,
     15, 1652-1671. DOI: 10.1021/acs.jctc.8b01176
   for GFN1-xTB:
   * S. Grimme, C. Bannwarth, P. Shushkov, J. Chem. Theory Comput., 2017,
     13, 1989-2009. DOI: 10.1021/acs.jctc.7b00118
   for GFN0-xTB:
   * P. Pracht, E. Caldeweyher, S. Ehlert, S. Grimme, ChemRxiv, 2019, preprint.
     DOI: 10.26434/chemrxiv.8326202.v1
   for GFN-FF:
   * S. Spicher and S. Grimme, Angew. Chem. Int. Ed., 2020, 59, 15665-15673.
     DOI: 10.1002/anie.202004239
   
   for ALPB and GBSA implicit solvation:
   * S. Ehlert, M. Stahn, S. Spicher, S. Grimme, J. Chem. Theory Comput.,
     2021, 17, 4250-4261. DOI: 10.1021/acs.jctc.1c00471
   
   for ddCOSMO and CPCM-X implicit solvation:
   * M. Stahn, S. Ehlert, S. Grimme, J. Phys. Chem. A,
     2023, XX, XXXX-XXXX. DOI: 10.1021/acs.jpca.3c04382
   
   for DFT-D4:
   * E. Caldeweyher, C. Bannwarth and S. Grimme, J. Chem. Phys., 2017,
     147, 034112. DOI: 10.1063/1.4993215
   * E. Caldeweyher, S. Ehlert, A. Hansen, H. Neugebauer, S. Spicher,
     C. Bannwarth and S. Grimme, J. Chem. Phys., 2019, 150, 154122.
     DOI: 10.1063/1.5090222
   * E. Caldeweyher, J.-M. Mewes, S. Ehlert and S. Grimme, Phys. Chem. Chem. Phys.
     2020, 22, 8499-8512. DOI: 10.1039/D0CP00502A
   
   for sTDA-xTB:
   * S. Grimme and C. Bannwarth, J. Chem. Phys., 2016, 145, 054103.
     DOI: 10.1063/1.4959605
   
   in the mass-spec context:
   * V. Asgeirsson, C. Bauer and S. Grimme, Chem. Sci., 2017, 8, 4879.
     DOI: 10.1039/c7sc00601b
   * J. Koopman and S. Grimme, ACS Omega 2019, 4, 12, 15120-15133.
     DOI: 10.1021/acsomega.9b02011
   
   for metadynamics refer to:
   * S. Grimme, J. Chem. Theory Comput., 2019, 155, 2847-2862
     DOI: 10.1021/acs.jctc.9b00143
   
   for SPH calculations refer to:
   * S. Spicher and S. Grimme, J. Chem. Theory Comput., 2021, 17, 1701-1714
     DOI: 10.1021/acs.jctc.0c01306
   
   for ONIOM refer to:
   * C. Plett, A. Katbashev, S. Ehlert, S. Grimme, M. Bursch,
     Phys. Chem. Chem. Phys., 2023, 25, 17860-17868. DOI: 10.1039/D3CP02178E
   
   for DIPRO refer to:
   * J. Kohn, N. Gildemeister, S. Grimme, D. Fazzi, A. Hansen,
     J. Chem. Phys., 2023, just accepted.
   
   for PTB refer to:
   * S. Grimme, M. Mueller, A. Hansen, J. Chem. Phys., 2023, 158, 124111.
     DOI: 10.1063/5.0137838
   
   with help from (in alphabetical order)
   P. Atkinson, C. Bannwarth, F. Bohle, G. Brandenburg, E. Caldeweyher
   M. Checinski, S. Dohm, S. Ehlert, S. Ehrlich, I. Gerasimov, C. Hölzer
   A. Katbashev, J. Kohn, J. Koopman, C. Lavigne, S. Lehtola, F. März, M. Müller,
   F. Musil, H. Neugebauer, J. Pisarek, C. Plett, P. Pracht, F. Pultar,
   J. Seibert, P. Shushkov, S. Spicher, M. Stahn, M. Steiner, T. Strunk,
   J. Stückrath, T. Rose, and J. Unsleber
   
 * started run on 2026/08/31 at 21:55:39.643     
   ID    Z sym.   atoms
    1    6 C      1, 3-6, 8-11, 13, 15, 16, 19-22, 24-29, 31, 32, 34-36, 38
    2    8 O      2, 7, 14, 17, 37
    3    7 N      12, 18, 33
    4    9 F      23, 30
    5    1 H      39-61

           -------------------------------------------------
          |                Calculation Setup                |
           -------------------------------------------------

          program call               : "c:\Users\Andre\Proyectos doctorado\kras-pancreatic-gC3N4-ai\tools\xtb\xtb-6.7.1\bin\xtb.exe" "c:\Users\Andre\Proyectos doctorado\mxene-glioblastoma-qsar-ai\calculations\gbm\Cabozantinib\Cabozantinib_drug.xyz" --gfn 2 --sp --chrg 0 --uhf 0 --etemp 500 --acc 1.0 --iterations 500 --norestart
          coordinate file            : c:\Users\Andre\Proyectos doctorado\mxene-glioblastoma-qsar-ai\calculations\gbm\Cabozantinib\Cabozantinib_drug.xyz
          omp threads                :                    16


           -------------------------------------------------
          |                 G F N 2 - x T B                 |
           -------------------------------------------------

        Reference                      10.1021/acs.jctc.8b01176
      * Hamiltonian:
        H0-scaling (s, p, d)           1.850000    2.230000    2.230000
        zeta-weighting                 0.500000
      * Dispersion:
        s8                             2.700000
        a1                             0.520000
        a2                             5.000000
        s9                             5.000000
      * Repulsion:
        kExp                           1.500000    1.000000
        rExp                           1.000000
      * Coulomb:
        alpha                          2.000000
        third order                    shell-resolved
        anisotropic                    true
        a3                             3.000000
        a5                             4.000000
        cn-shift                       1.200000
        cn-exp                         4.000000
        max-rad                        5.000000


          ...................................................
          :                      SETUP                      :
          :.................................................:
          :  # basis functions                 175          :
          :  # atomic orbitals                 175          :
          :  # shells                           99          :
          :  # electrons                       194          :
          :  max. iterations                   500          :
          :  Hamiltonian                  GFN2-xTB          :
          :  restarted?                      false          :
          :  GBSA solvation                  false          :
          :  PC potential                    false          :
          :  electronic temp.          500.0000000     K    :
          :  accuracy                    1.0000000          :
          :  -> integral cutoff          0.2500000E+02      :
          :  -> integral neglect         0.1000000E-07      :
          :  -> SCF convergence          0.1000000E-05 Eh   :
          :  -> wf. convergence          0.1000000E-03 e    :
          :  Broyden damping             0.4000000          :
          :  net charge                          0          :
          :  unpaired electrons                  0          :
          ...................................................

 iter      E             dE          RMSdq      gap      omega  full diag
   1   -111.4783683 -0.111478E+03  0.447E+00    2.47       0.0  T
   2   -111.6375294 -0.159161E+00  0.259E+00    2.58       1.0  T
   3   -111.6305172  0.701218E-02  0.126E+00    2.69       1.0  T
   4   -111.6533568 -0.228396E-01  0.435E-01    2.31       1.0  T
   5   -111.6617370 -0.838013E-02  0.111E-01    2.44       1.0  T
   6   -111.6619858 -0.248865E-03  0.602E-02    2.42       1.0  T
   7   -111.6620527 -0.668364E-04  0.250E-02    2.43       1.0  T
   8   -111.6620615 -0.881788E-05  0.119E-02    2.43       1.1  T
   9   -111.6620653 -0.387805E-05  0.467E-03    2.43       2.7  T
  10   -111.6620656 -0.294942E-06  0.209E-03    2.43       6.1  T
  11   -111.6620658 -0.185256E-06  0.710E-04    2.43      18.0  T
  12   -111.6620658 -0.293703E-08  0.373E-04    2.43      34.3  T

   *** convergence criteria satisfied after 12 iterations ***

         #    Occupation            Energy/Eh            Energy/eV
      -------------------------------------------------------------
         1        2.0000           -0.8260452             -22.4778
       ...           ...                  ...                  ...
        91        2.0000           -0.4236066             -11.5269
        92        2.0000           -0.4086721             -11.1205
        93        2.0000           -0.3993422             -10.8667
        94        2.0000           -0.3958464             -10.7715
        95        2.0000           -0.3845351             -10.4637
        96        2.0000           -0.3807782             -10.3615
        97        2.0000           -0.3686451             -10.0313 (HOMO)
        98                         -0.2794105              -7.6031 (LUMO)
        99                         -0.2706132              -7.3638
       100                         -0.2577025              -7.0124
       101                         -0.2532276              -6.8907
       102                         -0.2514391              -6.8420
       ...                                ...                  ...
       175                          0.6722622              18.2932
      -------------------------------------------------------------
                  HL-Gap            0.0892345 Eh            2.4282 eV
             Fermi-level           -0.3240278 Eh           -8.8172 eV

 SCC (total)                   0 d,  0 h,  0 min,  0.311 sec
 SCC setup                      ...        0 min,  0.001 sec (  0.322%)
 Dispersion                     ...        0 min,  0.001 sec (  0.322%)
 classical contributions        ...        0 min,  0.000 sec (  0.000%)
 integral evaluation            ...        0 min,  0.003 sec (  0.965%)
 iterations                     ...        0 min,  0.295 sec ( 94.855%)
 molecular gradient             ...        0 min,  0.009 sec (  2.894%)
 printout                       ...        0 min,  0.002 sec (  0.643%)

         :::::::::::::::::::::::::::::::::::::::::::::::::::::
         ::                     SUMMARY                     ::
         :::::::::::::::::::::::::::::::::::::::::::::::::::::
         :: total energy            -110.258593960924 Eh    ::
         :: gradient norm              0.114231032036 Eh/a0 ::
         :: HOMO-LUMO gap              2.428195666474 eV    ::
         ::.................................................::
         :: SCC energy              -111.662093422589 Eh    ::
         :: -> isotropic ES            0.142685026166 Eh    ::
         :: -> anisotropic ES          0.005996788533 Eh    ::
         :: -> anisotropic XC          0.026983442890 Eh    ::
         :: -> dispersion             -0.067577418940 Eh    ::
         :: repulsion energy           1.403499461665 Eh    ::
         :: add. restraining           0.000000000000 Eh    ::
         :: total charge              -0.000000000000 e     ::
         :::::::::::::::::::::::::::::::::::::::::::::::::::::

           -------------------------------------------------
          |                Property Printout                |
           -------------------------------------------------

    * Orbital Energies and Occupations

         #    Occupation            Energy/Eh            Energy/eV
      -------------------------------------------------------------
         1        2.0000           -0.8260452             -22.4778
       ...           ...                  ...                  ...
        85        2.0000           -0.4438318             -12.0773
        86        2.0000           -0.4423270             -12.0363
        87        2.0000           -0.4378108             -11.9134
        88        2.0000           -0.4290571             -11.6752
        89        2.0000           -0.4270178             -11.6197
        90        2.0000           -0.4248083             -11.5596
        91        2.0000           -0.4236066             -11.5269
        92        2.0000           -0.4086721             -11.1205
        93        2.0000           -0.3993422             -10.8667
        94        2.0000           -0.3958464             -10.7715
        95        2.0000           -0.3845351             -10.4637
        96        2.0000           -0.3807782             -10.3615
        97        2.0000           -0.3686451             -10.0313 (HOMO)
        98                         -0.2794105              -7.6031 (LUMO)
        99                         -0.2706132              -7.3638
       100                         -0.2577025              -7.0124
       101                         -0.2532276              -6.8907
       102                         -0.2514391              -6.8420
       103                         -0.2320387              -6.3141
       104                         -0.2211931              -6.0190
       105                         -0.2121424              -5.7727
       106                         -0.2050684              -5.5802
       107                         -0.1569627              -4.2712
       108                         -0.1184428              -3.2230
       ...                                ...                  ...
       175                          0.6722622              18.2932
      -------------------------------------------------------------
                  HL-Gap            0.0892345 Eh            2.4282 eV
             Fermi-level           -0.3240278 Eh           -8.8172 eV

     #   Z          covCN         q      C6AA      α(0)
     1   6 C        3.640     0.032    20.386     6.493
     2   8 O        1.703    -0.251    18.152     5.752
     3   6 C        2.854     0.129    25.166     8.222
     4   6 C        2.914    -0.075    29.869     8.962
     5   6 C        2.981    -0.021    28.514     8.759
     6   6 C        2.892     0.148    24.789     8.163
     7   8 O        1.707    -0.257    18.262     5.770
     8   6 C        2.870     0.125    25.248     8.237
     9   6 C        2.912    -0.057    29.417     8.894
    10   6 C        2.914    -0.052    29.283     8.874
    11   6 C        2.897     0.073    26.361     8.418
    12   7 N        2.693    -0.153    24.300     7.321
    13   6 C        2.750     0.275    22.347     7.741
    14   8 O        0.857    -0.413    21.948     6.281
    15   6 C        3.918    -0.043    21.281     6.557
    16   6 C        2.750     0.275    22.355     7.742
    17   8 O        0.858    -0.416    21.995     6.288
    18   7 N        2.693    -0.154    24.341     7.328
    19   6 C        2.896     0.074    26.340     8.415
    20   6 C        2.921    -0.052    29.298     8.876
    21   6 C        2.912    -0.049    29.211     8.863
    22   6 C        2.774     0.167    24.392     8.089
    23   9 F        0.787    -0.219    11.429     3.993
    24   6 C        2.913    -0.049    29.212     8.863
    25   6 C        2.915    -0.043    29.080     8.843
    26   6 C        3.804    -0.061    21.661     6.626
    27   6 C        3.804    -0.061    21.679     6.629
    28   6 C        2.920    -0.076    29.892     8.966
    29   6 C        2.774     0.153    24.668     8.135
    30   9 F        0.787    -0.203    11.266     3.965
    31   6 C        2.902    -0.065    29.607     8.922
    32   6 C        2.887     0.053    26.820     8.490
    33   7 N        1.843    -0.247    27.284     7.741
    34   6 C        2.953     0.088    26.044     8.370
    35   6 C        2.926    -0.083    30.073     8.993
    36   6 C        2.856     0.131    25.125     8.216
    37   8 O        1.703    -0.248    18.107     5.745
    38   6 C        3.639     0.030    20.432     6.501
    39   1 H        0.924     0.045     2.379     2.412
    40   1 H        0.924     0.065     2.138     2.286
    41   1 H        0.924     0.048     2.345     2.395
    42   1 H        0.925     0.055     2.253     2.347
    43   1 H        0.925     0.059     2.215     2.327
    44   1 H        0.925     0.087     1.909     2.160
    45   1 H        0.860     0.199     1.110     1.650
    46   1 H        0.860     0.195     1.132     1.667
    47   1 H        0.925     0.046     2.370     2.407
    48   1 H        0.925     0.062     2.180     2.309
    49   1 H        0.925     0.065     2.142     2.289
    50   1 H        0.925     0.083     1.948     2.183
    51   1 H        0.925     0.044     2.391     2.418
    52   1 H        0.925     0.056     2.250     2.346
    53   1 H        0.925     0.056     2.243     2.342
    54   1 H        0.925     0.044     2.399     2.422
    55   1 H        0.925     0.066     2.131     2.283
    56   1 H        0.925     0.042     2.421     2.433
    57   1 H        0.925     0.045     2.385     2.415
    58   1 H        0.925     0.065     2.136     2.285
    59   1 H        0.924     0.049     2.336     2.390
    60   1 H        0.924     0.049     2.330     2.387
    61   1 H        0.924     0.066     2.126     2.280

 Mol. C6AA /au·bohr⁶  :      48155.446377
 Mol. C8AA /au·bohr⁸  :    1163600.197352
 Mol. α(0) /au        :        341.476338


Wiberg/Mayer (AO) data.
largest (>0.10) Wiberg bond orders for each atom

 ---------------------------------------------------------------------------
     #   Z sym  total        # sym  WBO       # sym  WBO       # sym  WBO
 ---------------------------------------------------------------------------
     1   6 C    3.942 --     2 O    0.982    40 H    0.979    41 H    0.977
                            39 H    0.977
     2   8 O    2.239 --     3 C    1.073     1 C    0.982
     3   6 C    3.939 --     4 C    1.463    36 C    1.216     2 O    1.073
     4   6 C    3.982 --     3 C    1.463     5 C    1.277    42 H    0.962
                            35 C    0.101
     5   6 C    3.988 --     4 C    1.277     6 C    1.273    34 C    1.214
     6   6 C    3.927 --    31 C    1.433     5 C    1.273     7 O    0.998
                            33 N    0.105
     7   8 O    2.256 --     8 C    1.023     6 C    0.998
     8   6 C    3.928 --     9 C    1.378    29 C    1.325     7 O    1.023
     9   6 C    3.986 --    10 C    1.445     8 C    1.378    43 H    0.967
                            28 C    0.103
    10   6 C    3.982 --     9 C    1.445    11 C    1.372    44 H    0.960
    11   6 C    3.961 --    10 C    1.372    28 C    1.362    12 N    1.075
    12   7 N    3.501 --    13 C    1.201    11 C    1.075    45 H    0.929
                            14 O    0.170
    13   6 C    3.950 --    14 O    1.699    12 N    1.201    15 C    0.946
    14   8 O    2.020 --    13 C    1.699    12 N    0.170
    15   6 C    3.938 --    27 C    0.950    13 C    0.946    16 C    0.946
                            26 C    0.946
    16   6 C    3.951 --    17 O    1.696    18 N    1.205    15 C    0.946
    17   8 O    2.019 --    16 C    1.696    18 N    0.172
    18   7 N    3.502 --    16 C    1.205    19 C    1.071    46 H    0.930
                            17 O    0.172
    19   6 C    3.960 --    25 C    1.376    20 C    1.366    18 N    1.071
    20   6 C    3.986 --    21 C    1.452    19 C    1.366    47 H    0.967
                            24 C    0.109
    21   6 C    3.988 --    20 C    1.452    22 C    1.387    48 H    0.967
                            25 C    0.107
    22   6 C    3.878 --    24 C    1.394    21 C    1.387    23 F    0.965
    23   9 F    1.095 --    22 C    0.965
    24   6 C    3.988 --    25 C    1.444    22 C    1.394    49 H    0.967
                            20 C    0.109
    25   6 C    3.984 --    24 C    1.444    19 C    1.376    50 H    0.961
                            21 C    0.107
    26   6 C    3.946 --    27 C    0.988    51 H    0.980    52 H    0.978
                            15 C    0.946
    27   6 C    3.946 --    26 C    0.988    54 H    0.980    53 H    0.978
                            15 C    0.950
    28   6 C    3.981 --    29 C    1.411    11 C    1.362    55 H    0.963
                             9 C    0.103
    29   6 C    3.889 --    28 C    1.411     8 C    1.325    30 F    0.975
    30   9 F    1.112 --    29 C    0.975
    31   6 C    3.979 --     6 C    1.433    32 C    1.384    56 H    0.966
    32   6 C    3.971 --    33 N    1.474    31 C    1.384    57 H    0.964
    33   7 N    3.042 --    32 C    1.474    34 C    1.311     6 C    0.105
    34   6 C    3.985 --    33 N    1.311    35 C    1.286     5 C    1.214
    35   6 C    3.981 --    36 C    1.454    34 C    1.286    58 H    0.961
                             4 C    0.101
    36   6 C    3.940 --    35 C    1.454     3 C    1.216    37 O    1.078
    37   8 O    2.244 --    36 C    1.078    38 C    0.981
    38   6 C    3.940 --    37 O    0.981    61 H    0.979    60 H    0.976
                            59 H    0.976
    39   1 H    0.997 --     1 C    0.977
    40   1 H    0.995 --     1 C    0.979
    41   1 H    0.997 --     1 C    0.977
    42   1 H    0.996 --     4 C    0.962
    43   1 H    0.996 --     9 C    0.967
    44   1 H    0.992 --    10 C    0.960
    45   1 H    0.960 --    12 N    0.929
    46   1 H    0.962 --    18 N    0.930
    47   1 H    0.998 --    20 C    0.967
    48   1 H    0.996 --    21 C    0.967
    49   1 H    0.995 --    24 C    0.967
    50   1 H    0.993 --    25 C    0.961
    51   1 H    0.998 --    26 C    0.980
    52   1 H    0.997 --    26 C    0.978
    53   1 H    0.997 --    27 C    0.978
    54   1 H    0.998 --    27 C    0.980
    55   1 H    0.995 --    28 C    0.963
    56   1 H    0.998 --    31 C    0.966
    57   1 H    0.997 --    32 C    0.964
    58   1 H    0.994 --    35 C    0.961
    59   1 H    0.997 --    38 C    0.976
    60   1 H    0.997 --    38 C    0.976
    61   1 H    0.995 --    38 C    0.979
 ---------------------------------------------------------------------------

Topologies differ in total number of bonds
Writing topology from bond orders to xtbtopo.mol

molecular dipole:
                 x           y           z       tot (Debye)
 q only:       -0.435       1.380      -0.636
   full:       -0.070       1.679      -0.462       4.430
molecular quadrupole (traceless):
                xx          xy          yy          xz          yz          zz
 q only:       -0.647      19.737       6.122       6.191       3.804      -5.475
  q+dip:       -6.917      16.629       5.316       6.187       1.827       1.600
   full:       -8.681      18.982       8.415       3.752       1.241       0.266


           -------------------------------------------------
          | TOTAL ENERGY             -110.258593960924 Eh   |
          | GRADIENT NORM               0.114231032036 Eh/α |
          | HOMO-LUMO GAP               2.428195666474 eV   |
           -------------------------------------------------

------------------------------------------------------------------------
 * finished run on 2026/08/31 at 21:55:39.994     
------------------------------------------------------------------------
 total:
 * wall-time:     0 d,  0 h,  0 min,  0.348 sec
 *  cpu-time:     0 d,  0 h,  0 min,  0.875 sec
 * ratio c/w:     2.514 speedup
 SCF:
 * wall-time:     0 d,  0 h,  0 min,  0.311 sec
 *  cpu-time:     0 d,  0 h,  0 min,  0.828 sec
 * ratio c/w:     2.663 speedup

normal termination of xtb
