
     Program PWSCF v.7.5 starts on 27Sep2026 at  0:18:19 

     This program is part of the open-source Quantum ESPRESSO suite
     for quantum simulation of materials; please cite
         "P. Giannozzi et al., J. Phys.:Condens. Matter 21 395502 (2009);
         "P. Giannozzi et al., J. Phys.:Condens. Matter 29 465901 (2017);
         "P. Giannozzi et al., J. Chem. Phys. 152 154105 (2020);
          URL http://www.quantum-espresso.org", 
     in publications or presentations arising from this work. More details at
     http://www.quantum-espresso.org/quote

     Parallel version (MPI & OpenMP), running on      12 processor cores
     Number of MPI processes:                12
     Threads/MPI process:                     1

     MPI processes distributed on     1 nodes
     12965 MiB available memory on the printing compute node when the environment starts

     Reading input from pw.in

     Current dimensions of program PWSCF are:
     Max number of different atomic species (ntypx) = 10
     Max number of k-points (npk) =  40000
     Max angular momentum in pseudopotentials (lmaxx) =  4
     file C.pbe-n-kjpaw_psl.1.0.0.UPF: wavefunction(s)  2S 2P renormalized
     file O.pbe-n-kjpaw_psl.0.1.UPF: wavefunction(s)  2P renormalized

     gamma-point specific algorithms are used

     R & G space division:  proc/nbgrp/npool/nimage =      12
     Subspace diagonalization in iterative solution of the eigenvalue problem:
     one sub-group per band group will be used
     ELPA distributed-memory algorithm (size of sub-group:  3*  3 procs)


     Parallelization info
     --------------------
     sticks:   dense  smooth     PW     G-vecs:    dense   smooth      PW
     Min        1201     601    149               257065    90906   11354
     Max        1204     604    152               257084    90928   11370
     Sum       14431    7243   1801              3084843  1090973  136361

     Using Slab Decomposition



     bravais-lattice index     =            0
     lattice parameter (alat)  =      22.9035  a.u.
     unit-cell volume          =   22835.6884 (a.u.)^3
     number of atoms/cell      =          132
     number of atomic types    =            5
     number of electrons       =       968.00
     number of Kohn-Sham states=          581
     kinetic-energy cutoff     =      50.0000  Ry
     charge density cutoff     =     400.0000  Ry
     scf convergence threshold =      1.0E-07
     mixing beta               =       0.2000
     number of iterations used =           10  local-TF  mixing
     energy convergence thresh.=      1.0E-04
     force convergence thresh. =      2.0E-03
     Exchange-correlation= PBE
                           (   1   4   3   4   0   0   0)
     nstep                     =          200


     celldm(1)=  22.903481  celldm(2)=   0.000000  celldm(3)=   0.000000
     celldm(4)=   0.000000  celldm(5)=   0.000000  celldm(6)=   0.000000

     crystal axes: (cart. coord. in units of alat)
               a(1) = (   1.000000   0.000000   0.000000 )  
               a(2) = (   0.500000   0.866025   0.000000 )  
               a(3) = (   0.000000   0.000000   2.194719 )  

     reciprocal axes: (cart. coord. in units 2 pi/alat)
               b(1) = (  1.000000 -0.577350  0.000000 )  
               b(2) = (  0.000000  1.154701  0.000000 )  
               b(3) = (  0.000000  0.000000  0.455639 )  


     PseudoPot. # 1 for Ti read from file:
     /home/andres/pseudo/SSSP_1.3.0_PBE_efficiency/ti_pbe_v1.4.uspp.F.UPF
     MD5 check sum: 88a00a6731bd790ddea75d31a80cb452
     Pseudo is Ultrasoft + core correction, Zval = 12.0
     Generated by new atomic code, or converted to UPF format
     Using radial grid of  851 points,  6 beta functions with: 
                l(1) =   0
                l(2) =   0
                l(3) =   1
                l(4) =   1
                l(5) =   2
                l(6) =   2
     Q(r) pseudized with  6 coefficients,  rinner =    1.000   1.000   1.000
                                                       1.000   1.000

     PseudoPot. # 2 for C  read from file:
     /home/andres/pseudo/SSSP_1.3.0_PBE_efficiency/C.pbe-n-kjpaw_psl.1.0.0.UPF
     MD5 check sum: 5d2aebdfa2cae82b50a7e79e9516da0f
     Pseudo is Projector augmented-wave + core cor, Zval =  4.0
     Generated using "atomic" code by A. Dal Corso  v.5.1
     Shape of augmentation charge: PSQ
     Using radial grid of 1073 points,  4 beta functions with: 
                l(1) =   0
                l(2) =   0
                l(3) =   1
                l(4) =   1
     Q(r) pseudized with 0 coefficients 


     PseudoPot. # 3 for O  read from file:
     /home/andres/pseudo/SSSP_1.3.0_PBE_efficiency/O.pbe-n-kjpaw_psl.0.1.UPF
     MD5 check sum: 0234752ac141de4415c5fc33072bef88
     Pseudo is Projector augmented-wave + core cor, Zval =  6.0
     Generated using "atomic" code by A. Dal Corso  v.5.0.99 svn rev. 10869
     Shape of augmentation charge: BESSEL
     Using radial grid of 1095 points,  4 beta functions with: 
                l(1) =   0
                l(2) =   0
                l(3) =   1
                l(4) =   1
     Q(r) pseudized with 0 coefficients 


     PseudoPot. # 4 for N  read from file:
     /home/andres/pseudo/SSSP_1.3.0_PBE_efficiency/N.pbe-n-radius_5.UPF
     MD5 check sum: 16739722b17309cd8fe442a2ace49922
     Pseudo is Ultrasoft + core correction, Zval =  5.0
     Generated using "atomic" code by A. Dal Corso  v.5.1
     Using radial grid of 1085 points,  4 beta functions with: 
                l(1) =   0
                l(2) =   0
                l(3) =   1
                l(4) =   1
     Q(r) pseudized with 0 coefficients 


     PseudoPot. # 5 for H  read from file:
     /home/andres/pseudo/SSSP_1.3.0_PBE_efficiency/H.pbe-rrkjus_psl.1.0.0.UPF
     MD5 check sum: f52b6d4d1c606e5624b1dc7b2218f220
     Pseudo is Ultrasoft, Zval =  1.0
     Generated using "atomic" code by A. Dal Corso  v.5.1
     Using radial grid of  929 points,  2 beta functions with: 
                l(1) =   0
                l(2) =   0
     Q(r) pseudized with 0 coefficients 


     atomic species   valence    mass     pseudopotential
     Ti               12.00    47.86700     Ti( 1.00)
     C                 4.00    12.01100     C ( 1.00)
     O                 6.00    15.99900     O ( 1.00)
     N                 5.00    14.00700     N ( 1.00)
     H                 1.00     1.00800     H ( 1.00)

     No symmetry found



   Cartesian axes

     site n.     atom                  positions (alat units)
         1        Ti     tau(   1) = (   0.0000000   0.0000000   1.0973597  )
         2        C      tau(   2) = (   0.1250000   0.0721688   1.1922442  )
         3        C      tau(   3) = (   0.2500000   0.1443375   1.0024752  )
         4        Ti     tau(   4) = (   0.2500000   0.1443375   1.2896040  )
         5        Ti     tau(   5) = (   0.1250000   0.0721688   0.9051155  )
         6        O      tau(   6) = (   0.0000000   0.0000000   1.3696370  )
         7        O      tau(   7) = (   0.0000000   0.0000000   0.8250825  )
         8        Ti     tau(   8) = (   0.1250000   0.2165064   1.0973597  )
         9        C      tau(   9) = (   0.2500000   0.2886752   1.1922442  )
        10        C      tau(  10) = (   0.3750000   0.3608439   1.0024752  )
        11        Ti     tau(  11) = (   0.3750000   0.3608439   1.2896040  )
        12        Ti     tau(  12) = (   0.2500000   0.2886752   0.9051155  )
        13        O      tau(  13) = (   0.1250000   0.2165064   1.3696370  )
        14        O      tau(  14) = (   0.1250000   0.2165064   0.8250825  )
        15        Ti     tau(  15) = (   0.2500000   0.4330127   1.0973597  )
        16        C      tau(  16) = (   0.3750000   0.5051815   1.1922442  )
        17        C      tau(  17) = (   0.5000000   0.5773502   1.0024752  )
        18        Ti     tau(  18) = (   0.5000000   0.5773502   1.2896040  )
        19        Ti     tau(  19) = (   0.3750000   0.5051815   0.9051155  )
        20        O      tau(  20) = (   0.2500000   0.4330127   1.3696370  )
        21        O      tau(  21) = (   0.2500000   0.4330127   0.8250825  )
        22        Ti     tau(  22) = (   0.3750000   0.6495191   1.0973597  )
        23        C      tau(  23) = (   0.5000000   0.7216879   1.1922442  )
        24        C      tau(  24) = (   0.6250000   0.7938566   1.0024752  )
        25        Ti     tau(  25) = (   0.6250000   0.7938566   1.2896040  )
        26        Ti     tau(  26) = (   0.5000000   0.7216879   0.9051155  )
        27        O      tau(  27) = (   0.3750000   0.6495191   1.3696370  )
        28        O      tau(  28) = (   0.3750000   0.6495191   0.8250825  )
        29        Ti     tau(  29) = (   0.2500000   0.0000000   1.0973597  )
        30        C      tau(  30) = (   0.3750000   0.0721688   1.1922442  )
        31        C      tau(  31) = (   0.5000000   0.1443375   1.0024752  )
        32        Ti     tau(  32) = (   0.5000000   0.1443375   1.2896040  )
        33        Ti     tau(  33) = (   0.3750000   0.0721688   0.9051155  )
        34        O      tau(  34) = (   0.2500000   0.0000000   1.3696370  )
        35        O      tau(  35) = (   0.2500000   0.0000000   0.8250825  )
        36        Ti     tau(  36) = (   0.3750000   0.2165064   1.0973597  )
        37        C      tau(  37) = (   0.5000000   0.2886752   1.1922442  )
        38        C      tau(  38) = (   0.6250000   0.3608439   1.0024752  )
        39        Ti     tau(  39) = (   0.6250000   0.3608439   1.2896040  )
        40        Ti     tau(  40) = (   0.5000000   0.2886752   0.9051155  )
        41        O      tau(  41) = (   0.3750000   0.2165064   1.3696370  )
        42        O      tau(  42) = (   0.3750000   0.2165064   0.8250825  )
        43        Ti     tau(  43) = (   0.5000000   0.4330127   1.0973597  )
        44        C      tau(  44) = (   0.6250000   0.5051815   1.1922442  )
        45        C      tau(  45) = (   0.7500000   0.5773502   1.0024752  )
        46        Ti     tau(  46) = (   0.7500000   0.5773502   1.2896040  )
        47        Ti     tau(  47) = (   0.6250000   0.5051815   0.9051155  )
        48        O      tau(  48) = (   0.5000000   0.4330127   1.3696370  )
        49        O      tau(  49) = (   0.5000000   0.4330127   0.8250825  )
        50        Ti     tau(  50) = (   0.6250000   0.6495191   1.0973597  )
        51        C      tau(  51) = (   0.7500000   0.7216879   1.1922442  )
        52        C      tau(  52) = (   0.8750000   0.7938566   1.0024752  )
        53        Ti     tau(  53) = (   0.8750000   0.7938566   1.2896040  )
        54        Ti     tau(  54) = (   0.7500000   0.7216879   0.9051155  )
        55        O      tau(  55) = (   0.6250000   0.6495191   1.3696370  )
        56        O      tau(  56) = (   0.6250000   0.6495191   0.8250825  )
        57        Ti     tau(  57) = (   0.5000000   0.0000000   1.0973597  )
        58        C      tau(  58) = (   0.6250000   0.0721688   1.1922442  )
        59        C      tau(  59) = (   0.7500000   0.1443375   1.0024752  )
        60        Ti     tau(  60) = (   0.7500000   0.1443375   1.2896040  )
        61        Ti     tau(  61) = (   0.6250000   0.0721688   0.9051155  )
        62        O      tau(  62) = (   0.5000000   0.0000000   1.3696370  )
        63        O      tau(  63) = (   0.5000000   0.0000000   0.8250825  )
        64        Ti     tau(  64) = (   0.6250000   0.2165064   1.0973597  )
        65        C      tau(  65) = (   0.7500000   0.2886752   1.1922442  )
        66        C      tau(  66) = (   0.8750000   0.3608439   1.0024752  )
        67        Ti     tau(  67) = (   0.8750000   0.3608439   1.2896040  )
        68        Ti     tau(  68) = (   0.7500000   0.2886752   0.9051155  )
        69        O      tau(  69) = (   0.6250000   0.2165064   1.3696370  )
        70        O      tau(  70) = (   0.6250000   0.2165064   0.8250825  )
        71        Ti     tau(  71) = (   0.7500000   0.4330127   1.0973597  )
        72        C      tau(  72) = (   0.8750000   0.5051815   1.1922442  )
        73        C      tau(  73) = (   1.0000000   0.5773502   1.0024752  )
        74        Ti     tau(  74) = (   1.0000000   0.5773502   1.2896040  )
        75        Ti     tau(  75) = (   0.8750000   0.5051815   0.9051155  )
        76        O      tau(  76) = (   0.7500000   0.4330127   1.3696370  )
        77        O      tau(  77) = (   0.7500000   0.4330127   0.8250825  )
        78        Ti     tau(  78) = (   0.8750000   0.6495191   1.0973597  )
        79        C      tau(  79) = (   1.0000000   0.7216879   1.1922442  )
        80        C      tau(  80) = (   1.1250000   0.7938566   1.0024752  )
        81        Ti     tau(  81) = (   1.1250000   0.7938566   1.2896040  )
        82        Ti     tau(  82) = (   1.0000000   0.7216879   0.9051155  )
        83        O      tau(  83) = (   0.8750000   0.6495191   1.3696370  )
        84        O      tau(  84) = (   0.8750000   0.6495191   0.8250825  )
        85        Ti     tau(  85) = (   0.7500000   0.0000000   1.0973597  )
        86        C      tau(  86) = (   0.8750000   0.0721688   1.1922442  )
        87        C      tau(  87) = (   1.0000000   0.1443375   1.0024752  )
        88        Ti     tau(  88) = (   1.0000000   0.1443375   1.2896040  )
        89        Ti     tau(  89) = (   0.8750000   0.0721688   0.9051155  )
        90        O      tau(  90) = (   0.7500000   0.0000000   1.3696370  )
        91        O      tau(  91) = (   0.7500000   0.0000000   0.8250825  )
        92        Ti     tau(  92) = (   0.8750000   0.2165064   1.0973597  )
        93        C      tau(  93) = (   1.0000000   0.2886752   1.1922442  )
        94        C      tau(  94) = (   1.1250000   0.3608439   1.0024752  )
        95        Ti     tau(  95) = (   1.1250000   0.3608439   1.2896040  )
        96        Ti     tau(  96) = (   1.0000000   0.2886752   0.9051155  )
        97        O      tau(  97) = (   0.8750000   0.2165064   1.3696370  )
        98        O      tau(  98) = (   0.8750000   0.2165064   0.8250825  )
        99        Ti     tau(  99) = (   1.0000000   0.4330127   1.0973597  )
       100        C      tau( 100) = (   1.1250000   0.5051815   1.1922442  )
       101        C      tau( 101) = (   1.2500000   0.5773502   1.0024752  )
       102        Ti     tau( 102) = (   1.2500000   0.5773502   1.2896040  )
       103        Ti     tau( 103) = (   1.1250000   0.5051815   0.9051155  )
       104        O      tau( 104) = (   1.0000000   0.4330127   1.3696370  )
       105        O      tau( 105) = (   1.0000000   0.4330127   0.8250825  )
       106        Ti     tau( 106) = (   1.1250000   0.6495191   1.0973597  )
       107        C      tau( 107) = (   1.2500000   0.7216879   1.1922442  )
       108        C      tau( 108) = (   1.3750000   0.7938566   1.0024752  )
       109        Ti     tau( 109) = (   1.3750000   0.7938566   1.2896040  )
       110        Ti     tau( 110) = (   1.2500000   0.7216879   0.9051155  )
       111        O      tau( 111) = (   1.1250000   0.6495191   1.3696370  )
       112        O      tau( 112) = (   1.1250000   0.6495191   0.8250825  )
       113        C      tau( 113) = (   0.4476482   0.4769774   1.6578936  )
       114        N      tau( 114) = (   0.5665144   0.4650544   1.6578936  )
       115        N      tau( 115) = (   0.6247778   0.5625933   1.6578938  )
       116        N      tau( 116) = (   0.7281266   0.5615924   1.6578940  )
       117        C      tau( 117) = (   0.7838591   0.4652774   1.6578939  )
       118        C      tau( 118) = (   0.8940939   0.4356972   1.6578938  )
       119        C      tau( 119) = (   0.9889248   0.5097040   1.6578937  )
       120        N      tau( 120) = (   1.0878518   0.4557124   1.6578936  )
       121        O      tau( 121) = (   0.9835205   0.6106235   1.6578939  )
       122        N      tau( 122) = (   0.9045886   0.3211748   1.6578938  )
       123        C      tau( 123) = (   0.8026925   0.2838463   1.6578938  )
       124        N      tau( 124) = (   0.7271784   0.3679296   1.6578938  )
       125        C      tau( 125) = (   0.6134969   0.3611111   1.6578937  )
       126        O      tau( 126) = (   0.5686930   0.2707818   1.6578937  )
       127        H      tau( 127) = (   0.4063622   0.3967740   1.6578914  )
       128        H      tau( 128) = (   0.4229796   0.5228254   1.7316312  )
       129        H      tau( 129) = (   0.4229799   0.5228293   1.5841584  )
       130        H      tau( 130) = (   1.0892228   0.3721177   1.6578935  )
       131        H      tau( 131) = (   1.1584568   0.4996888   1.6578936  )
       132        H      tau( 132) = (   0.7780322   0.1979432   1.6578938  )

     --------------------------------------------
     DFT-D3 Dispersion Correction (3-body terms):
     --------------------------------------------
       Reference C6 values for interpolation: 

         atom   Coordination number   C6
         H          0.912             6.05
         H          0.000            15.18
         C          0.000            98.23
         C          0.987            86.49
         C          1.998            58.72
         C          2.999            51.56
         C          3.984            36.41
         N          0.000            50.54
         N          0.994            44.25
         N          2.014            39.35
         N          2.990            31.16
         O          0.000            31.01
         O          0.993            25.63
         O          1.989            20.74
         Ti         0.000          2723.84
         Ti         1.830           604.00
         Ti         3.868           643.18

       Values used:

         atom   Coordination number  R0_AB[au]  C6      C8
         Ti        16.016            3.557    643.18  76289.64
         C          6.054            2.750     36.41   1053.14
         C          6.054            2.750     36.41   1053.14
         Ti        13.277            3.557    643.18  76289.64
         Ti        13.276            3.557    643.18  76289.64
         O          2.996            2.345     20.74    418.58
         O          2.995            2.345     20.74    418.58
         Ti        16.016            3.557    643.18  76289.64
         C          6.054            2.750     36.41   1053.14
         C          6.054            2.750     36.41   1053.14
         Ti        13.279            3.557    643.18  76289.64
         Ti        13.276            3.557    643.18  76289.64
         O          2.996            2.345     20.74    418.58
         O          2.995            2.345     20.74    418.58
         Ti        16.016            3.557    643.18  76289.64
         C          6.054            2.750     36.41   1053.14
         C          6.054            2.750     36.41   1053.14
         Ti        13.281            3.557    643.18  76289.64
         Ti        13.276            3.557    643.18  76289.64
         O          2.996            2.345     20.74    418.58
         O          2.995            2.345     20.74    418.58
         Ti        16.016            3.557    643.18  76289.64
         C          6.054            2.750     36.41   1053.14
         C          6.054            2.750     36.41   1053.14
         Ti        13.278            3.557    643.18  76289.64
         Ti        13.276            3.557    643.18  76289.64
         O          2.996            2.345     20.74    418.58
         O          2.995            2.345     20.74    418.58
         Ti        16.016            3.557    643.18  76289.64
         C          6.054            2.750     36.41   1053.14
         C          6.054            2.750     36.41   1053.14
         Ti        13.278            3.557    643.18  76289.64
         Ti        13.276            3.557    643.18  76289.64
         O          2.996            2.345     20.74    418.58
         O          2.995            2.345     20.74    418.58
         Ti        16.016            3.557    643.18  76289.64
         C          6.054            2.750     36.41   1053.14
         C          6.054            2.750     36.41   1053.14
         Ti        13.283            3.557    643.18  76289.64
         Ti        13.276            3.557    643.18  76289.64
         O          2.996            2.345     20.74    418.58
         O          2.995            2.345     20.74    418.58
         Ti        16.016            3.557    643.18  76289.64
         C          6.054            2.750     36.41   1053.14
         C          6.054            2.750     36.41   1053.14
         Ti        13.282            3.557    643.18  76289.64
         Ti        13.276            3.557    643.18  76289.64
         O          2.997            2.345     20.74    418.58
         O          2.995            2.345     20.74    418.58
         Ti        16.016            3.557    643.18  76289.64
         C          6.054            2.750     36.41   1053.14
         C          6.054            2.750     36.41   1053.14
         Ti        13.278            3.557    643.18  76289.64
         Ti        13.276            3.557    643.18  76289.64
         O          2.996            2.345     20.74    418.58
         O          2.995            2.345     20.74    418.58
         Ti        16.016            3.557    643.18  76289.64
         C          6.054            2.750     36.41   1053.14
         C          6.054            2.750     36.41   1053.14
         Ti        13.279            3.557    643.18  76289.64
         Ti        13.276            3.557    643.18  76289.64
         O          2.996            2.345     20.74    418.58
         O          2.995            2.345     20.74    418.58
         Ti        16.016            3.557    643.18  76289.64
         C          6.054            2.750     36.41   1053.14
         C          6.054            2.750     36.41   1053.14
         Ti        13.283            3.557    643.18  76289.64
         Ti        13.276            3.557    643.18  76289.64
         O          2.996            2.345     20.74    418.58
         O          2.995            2.345     20.74    418.58
         Ti        16.016            3.557    643.18  76289.64
         C          6.054            2.750     36.41   1053.14
         C          6.054            2.750     36.41   1053.14
         Ti        13.281            3.557    643.18  76289.64
         Ti        13.276            3.557    643.18  76289.64
         O          2.997            2.345     20.74    418.58
         O          2.995            2.345     20.74    418.58
         Ti        16.016            3.557    643.18  76289.64
         C          6.054            2.750     36.41   1053.14
         C          6.054            2.750     36.41   1053.14
         Ti        13.278            3.557    643.18  76289.64
         Ti        13.276            3.557    643.18  76289.64
         O          2.996            2.345     20.74    418.58
         O          2.995            2.345     20.74    418.58
         Ti        16.016            3.557    643.18  76289.64
         C          6.054            2.750     36.41   1053.14
         C          6.054            2.750     36.41   1053.14
         Ti        13.278            3.557    643.18  76289.64
         Ti        13.276            3.557    643.18  76289.64
         O          2.996            2.345     20.74    418.58
         O          2.995            2.345     20.74    418.58
         Ti        16.016            3.557    643.18  76289.64
         C          6.054            2.750     36.41   1053.14
         C          6.054            2.750     36.41   1053.14
         Ti        13.279            3.557    643.18  76289.64
         Ti        13.276            3.557    643.18  76289.64
         O          2.996            2.345     20.74    418.58
         O          2.995            2.345     20.74    418.58
         Ti        16.016            3.557    643.18  76289.64
         C          6.054            2.750     36.41   1053.14
         C          6.054            2.750     36.41   1053.14
         Ti        13.279            3.557    643.18  76289.64
         Ti        13.276            3.557    643.18  76289.64
         O          2.997            2.345     20.74    418.58
         O          2.995            2.345     20.74    418.58
         Ti        16.016            3.557    643.18  76289.64
         C          6.054            2.750     36.41   1053.14
         C          6.054            2.750     36.41   1053.14
         Ti        13.277            3.557    643.18  76289.64
         Ti        13.276            3.557    643.18  76289.64
         O          2.996            2.345     20.74    418.58
         O          2.995            2.345     20.74    418.58
         C          4.085            2.750     36.54   1056.68
         N          3.173            2.478     31.20    688.38
         N          2.201            2.478     38.62    851.94
         N          2.148            2.478     38.86    857.39
         C          3.479            2.750     43.92   1270.21
         C          3.512            2.750     42.93   1241.52
         C          3.081            2.750     50.99   1474.80
         N          3.097            2.478     31.24    689.10
         O          1.067            2.345     25.51    514.84
         N          2.219            2.478     38.51    849.66
         C          3.478            2.750     43.95   1271.18
         N          3.394            2.478     31.17    687.65
         C          3.204            2.750     50.01   1446.46
         O          1.069            2.345     25.51    514.80
         H          1.000            2.062      6.18     74.72
         H          0.999            2.062      6.18     74.73
         H          1.002            2.062      6.18     74.70
         H          1.009            2.062      6.17     74.63
         H          1.007            2.062      6.17     74.64
         H          1.003            2.062      6.18     74.69

         Molecular C6 ( Ry / a.u.^6 ) =   2663995.64


     number of k points=     1  Marzari-Vanderbilt smearing, width (Ry)=  0.0100
                       cart. coord. in units 2pi/alat
        k(    1) = (   0.0000000   0.0000000   0.0000000), wk =   2.0000000

     Dense  grid:  1542422 G-vectors     FFT dimensions: ( 150, 150, 324)

     Smooth grid:   545487 G-vectors     FFT dimensions: ( 108, 108, 240)

     Estimated max dynamical RAM per process >     950.91 MB

     Estimated total dynamical RAM >      11.14 GB

     Check: negative core charge=   -0.000004

     Initial potential from superposition of free atoms

     starting charge     919.9962, renormalised to     968.0000

     negative rho (up, down):  6.913E-02 0.000E+00
     Starting wfcs are  798 randomized atomic wfcs
     Checking if some PAW data can be deallocated... 

     total cpu time spent up to now is       39.2 secs

     per-process dynamical memory:   335.6 Mb

     Self-consistent Calculation

     iteration #  1     ecut=    50.00 Ry     beta= 0.20
     Davidson diagonalization with overlap
     ethr =  1.00E-02,  avg # of iterations =  3.0

     negative rho (up, down):  4.933E-02 0.000E+00

     total cpu time spent up to now is      132.6 secs

     total energy              =   -8046.33875141 Ry
     estimated scf accuracy    <    4671.79894766 Ry

     iteration #  2     ecut=    50.00 Ry     beta= 0.20
     Davidson diagonalization with overlap
     ethr =  1.00E-02,  avg # of iterations =  3.0

     negative rho (up, down):  4.013E-02 0.000E+00

     total cpu time spent up to now is      208.5 secs

     total energy              =   -7968.56315101 Ry
     estimated scf accuracy    <    2446.91341253 Ry

     iteration #  3     ecut=    50.00 Ry     beta= 0.20
     Davidson diagonalization with overlap
     ethr =  1.00E-02,  avg # of iterations = 12.0

     negative rho (up, down):  3.811E-02 0.000E+00

     total cpu time spent up to now is      317.6 secs

     total energy              =   -7952.97133830 Ry
     estimated scf accuracy    <     876.92658631 Ry

     iteration #  4     ecut=    50.00 Ry     beta= 0.20
     Davidson diagonalization with overlap
     ethr =  1.00E-02,  avg # of iterations = 15.0

     negative rho (up, down):  4.004E-02 0.000E+00

     total cpu time spent up to now is      431.9 secs

     total energy              =   -7992.68337569 Ry
     estimated scf accuracy    <      58.68164522 Ry

     iteration #  5     ecut=    50.00 Ry     beta= 0.20
     Davidson diagonalization with overlap
     ethr =  6.06E-03,  avg # of iterations =  2.0

     negative rho (up, down):  5.228E-02 0.000E+00

     total cpu time spent up to now is      511.7 secs

     total energy              =   -7976.66915350 Ry
     estimated scf accuracy    <      36.48705284 Ry

     iteration #  6     ecut=    50.00 Ry     beta= 0.20
     Davidson diagonalization with overlap
     ethr =  3.77E-03,  avg # of iterations =  5.0

     negative rho (up, down):  5.209E-02 0.000E+00

     total cpu time spent up to now is      593.0 secs

     total energy              =   -7990.00166637 Ry
     estimated scf accuracy    <     290.55359415 Ry

     iteration #  7     ecut=    50.00 Ry     beta= 0.20
     Davidson diagonalization with overlap
     ethr =  3.77E-03,  avg # of iterations =  2.0

     negative rho (up, down):  5.180E-02 0.000E+00

     total cpu time spent up to now is      667.3 secs

     total energy              =   -7989.51482321 Ry
     estimated scf accuracy    <     207.20964365 Ry

     iteration #  8     ecut=    50.00 Ry     beta= 0.20
     Davidson diagonalization with overlap
     ethr =  3.77E-03,  avg # of iterations =  1.0

     negative rho (up, down):  5.168E-02 0.000E+00

     total cpu time spent up to now is      743.3 secs

     total energy              =   -7989.57637947 Ry
     estimated scf accuracy    <     179.90323131 Ry

     iteration #  9     ecut=    50.00 Ry     beta= 0.20
     Davidson diagonalization with overlap
     ethr =  3.77E-03,  avg # of iterations =  1.0

     negative rho (up, down):  5.081E-02 0.000E+00

     total cpu time spent up to now is      814.9 secs

     total energy              =   -7989.80411874 Ry
     estimated scf accuracy    <     179.76316332 Ry

     iteration # 10     ecut=    50.00 Ry     beta= 0.20
     Davidson diagonalization with overlap
     ethr =  3.77E-03,  avg # of iterations =  1.0

     negative rho (up, down):  5.110E-02 0.000E+00

     total cpu time spent up to now is      882.0 secs

     total energy              =   -7989.98493681 Ry
     estimated scf accuracy    <     197.41315270 Ry

     iteration # 11     ecut=    50.00 Ry     beta= 0.20
     Davidson diagonalization with overlap
     ethr =  3.77E-03,  avg # of iterations =  1.0

     negative rho (up, down):  6.597E-02 0.000E+00

     total cpu time spent up to now is      952.4 secs

     total energy              =   -7992.16652573 Ry
     estimated scf accuracy    <     202.06597506 Ry

     iteration # 12     ecut=    50.00 Ry     beta= 0.20
     Davidson diagonalization with overlap
     ethr =  3.77E-03,  avg # of iterations =  1.0

     negative rho (up, down):  6.590E-02 0.000E+00

     total cpu time spent up to now is     1026.4 secs

     total energy              =   -7992.47821415 Ry
     estimated scf accuracy    <     210.62971616 Ry

     iteration # 13     ecut=    50.00 Ry     beta= 0.20
     Davidson diagonalization with overlap
     ethr =  3.77E-03,  avg # of iterations =  1.0

     negative rho (up, down):  7.551E-02 0.000E+00

     total cpu time spent up to now is     1106.6 secs

     total energy              =   -7982.68228563 Ry
     estimated scf accuracy    <     206.36078201 Ry

     iteration # 14     ecut=    50.00 Ry     beta= 0.20
     Davidson diagonalization with overlap
     ethr =  3.77E-03,  avg # of iterations =  2.0

     negative rho (up, down):  9.093E-02 0.000E+00

     total cpu time spent up to now is     1189.8 secs

     total energy              =   -7983.88684911 Ry
     estimated scf accuracy    <     113.89185026 Ry

     iteration # 15     ecut=    50.00 Ry     beta= 0.20
     Davidson diagonalization with overlap
     ethr =  3.77E-03,  avg # of iterations = 12.0

     negative rho (up, down):  1.053E-01 0.000E+00

     total cpu time spent up to now is     1272.1 secs

     total energy              =   -7983.46208230 Ry
     estimated scf accuracy    <      60.75089435 Ry

     iteration # 16     ecut=    50.00 Ry     beta= 0.20
     Davidson diagonalization with overlap
     ethr =  3.77E-03,  avg # of iterations =  8.0

     negative rho (up, down):  5.675E-02 0.000E+00

     total cpu time spent up to now is     1355.9 secs

     total energy              =   -7982.97345193 Ry
     estimated scf accuracy    <      26.86967995 Ry

     iteration # 17     ecut=    50.00 Ry     beta= 0.20
     Davidson diagonalization with overlap
     ethr =  2.78E-03,  avg # of iterations =  2.0

     negative rho (up, down):  5.443E-02 0.000E+00

     total cpu time spent up to now is     1428.2 secs

     total energy              =   -7982.15407388 Ry
     estimated scf accuracy    <      13.33388605 Ry

     iteration # 18     ecut=    50.00 Ry     beta= 0.20
     Davidson diagonalization with overlap
     ethr =  1.38E-03,  avg # of iterations =  4.0

     negative rho (up, down):  6.784E-02 0.000E+00

     total cpu time spent up to now is     1502.4 secs

     total energy              =   -7982.61979093 Ry
     estimated scf accuracy    <      16.05929009 Ry

     iteration # 19     ecut=    50.00 Ry     beta= 0.20
     Davidson diagonalization with overlap
     ethr =  1.38E-03,  avg # of iterations =  2.0

     negative rho (up, down):  6.484E-02 0.000E+00

     total cpu time spent up to now is     1574.9 secs

     total energy              =   -7981.52023258 Ry
     estimated scf accuracy    <      16.86097976 Ry

     iteration # 20     ecut=    50.00 Ry     beta= 0.20
     Davidson diagonalization with overlap
     ethr =  1.38E-03,  avg # of iterations =  2.0

     negative rho (up, down):  9.039E-02 0.000E+00

     total cpu time spent up to now is     1654.4 secs

     total energy              =   -7981.74492770 Ry
     estimated scf accuracy    <       6.55615429 Ry

     iteration # 21     ecut=    50.00 Ry     beta= 0.20
     Davidson diagonalization with overlap
     ethr =  6.77E-04,  avg # of iterations =  4.0

     negative rho (up, down):  1.215E-01 0.000E+00

     total cpu time spent up to now is     1736.7 secs

     total energy              =   -7980.97337230 Ry
     estimated scf accuracy    <       7.08714777 Ry

     iteration # 22     ecut=    50.00 Ry     beta= 0.20
     Davidson diagonalization with overlap
     ethr =  6.77E-04,  avg # of iterations =  2.0

     negative rho (up, down):  1.265E-01 0.000E+00

     total cpu time spent up to now is     1812.3 secs

     total energy              =   -7980.79444183 Ry
     estimated scf accuracy    <       5.22146168 Ry

     iteration # 23     ecut=    50.00 Ry     beta= 0.20
     Davidson diagonalization with overlap
     ethr =  5.39E-04,  avg # of iterations =  4.0

     negative rho (up, down):  1.232E-01 0.000E+00

     total cpu time spent up to now is     1888.1 secs

     total energy              =   -7980.87340422 Ry
     estimated scf accuracy    <       3.22710007 Ry

     iteration # 24     ecut=    50.00 Ry     beta= 0.20
     Davidson diagonalization with overlap
     ethr =  3.33E-04,  avg # of iterations =  5.0

     negative rho (up, down):  1.233E-01 0.000E+00

     total cpu time spent up to now is     1964.3 secs

     total energy              =   -7980.72294729 Ry
     estimated scf accuracy    <      13.24499298 Ry

     iteration # 25     ecut=    50.00 Ry     beta= 0.20
     Davidson diagonalization with overlap
     ethr =  3.33E-04,  avg # of iterations =  1.0

     negative rho (up, down):  1.233E-01 0.000E+00

     total cpu time spent up to now is     2034.9 secs

     total energy              =   -7980.50010751 Ry
     estimated scf accuracy    <       4.03034528 Ry

     iteration # 26     ecut=    50.00 Ry     beta= 0.20
     Davidson diagonalization with overlap
     ethr =  3.33E-04,  avg # of iterations =  2.0

     negative rho (up, down):  1.223E-01 0.000E+00

     total cpu time spent up to now is     2108.6 secs

     total energy              =   -7980.37676667 Ry
     estimated scf accuracy    <       1.98519825 Ry

     iteration # 27     ecut=    50.00 Ry     beta= 0.20
     Davidson diagonalization with overlap
     ethr =  2.05E-04,  avg # of iterations =  2.0

     negative rho (up, down):  1.217E-01 0.000E+00

     total cpu time spent up to now is     2179.9 secs

     total energy              =   -7980.27371855 Ry
     estimated scf accuracy    <       2.71751097 Ry

     iteration # 28     ecut=    50.00 Ry     beta= 0.20
     Davidson diagonalization with overlap
     ethr =  2.05E-04,  avg # of iterations =  2.0

     negative rho (up, down):  1.314E-01 0.000E+00

     total cpu time spent up to now is     2253.3 secs

     total energy              =   -7980.19439144 Ry
     estimated scf accuracy    <       1.44652086 Ry

     iteration # 29     ecut=    50.00 Ry     beta= 0.20
     Davidson diagonalization with overlap
     ethr =  1.49E-04,  avg # of iterations =  2.0

     negative rho (up, down):  1.841E-01 0.000E+00

     total cpu time spent up to now is     2325.9 secs

     total energy              =   -7979.97174267 Ry
     estimated scf accuracy    <       1.22584592 Ry

     iteration # 30     ecut=    50.00 Ry     beta= 0.20
     Davidson diagonalization with overlap
     ethr =  1.27E-04,  avg # of iterations =  4.0
     Minimization algorithm failed to find Fermi energy: reverting to bisection
     Possible cause: smearing is larger than the electronic band-gap.

     negative rho (up, down):  4.864E-01 0.000E+00

     total cpu time spent up to now is     2400.5 secs

     total energy              =   -7979.85188337 Ry
     estimated scf accuracy    <       0.86360338 Ry

     iteration # 31     ecut=    50.00 Ry     beta= 0.20
     Davidson diagonalization with overlap
     ethr =  8.92E-05,  avg # of iterations =  4.0

     negative rho (up, down):  4.928E-01 0.000E+00

     total cpu time spent up to now is     2475.0 secs

     total energy              =   -7979.93463607 Ry
     estimated scf accuracy    <       3.34204683 Ry

     iteration # 32     ecut=    50.00 Ry     beta= 0.20
     Davidson diagonalization with overlap
     ethr =  8.92E-05,  avg # of iterations =  1.0

     negative rho (up, down):  5.424E-01 0.000E+00

     total cpu time spent up to now is     2542.8 secs

     total energy              =   -7980.00094132 Ry
     estimated scf accuracy    <       4.27071665 Ry

     iteration # 33     ecut=    50.00 Ry     beta= 0.20
     Davidson diagonalization with overlap
     ethr =  8.92E-05,  avg # of iterations =  2.0

     negative rho (up, down):  5.352E-01 0.000E+00

     total cpu time spent up to now is     2615.9 secs

     total energy              =   -7979.99851931 Ry
     estimated scf accuracy    <      10.88121937 Ry

     iteration # 34     ecut=    50.00 Ry     beta= 0.20
     Davidson diagonalization with overlap
     ethr =  8.92E-05,  avg # of iterations =  1.0

     negative rho (up, down):  3.286E-01 0.000E+00

     total cpu time spent up to now is     2815.7 secs

     total energy              =   -7979.87355121 Ry
     estimated scf accuracy    <       8.92363295 Ry

     iteration # 35     ecut=    50.00 Ry     beta= 0.20
     Davidson diagonalization with overlap
     ethr =  8.92E-05,  avg # of iterations =  2.0

     negative rho (up, down):  2.454E-01 0.000E+00

     total cpu time spent up to now is     2889.0 secs

     total energy              =   -7979.90635087 Ry
     estimated scf accuracy    <       1.79603637 Ry

     iteration # 36     ecut=    50.00 Ry     beta= 0.20
     Davidson diagonalization with overlap
     ethr =  8.92E-05,  avg # of iterations =  2.0

     negative rho (up, down):  1.879E-01 0.000E+00

     total cpu time spent up to now is     2966.9 secs

     total energy              =   -7979.83066545 Ry
     estimated scf accuracy    <       7.54628372 Ry

     iteration # 37     ecut=    50.00 Ry     beta= 0.20
     Davidson diagonalization with overlap
     ethr =  8.92E-05,  avg # of iterations =  2.0

     negative rho (up, down):  4.324E-01 0.000E+00

     total cpu time spent up to now is     3047.3 secs

     total energy              =   -7979.75092976 Ry
     estimated scf accuracy    <       1.73933240 Ry

     iteration # 38     ecut=    50.00 Ry     beta= 0.20
     Davidson diagonalization with overlap
     ethr =  8.92E-05,  avg # of iterations =  2.0

     negative rho (up, down):  3.702E-01 0.000E+00

     total cpu time spent up to now is     3126.9 secs

     total energy              =   -7979.71918591 Ry
     estimated scf accuracy    <       0.60102977 Ry

     iteration # 39     ecut=    50.00 Ry     beta= 0.20
     Davidson diagonalization with overlap
     ethr =  6.21E-05,  avg # of iterations =  2.0

     negative rho (up, down):  3.533E-01 0.000E+00

     total cpu time spent up to now is     3199.6 secs

     total energy              =   -7979.68218339 Ry
     estimated scf accuracy    <       0.46470142 Ry

     iteration # 40     ecut=    50.00 Ry     beta= 0.20
     Davidson diagonalization with overlap
     ethr =  4.80E-05,  avg # of iterations = 22.0

     negative rho (up, down):  4.453E-01 0.000E+00

     total cpu time spent up to now is     3336.2 secs

     total energy              =   -7979.61375293 Ry
     estimated scf accuracy    <       0.80075051 Ry

     iteration # 41     ecut=    50.00 Ry     beta= 0.20
     Davidson diagonalization with overlap
     ethr =  4.80E-05,  avg # of iterations =  7.0

     negative rho (up, down):  6.211E-01 0.000E+00

     total cpu time spent up to now is     3411.8 secs

     total energy              =   -7979.62226855 Ry
     estimated scf accuracy    <       0.39189961 Ry

     iteration # 42     ecut=    50.00 Ry     beta= 0.20
     Davidson diagonalization with overlap
     ethr =  4.05E-05,  avg # of iterations =  2.0

     negative rho (up, down):  6.103E-01 0.000E+00

     total cpu time spent up to now is    29669.2 secs

     total energy              =   -7979.61301198 Ry
     estimated scf accuracy    <       0.29874573 Ry

     iteration # 43     ecut=    50.00 Ry     beta= 0.20
     Davidson diagonalization with overlap
     ethr =  3.09E-05,  avg # of iterations =  1.0
     Minimization algorithm failed to find Fermi energy: reverting to bisection
     Possible cause: smearing is larger than the electronic band-gap.

     negative rho (up, down):  4.202E-01 0.000E+00

     total cpu time spent up to now is    29741.8 secs

     total energy              =   -7979.56432449 Ry
     estimated scf accuracy    <       0.26287972 Ry

     iteration # 44     ecut=    50.00 Ry     beta= 0.20
     Davidson diagonalization with overlap
     ethr =  2.72E-05,  avg # of iterations =  2.0

     negative rho (up, down):  2.844E-01 0.000E+00

     total cpu time spent up to now is    29818.7 secs

     total energy              =   -7979.54609088 Ry
     estimated scf accuracy    <       0.20384631 Ry

     iteration # 45     ecut=    50.00 Ry     beta= 0.20
     Davidson diagonalization with overlap
     ethr =  2.11E-05,  avg # of iterations =  2.0

     negative rho (up, down):  3.058E-01 0.000E+00

     total cpu time spent up to now is    29893.9 secs

     total energy              =   -7979.52513032 Ry
     estimated scf accuracy    <       0.17661464 Ry

     iteration # 46     ecut=    50.00 Ry     beta= 0.20
     Davidson diagonalization with overlap
     ethr =  1.82E-05,  avg # of iterations =  6.0

     negative rho (up, down):  2.302E-01 0.000E+00

     total cpu time spent up to now is    29980.1 secs

     total energy              =   -7979.48530224 Ry
     estimated scf accuracy    <       0.18908555 Ry

     iteration # 47     ecut=    50.00 Ry     beta= 0.20
     Davidson diagonalization with overlap
     ethr =  1.82E-05,  avg # of iterations =  5.0

     negative rho (up, down):  2.770E-01 0.000E+00

     total cpu time spent up to now is    30075.5 secs

     total energy              =   -7979.48215256 Ry
     estimated scf accuracy    <       0.41750891 Ry

     iteration # 48     ecut=    50.00 Ry     beta= 0.20
     Davidson diagonalization with overlap
     ethr =  1.82E-05,  avg # of iterations =  4.0

     negative rho (up, down):  2.594E-01 0.000E+00

     total cpu time spent up to now is    30158.1 secs

     total energy              =   -7979.49568086 Ry
     estimated scf accuracy    <       0.09445891 Ry

     iteration # 49     ecut=    50.00 Ry     beta= 0.20
     Davidson diagonalization with overlap
     ethr =  9.76E-06,  avg # of iterations =  2.0

     negative rho (up, down):  2.400E-01 0.000E+00

     total cpu time spent up to now is    30242.3 secs

     total energy              =   -7979.49406016 Ry
     estimated scf accuracy    <       0.04470148 Ry

     iteration # 50     ecut=    50.00 Ry     beta= 0.20
     Davidson diagonalization with overlap
     ethr =  4.62E-06,  avg # of iterations =  2.0

     negative rho (up, down):  2.129E-01 0.000E+00

     total cpu time spent up to now is    30332.7 secs

     total energy              =   -7979.49273271 Ry
     estimated scf accuracy    <       0.05662907 Ry

     iteration # 51     ecut=    50.00 Ry     beta= 0.20
     Davidson diagonalization with overlap
     ethr =  4.62E-06,  avg # of iterations =  6.0

     negative rho (up, down):  2.239E-01 0.000E+00

     total cpu time spent up to now is    30473.8 secs

     total energy              =   -7979.49235558 Ry
     estimated scf accuracy    <       0.16743183 Ry

     iteration # 52     ecut=    50.00 Ry     beta= 0.20
     Davidson diagonalization with overlap
     ethr =  4.62E-06,  avg # of iterations =  2.0
     Minimization algorithm failed to find Fermi energy: reverting to bisection
     Possible cause: smearing is larger than the electronic band-gap.

     negative rho (up, down):  2.300E-01 0.000E+00

     total cpu time spent up to now is    30572.3 secs

     total energy              =   -7979.49358861 Ry
     estimated scf accuracy    <       0.02351155 Ry

     iteration # 53     ecut=    50.00 Ry     beta= 0.20
     Davidson diagonalization with overlap
     ethr =  2.43E-06,  avg # of iterations =  2.0
     Minimization algorithm failed to find Fermi energy: reverting to bisection
     Possible cause: smearing is larger than the electronic band-gap.

     negative rho (up, down):  2.086E-01 0.000E+00

     total cpu time spent up to now is    30646.7 secs

     total energy              =   -7979.49299397 Ry
     estimated scf accuracy    <       0.01560699 Ry

     iteration # 54     ecut=    50.00 Ry     beta= 0.20
     Davidson diagonalization with overlap
     ethr =  1.61E-06,  avg # of iterations =  4.0

     negative rho (up, down):  1.868E-01 0.000E+00

     total cpu time spent up to now is    30721.5 secs

     total energy              =   -7979.49000352 Ry
     estimated scf accuracy    <       0.21967623 Ry

     iteration # 55     ecut=    50.00 Ry     beta= 0.20
     Davidson diagonalization with overlap
     ethr =  1.61E-06,  avg # of iterations =  5.0

     negative rho (up, down):  1.377E-01 0.000E+00

     total cpu time spent up to now is    30815.4 secs

     total energy              =   -7979.48996757 Ry
     estimated scf accuracy    <       0.01808468 Ry

     iteration # 56     ecut=    50.00 Ry     beta= 0.20
     Davidson diagonalization with overlap
     ethr =  1.61E-06,  avg # of iterations =  2.0
     Minimization algorithm failed to find Fermi energy: reverting to bisection
     Possible cause: smearing is larger than the electronic band-gap.

     negative rho (up, down):  8.509E-02 0.000E+00

     total cpu time spent up to now is    30894.9 secs

     total energy              =   -7979.48852248 Ry
     estimated scf accuracy    <       0.00584361 Ry

     iteration # 57     ecut=    50.00 Ry     beta= 0.20
     Davidson diagonalization with overlap
     ethr =  6.04E-07,  avg # of iterations =  4.0
     Minimization algorithm failed to find Fermi energy: reverting to bisection
     Possible cause: smearing is larger than the electronic band-gap.

     negative rho (up, down):  8.901E-02 0.000E+00

     total cpu time spent up to now is    30972.2 secs

     total energy              =   -7979.48896728 Ry
     estimated scf accuracy    <       0.00730711 Ry

     iteration # 58     ecut=    50.00 Ry     beta= 0.20
     Davidson diagonalization with overlap
     ethr =  6.04E-07,  avg # of iterations =  2.0
     Minimization algorithm failed to find Fermi energy: reverting to bisection
     Possible cause: smearing is larger than the electronic band-gap.

     negative rho (up, down):  6.982E-02 0.000E+00

     total cpu time spent up to now is    31045.2 secs

     total energy              =   -7979.48882055 Ry
     estimated scf accuracy    <       0.00392259 Ry

     iteration # 59     ecut=    50.00 Ry     beta= 0.20
     Davidson diagonalization with overlap
     ethr =  4.05E-07,  avg # of iterations =  3.0

     negative rho (up, down):  6.299E-02 0.000E+00

     total cpu time spent up to now is    31124.0 secs

     total energy              =   -7979.48845621 Ry
     estimated scf accuracy    <       0.01784387 Ry

     iteration # 60     ecut=    50.00 Ry     beta= 0.20
     Davidson diagonalization with overlap
     ethr =  4.05E-07,  avg # of iterations =  2.0
     Minimization algorithm failed to find Fermi energy: reverting to bisection
     Possible cause: smearing is larger than the electronic band-gap.

     negative rho (up, down):  5.393E-02 0.000E+00

     total cpu time spent up to now is    31208.7 secs

     total energy              =   -7979.48850530 Ry
     estimated scf accuracy    <       0.00120861 Ry

     iteration # 61     ecut=    50.00 Ry     beta= 0.20
     Davidson diagonalization with overlap
     ethr =  1.25E-07,  avg # of iterations =  5.0

     negative rho (up, down):  5.845E-02 0.000E+00

     total cpu time spent up to now is    31291.2 secs

     total energy              =   -7979.48853433 Ry
     estimated scf accuracy    <       0.00105093 Ry

     iteration # 62     ecut=    50.00 Ry     beta= 0.20
     Davidson diagonalization with overlap
     ethr =  1.09E-07,  avg # of iterations =  4.0
     Minimization algorithm failed to find Fermi energy: reverting to bisection
     Possible cause: smearing is larger than the electronic band-gap.

     negative rho (up, down):  6.382E-02 0.000E+00

     total cpu time spent up to now is    31368.3 secs

     total energy              =   -7979.48851609 Ry
     estimated scf accuracy    <       0.00045468 Ry

     iteration # 63     ecut=    50.00 Ry     beta= 0.20
     Davidson diagonalization with overlap
     ethr =  4.70E-08,  avg # of iterations =  5.0
     Minimization algorithm failed to find Fermi energy: reverting to bisection
     Possible cause: smearing is larger than the electronic band-gap.

     negative rho (up, down):  5.949E-02 0.000E+00

     total cpu time spent up to now is    31452.1 secs

     total energy              =   -7979.48855864 Ry
     estimated scf accuracy    <       0.00029444 Ry

     iteration # 64     ecut=    50.00 Ry     beta= 0.20
     Davidson diagonalization with overlap
     ethr =  3.04E-08,  avg # of iterations =  4.0
     Minimization algorithm failed to find Fermi energy: reverting to bisection
     Possible cause: smearing is larger than the electronic band-gap.

     negative rho (up, down):  5.930E-02 0.000E+00

     total cpu time spent up to now is    31526.6 secs

     total energy              =   -7979.48861764 Ry
     estimated scf accuracy    <       0.00014887 Ry

     iteration # 65     ecut=    50.00 Ry     beta= 0.20
     Davidson diagonalization with overlap
     ethr =  1.54E-08,  avg # of iterations =  3.0

     negative rho (up, down):  5.910E-02 0.000E+00

     total cpu time spent up to now is    31602.4 secs

     total energy              =   -7979.48861193 Ry
     estimated scf accuracy    <       0.00015249 Ry

     iteration # 66     ecut=    50.00 Ry     beta= 0.20
     Davidson diagonalization with overlap
     ethr =  1.54E-08,  avg # of iterations =  2.0
     Minimization algorithm failed to find Fermi energy: reverting to bisection
     Possible cause: smearing is larger than the electronic band-gap.

     negative rho (up, down):  5.800E-02 0.000E+00

     total cpu time spent up to now is    31686.2 secs

     total energy              =   -7979.48860244 Ry
     estimated scf accuracy    <       0.00004312 Ry

     iteration # 67     ecut=    50.00 Ry     beta= 0.20
     Davidson diagonalization with overlap
     ethr =  4.45E-09,  avg # of iterations =  5.0
     Minimization algorithm failed to find Fermi energy: reverting to bisection
     Possible cause: smearing is larger than the electronic band-gap.

     negative rho (up, down):  5.756E-02 0.000E+00

     total cpu time spent up to now is    31768.0 secs

     total energy              =   -7979.48860164 Ry
     estimated scf accuracy    <       0.00001905 Ry

     iteration # 68     ecut=    50.00 Ry     beta= 0.20
     Davidson diagonalization with overlap
     ethr =  1.97E-09,  avg # of iterations =  4.0

     negative rho (up, down):  5.631E-02 0.000E+00

     total cpu time spent up to now is    31844.1 secs

     total energy              =   -7979.48860045 Ry
     estimated scf accuracy    <       0.00001045 Ry

     iteration # 69     ecut=    50.00 Ry     beta= 0.20
     Davidson diagonalization with overlap
     ethr =  1.08E-09,  avg # of iterations =  4.0

     negative rho (up, down):  5.570E-02 0.000E+00

     total cpu time spent up to now is    31914.6 secs

     total energy              =   -7979.48860065 Ry
     estimated scf accuracy    <       0.00000446 Ry

     iteration # 70     ecut=    50.00 Ry     beta= 0.20
     Davidson diagonalization with overlap
     ethr =  4.61E-10,  avg # of iterations =  4.0

     negative rho (up, down):  5.596E-02 0.000E+00

     total cpu time spent up to now is    31988.2 secs

     total energy              =   -7979.48860114 Ry
     estimated scf accuracy    <       0.00000225 Ry

     iteration # 71     ecut=    50.00 Ry     beta= 0.20
     Davidson diagonalization with overlap
     ethr =  2.32E-10,  avg # of iterations =  4.0
     Minimization algorithm failed to find Fermi energy: reverting to bisection
     Possible cause: smearing is larger than the electronic band-gap.

     negative rho (up, down):  5.584E-02 0.000E+00

     total cpu time spent up to now is    32059.5 secs

     total energy              =   -7979.48860128 Ry
     estimated scf accuracy    <       0.00000175 Ry

     iteration # 72     ecut=    50.00 Ry     beta= 0.20
     Davidson diagonalization with overlap
     ethr =  1.81E-10,  avg # of iterations =  5.0

     negative rho (up, down):  5.601E-02 0.000E+00

     total cpu time spent up to now is    32132.7 secs

     total energy              =   -7979.48860100 Ry
     estimated scf accuracy    <       0.00000076 Ry

     iteration # 73     ecut=    50.00 Ry     beta= 0.20
     Davidson diagonalization with overlap
     ethr =  7.80E-11,  avg # of iterations =  5.0

     negative rho (up, down):  5.620E-02 0.000E+00

     total cpu time spent up to now is    32208.1 secs

     total energy              =   -7979.48860088 Ry
     estimated scf accuracy    <       0.00000027 Ry

     iteration # 74     ecut=    50.00 Ry     beta= 0.20
     Davidson diagonalization with overlap
     ethr =  2.81E-11,  avg # of iterations =  4.0

     negative rho (up, down):  5.626E-02 0.000E+00

     total cpu time spent up to now is    32277.8 secs

     total energy              =   -7979.48860079 Ry
     estimated scf accuracy    <       0.00000024 Ry

     iteration # 75     ecut=    50.00 Ry     beta= 0.20
     Davidson diagonalization with overlap
     ethr =  2.49E-11,  avg # of iterations =  4.0

     negative rho (up, down):  5.636E-02 0.000E+00

     total cpu time spent up to now is    32342.3 secs

     End of self-consistent calculation

          k = 0.0000 0.0000 0.0000 ( 68181 PWs)   bands (ev):

   -56.7283 -56.7192 -56.7013 -56.7011 -56.6990 -56.6954 -56.6939 -56.6923
   -56.6901 -56.6897 -56.6892 -56.6888 -56.6883 -56.6878 -56.6735 -56.6719
   -56.6692 -56.6673 -56.6656 -56.6637 -56.6627 -56.6612 -56.6606 -56.6597
   -56.6591 -56.6589 -56.6585 -56.6583 -56.6579 -56.6572 -56.6571 -56.6569
   -55.8968 -55.8695 -55.8691 -55.8686 -55.8677 -55.8672 -55.8667 -55.8411
   -55.8407 -55.8405 -55.8400 -55.8396 -55.8388 -55.8387 -55.8375 -55.8367
   -33.2921 -33.2916 -33.2914 -33.2655 -33.2652 -33.2650 -33.1996 -33.1990
   -33.1983 -33.1982 -33.1961 -33.1959 -33.1754 -33.1752 -33.1747 -33.1746
   -33.1737 -33.1735 -33.1195 -33.0551 -33.0545 -33.0539 -33.0533 -33.0531
   -33.0528 -33.0430 -33.0423 -33.0406 -33.0394 -33.0386 -33.0379 -33.0356
   -33.0343 -33.0342 -33.0337 -33.0328 -33.0322 -33.0312 -33.0000 -32.9997
   -32.9993 -32.9991 -32.9981 -32.9979 -32.9906 -32.9903 -32.9898 -32.9888
   -32.9878 -32.9869 -32.9868 -32.9862 -32.9855 -32.9851 -32.9850 -32.9847
   -32.9844 -32.9838 -32.9837 -32.9593 -32.9584 -32.9560 -32.9545 -32.9520
   -32.9509 -32.9495 -32.9493 -32.9488 -32.9484 -32.9480 -32.9477 -32.9344
   -32.9340 -32.9337 -32.8925 -32.8920 -32.8918 -32.8820 -32.8818 -32.8817
   -32.8426 -32.8419 -32.8412 -32.8400 -32.8388 -32.8381 -32.8322 -32.8321
   -32.8320 -32.8317 -32.8316 -32.8314 -32.7884 -32.7883 -32.7810 -32.7809
   -32.4161 -32.4159 -32.4158 -32.3400 -32.3398 -32.3394 -32.3393 -32.3390
   -32.3389 -32.2227 -32.2223 -32.2221 -32.2218 -32.2217 -32.2213 -32.2202
   -32.1955 -32.1951 -32.1949 -32.1947 -32.1945 -32.1942 -32.1940 -32.1939
   -32.1938 -32.1931 -32.1928 -32.1923 -32.1841 -32.1838 -32.1835 -32.1744
   -32.1743 -32.1741 -32.1740 -32.1733 -32.1732 -32.1018 -32.1016 -32.1014
   -32.0544 -32.0542 -32.0541 -32.0536 -32.0534 -32.0532 -32.0055 -32.0055
   -22.0741 -20.5219 -19.9228 -19.6589 -17.7319 -17.7124 -17.7053 -17.4871
   -17.4852 -17.4686 -17.4575 -17.4509 -17.4455 -17.4451 -17.4442 -17.4442
   -17.4437 -17.4428 -17.4411 -17.2917 -17.2734 -17.2655 -17.2548 -17.2474
   -17.2451 -17.2410 -17.2405 -17.2402 -17.2397 -17.2299 -17.2298 -17.2284
   -17.2280 -17.2276 -17.2275 -17.2220 -17.2179 -16.7821 -16.0943 -13.8803
   -12.4565 -11.8956 -11.6608 -10.8061 -10.8055 -10.8046 -10.8042 -10.8034
   -10.8028 -10.8001  -9.8940  -9.8936  -9.8933  -9.7493  -9.6550  -9.6544
    -9.6534  -9.6530  -9.6522  -9.6515  -9.6334  -9.6331  -9.6326  -9.6323
    -9.6316  -9.6314  -9.5854  -9.5472  -9.5469  -9.5465  -9.5461  -9.5453
    -9.5451  -9.5151  -9.1566  -9.1562  -9.1558  -8.1451  -7.1238  -6.9977
    -6.8412  -6.0523  -5.7617  -5.7613  -5.7605  -5.4489  -5.3915  -5.3386
    -5.0475  -4.8659  -4.8640  -4.8622  -4.7759  -4.7753  -4.7749  -4.7733
    -4.7726  -4.7712  -4.5455  -4.5451  -4.5436  -4.5430  -4.5415  -4.5410
    -4.5184  -4.4837  -4.4785  -4.4780  -4.4740  -4.4693  -4.4676  -4.3562
    -4.3459  -4.3443  -4.3391  -4.3332  -4.3312  -4.3016  -4.1869  -4.1692
    -4.1645  -4.1556  -4.1499  -4.1384  -4.1142  -4.1064  -4.1053  -4.1001
    -4.0950  -4.0830  -4.0251  -3.9673  -3.9660  -3.9656  -3.9629  -3.9617
    -3.9590  -3.9586  -3.9560  -3.9345  -3.8230  -3.8202  -3.8199  -3.8178
    -3.8172  -3.8157  -3.8045  -3.7399  -3.7366  -3.7348  -3.7232  -3.7226
    -3.6280  -3.5466  -3.5453  -3.5446  -3.5418  -3.5401  -3.5389  -3.4721
    -3.4690  -3.4689  -3.4592  -3.4591  -3.4581  -3.4215  -3.4202  -3.4196
    -3.4178  -3.4161  -3.4151  -3.3939  -3.3235  -3.3220  -3.3214  -3.3207
    -3.3198  -3.3172  -3.3028  -3.3006  -3.2997  -3.2966  -3.2954  -3.2872
    -3.2830  -3.2828  -3.2819  -3.2695  -3.2694  -3.2663  -3.2656  -3.2641
    -3.2616  -2.9908  -2.9893  -2.9862  -2.8600  -2.8553  -2.8526  -2.8374
    -2.8223  -2.8217  -2.8215  -2.8211  -2.8207  -2.8182  -2.7566  -2.7565
    -2.7530  -2.7527  -2.7492  -2.7491  -2.4981  -2.4976  -2.4969  -2.4555
    -2.4550  -2.4513  -2.4480  -2.4468  -2.4456  -2.3750  -2.3734  -2.3689
    -2.3650  -2.3630  -2.3616  -2.1201  -2.1199  -2.1198  -1.9989  -1.9987
    -1.9983  -1.9981  -1.9975  -1.9969  -1.9964  -1.9851  -1.9833  -1.9805
    -1.9786  -1.9772  -1.9761  -1.7840  -1.7826  -1.7812  -1.7788  -1.7774
    -1.7767  -1.7742  -1.7742  -1.5739  -1.5156  -1.5142  -1.5119  -1.5115
    -1.5105  -1.5065  -1.3305  -1.3291  -1.3267  -1.3220  -1.3206  -1.3170
    -1.0131  -0.9778  -0.8947  -0.8945  -0.8944  -0.8939  -0.8935  -0.8933
    -0.7795  -0.7794  -0.7792  -0.7749  -0.5416  -0.5412  -0.5408  -0.5386
    -0.5384  -0.5375  -0.4466  -0.4442  -0.4436  -0.1346   0.0253   0.2543
     0.2954   0.2965   0.3140   0.3285   0.5577   0.6879   0.6888   0.6895
     0.6907   0.6912   0.6920   0.7057   0.7059   1.0428   1.0429   1.8375
     1.8375   1.8730   1.8734   1.8737   1.8745   1.8755   1.8758   1.9328
     1.9333   1.9336   1.9342   1.9344   1.9347   1.9946   2.0114   2.0117
     2.0120   2.0799   2.0802   2.0805   2.0811   2.0817   2.0819   2.1431
     2.1435   2.1442   2.1451   2.1454   2.1458   2.6202   2.6205   2.6216
     2.6227   2.6240   2.6252   2.8980   2.8984   2.8990   2.8999   2.9009
     2.9012   2.9566   2.9573   2.9578   2.9592   2.9593   2.9598   2.9927
     2.9930   2.9930   3.0015   3.0018   3.0021   3.0995   3.0999   3.1000
     3.1004   3.1005   3.1007   3.1129   3.1131   3.1133   3.1245   3.1246
     3.1607   3.1622   3.1644   3.1672   3.1673   3.1691   3.2378   3.2591
     3.4498   3.4507   3.4513   3.4522   3.4524   3.4532   3.4873   3.4882
     3.4891   3.4916   3.4933   3.4945   3.4961

     the Fermi energy is     0.4258 ev

!    total energy              =   -7979.48860066 Ry
     estimated scf accuracy    <       0.00000006 Ry
     smearing contrib. (-TS)   =       0.00710641 Ry
     internal energy E=F+TS    =   -7979.49570707 Ry

     The total energy is F=E-TS. E is the sum of the following terms:
     one-electron contribution =  -93691.33706123 Ry
     hartree contribution      =   46920.74358928 Ry
     xc contribution           =   -1336.03041647 Ry
     ewald contribution        =   40687.02425450 Ry
     DFT-D3 Dispersion         =      -1.52100144 Ry
     one-center paw contrib.   =    -558.37507170 Ry

     convergence has been achieved in  75 iterations

     negative rho (up, down):  5.636E-02 0.000E+00

     Forces acting on atoms (cartesian axes, Ry/au):

     atom    1 type  1   force =     0.00001612    0.00023974    0.00005368
     atom    2 type  2   force =    -0.00013749   -0.00004771   -0.00535189
     atom    3 type  2   force =     0.00006193    0.00001087    0.00533178
     atom    4 type  1   force =     0.00012475   -0.00086788    0.11954911
     atom    5 type  1   force =    -0.00019670    0.00007761   -0.11910966
     atom    6 type  3   force =    -0.00046917   -0.00021702   -0.01599269
     atom    7 type  3   force =     0.00004231   -0.00012074    0.01655210
     atom    8 type  1   force =    -0.00015560   -0.00001590   -0.00003313
     atom    9 type  2   force =     0.00019345    0.00049847   -0.00468715
     atom   10 type  2   force =     0.00001507    0.00001198    0.00520649
     atom   11 type  1   force =    -0.00049064   -0.00247089    0.11468380
     atom   12 type  1   force =    -0.00016416   -0.00010873   -0.11915016
     atom   13 type  3   force =     0.00034129    0.00064310   -0.01505812
     atom   14 type  3   force =     0.00012995    0.00002628    0.01653775
     atom   15 type  1   force =    -0.00021097   -0.00011931    0.00041075
     atom   16 type  2   force =     0.00009589   -0.00012566   -0.00454884
     atom   17 type  2   force =     0.00002408    0.00007133    0.00548458
     atom   18 type  1   force =     0.00169297    0.00206005    0.11393613
     atom   19 type  1   force =    -0.00004965   -0.00020206   -0.11959495
     atom   20 type  3   force =     0.00116202    0.00056177   -0.01085374
     atom   21 type  3   force =     0.00004120    0.00023364    0.01679313
     atom   22 type  1   force =     0.00001660    0.00016544    0.00000811
     atom   23 type  2   force =    -0.00027290   -0.00043598   -0.00452823
     atom   24 type  2   force =    -0.00004133   -0.00003475    0.00525765
     atom   25 type  1   force =     0.00075701    0.00060426    0.12018631
     atom   26 type  1   force =    -0.00000379    0.00016241   -0.11928683
     atom   27 type  3   force =     0.00032590   -0.00213044   -0.01143546
     atom   28 type  3   force =    -0.00001591   -0.00000611    0.01674264
     atom   29 type  1   force =    -0.00004088    0.00005006    0.00020262
     atom   30 type  2   force =     0.00004185    0.00015718   -0.00566712
     atom   31 type  2   force =    -0.00002028    0.00002046    0.00531968
     atom   32 type  1   force =    -0.00023724   -0.00105834    0.12104360
     atom   33 type  1   force =    -0.00002510    0.00003020   -0.11922821
     atom   34 type  3   force =    -0.00041760    0.00047061   -0.01825149
     atom   35 type  3   force =     0.00010770   -0.00005563    0.01658166
     atom   36 type  1   force =    -0.00005384   -0.00011415   -0.00005634
     atom   37 type  2   force =     0.00006849    0.00061153   -0.00419278
     atom   38 type  2   force =    -0.00002745   -0.00001628    0.00519493
     atom   39 type  1   force =     0.00047940   -0.00216009    0.11328784
     atom   40 type  1   force =     0.00008031   -0.00013190   -0.11917403
     atom   41 type  3   force =    -0.00035099    0.00131275   -0.01610006
     atom   42 type  3   force =     0.00004609   -0.00000862    0.01666200
     atom   43 type  1   force =     0.00005575   -0.00005628    0.00031001
     atom   44 type  2   force =    -0.00036400   -0.00034637   -0.00441332
     atom   45 type  2   force =    -0.00001864    0.00012969    0.00549442
     atom   46 type  1   force =     0.00162412    0.00302809    0.11875520
     atom   47 type  1   force =     0.00008040   -0.00026244   -0.11945015
     atom   48 type  3   force =     0.00031925    0.00082625   -0.00920177
     atom   49 type  3   force =    -0.00004221    0.00019580    0.01688457
     atom   50 type  1   force =     0.00010595    0.00016147   -0.00018124
     atom   51 type  2   force =    -0.00020731   -0.00033389   -0.00513884
     atom   52 type  2   force =     0.00002217   -0.00001914    0.00532100
     atom   53 type  1   force =     0.00030057   -0.00062534    0.12359147
     atom   54 type  1   force =    -0.00004431    0.00000324   -0.11921630
     atom   55 type  3   force =    -0.00093001   -0.00204325   -0.01543040
     atom   56 type  3   force =     0.00002795    0.00005408    0.01668081
     atom   57 type  1   force =    -0.00003894    0.00004871    0.00027667
     atom   58 type  2   force =     0.00011772    0.00004958   -0.00540165
     atom   59 type  2   force =    -0.00004080    0.00001040    0.00522785
     atom   60 type  1   force =    -0.00010768    0.00003482    0.11744802
     atom   61 type  1   force =     0.00016882    0.00012270   -0.11925209
     atom   62 type  3   force =     0.00043235    0.00036414   -0.01912303
     atom   63 type  3   force =    -0.00003765   -0.00006759    0.01656774
     atom   64 type  1   force =     0.00013257   -0.00010143   -0.00005332
     atom   65 type  2   force =    -0.00026083    0.00034670   -0.00422316
     atom   66 type  2   force =     0.00001888    0.00001699    0.00510875
     atom   67 type  1   force =     0.00168690   -0.00071353    0.11604765
     atom   68 type  1   force =     0.00013144   -0.00016623   -0.11897780
     atom   69 type  3   force =     0.00121762    0.00155694   -0.01473556
     atom   70 type  3   force =    -0.00013906   -0.00002886    0.01658586
     atom   71 type  1   force =     0.00017627   -0.00006083    0.00049952
     atom   72 type  2   force =    -0.00028759   -0.00039384   -0.00500615
     atom   73 type  2   force =    -0.00001889    0.00008835    0.00553617
     atom   74 type  1   force =    -0.00115054    0.00140663    0.12134517
     atom   75 type  1   force =    -0.00000611   -0.00037849   -0.11937280
     atom   76 type  3   force =    -0.00124663   -0.00081778   -0.00952543
     atom   77 type  3   force =    -0.00004019    0.00029859    0.01674244
     atom   78 type  1   force =     0.00002921    0.00003186   -0.00010485
     atom   79 type  2   force =     0.00021774   -0.00003483   -0.00565730
     atom   80 type  2   force =     0.00003692   -0.00002973    0.00530482
     atom   81 type  1   force =    -0.00151395    0.00032747    0.12101444
     atom   82 type  1   force =    -0.00001946   -0.00000630   -0.11935713
     atom   83 type  3   force =    -0.00051007   -0.00154568   -0.01915219
     atom   84 type  3   force =     0.00003923    0.00013205    0.01653796
     atom   85 type  1   force =     0.00004774    0.00025050    0.00006197
     atom   86 type  2   force =    -0.00000480   -0.00028173   -0.00463745
     atom   87 type  2   force =     0.00000407   -0.00002951    0.00517132
     atom   88 type  1   force =     0.00015105    0.00002552    0.11838711
     atom   89 type  1   force =     0.00007598    0.00011616   -0.11894539
     atom   90 type  3   force =     0.00050726    0.00009450   -0.01547432
     atom   91 type  3   force =    -0.00013325   -0.00009689    0.01659190
     atom   92 type  1   force =     0.00004042   -0.00003790   -0.00016089
     atom   93 type  2   force =     0.00005631    0.00021108   -0.00409124
     atom   94 type  2   force =    -0.00002534    0.00004802    0.00513463
     atom   95 type  1   force =    -0.00173545   -0.00079389    0.11682610
     atom   96 type  1   force =    -0.00000690   -0.00020142   -0.11876810
     atom   97 type  3   force =    -0.00117009    0.00037931   -0.01418605
     atom   98 type  3   force =    -0.00005916    0.00001929    0.01653239
     atom   99 type  1   force =    -0.00001051   -0.00006973    0.00009160
     atom  100 type  2   force =     0.00054330   -0.00023952   -0.00483026
     atom  101 type  2   force =     0.00002122    0.00013570    0.00539013
     atom  102 type  1   force =    -0.00211344    0.00118772    0.11544180
     atom  103 type  1   force =     0.00001426   -0.00038150   -0.11934350
     atom  104 type  3   force =    -0.00041676   -0.00014784   -0.01457988
     atom  105 type  3   force =     0.00001653    0.00035844    0.01665077
     atom  106 type  1   force =    -0.00020093   -0.00001313   -0.00008352
     atom  107 type  2   force =     0.00035576   -0.00034605   -0.00468609
     atom  108 type  2   force =    -0.00003735   -0.00003516    0.00522049
     atom  109 type  1   force =     0.00035874    0.00196130    0.11710823
     atom  110 type  1   force =     0.00012259    0.00007075   -0.11928080
     atom  111 type  3   force =     0.00139581   -0.00119591   -0.01659106
     atom  112 type  3   force =    -0.00008908    0.00009413    0.01666796
     atom  113 type  2   force =    -0.01469201    0.01207831   -0.00112648
     atom  114 type  4   force =    -0.00266273   -0.02913680   -0.00052238
     atom  115 type  4   force =    -0.02586260    0.02108988   -0.00083878
     atom  116 type  4   force =     0.02392738    0.03064841   -0.00164197
     atom  117 type  2   force =     0.01575235    0.01044138   -0.00131869
     atom  118 type  2   force =     0.00420044   -0.01187888   -0.00091283
     atom  119 type  2   force =     0.04919014   -0.02270304   -0.00162358
     atom  120 type  4   force =    -0.00817781   -0.00716562   -0.00006836
     atom  121 type  3   force =    -0.01530034    0.03399605   -0.00096084
     atom  122 type  4   force =    -0.01161348    0.03903828   -0.00062450
     atom  123 type  2   force =    -0.00282444   -0.02361330   -0.00199810
     atom  124 type  4   force =     0.01961239   -0.03472522   -0.00056211
     atom  125 type  2   force =    -0.01556798   -0.03882691   -0.00254917
     atom  126 type  3   force =    -0.02209862    0.01865875   -0.00009883
     atom  127 type  5   force =     0.01126629   -0.00598916   -0.00103906
     atom  128 type  5   force =    -0.00283095    0.00384492    0.00222022
     atom  129 type  5   force =    -0.00312365    0.00344773   -0.00350677
     atom  130 type  5   force =     0.00127347   -0.00171886   -0.00117075
     atom  131 type  5   force =     0.00272429    0.00381198   -0.00138897
     atom  132 type  5   force =    -0.00329979   -0.00115440   -0.00091741

     Total force =     0.492204     Total SCF correction =     0.000432

     BFGS Geometry Optimization
     Energy error            =      9.7E+00 Ry
     Gradient error          =      1.2E-01 Ry/Bohr

     number of scf cycles    =   1
     number of bfgs steps    =   0

     energy             new  =   -7979.4886006579 Ry

     new trust radius        =       0.1235934168 bohr
     new conv_thr            =       0.0000001000 Ry


ATOMIC_POSITIONS (angstrom)
Ti               0.0000000000        0.0000000000       13.3000000000    0   0   0
C                1.5150000000        0.8746860000       14.4500000000    0   0   0
C                3.0300000000        1.7493710000       12.1500000000    0   0   0
Ti               3.0300660153        1.7489117383       15.6932626659
Ti               1.5150000000        0.8746860000       10.9700000000    0   0   0
O               -0.0002482741       -0.0001148397       16.5915370352
O                0.0000000000        0.0000000000       10.0000000000    0   0   0
Ti               1.5150000000        2.6240570000       13.3000000000    0   0   0
C                3.0300000000        3.4987430000       14.4500000000    0   0   0
C                4.5450000000        4.3734280000       12.1500000000    0   0   0
Ti               4.5447403630        4.3721204627       15.6906880509
Ti               3.0300000000        3.4987430000       10.9700000000    0   0   0
O                1.5151806040        2.6243973138       16.5920315887
O                1.5150000000        2.6240570000       10.0000000000    0   0   0
Ti               3.0300000000        5.2481140000       13.3000000000    0   0   0
C                4.5450000000        6.1228000000       14.4500000000    0   0   0
C                6.0600000000        6.9974850000       12.1500000000    0   0   0
Ti               6.0608958836        6.9985751323       15.6902924038
Ti               4.5450000000        6.1228000000       10.9700000000    0   0   0
O                3.0306149133        5.2484112774       16.5942564506
O                3.0300000000        5.2481140000       10.0000000000    0   0   0
Ti               4.5450000000        7.8721710000       13.3000000000    0   0   0
C                6.0600000000        8.7468570000       14.4500000000    0   0   0
C                7.5750000000        9.6215420000       12.1500000000    0   0   0
Ti               7.5754005917        9.6218617585       15.6935998551
Ti               6.0600000000        8.7468570000       10.9700000000    0   0   0
O                4.5451724589        7.8710436189       16.5939486141
O                4.5450000000        7.8721710000       10.0000000000    0   0   0
Ti               3.0300000000        0.0000000000       13.3000000000    0   0   0
C                4.5450000000        0.8746860000       14.4500000000    0   0   0
C                6.0600000000        1.7493710000       12.1500000000    0   0   0
Ti               6.0598744572        1.7488109493       15.6940535165
Ti               4.5450000000        0.8746860000       10.9700000000    0   0   0
O                3.0297790135        0.0002490348       16.5903417248
O                3.0300000000        0.0000000000       10.0000000000    0   0   0
Ti               4.5450000000        2.6240570000       13.3000000000    0   0   0
C                6.0600000000        3.4987430000       14.4500000000    0   0   0
C                7.5750000000        4.3734280000       12.1500000000    0   0   0
Ti               7.5752536870        4.3722849279       15.6899493424
Ti               6.0600000000        3.4987430000       10.9700000000    0   0   0
O                4.5448142656        2.6247516786       16.5914802146
O                4.5450000000        2.6240570000       10.0000000000    0   0   0
Ti               6.0600000000        5.2481140000       13.3000000000    0   0   0
C                7.5750000000        6.1228000000       14.4500000000    0   0   0
C                9.0900000000        6.9974850000       12.1500000000    0   0   0
Ti               9.0908594485        6.9990873939       15.6928425448
Ti               7.5750000000        6.1228000000       10.9700000000    0   0   0
O                6.0601689411        5.2485512336       16.5951306331
O                6.0600000000        5.2481140000       10.0000000000    0   0   0
Ti               7.5750000000        7.8721710000       13.3000000000    0   0   0
C                9.0900000000        8.7468570000       14.4500000000    0   0   0
C               10.6050000000        9.6215420000       12.1500000000    0   0   0
Ti              10.6051590550        9.6212110859       15.6954017890
Ti               9.0900000000        8.7468570000       10.9700000000    0   0   0
O                7.5745078606        7.8710897588       16.5918345845
O                7.5750000000        7.8721710000       10.0000000000    0   0   0
Ti               6.0600000000        0.0000000000       13.3000000000    0   0   0
C                7.5750000000        0.8746860000       14.4500000000    0   0   0
C                9.0900000000        1.7493710000       12.1500000000    0   0   0
Ti               9.0899430171        1.7493894238       15.6921508132
Ti               7.5750000000        0.8746860000       10.9700000000    0   0   0
O                6.0602287922        0.0001926971       16.5898805297
O                6.0600000000        0.0000000000       10.0000000000    0   0   0
Ti               7.5750000000        2.6240570000       13.3000000000    0   0   0
C                9.0900000000        3.4987430000       14.4500000000    0   0   0
C               10.6050000000        4.3734280000       12.1500000000    0   0   0
Ti              10.6058926692        4.3730504153       15.6914097724
Ti               9.0900000000        3.4987430000       10.9700000000    0   0   0
O                7.5756443390        2.6248808988       16.5922022795
O                7.5750000000        2.6240570000       10.0000000000    0   0   0
Ti               9.0900000000        5.2481140000       13.3000000000    0   0   0
C               10.6050000000        6.1228000000       14.4500000000    0   0   0
C               12.1200000000        6.9974850000       12.1500000000    0   0   0
Ti              12.1193911612        6.9982293583       15.6942130986
Ti              10.6050000000        6.1228000000       10.9700000000    0   0   0
O                9.0893403113        5.2476812503       16.5949593592
O                9.0900000000        5.2481140000       10.0000000000    0   0   0
Ti              10.6050000000        7.8721710000       13.3000000000    0   0   0
C               12.1200000000        8.7468570000       14.4500000000    0   0   0
C               13.6350000000        9.6215420000       12.1500000000    0   0   0
Ti              13.6341988522        9.6217152886       15.6940380840
Ti              12.1200000000        8.7468570000       10.9700000000    0   0   0
O               10.6047300823        7.8713530617       16.5898650984
O               10.6050000000        7.8721710000       10.0000000000    0   0   0
Ti               9.0900000000        0.0000000000       13.3000000000    0   0   0
C               10.6050000000        0.8746860000       14.4500000000    0   0   0
C               12.1200000000        1.7493710000       12.1500000000    0   0   0
Ti              12.1200799325        1.7493845020       15.6926477596
Ti              10.6050000000        0.8746860000       10.9700000000    0   0   0
O                9.0902684323        0.0000500068       16.5918113407
O                9.0900000000        0.0000000000       10.0000000000    0   0   0
Ti              10.6050000000        2.6240570000       13.3000000000    0   0   0
C               12.1200000000        3.4987430000       14.4500000000    0   0   0
C               13.6350000000        4.3734280000       12.1500000000    0   0   0
Ti              13.6340816377        4.3730078933       15.6918217095
Ti              12.1200000000        3.4987430000       10.9700000000    0   0   0
O               10.6043808124        2.6242577208       16.5924930647
O               10.6050000000        2.6240570000       10.0000000000    0   0   0
Ti              12.1200000000        5.2481140000       13.3000000000    0   0   0
C               13.6350000000        6.1228000000       14.4500000000    0   0   0
C               15.1500000000        6.9974850000       12.1500000000    0   0   0
Ti              15.1488816145        6.9981135170       15.6910891720
Ti              13.6350000000        6.1228000000       10.9700000000    0   0   0
O               12.1197794579        5.2480357656       16.5922846624
O               12.1200000000        5.2481140000       10.0000000000    0   0   0
Ti              13.6350000000        7.8721710000       13.3000000000    0   0   0
C               15.1500000000        8.7468570000       14.4500000000    0   0   0
C               16.6650000000        9.6215420000       12.1500000000    0   0   0
Ti              16.6651898368        9.6225798766       15.6919710050
Ti              15.1500000000        8.7468570000       10.9700000000    0   0   0
O               13.6357386313        7.8715381496       16.5912203868
O               13.6350000000        7.8721710000       10.0000000000    0   0   0
C                5.4177213218        5.7873575678       20.0930748923
N                6.8647449414        5.6210404680       20.0933935704
N                7.5586211028        6.8297912822       20.0932291367
N                8.8375558241        6.8227184379       20.0928061077
C                9.5087077826        5.6446873401       20.0929761807
C               10.8386407765        5.2743639650       20.0931899517
C               12.0117993001        6.1655990665       20.0928128370
N               13.1804364898        5.5194421152       20.0936338237
O               11.9121714113        7.4187469340       20.0931655466
N               10.9574684126        3.9132961682       20.0933425302
C                9.7271383700        3.4277213776       20.0926156510
N                8.8237804308        4.4409312026       20.0933755447
C                7.4273447800        4.3561196824       20.0923230349
O                6.8808649139        3.2917497875       20.0936197038
H                4.9310718621        4.8057316711       20.0930941515
H                5.1250149239        6.3386786444       20.9885448890
H                5.1248630337        6.3385154580       19.1981442998
H               13.2020538889        4.5091574177       20.0930494643
H               14.0419386311        6.0582452155       20.0929349888
H                9.4280038267        2.3984601181       20.0931875272



     Writing config-only to output data dir ./tmp/c_Temozolomide.save/ :
     XML data file
     NEW-OLD atomic charge density approx. for the potential

     Check: negative core charge=   -0.000004

     negative rho (up, down):  5.482E-02 0.000E+00

     total cpu time spent up to now is    32370.0 secs

     per-process dynamical memory:   360.7 Mb

     Self-consistent Calculation

     iteration #  1     ecut=    50.00 Ry     beta= 0.20
     Davidson diagonalization with overlap
     c_bands:  1 eigenvalues not converged
     ethr =  1.00E-06,  avg # of iterations = 40.0

     negative rho (up, down):  5.497E-02 0.000E+00

     total cpu time spent up to now is    32646.7 secs

     total energy              =   -7979.70036265 Ry
     estimated scf accuracy    <       0.85666820 Ry

     iteration #  2     ecut=    50.00 Ry     beta= 0.20
     Davidson diagonalization with overlap
     ethr =  8.85E-05,  avg # of iterations =  1.0

     negative rho (up, down):  5.954E-02 0.000E+00

     total cpu time spent up to now is    32711.4 secs

     total energy              =   -7979.60890292 Ry
     estimated scf accuracy    <       0.56733959 Ry

     iteration #  3     ecut=    50.00 Ry     beta= 0.20
     Davidson diagonalization with overlap
     ethr =  5.86E-05,  avg # of iterations =  2.0

     negative rho (up, down):  5.933E-02 0.000E+00

     total cpu time spent up to now is    32783.9 secs

     total energy              =   -7979.65396794 Ry
     estimated scf accuracy    <       0.06250509 Ry

     iteration #  4     ecut=    50.00 Ry     beta= 0.20
     Davidson diagonalization with overlap
     c_bands:  2 eigenvalues not converged
     ethr =  6.46E-06,  avg # of iterations = 20.0

     negative rho (up, down):  6.354E-02 0.000E+00

     total cpu time spent up to now is    32896.9 secs

     total energy              =   -7979.65335987 Ry
     estimated scf accuracy    <       0.05074382 Ry

     iteration #  5     ecut=    50.00 Ry     beta= 0.20
     Davidson diagonalization with overlap
     ethr =  5.24E-06,  avg # of iterations =  2.0

     negative rho (up, down):  6.591E-02 0.000E+00

     total cpu time spent up to now is    32969.4 secs

     total energy              =   -7979.65435737 Ry
     estimated scf accuracy    <       0.01826755 Ry

     iteration #  6     ecut=    50.00 Ry     beta= 0.20
     Davidson diagonalization with overlap
     ethr =  1.89E-06,  avg # of iterations = 16.0

     negative rho (up, down):  6.558E-02 0.000E+00

     total cpu time spent up to now is    33077.8 secs

     total energy              =   -7979.65748751 Ry
     estimated scf accuracy    <       0.02216749 Ry

     iteration #  7     ecut=    50.00 Ry     beta= 0.20
     Davidson diagonalization with overlap
     ethr =  1.89E-06,  avg # of iterations =  1.0

     negative rho (up, down):  6.495E-02 0.000E+00

     total cpu time spent up to now is    33147.4 secs

     total energy              =   -7979.65765499 Ry
     estimated scf accuracy    <       0.02586187 Ry

     iteration #  8     ecut=    50.00 Ry     beta= 0.20
     Davidson diagonalization with overlap
     ethr =  1.89E-06,  avg # of iterations =  1.0

     negative rho (up, down):  6.328E-02 0.000E+00

     total cpu time spent up to now is    33214.0 secs

     total energy              =   -7979.65244163 Ry
     estimated scf accuracy    <       0.02429052 Ry

     iteration #  9     ecut=    50.00 Ry     beta= 0.20
     Davidson diagonalization with overlap
     ethr =  1.89E-06,  avg # of iterations =  5.0

     negative rho (up, down):  6.211E-02 0.000E+00

     total cpu time spent up to now is    33305.4 secs

     total energy              =   -7979.65709395 Ry
     estimated scf accuracy    <       0.01306577 Ry

     iteration # 10     ecut=    50.00 Ry     beta= 0.20
     Davidson diagonalization with overlap
     ethr =  1.35E-06,  avg # of iterations =  5.0

     negative rho (up, down):  6.120E-02 0.000E+00

     total cpu time spent up to now is    33380.2 secs

     total energy              =   -7979.65821280 Ry
     estimated scf accuracy    <       0.02120684 Ry

     iteration # 11     ecut=    50.00 Ry     beta= 0.20
     Davidson diagonalization with overlap
     ethr =  1.35E-06,  avg # of iterations =  2.0

     negative rho (up, down):  6.091E-02 0.000E+00

     total cpu time spent up to now is    33455.8 secs

     total energy              =   -7979.65881908 Ry
     estimated scf accuracy    <       0.02300943 Ry

     iteration # 12     ecut=    50.00 Ry     beta= 0.20
     Davidson diagonalization with overlap
     ethr =  1.35E-06,  avg # of iterations =  1.0

     negative rho (up, down):  6.564E-02 0.000E+00

     total cpu time spent up to now is    33533.7 secs

     total energy              =   -7979.65502048 Ry
     estimated scf accuracy    <       0.02511691 Ry

     iteration # 13     ecut=    50.00 Ry     beta= 0.20
     Davidson diagonalization with overlap
     ethr =  1.35E-06,  avg # of iterations =  4.0

     negative rho (up, down):  6.643E-02 0.000E+00

     total cpu time spent up to now is    33617.1 secs

     total energy              =   -7979.65510625 Ry
     estimated scf accuracy    <       0.01399586 Ry

     iteration # 14     ecut=    50.00 Ry     beta= 0.20
     Davidson diagonalization with overlap
     ethr =  1.35E-06,  avg # of iterations =  1.0

     negative rho (up, down):  6.744E-02 0.000E+00

     total cpu time spent up to now is    33686.5 secs

     total energy              =   -7979.65468164 Ry
     estimated scf accuracy    <       0.01395967 Ry

     iteration # 15     ecut=    50.00 Ry     beta= 0.20
     Davidson diagonalization with overlap
     ethr =  1.35E-06,  avg # of iterations =  1.0

     negative rho (up, down):  6.988E-02 0.000E+00

     total cpu time spent up to now is    33755.3 secs

     total energy              =   -7979.65327869 Ry
     estimated scf accuracy    <       0.01354500 Ry

     iteration # 16     ecut=    50.00 Ry     beta= 0.20
     Davidson diagonalization with overlap
     ethr =  1.35E-06,  avg # of iterations =  4.0

     negative rho (up, down):  7.022E-02 0.000E+00

     total cpu time spent up to now is    33831.4 secs

     total energy              =   -7979.65272921 Ry
     estimated scf accuracy    <       0.01327304 Ry

     iteration # 17     ecut=    50.00 Ry     beta= 0.20
     Davidson diagonalization with overlap
     ethr =  1.35E-06,  avg # of iterations =  2.0

     negative rho (up, down):  6.445E-02 0.000E+00

     total cpu time spent up to now is    33905.7 secs

     total energy              =   -7979.65693093 Ry
     estimated scf accuracy    <       0.02061027 Ry

     iteration # 18     ecut=    50.00 Ry     beta= 0.20
     Davidson diagonalization with overlap
     ethr =  1.35E-06,  avg # of iterations =  5.0

     negative rho (up, down):  5.988E-02 0.000E+00

     total cpu time spent up to now is    33990.2 secs

     total energy              =   -7979.65663037 Ry
     estimated scf accuracy    <       0.01087939 Ry

     iteration # 19     ecut=    50.00 Ry     beta= 0.20
     Davidson diagonalization with overlap
     ethr =  1.12E-06,  avg # of iterations =  5.0

     negative rho (up, down):  6.059E-02 0.000E+00

     total cpu time spent up to now is    34079.6 secs

     total energy              =   -7979.65597157 Ry
     estimated scf accuracy    <       0.01639479 Ry

     iteration # 20     ecut=    50.00 Ry     beta= 0.20
     Davidson diagonalization with overlap
     ethr =  1.12E-06,  avg # of iterations =  1.0

     negative rho (up, down):  5.815E-02 0.000E+00

     total cpu time spent up to now is    34153.0 secs

     total energy              =   -7979.65712700 Ry
     estimated scf accuracy    <       0.01409653 Ry

     iteration # 21     ecut=    50.00 Ry     beta= 0.20
     Davidson diagonalization with overlap
     ethr =  1.12E-06,  avg # of iterations =  2.0

     negative rho (up, down):  5.742E-02 0.000E+00

     total cpu time spent up to now is    34260.9 secs

     total energy              =   -7979.65788100 Ry
     estimated scf accuracy    <       0.01667613 Ry

     iteration # 22     ecut=    50.00 Ry     beta= 0.20
     Davidson diagonalization with overlap
     ethr =  1.12E-06,  avg # of iterations =  1.0

     negative rho (up, down):  5.726E-02 0.000E+00

     total cpu time spent up to now is    34336.9 secs

     total energy              =   -7979.65761678 Ry
     estimated scf accuracy    <       0.01810072 Ry

     iteration # 23     ecut=    50.00 Ry     beta= 0.20
     Davidson diagonalization with overlap
     ethr =  1.12E-06,  avg # of iterations =  1.0

     negative rho (up, down):  6.072E-02 0.000E+00

     total cpu time spent up to now is    34407.4 secs

     total energy              =   -7979.65418756 Ry
     estimated scf accuracy    <       0.01748290 Ry

     iteration # 24     ecut=    50.00 Ry     beta= 0.20
     Davidson diagonalization with overlap
     ethr =  1.12E-06,  avg # of iterations =  4.0

     negative rho (up, down):  5.760E-02 0.000E+00

     total cpu time spent up to now is    34490.0 secs

     total energy              =   -7979.65680968 Ry
     estimated scf accuracy    <       0.01010616 Ry

     iteration # 25     ecut=    50.00 Ry     beta= 0.20
     Davidson diagonalization with overlap
     ethr =  1.04E-06,  avg # of iterations =  2.0

     negative rho (up, down):  5.733E-02 0.000E+00

     total cpu time spent up to now is    34563.7 secs

     total energy              =   -7979.65731411 Ry
     estimated scf accuracy    <       0.01509960 Ry

     iteration # 26     ecut=    50.00 Ry     beta= 0.20
     Davidson diagonalization with overlap
     ethr =  1.04E-06,  avg # of iterations =  1.0

     negative rho (up, down):  5.839E-02 0.000E+00

     total cpu time spent up to now is    34638.9 secs

     total energy              =   -7979.65541958 Ry
     estimated scf accuracy    <       0.01602135 Ry

     iteration # 27     ecut=    50.00 Ry     beta= 0.20
     Davidson diagonalization with overlap
     ethr =  1.04E-06,  avg # of iterations =  2.0

     negative rho (up, down):  6.155E-02 0.000E+00

     total cpu time spent up to now is    34719.3 secs

     total energy              =   -7979.65199937 Ry
     estimated scf accuracy    <       0.01219214 Ry

     iteration # 28     ecut=    50.00 Ry     beta= 0.20
     Davidson diagonalization with overlap
     ethr =  1.04E-06,  avg # of iterations =  5.0

     negative rho (up, down):  6.797E-02 0.000E+00

     total cpu time spent up to now is    34798.8 secs

     total energy              =   -7979.65134854 Ry
     estimated scf accuracy    <       0.00933667 Ry

     iteration # 29     ecut=    50.00 Ry     beta= 0.20
     Davidson diagonalization with overlap
     ethr =  9.65E-07,  avg # of iterations =  2.0

     negative rho (up, down):  5.929E-02 0.000E+00

     total cpu time spent up to now is    34874.6 secs

     total energy              =   -7979.65115729 Ry
     estimated scf accuracy    <       0.02785712 Ry

     iteration # 30     ecut=    50.00 Ry     beta= 0.20
     Davidson diagonalization with overlap
     ethr =  9.65E-07,  avg # of iterations =  2.0

     negative rho (up, down):  5.924E-02 0.000E+00

     total cpu time spent up to now is    34951.4 secs

     total energy              =   -7979.65387450 Ry
     estimated scf accuracy    <       0.02592355 Ry

     iteration # 31     ecut=    50.00 Ry     beta= 0.20
     Davidson diagonalization with overlap
     ethr =  9.65E-07,  avg # of iterations =  2.0

     negative rho (up, down):  5.759E-02 0.000E+00

     total cpu time spent up to now is    35024.6 secs

     total energy              =   -7979.65472321 Ry
     estimated scf accuracy    <       0.00563314 Ry

     iteration # 32     ecut=    50.00 Ry     beta= 0.20
     Davidson diagonalization with overlap
     ethr =  5.82E-07,  avg # of iterations =  5.0

     negative rho (up, down):  5.578E-02 0.000E+00

     total cpu time spent up to now is    35101.4 secs

     total energy              =   -7979.65765243 Ry
     estimated scf accuracy    <       0.01016005 Ry

     iteration # 33     ecut=    50.00 Ry     beta= 0.20
     Davidson diagonalization with overlap
