      -----------------------------------------------------------      
     |                   =====================                   |     
     |                           x T B                           |     
     |                   =====================                   |     
     |                         S. Grimme                         |     
     |          Mulliken Center for Theoretical Chemistry        |     
     |                    University of Bonn                     |     
      -----------------------------------------------------------      

   * xtb version 6.7.1pre (5071a88) compiled by 'Marcel@Raven' on 2024-07-23

   xtb is free software: you can redistribute it and/or modify it under
   the terms of the GNU Lesser General Public License as published by
   the Free Software Foundation, either version 3 of the License, or
   (at your option) any later version.
   
   xtb is distributed in the hope that it will be useful,
   but WITHOUT ANY WARRANTY; without even the implied warranty of
   MERCHANTABILITY or FITNESS FOR A PARTICULAR PURPOSE.  See the
   GNU Lesser General Public License for more details.
   
   Cite this work as:
   * C. Bannwarth, E. Caldeweyher, S. Ehlert, A. Hansen, P. Pracht,
     J. Seibert, S. Spicher, S. Grimme, WIREs Comput. Mol. Sci., 2020, 11,
     e01493. DOI: 10.1002/wcms.1493
   
   for GFN2-xTB:
   * C. Bannwarth, S. Ehlert and S. Grimme., J. Chem. Theory Comput., 2019,
     15, 1652-1671. DOI: 10.1021/acs.jctc.8b01176
   for GFN1-xTB:
   * S. Grimme, C. Bannwarth, P. Shushkov, J. Chem. Theory Comput., 2017,
     13, 1989-2009. DOI: 10.1021/acs.jctc.7b00118
   for GFN0-xTB:
   * P. Pracht, E. Caldeweyher, S. Ehlert, S. Grimme, ChemRxiv, 2019, preprint.
     DOI: 10.26434/chemrxiv.8326202.v1
   for GFN-FF:
   * S. Spicher and S. Grimme, Angew. Chem. Int. Ed., 2020, 59, 15665-15673.
     DOI: 10.1002/anie.202004239
   
   for ALPB and GBSA implicit solvation:
   * S. Ehlert, M. Stahn, S. Spicher, S. Grimme, J. Chem. Theory Comput.,
     2021, 17, 4250-4261. DOI: 10.1021/acs.jctc.1c00471
   
   for ddCOSMO and CPCM-X implicit solvation:
   * M. Stahn, S. Ehlert, S. Grimme, J. Phys. Chem. A,
     2023, XX, XXXX-XXXX. DOI: 10.1021/acs.jpca.3c04382
   
   for DFT-D4:
   * E. Caldeweyher, C. Bannwarth and S. Grimme, J. Chem. Phys., 2017,
     147, 034112. DOI: 10.1063/1.4993215
   * E. Caldeweyher, S. Ehlert, A. Hansen, H. Neugebauer, S. Spicher,
     C. Bannwarth and S. Grimme, J. Chem. Phys., 2019, 150, 154122.
     DOI: 10.1063/1.5090222
   * E. Caldeweyher, J.-M. Mewes, S. Ehlert and S. Grimme, Phys. Chem. Chem. Phys.
     2020, 22, 8499-8512. DOI: 10.1039/D0CP00502A
   
   for sTDA-xTB:
   * S. Grimme and C. Bannwarth, J. Chem. Phys., 2016, 145, 054103.
     DOI: 10.1063/1.4959605
   
   in the mass-spec context:
   * V. Asgeirsson, C. Bauer and S. Grimme, Chem. Sci., 2017, 8, 4879.
     DOI: 10.1039/c7sc00601b
   * J. Koopman and S. Grimme, ACS Omega 2019, 4, 12, 15120-15133.
     DOI: 10.1021/acsomega.9b02011
   
   for metadynamics refer to:
   * S. Grimme, J. Chem. Theory Comput., 2019, 155, 2847-2862
     DOI: 10.1021/acs.jctc.9b00143
   
   for SPH calculations refer to:
   * S. Spicher and S. Grimme, J. Chem. Theory Comput., 2021, 17, 1701-1714
     DOI: 10.1021/acs.jctc.0c01306
   
   for ONIOM refer to:
   * C. Plett, A. Katbashev, S. Ehlert, S. Grimme, M. Bursch,
     Phys. Chem. Chem. Phys., 2023, 25, 17860-17868. DOI: 10.1039/D3CP02178E
   
   for DIPRO refer to:
   * J. Kohn, N. Gildemeister, S. Grimme, D. Fazzi, A. Hansen,
     J. Chem. Phys., 2023, just accepted.
   
   for PTB refer to:
   * S. Grimme, M. Mueller, A. Hansen, J. Chem. Phys., 2023, 158, 124111.
     DOI: 10.1063/5.0137838
   
   with help from (in alphabetical order)
   P. Atkinson, C. Bannwarth, F. Bohle, G. Brandenburg, E. Caldeweyher
   M. Checinski, S. Dohm, S. Ehlert, S. Ehrlich, I. Gerasimov, C. Hölzer
   A. Katbashev, J. Kohn, J. Koopman, C. Lavigne, S. Lehtola, F. März, M. Müller,
   F. Musil, H. Neugebauer, J. Pisarek, C. Plett, P. Pracht, F. Pultar,
   J. Seibert, P. Shushkov, S. Spicher, M. Stahn, M. Steiner, T. Strunk,
   J. Stückrath, T. Rose, and J. Unsleber
   
 * started run on 2026/08/31 at 21:19:09.617     
   ID    Z sym.   atoms
    1    6 C      1, 3-5, 7, 9, 11-14, 16, 17, 19, 20, 22-24, 26-29, 31-33,
                  73-79
    2    8 O      2, 25, 80-93
    3    7 N      6, 8, 10, 15, 18, 30
    4    9 F      21
    5    1 H      34-60
    6   22 Ti     61-72

           -------------------------------------------------
          |                Calculation Setup                |
           -------------------------------------------------

          program call               : "c:\Users\Andre\Proyectos doctorado\kras-pancreatic-gC3N4-ai\tools\xtb\xtb-6.7.1\bin\xtb.exe" "c:\Users\Andre\Proyectos doctorado\mxene-glioblastoma-qsar-ai\calculations\gbm\Cediranib\Cediranib_Ti12C7O14_phys_complex.xyz" --gfn 2 --sp --chrg 0 --uhf 0 --etemp 300 --iterations 500 --norestart
          coordinate file            : c:\Users\Andre\Proyectos doctorado\mxene-glioblastoma-qsar-ai\calculations\gbm\Cediranib\Cediranib_Ti12C7O14_phys_complex.xyz
          omp threads                :                    16


molecular fragmentation (1/2 indicates fragments):
111111111111111111111111111111111111111111111111111111111111222222222222
222222222222222222222
# atoms in fragment 1/2:    60    33
 fragment masses (1/2) :      450.51      882.47
CMA distance (Bohr)    :  17.643
constraining FC (au)   :  0.0500

           -------------------------------------------------
          |                 G F N 2 - x T B                 |
           -------------------------------------------------

        Reference                      10.1021/acs.jctc.8b01176
      * Hamiltonian:
        H0-scaling (s, p, d)           1.850000    2.230000    2.230000
        zeta-weighting                 0.500000
      * Dispersion:
        s8                             2.700000
        a1                             0.520000
        a2                             5.000000
        s9                             5.000000
      * Repulsion:
        kExp                           1.500000    1.000000
        rExp                           1.000000
      * Coulomb:
        alpha                          2.000000
        third order                    shell-resolved
        anisotropic                    true
        a3                             3.000000
        a5                             4.000000
        cn-shift                       1.200000
        cn-exp                         4.000000
        max-rad                        5.000000


          ...................................................
          :                      SETUP                      :
          :.................................................:
          :  # basis functions                 363          :
          :  # atomic orbitals                 351          :
          :  # shells                          171          :
          :  # electrons                       332          :
          :  max. iterations                   500          :
          :  Hamiltonian                  GFN2-xTB          :
          :  restarted?                      false          :
          :  GBSA solvation                  false          :
          :  PC potential                    false          :
          :  electronic temp.          300.0000000     K    :
          :  accuracy                    1.0000000          :
          :  -> integral cutoff          0.2500000E+02      :
          :  -> integral neglect         0.1000000E-07      :
          :  -> SCF convergence          0.1000000E-05 Eh   :
          :  -> wf. convergence          0.1000000E-03 e    :
          :  Broyden damping             0.4000000          :
          :  net charge                          0          :
          :  unpaired electrons                  0          :
          ...................................................

 iter      E             dE          RMSdq      gap      omega  full diag
   1   -186.5615336 -0.186562E+03  0.131E+01    0.11       0.0  T
   2   -146.2312383  0.403303E+02  0.146E+01    0.08       1.0  T
   3    -19.6012956  0.126630E+03  0.267E+01    0.08       1.0  T
   4   -161.1595440 -0.141558E+03  0.120E+01    0.16       1.0  T
   5    -73.8699008  0.872896E+02  0.167E+01    0.02       1.0  T
   6   -188.1584218 -0.114289E+03  0.662E+00    0.02       1.0  T
   7   -188.1145903  0.438315E-01  0.656E+00    0.33       1.0  T
   8   -188.9336920 -0.819102E+00  0.536E+00    0.09       1.0  T
   9   -188.2725736  0.661118E+00  0.561E+00    0.17       1.0  T
  10   -188.2259043  0.466693E-01  0.471E+00    0.20       1.0  T
  11   -188.5484036 -0.322499E+00  0.388E+00    0.04       1.0  T
  12   -188.9322395 -0.383836E+00  0.328E+00    0.02       1.0  T
  13   -189.2242947 -0.292055E+00  0.276E+00    0.00       1.0  T
  14   -189.4244573 -0.200163E+00  0.241E+00    0.36       1.0  T
  15   -189.4258123 -0.135508E-02  0.223E+00    0.08       1.0  T
  16   -188.9960994  0.429713E+00  0.220E+00    0.07       1.0  T
  17   -189.4827924 -0.486693E+00  0.148E+00    0.32       1.0  T
  18   -189.5109048 -0.281124E-01  0.108E+00    0.16       1.0  T
  19   -189.5261195 -0.152147E-01  0.909E-01    0.23       1.0  T
  20   -189.5375144 -0.113949E-01  0.825E-01    0.33       1.0  T
  21   -189.5438924 -0.637801E-02  0.721E-01    0.41       1.0  T
  22   -189.5539015 -0.100091E-01  0.565E-01    0.48       1.0  T
  23   -189.5588464 -0.494483E-02  0.457E-01    0.53       1.0  T
  24   -189.5631021 -0.425576E-02  0.329E-01    0.57       1.0  T
  25   -189.5659140 -0.281185E-02  0.220E-01    0.56       1.0  T
  26   -189.5675434 -0.162948E-02  0.125E-01    0.63       1.0  T
  27   -189.5678321 -0.288666E-03  0.125E-01    0.63       1.0  T
  28   -189.5678594 -0.273056E-04  0.976E-02    0.62       1.0  T
  29   -189.5678819 -0.224620E-04  0.491E-02    0.58       1.0  T
  30   -189.5679062 -0.243530E-04  0.373E-02    0.57       1.0  T
  31   -189.5679216 -0.153449E-04  0.330E-02    0.59       1.0  T
  32   -189.5679389 -0.173487E-04  0.258E-02    0.59       1.0  T
  33   -189.5679463 -0.741867E-05  0.213E-02    0.60       1.0  T
  34   -189.5679460  0.312239E-06  0.182E-02    0.61       1.0  T
  35   -189.5679510 -0.497763E-05  0.117E-02    0.61       1.0  T
  36   -189.5679558 -0.476262E-05  0.728E-03    0.60       1.4  T
  37   -189.5679576 -0.182951E-05  0.451E-03    0.60       2.3  T
  38   -189.5679579 -0.303419E-06  0.328E-03    0.60       3.2  T
  39   -189.5679581 -0.166092E-06  0.283E-03    0.61       3.7  T
  40   -189.5679583 -0.217661E-06  0.231E-03    0.60       4.5  T
  41   -189.5679584 -0.131160E-06  0.186E-03    0.61       5.6  T
  42   -189.5679585 -0.128178E-06  0.142E-03    0.61       7.3  T
  43   -189.5679586 -0.729662E-07  0.105E-03    0.61       9.9  T
  44   -189.5679587 -0.476504E-07  0.706E-04    0.61      14.7  T
  45   -189.5679587 -0.290796E-07  0.491E-04    0.61      21.1  T

   *** convergence criteria satisfied after 45 iterations ***

         #    Occupation            Energy/Eh            Energy/eV
      -------------------------------------------------------------
         1        2.0000           -0.8179688             -22.2581
       ...           ...                  ...                  ...
       160        2.0000           -0.3487765              -9.4907
       161        2.0000           -0.3468805              -9.4391
       162        2.0000           -0.3428764              -9.3301
       163        2.0000           -0.3401741              -9.2566
       164        2.0000           -0.3355665              -9.1312
       165        2.0000           -0.3200085              -8.7079
       166        2.0000           -0.3053568              -8.3092 (HOMO)
       167        0.0000           -0.2830804              -7.7030 (LUMO)
       168        0.0000           -0.2827117              -7.6930
       169        0.0000           -0.2815156              -7.6604
       170        0.0000           -0.2808636              -7.6427
       171                         -0.2772838              -7.5453
       ...                                ...                  ...
       351                         13.3404264             363.0115
      -------------------------------------------------------------
                  HL-Gap            0.0222764 Eh            0.6062 eV
             Fermi-level           -0.2945411 Eh           -8.0149 eV

 SCC (total)                   0 d,  0 h,  0 min,  0.929 sec
 SCC setup                      ...        0 min,  0.000 sec (  0.000%)
 Dispersion                     ...        0 min,  0.002 sec (  0.215%)
 classical contributions        ...        0 min,  0.001 sec (  0.108%)
 integral evaluation            ...        0 min,  0.008 sec (  0.861%)
 iterations                     ...        0 min,  0.895 sec ( 96.340%)
 molecular gradient             ...        0 min,  0.021 sec (  2.260%)
 printout                       ...        0 min,  0.002 sec (  0.215%)

         :::::::::::::::::::::::::::::::::::::::::::::::::::::
         ::                     SUMMARY                     ::
         :::::::::::::::::::::::::::::::::::::::::::::::::::::
         :: total energy            -187.662519796256 Eh    ::
         :: gradient norm              0.110914914161 Eh/a0 ::
         :: HOMO-LUMO gap              0.606171433317 eV    ::
         ::.................................................::
         :: SCC energy              -189.565721841489 Eh    ::
         :: -> isotropic ES            0.993269514137 Eh    ::
         :: -> anisotropic ES         -0.369706433035 Eh    ::
         :: -> anisotropic XC         -0.019873968609 Eh    ::
         :: -> dispersion             -0.154257697553 Eh    ::
         :: repulsion energy           1.903202045233 Eh    ::
         :: add. restraining           0.000000000000 Eh    ::
         :: total charge              -0.000000000029 e     ::
         :::::::::::::::::::::::::::::::::::::::::::::::::::::

           -------------------------------------------------
          |                Property Printout                |
           -------------------------------------------------

    * Orbital Energies and Occupations

         #    Occupation            Energy/Eh            Energy/eV
      -------------------------------------------------------------
         1        2.0000           -0.8179688             -22.2581
       ...           ...                  ...                  ...
       154        2.0000           -0.3744347             -10.1889
       155        2.0000           -0.3661072              -9.9623
       156        2.0000           -0.3638679              -9.9013
       157        2.0000           -0.3583435              -9.7510
       158        2.0000           -0.3576019              -9.7308
       159        2.0000           -0.3557800              -9.6813
       160        2.0000           -0.3487765              -9.4907
       161        2.0000           -0.3468805              -9.4391
       162        2.0000           -0.3428764              -9.3301
       163        2.0000           -0.3401741              -9.2566
       164        2.0000           -0.3355665              -9.1312
       165        2.0000           -0.3200085              -8.7079
       166        2.0000           -0.3053568              -8.3092 (HOMO)
       167        0.0000           -0.2830804              -7.7030 (LUMO)
       168        0.0000           -0.2827117              -7.6930
       169        0.0000           -0.2815156              -7.6604
       170        0.0000           -0.2808636              -7.6427
       171                         -0.2772838              -7.5453
       172                         -0.2769623              -7.5365
       173                         -0.2725265              -7.4158
       174                         -0.2715353              -7.3889
       175                         -0.2695689              -7.3353
       176                         -0.2691547              -7.3241
       177                         -0.2682845              -7.3004
       ...                                ...                  ...
       351                         13.3404264             363.0115
      -------------------------------------------------------------
                  HL-Gap            0.0222764 Eh            0.6062 eV
             Fermi-level           -0.2945411 Eh           -8.0149 eV

     #   Z          covCN         q      C6AA      α(0)
     1   6 C        3.639     0.020    20.592     6.526
     2   8 O        1.703    -0.246    18.083     5.741
     3   6 C        2.857     0.130    25.156     8.221
     4   6 C        2.929    -0.091    30.281     9.024
     5   6 C        2.984     0.101    25.766     8.326
     6   7 N        1.844    -0.272    27.908     7.829
     7   6 C        2.882     0.138    24.990     8.195
     8   7 N        1.831    -0.276    28.011     7.843
     9   6 C        2.891     0.159    24.562     8.125
    10   7 N        2.689    -0.172    24.715     7.384
    11   6 C        2.888     0.050    26.866     8.498
    12   6 C        2.920    -0.051    29.268     8.872
    13   6 C        2.902    -0.063    29.557     8.914
    14   6 C        3.054     0.035    27.157     8.546
    15   7 N        2.806    -0.123    23.677     7.227
    16   6 C        3.120     0.147    24.643     8.130
    17   6 C        3.752    -0.122    22.906     6.825
    18   7 N        1.890    -0.274    27.955     7.838
    19   6 C        3.186     0.053    26.353     8.376
    20   6 C        2.778     0.129    25.164     8.216
    21   9 F        0.786    -0.222    11.461     3.999
    22   6 C        2.979    -0.035    28.866     8.813
    23   6 C        2.913    -0.088    30.203     9.012
    24   6 C        2.852     0.127    25.211     8.229
    25   8 O        1.703    -0.255    18.230     5.765
    26   6 C        3.690     0.067    19.634     6.341
    27   6 C        3.850    -0.024    20.963     6.512
    28   6 C        3.803    -0.070    21.843     6.654
    29   6 C        3.754     0.012    20.432     6.446
    30   7 N        2.723    -0.175    24.789     7.395
    31   6 C        3.705    -0.035    21.348     6.606
    32   6 C        3.754     0.006    20.540     6.462
    33   6 C        3.801    -0.062    21.700     6.632
    34   1 H        0.924     0.055     2.263     2.353
    35   1 H        0.924     0.050     2.314     2.379
    36   1 H        0.924     0.070     2.083     2.257
    37   1 H        0.925     0.068     2.110     2.271
    38   1 H        0.925     0.044     2.390     2.418
    39   1 H        0.860     0.192     1.146     1.677
    40   1 H        0.925     0.067     2.121     2.278
    41   1 H        0.925     0.044     2.397     2.421
    42   1 H        0.860     0.163     1.316     1.797
    43   1 H        0.924     0.059     2.212     2.326
    44   1 H        0.924     0.078     1.998     2.211
    45   1 H        0.924     0.060     2.198     2.319
    46   1 H        0.925     0.053     2.286     2.364
    47   1 H        0.924     0.038     2.472     2.459
    48   1 H        0.924     0.041     2.436     2.441
    49   1 H        0.923     0.060     2.196     2.317
    50   1 H        0.924     0.043     2.408     2.427
    51   1 H        0.924     0.034     2.534     2.490
    52   1 H        0.923     0.013     2.846     2.638
    53   1 H        0.924     0.037     2.493     2.469
    54   1 H        0.924     0.039     2.468     2.457
    55   1 H        0.924     0.013     2.837     2.634
    56   1 H        0.924     0.039     2.467     2.456
    57   1 H        0.924     0.036     2.508     2.477
    58   1 H        0.923     0.016     2.800     2.617
    59   1 H        0.923     0.034     2.532     2.489
    60   1 H        0.924     0.051     2.307     2.375
    61  22 Ti       3.637     1.051   101.785    24.487
    62  22 Ti       6.855     1.551    84.056    14.885
    63  22 Ti       3.227     1.048   102.642    24.739
    64  22 Ti       5.860     1.381    85.664    15.027
    65  22 Ti       5.627     1.126    88.155    15.244
    66  22 Ti       3.541     1.041   102.460    24.670
    67  22 Ti       2.352     0.880   202.682    34.859
    68  22 Ti       6.011     1.348    85.974    15.054
    69  22 Ti       3.414     1.007   103.069    24.781
    70  22 Ti       5.519     1.094    88.480    15.272
    71  22 Ti       5.687     1.189    87.535    15.190
    72  22 Ti       3.581     1.025   102.487    24.644
    73   6 C        2.246    -0.257    37.633     9.939
    74   6 C        2.142    -0.256    38.372    10.013
    75   6 C        2.248    -0.019    30.607     8.964
    76   6 C        1.838    -0.210    37.321     9.869
    77   6 C        1.894    -0.223    37.705     9.917
    78   6 C        1.821    -0.346    42.165    10.492
    79   6 C        2.631    -0.404    39.920    10.335
    80   8 O        1.554    -0.848    32.026     7.635
    81   8 O        1.464    -0.883    33.273     7.775
    82   8 O        1.557    -0.956    35.608     8.051
    83   8 O        1.523    -1.006    37.468     8.256
    84   8 O        1.523    -0.914    34.208     7.889
    85   8 O        1.458    -0.821    31.366     7.548
    86   8 O        1.455    -0.798    30.660     7.463
    87   8 O        0.727    -0.636    27.102     6.976
    88   8 O        1.453    -0.864    32.701     7.707
    89   8 O        1.476    -0.800    30.672     7.466
    90   8 O        1.603    -0.946    35.191     8.006
    91   8 O        1.547    -0.969    36.071     8.103
    92   8 O        1.700    -0.817    30.972     7.514
    93   8 O        1.453    -0.781    30.174     7.403

 Mol. C6AA /au·bohr⁶  :     192699.706172
 Mol. C8AA /au·bohr⁸  :    7967549.446640
 Mol. α(0) /au        :        737.511713


Wiberg/Mayer (AO) data.
largest (>0.10) Wiberg bond orders for each atom

 ---------------------------------------------------------------------------
     #   Z sym  total        # sym  WBO       # sym  WBO       # sym  WBO
 ---------------------------------------------------------------------------
     1   6 C    3.938 --     2 O    0.981    36 H    0.978    34 H    0.976
                            35 H    0.975
     2   8 O    2.244 --     3 C    1.079     1 C    0.981
     3   6 C    3.937 --     4 C    1.451    24 C    1.216     2 O    1.079
     4   6 C    3.978 --     3 C    1.451     5 C    1.283    37 H    0.960
     5   6 C    3.983 --     6 N    1.293     4 C    1.283    22 C    1.231
     6   7 N    3.035 --     7 C    1.481     5 C    1.293
     7   6 C    3.959 --     6 N    1.481     8 N    1.373    38 H    0.958
     8   7 N    3.039 --     9 C    1.398     7 C    1.373
     9   6 C    3.961 --     8 N    1.398    22 C    1.241    10 N    1.111
    10   7 N    3.382 --     9 C    1.111    11 C    1.085    39 H    0.919
    11   6 C    3.965 --    20 C    1.359    12 C    1.338    10 N    1.085
    12   6 C    3.977 --    13 C    1.476    11 C    1.338    40 H    0.965
    13   6 C    3.985 --    12 C    1.476    14 C    1.339    41 H    0.969
                            20 C    0.105
    14   6 C    3.953 --    13 C    1.339    19 C    1.263    15 N    1.152
    15   7 N    3.537 --    16 C    1.203    14 C    1.152    42 H    0.943
                            18 N    0.107
    16   6 C    3.956 --    18 N    1.555    15 N    1.203    17 C    1.034
    17   6 C    3.991 --    16 C    1.034    44 H    0.979    43 H    0.967
                            45 H    0.967
    18   7 N    3.010 --    16 C    1.555    19 C    1.208    15 N    0.107
    19   6 C    3.980 --    20 C    1.299    14 C    1.263    18 N    1.208
    20   6 C    3.862 --    11 C    1.359    19 C    1.299    21 F    0.957
                            13 C    0.105
    21   9 F    1.095 --    20 C    0.957
    22   6 C    3.985 --    23 C    1.275     9 C    1.241     5 C    1.231
    23   6 C    3.976 --    24 C    1.457    22 C    1.275    46 H    0.960
    24   6 C    3.936 --    23 C    1.457     3 C    1.216    25 O    1.078
    25   8 O    2.240 --    24 C    1.078    26 C    0.961
    26   6 C    3.935 --    27 C    0.990    48 H    0.966    47 H    0.961
                            25 O    0.961
    27   6 C    3.989 --    33 C    1.000    28 C    0.991    26 C    0.990
                            49 H    0.966
    28   6 C    3.995 --    29 C    1.001    27 C    0.991    50 H    0.980
                            51 H    0.977
    29   6 C    3.989 --    30 N    1.005    28 C    1.001    53 H    0.974
                            52 H    0.968
    30   7 N    3.109 --    31 C    1.016    29 C    1.005    32 C    0.998
    31   6 C    3.987 --    30 N    1.016    56 H    0.983    54 H    0.982
                            55 H    0.974
    32   6 C    3.987 --    33 C    1.002    30 N    0.998    57 H    0.975
                            58 H    0.969
    33   6 C    3.996 --    32 C    1.002    27 C    1.000    59 H    0.978
                            60 H    0.975
    34   1 H    0.996 --     1 C    0.976
    35   1 H    0.996 --     1 C    0.975
    36   1 H    0.995 --     1 C    0.978
    37   1 H    0.994 --     4 C    0.960
    38   1 H    0.997 --     7 C    0.958
    39   1 H    0.961 --    10 N    0.919
    40   1 H    0.995 --    12 C    0.965
    41   1 H    0.998 --    13 C    0.969
    42   1 H    0.973 --    15 N    0.943
    43   1 H    0.994 --    17 C    0.967
    44   1 H    0.993 --    17 C    0.979
    45   1 H    0.993 --    17 C    0.967
    46   1 H    0.995 --    23 C    0.960
    47   1 H    0.998 --    26 C    0.961
    48   1 H    0.998 --    26 C    0.966
    49   1 H    0.996 --    27 C    0.966
    50   1 H    0.998 --    28 C    0.980
    51   1 H    0.999 --    28 C    0.977
    52   1 H    1.000 --    29 C    0.968
    53   1 H    0.998 --    29 C    0.974
    54   1 H    0.998 --    31 C    0.982
    55   1 H    1.000 --    31 C    0.974
    56   1 H    0.998 --    31 C    0.983
    57   1 H    0.999 --    32 C    0.975
    58   1 H    1.000 --    32 C    0.969
    59   1 H    0.999 --    33 C    0.978
    60   1 H    0.997 --    33 C    0.975
    61  22 Ti   2.824 --    80 O    0.846    81 O    0.813    67 Ti   0.331
                            62 Ti   0.202    64 Ti   0.197
    62  22 Ti   3.854 --    81 O    0.750    84 O    0.744    82 O    0.691
                            83 O    0.608    61 Ti   0.202    63 Ti   0.188
                            65 Ti   0.139    66 Ti   0.135
    63  22 Ti   2.723 --    89 O    0.962    82 O    0.599    69 Ti   0.372
                            62 Ti   0.188    67 Ti   0.140    84 O    0.110
    64  22 Ti   3.917 --    85 O    0.939    73 C    0.721    80 O    0.704
                            83 O    0.563    66 Ti   0.208    61 Ti   0.197
                            70 Ti   0.178    90 O    0.124
    65  22 Ti   4.067 --    79 C    0.891    86 O    0.770    77 C    0.743
                            84 O    0.601    71 Ti   0.284    66 Ti   0.174
                            78 C    0.158    74 C    0.152    62 Ti   0.139
    66  22 Ti   2.639 --    86 O    0.975    85 O    0.708    64 Ti   0.208
                            65 Ti   0.174    62 Ti   0.135    81 O    0.123
    67  22 Ti   3.767 --    87 O    1.996    68 Ti   0.607    61 Ti   0.331
                            82 O    0.152    80 O    0.147    63 Ti   0.140
                            90 O    0.112
    68  22 Ti   4.017 --    90 O    0.804    88 O    0.752    91 O    0.715
                            67 Ti   0.607    92 O    0.196    69 Ti   0.166
                            72 Ti   0.148    70 Ti   0.141
    69  22 Ti   2.747 --    88 O    0.836    89 O    0.764    63 Ti   0.372
                            72 Ti   0.221    68 Ti   0.166    71 Ti   0.130
    70  22 Ti   4.014 --    78 C    1.060    76 C    0.726    92 O    0.613
                            90 O    0.440    79 C    0.235    72 Ti   0.199
                            64 Ti   0.178    73 C    0.155    68 Ti   0.141
    71  22 Ti   4.082 --    93 O    0.967    74 C    0.670    79 C    0.654
                            91 O    0.441    65 Ti   0.284    72 Ti   0.210
                            78 C    0.142    69 Ti   0.130    89 O    0.113
    72  22 Ti   2.792 --    92 O    0.901    93 O    0.734    69 Ti   0.221
                            71 Ti   0.210    70 Ti   0.199    68 Ti   0.148
    73   6 C    3.843 --    76 C    2.739    64 Ti   0.721    70 Ti   0.155
    74   6 C    3.782 --    77 C    2.732    71 Ti   0.670    65 Ti   0.152
    75   6 C    3.979 --    78 C    2.007    79 C    1.605
    76   6 C    3.705 --    73 C    2.739    70 Ti   0.726
    77   6 C    3.747 --    74 C    2.732    65 Ti   0.743
    78   6 C    3.769 --    75 C    2.007    70 Ti   1.060    65 Ti   0.158
                            71 Ti   0.142
    79   6 C    3.830 --    75 C    1.605    65 Ti   0.891    71 Ti   0.654
                            70 Ti   0.235
    80   8 O    1.933 --    61 Ti   0.846    64 Ti   0.704    67 Ti   0.147
    81   8 O    1.890 --    61 Ti   0.813    62 Ti   0.750    66 Ti   0.123
    82   8 O    1.783 --    62 Ti   0.691    63 Ti   0.599    67 Ti   0.152
    83   8 O    1.720 --    62 Ti   0.608    64 Ti   0.563
    84   8 O    1.845 --    62 Ti   0.744    65 Ti   0.601    63 Ti   0.110
    85   8 O    1.972 --    64 Ti   0.939    66 Ti   0.708
    86   8 O    2.014 --    66 Ti   0.975    65 Ti   0.770
    87   8 O    2.170 --    67 Ti   1.996
    88   8 O    1.911 --    69 Ti   0.836    68 Ti   0.752
    89   8 O    2.008 --    63 Ti   0.962    69 Ti   0.764    71 Ti   0.113
    90   8 O    1.799 --    68 Ti   0.804    70 Ti   0.440    64 Ti   0.124
                            67 Ti   0.112
    91   8 O    1.773 --    68 Ti   0.715    71 Ti   0.441
    92   8 O    1.987 --    72 Ti   0.901    70 Ti   0.613    68 Ti   0.196
    93   8 O    2.031 --    71 Ti   0.967    72 Ti   0.734
 ---------------------------------------------------------------------------

Topologies differ in total number of bonds
Writing topology from bond orders to xtbtopo.mol

molecular dipole:
                 x           y           z       tot (Debye)
 q only:        1.302      -0.431       0.034
   full:        0.434      -0.688       1.350       4.008
molecular quadrupole (traceless):
                xx          xy          yy          xz          yz          zz
 q only:      -10.740      18.054     -34.028      -2.190      10.844      44.768
  q+dip:        2.496      12.778     -70.560      42.064      -4.429      68.064
   full:        3.170      13.884     -70.674      39.663      -0.610      67.504


           -------------------------------------------------
          | TOTAL ENERGY             -187.662519796256 Eh   |
          | GRADIENT NORM               0.110914914161 Eh/α |
          | HOMO-LUMO GAP               0.606171433317 eV   |
           -------------------------------------------------

------------------------------------------------------------------------
 * finished run on 2026/08/31 at 21:19:10.593     
------------------------------------------------------------------------
 total:
 * wall-time:     0 d,  0 h,  0 min,  0.975 sec
 *  cpu-time:     0 d,  0 h,  0 min, 10.688 sec
 * ratio c/w:    10.962 speedup
 SCF:
 * wall-time:     0 d,  0 h,  0 min,  0.930 sec
 *  cpu-time:     0 d,  0 h,  0 min, 10.156 sec
 * ratio c/w:    10.921 speedup

normal termination of xtb
