60
Cediranib - ETKDG+MMFF conformer
C     -3.456604     -4.916040     -1.197732
O     -3.121022     -3.565479     -0.911805
C     -1.789553     -3.242136     -0.827395
C     -0.741940     -4.162567     -0.943993
C      0.589790     -3.779992     -0.847180
N      1.528803     -4.723052     -0.960703
C      2.799580     -4.322880     -0.854286
N      3.218084     -3.071260     -0.654584
C      2.269199     -2.122392     -0.559168
N      2.657960     -0.769039     -0.381390
C      3.944711     -0.252721     -0.076290
C      4.863691     -0.938248      0.730433
C      6.109427     -0.390418      1.076473
C      6.391117      0.891033      0.600623
N      7.481296      1.710959      0.742949
C      7.230131      2.883334      0.073882
C      8.210175      3.993142      0.028588
N      6.040032      2.857844     -0.487960
C      5.502794      1.627110     -0.176268
C      4.264970      1.051023     -0.506033
F      3.368867      1.728459     -1.245269
C      0.894538     -2.430557     -0.634686
C     -0.161550     -1.491656     -0.502302
C     -1.495981     -1.889668     -0.596288
O     -2.570508     -1.046342     -0.486581
C     -2.327304      0.313705     -0.130449
C     -3.671913      1.037728      0.009289
C     -3.463071      2.540047      0.275634
C     -4.571050      3.166616      1.132022
N     -5.859951      2.559741      0.813980
C     -6.970587      3.298751      1.406333
C     -5.907874      1.139620      1.195751
C     -4.551574      0.424679      1.103915
H     -3.126449     -5.582424     -0.394198
H     -3.050212     -5.228860     -2.165190
H     -4.547109     -4.983907     -1.258051
H     -0.938153     -5.217015     -1.111556
H      3.563688     -5.087762     -0.940055
H      2.220530     -0.191696     -1.098539
H      4.615383     -1.926141      1.113465
H      6.809415     -0.944174      1.693314
H      8.324319      1.492261      1.253776
H      8.430761      4.353578      1.038033
H      7.816230      4.831376     -0.554277
H      9.144171      3.663430     -0.436701
H      0.087926     -0.452683     -0.314596
H     -1.739683      0.800300     -0.918556
H     -1.782656      0.361853      0.820901
H     -4.213543      0.922745     -0.940600
H     -3.407595      3.056494     -0.691428
H     -2.502602      2.718697      0.774929
H     -4.337473      3.049189      2.198545
H     -4.585245      4.244676      0.929096
H     -6.986702      4.330294      1.037530
H     -6.911575      3.325742      2.500359
H     -7.928142      2.848371      1.122013
H     -6.621807      0.636456      0.532401
H     -6.281926      1.011184      2.220027
H     -4.034145      0.501314      2.069442
H     -4.722095     -0.642643      0.921508
