      -----------------------------------------------------------      
     |                   =====================                   |     
     |                           x T B                           |     
     |                   =====================                   |     
     |                         S. Grimme                         |     
     |          Mulliken Center for Theoretical Chemistry        |     
     |                    University of Bonn                     |     
      -----------------------------------------------------------      

   * xtb version 6.7.1pre (5071a88) compiled by 'Marcel@Raven' on 2024-07-23

   xtb is free software: you can redistribute it and/or modify it under
   the terms of the GNU Lesser General Public License as published by
   the Free Software Foundation, either version 3 of the License, or
   (at your option) any later version.
   
   xtb is distributed in the hope that it will be useful,
   but WITHOUT ANY WARRANTY; without even the implied warranty of
   MERCHANTABILITY or FITNESS FOR A PARTICULAR PURPOSE.  See the
   GNU Lesser General Public License for more details.
   
   Cite this work as:
   * C. Bannwarth, E. Caldeweyher, S. Ehlert, A. Hansen, P. Pracht,
     J. Seibert, S. Spicher, S. Grimme, WIREs Comput. Mol. Sci., 2020, 11,
     e01493. DOI: 10.1002/wcms.1493
   
   for GFN2-xTB:
   * C. Bannwarth, S. Ehlert and S. Grimme., J. Chem. Theory Comput., 2019,
     15, 1652-1671. DOI: 10.1021/acs.jctc.8b01176
   for GFN1-xTB:
   * S. Grimme, C. Bannwarth, P. Shushkov, J. Chem. Theory Comput., 2017,
     13, 1989-2009. DOI: 10.1021/acs.jctc.7b00118
   for GFN0-xTB:
   * P. Pracht, E. Caldeweyher, S. Ehlert, S. Grimme, ChemRxiv, 2019, preprint.
     DOI: 10.26434/chemrxiv.8326202.v1
   for GFN-FF:
   * S. Spicher and S. Grimme, Angew. Chem. Int. Ed., 2020, 59, 15665-15673.
     DOI: 10.1002/anie.202004239
   
   for ALPB and GBSA implicit solvation:
   * S. Ehlert, M. Stahn, S. Spicher, S. Grimme, J. Chem. Theory Comput.,
     2021, 17, 4250-4261. DOI: 10.1021/acs.jctc.1c00471
   
   for ddCOSMO and CPCM-X implicit solvation:
   * M. Stahn, S. Ehlert, S. Grimme, J. Phys. Chem. A,
     2023, XX, XXXX-XXXX. DOI: 10.1021/acs.jpca.3c04382
   
   for DFT-D4:
   * E. Caldeweyher, C. Bannwarth and S. Grimme, J. Chem. Phys., 2017,
     147, 034112. DOI: 10.1063/1.4993215
   * E. Caldeweyher, S. Ehlert, A. Hansen, H. Neugebauer, S. Spicher,
     C. Bannwarth and S. Grimme, J. Chem. Phys., 2019, 150, 154122.
     DOI: 10.1063/1.5090222
   * E. Caldeweyher, J.-M. Mewes, S. Ehlert and S. Grimme, Phys. Chem. Chem. Phys.
     2020, 22, 8499-8512. DOI: 10.1039/D0CP00502A
   
   for sTDA-xTB:
   * S. Grimme and C. Bannwarth, J. Chem. Phys., 2016, 145, 054103.
     DOI: 10.1063/1.4959605
   
   in the mass-spec context:
   * V. Asgeirsson, C. Bauer and S. Grimme, Chem. Sci., 2017, 8, 4879.
     DOI: 10.1039/c7sc00601b
   * J. Koopman and S. Grimme, ACS Omega 2019, 4, 12, 15120-15133.
     DOI: 10.1021/acsomega.9b02011
   
   for metadynamics refer to:
   * S. Grimme, J. Chem. Theory Comput., 2019, 155, 2847-2862
     DOI: 10.1021/acs.jctc.9b00143
   
   for SPH calculations refer to:
   * S. Spicher and S. Grimme, J. Chem. Theory Comput., 2021, 17, 1701-1714
     DOI: 10.1021/acs.jctc.0c01306
   
   for ONIOM refer to:
   * C. Plett, A. Katbashev, S. Ehlert, S. Grimme, M. Bursch,
     Phys. Chem. Chem. Phys., 2023, 25, 17860-17868. DOI: 10.1039/D3CP02178E
   
   for DIPRO refer to:
   * J. Kohn, N. Gildemeister, S. Grimme, D. Fazzi, A. Hansen,
     J. Chem. Phys., 2023, just accepted.
   
   for PTB refer to:
   * S. Grimme, M. Mueller, A. Hansen, J. Chem. Phys., 2023, 158, 124111.
     DOI: 10.1063/5.0137838
   
   with help from (in alphabetical order)
   P. Atkinson, C. Bannwarth, F. Bohle, G. Brandenburg, E. Caldeweyher
   M. Checinski, S. Dohm, S. Ehlert, S. Ehrlich, I. Gerasimov, C. Hölzer
   A. Katbashev, J. Kohn, J. Koopman, C. Lavigne, S. Lehtola, F. März, M. Müller,
   F. Musil, H. Neugebauer, J. Pisarek, C. Plett, P. Pracht, F. Pultar,
   J. Seibert, P. Shushkov, S. Spicher, M. Stahn, M. Steiner, T. Strunk,
   J. Stückrath, T. Rose, and J. Unsleber
   
 * started run on 2026/08/31 at 20:38:48.795     
   ID    Z sym.   atoms
    1    6 C      1, 3-5, 7, 9, 11-14, 16, 17, 19, 20, 22-24, 26-29, 31-33,
                  73-79
    2    8 O      2, 25, 80-93
    3    7 N      6, 8, 10, 15, 18, 30
    4    9 F      21
    5    1 H      34-60
    6   22 Ti     61-72

           -------------------------------------------------
          |                Calculation Setup                |
           -------------------------------------------------

          program call               : "c:\Users\Andre\Proyectos doctorado\kras-pancreatic-gC3N4-ai\tools\xtb\xtb-6.7.1\bin\xtb.exe" "c:\Users\Andre\Proyectos doctorado\mxene-glioblastoma-qsar-ai\calculations\gbm\Cediranib\Cediranib_Ti3C2O2_complex.xyz" --gfn 2 --sp --chrg 0 --uhf 0 --iterations 500 --norestart
          coordinate file            : c:\Users\Andre\Proyectos doctorado\mxene-glioblastoma-qsar-ai\calculations\gbm\Cediranib\Cediranib_Ti3C2O2_complex.xyz
          omp threads                :                    16


molecular fragmentation (1/2 indicates fragments):
111111111111111111111111111111111111111111111111111111111111222222222222
222222222222222222222
# atoms in fragment 1/2:    60    33
 fragment masses (1/2) :      450.51      882.47
CMA distance (Bohr)    :  10.280
constraining FC (au)   :  0.0500

           -------------------------------------------------
          |                 G F N 2 - x T B                 |
           -------------------------------------------------

        Reference                      10.1021/acs.jctc.8b01176
      * Hamiltonian:
        H0-scaling (s, p, d)           1.850000    2.230000    2.230000
        zeta-weighting                 0.500000
      * Dispersion:
        s8                             2.700000
        a1                             0.520000
        a2                             5.000000
        s9                             5.000000
      * Repulsion:
        kExp                           1.500000    1.000000
        rExp                           1.000000
      * Coulomb:
        alpha                          2.000000
        third order                    shell-resolved
        anisotropic                    true
        a3                             3.000000
        a5                             4.000000
        cn-shift                       1.200000
        cn-exp                         4.000000
        max-rad                        5.000000


          ...................................................
          :                      SETUP                      :
          :.................................................:
          :  # basis functions                 363          :
          :  # atomic orbitals                 351          :
          :  # shells                          171          :
          :  # electrons                       332          :
          :  max. iterations                   500          :
          :  Hamiltonian                  GFN2-xTB          :
          :  restarted?                      false          :
          :  GBSA solvation                  false          :
          :  PC potential                    false          :
          :  electronic temp.          300.0000000     K    :
          :  accuracy                    1.0000000          :
          :  -> integral cutoff          0.2500000E+02      :
          :  -> integral neglect         0.1000000E-07      :
          :  -> SCF convergence          0.1000000E-05 Eh   :
          :  -> wf. convergence          0.1000000E-03 e    :
          :  Broyden damping             0.4000000          :
          :  net charge                          0          :
          :  unpaired electrons                  0          :
          ...................................................

 iter      E             dE          RMSdq      gap      omega  full diag
   1   -184.3895955 -0.184390E+03  0.121E+01    0.04       0.0  T
   2   -118.9235142  0.654661E+02  0.178E+01    0.09       1.0  T
   3    -48.6562248  0.702673E+02  0.232E+01    0.06       1.0  T
   4   -179.1890014 -0.130533E+03  0.969E+00    0.06       1.0  T
   5   -177.9295743  0.125943E+01  0.105E+01    0.03       1.0  T
   6   -182.9741450 -0.504457E+01  0.793E+00    0.17       1.0  T
   7   -168.8909642  0.140832E+02  0.103E+01    0.09       1.0  T
   8   -179.6622538 -0.107713E+02  0.777E+00    0.04       1.0  T
   9   -181.2355849 -0.157333E+01  0.670E+00    0.08       1.0  T
  10   -184.9978429 -0.376226E+01  0.555E+00    0.03       1.0  T
  11   -186.3286805 -0.133084E+01  0.486E+00    0.16       1.0  T
  12   -186.4305758 -0.101895E+00  0.456E+00    0.05       1.0  T
  13   -186.9028225 -0.472247E+00  0.456E+00    0.02       1.0  T
  14   -187.0088493 -0.106027E+00  0.428E+00    0.06       1.0  T
  15   -187.8955623 -0.886713E+00  0.394E+00    0.05       1.0  T
  16   -187.3463245  0.549238E+00  0.400E+00    0.02       1.0  T
  17   -187.9429047 -0.596580E+00  0.368E+00    0.05       1.0  T
  18   -188.3102546 -0.367350E+00  0.320E+00    0.16       1.0  T
  19   -188.2461296  0.641250E-01  0.287E+00    0.01       1.0  T
  20   -188.5017419 -0.255612E+00  0.220E+00    0.19       1.0  T
  21   -188.4844057  0.173361E-01  0.189E+00    0.12       1.0  T
  22   -188.5217679 -0.373622E-01  0.180E+00    0.12       1.0  T
  23   -188.4275763  0.941917E-01  0.174E+00    0.15       1.0  T
  24   -188.5437446 -0.116168E+00  0.113E+00    0.16       1.0  T
  25   -188.5831731 -0.394285E-01  0.960E-01    0.14       1.0  T
  26   -188.6272911 -0.441180E-01  0.758E-01    0.14       1.0  T
  27   -188.6191206  0.817051E-02  0.751E-01    0.14       1.0  T
  28   -188.6375885 -0.184679E-01  0.685E-01    0.13       1.0  T
  29   -188.6583209 -0.207324E-01  0.515E-01    0.13       1.0  T
  30   -188.6625357 -0.421482E-02  0.550E-01    0.13       1.0  T
  31   -188.6662656 -0.372984E-02  0.500E-01    0.11       1.0  T
  32   -188.6691825 -0.291697E-02  0.451E-01    0.12       1.0  T
  33   -188.6738554 -0.467289E-02  0.427E-01    0.10       1.0  T
  34   -188.6742054 -0.349981E-03  0.407E-01    0.11       1.0  T
  35   -188.6736868  0.518595E-03  0.411E-01    0.11       1.0  T
  36   -188.6782266 -0.453981E-02  0.374E-01    0.11       1.0  T
  37   -188.6866233 -0.839664E-02  0.308E-01    0.11       1.0  T
  38   -188.6898295 -0.320624E-02  0.274E-01    0.10       1.0  T
  39   -188.6425932  0.472363E-01  0.613E-01    0.05       1.0  T
  40   -188.6902912 -0.476980E-01  0.257E-01    0.10       1.0  T
  41   -188.6697102  0.205810E-01  0.448E-01    0.06       1.0  T
  42   -188.6594149  0.102953E-01  0.512E-01    0.05       1.0  T
  43   -188.6472990  0.121159E-01  0.571E-01    0.04       1.0  T
  44   -188.6756358 -0.283368E-01  0.392E-01    0.06       1.0  T
  45   -188.6968702 -0.212343E-01  0.124E-01    0.10       1.0  T
  46   -188.6970346 -0.164438E-03  0.111E-01    0.10       1.0  T
  47   -188.6944294  0.260522E-02  0.175E-01    0.08       1.0  T
  48   -188.6966988 -0.226948E-02  0.120E-01    0.09       1.0  T
  49   -188.6981352 -0.143639E-02  0.588E-02    0.09       1.0  T
  50   -188.6982355 -0.100276E-03  0.361E-02    0.09       1.0  T
  51   -188.6957619  0.247358E-02  0.122E-01    0.08       1.0  T
  52   -188.6973340 -0.157207E-02  0.771E-02    0.09       1.0  T
  53   -188.6973396 -0.556101E-05  0.734E-02    0.09       1.0  T
  54   -188.6982769 -0.937341E-03  0.134E-02    0.09       1.0  T
  55   -188.6982699  0.695922E-05  0.154E-02    0.09       1.0  T
  56   -188.6981998  0.701140E-04  0.247E-02    0.09       1.0  T
  57   -188.6982258 -0.259621E-04  0.214E-02    0.09       1.0  T
  58   -188.6982876 -0.617933E-04  0.102E-02    0.09       1.0  T
  59   -188.6983027 -0.151341E-04  0.453E-03    0.09       2.3  T
  60   -188.6983050 -0.229734E-05  0.266E-03    0.09       3.9  T
  61   -188.6983057 -0.710094E-06  0.219E-03    0.09       4.7  T
  62   -188.6983058 -0.132166E-06  0.187E-03    0.09       5.5  T
  63   -188.6983061 -0.207320E-06  0.147E-03    0.09       7.1  T
  64   -188.6983062 -0.994249E-07  0.133E-03    0.09       7.8  T
  65   -188.6983061  0.563734E-07  0.141E-03    0.09       7.3  T
  66   -188.6983062 -0.120959E-06  0.104E-03    0.09       9.9  T
  67   -188.6983063 -0.102534E-06  0.607E-04    0.09      17.1  T
  68   -188.6983064 -0.425612E-07  0.318E-04    0.09      32.6  T

   *** convergence criteria satisfied after 68 iterations ***

         #    Occupation            Energy/Eh            Energy/eV
      -------------------------------------------------------------
         1        2.0000           -0.8958681             -24.3778
       ...           ...                  ...                  ...
       160        2.0000           -0.3793968             -10.3239
       161        2.0000           -0.3780919             -10.2884
       162        1.9999           -0.3728984             -10.1471
       163        1.9993           -0.3704455             -10.0803
       164        1.9420           -0.3662098              -9.9651
       165        1.8275           -0.3651165              -9.9353
       166        1.7502           -0.3647238              -9.9246 (HOMO)
       167        0.3334           -0.3613455              -9.8327 (LUMO)
       168        0.0991           -0.3600680              -9.7979
       169        0.0486           -0.3593664              -9.7789
       170                         -0.3458053              -9.4098
       171                         -0.3412989              -9.2872
       ...                                ...                  ...
       351                         18.3323761             498.8493
      -------------------------------------------------------------
                  HL-Gap            0.0033783 Eh            0.0919 eV
             Fermi-level           -0.3628743 Eh           -9.8743 eV

 SCC (total)                   0 d,  0 h,  0 min,  2.143 sec
 SCC setup                      ...        0 min,  0.001 sec (  0.047%)
 Dispersion                     ...        0 min,  0.003 sec (  0.140%)
 classical contributions        ...        0 min,  0.000 sec (  0.000%)
 integral evaluation            ...        0 min,  0.012 sec (  0.560%)
 iterations                     ...        0 min,  2.099 sec ( 97.947%)
 molecular gradient             ...        0 min,  0.026 sec (  1.213%)
 printout                       ...        0 min,  0.002 sec (  0.093%)

         :::::::::::::::::::::::::::::::::::::::::::::::::::::
         ::                     SUMMARY                     ::
         :::::::::::::::::::::::::::::::::::::::::::::::::::::
         :: total energy            -182.654477236022 Eh    ::
         :: gradient norm              5.382320656366 Eh/a0 ::
         :: HOMO-LUMO gap              0.091928900207 eV    ::
         ::.................................................::
         :: SCC energy              -188.692790934430 Eh    ::
         :: -> isotropic ES            0.834990158233 Eh    ::
         :: -> anisotropic ES         -0.014819204372 Eh    ::
         :: -> anisotropic XC         -0.067265840007 Eh    ::
         :: -> dispersion             -0.177205322635 Eh    ::
         :: repulsion energy           6.038313698408 Eh    ::
         :: add. restraining           0.000000000000 Eh    ::
         :: total charge              -0.000000000000 e     ::
         :::::::::::::::::::::::::::::::::::::::::::::::::::::

           -------------------------------------------------
          |                Property Printout                |
           -------------------------------------------------

    * Orbital Energies and Occupations

         #    Occupation            Energy/Eh            Energy/eV
      -------------------------------------------------------------
         1        2.0000           -0.8958681             -24.3778
       ...           ...                  ...                  ...
       154        2.0000           -0.3907781             -10.6336
       155        2.0000           -0.3895132             -10.5992
       156        2.0000           -0.3878437             -10.5538
       157        2.0000           -0.3835747             -10.4376
       158        2.0000           -0.3821232             -10.3981
       159        2.0000           -0.3819224             -10.3926
       160        2.0000           -0.3793968             -10.3239
       161        2.0000           -0.3780919             -10.2884
       162        1.9999           -0.3728984             -10.1471
       163        1.9993           -0.3704455             -10.0803
       164        1.9420           -0.3662098              -9.9651
       165        1.8275           -0.3651165              -9.9353
       166        1.7502           -0.3647238              -9.9246 (HOMO)
       167        0.3334           -0.3613455              -9.8327 (LUMO)
       168        0.0991           -0.3600680              -9.7979
       169        0.0486           -0.3593664              -9.7789
       170                         -0.3458053              -9.4098
       171                         -0.3412989              -9.2872
       172                         -0.3399618              -9.2508
       173                         -0.3385337              -9.2120
       174                         -0.3310851              -9.0093
       175                         -0.3305688              -8.9952
       176                         -0.3301446              -8.9837
       177                         -0.3282147              -8.9312
       ...                                ...                  ...
       351                         18.3323761             498.8493
      -------------------------------------------------------------
                  HL-Gap            0.0033783 Eh            0.0919 eV
             Fermi-level           -0.3628743 Eh           -9.8743 eV

     #   Z          covCN         q      C6AA      α(0)
     1   6 C        3.639    -0.005    21.035     6.596
     2   8 O        1.703    -0.185    17.107     5.584
     3   6 C        2.857     0.148    24.776     8.158
     4   6 C        2.929    -0.087    30.189     9.011
     5   6 C        2.984     0.115    25.456     8.276
     6   7 N        1.844    -0.239    27.108     7.716
     7   6 C        2.882     0.125    25.250     8.238
     8   7 N        1.831    -0.203    26.235     7.590
     9   6 C        2.891     0.171    24.327     8.087
    10   7 N        2.689    -0.144    24.110     7.293
    11   6 C        2.888     0.055    26.765     8.482
    12   6 C        2.920    -0.051    29.277     8.873
    13   6 C        2.902    -0.062    29.544     8.912
    14   6 C        3.054     0.038    27.100     8.537
    15   7 N        2.806    -0.119    23.586     7.213
    16   6 C        3.120     0.146    24.660     8.133
    17   6 C        3.752    -0.124    22.936     6.830
    18   7 N        1.890    -0.261    27.638     7.794
    19   6 C        3.186     0.057    26.283     8.365
    20   6 C        2.778     0.140    24.942     8.180
    21   9 F        0.786    -0.170    10.926     3.905
    22   6 C        2.979    -0.003    28.088     8.694
    23   6 C        2.913    -0.067    29.657     8.930
    24   6 C        2.852     0.151    24.715     8.148
    25   8 O        1.703    -0.199    17.321     5.619
    26   6 C        3.690     0.041    20.058     6.409
    27   6 C        3.850    -0.024    20.973     6.514
    28   6 C        3.803    -0.079    22.008     6.679
    29   6 C        3.754     0.001    20.621     6.475
    30   7 N        2.723    -0.119    23.594     7.214
    31   6 C        3.705    -0.048    21.583     6.642
    32   6 C        3.754    -0.005    20.721     6.491
    33   6 C        3.801    -0.072    21.884     6.660
    34   1 H        0.924     0.082     1.958     2.188
    35   1 H        0.924     0.074     2.042     2.235
    36   1 H        0.924     0.098     1.803     2.100
    37   1 H        0.925     0.091     1.868     2.137
    38   1 H        0.925     0.071     2.070     2.250
    39   1 H        0.860     0.256     0.860     1.453
    40   1 H        0.925     0.076     2.020     2.223
    41   1 H        0.925     0.051     2.307     2.375
    42   1 H        0.860     0.166     1.295     1.783
    43   1 H        0.924     0.062     2.180     2.309
    44   1 H        0.924     0.081     1.964     2.191
    45   1 H        0.924     0.062     2.181     2.309
    46   1 H        0.925     0.101     1.778     2.085
    47   1 H        0.924     0.107     1.718     2.050
    48   1 H        0.924     0.053     2.279     2.361
    49   1 H        0.923     0.077     2.014     2.219
    50   1 H        0.924     0.072     2.069     2.249
    51   1 H        0.924     0.049     2.336     2.390
    52   1 H        0.923     0.032     2.553     2.499
    53   1 H        0.924     0.049     2.329     2.386
    54   1 H        0.924     0.051     2.306     2.375
    55   1 H        0.924     0.031     2.574     2.509
    56   1 H        0.924     0.049     2.328     2.386
    57   1 H        0.924     0.050     2.326     2.385
    58   1 H        0.923     0.034     2.537     2.491
    59   1 H        0.923     0.043     2.408     2.427
    60   1 H        0.924     0.061     2.191     2.315
    61  22 Ti       4.151     0.760    91.736    16.235
    62  22 Ti       6.350     0.701    92.590    15.622
    63  22 Ti       4.151     0.782    91.501    16.215
    64  22 Ti       7.449     1.034    89.090    15.324
    65  22 Ti       7.449     1.035    89.073    15.323
    66  22 Ti       6.519     1.060    88.826    15.302
    67  22 Ti       4.151     0.793    91.381    16.204
    68  22 Ti       6.350     0.755    92.004    15.573
    69  22 Ti       4.151     0.793    91.381    16.204
    70  22 Ti       7.449     1.052    88.910    15.309
    71  22 Ti       7.449     1.056    88.864    15.305
    72  22 Ti       6.519     1.069    88.735    15.294
    73   6 C        5.128    -0.721    39.331     8.907
    74   6 C        5.128    -0.723    39.430     8.918
    75   6 C        5.649    -0.568    33.995     8.280
    76   6 C        2.445    -0.407    40.616    10.398
    77   6 C        2.445    -0.412    40.779    10.419
    78   6 C        2.445    -0.335    38.035    10.063
    79   6 C        2.445    -0.333    37.958    10.052
    80   8 O        0.728    -0.530    24.531     6.637
    81   8 O        0.729    -0.597    26.125     6.849
    82   8 O        0.728    -0.562    25.278     6.737
    83   8 O        0.729    -0.662    27.767     7.061
    84   8 O        0.729    -0.674    28.084     7.101
    85   8 O        0.753    -0.604    26.288     6.871
    86   8 O        0.753    -0.574    25.542     6.773
    87   8 O        0.728    -0.541    24.785     6.671
    88   8 O        0.729    -0.581    25.727     6.797
    89   8 O        0.728    -0.542    24.812     6.675
    90   8 O        0.729    -0.657    27.650     7.046
    91   8 O        0.729    -0.657    27.650     7.046
    92   8 O        0.753    -0.578    25.648     6.787
    93   8 O        0.753    -0.580    25.683     6.792

 Mol. C6AA /au·bohr⁶  :     182661.255820
 Mol. C8AA /au·bohr⁸  :    7606387.393584
 Mol. α(0) /au        :        657.721231


Wiberg/Mayer (AO) data.
largest (>0.10) Wiberg bond orders for each atom

 ---------------------------------------------------------------------------
     #   Z sym  total        # sym  WBO       # sym  WBO       # sym  WBO
 ---------------------------------------------------------------------------
     1   6 C    3.919 --     2 O    0.979    34 H    0.971    36 H    0.962
                            35 H    0.918
     2   8 O    2.312 --     3 C    1.081     1 C    0.979
     3   6 C    3.933 --     4 C    1.420    24 C    1.194     2 O    1.081
     4   6 C    3.953 --     3 C    1.420     5 C    1.250    37 H    0.942
     5   6 C    3.959 --     6 N    1.287     4 C    1.250    22 C    1.197
     6   7 N    3.031 --     7 C    1.448     5 C    1.287
     7   6 C    3.942 --     6 N    1.448     8 N    1.361    38 H    0.940
     8   7 N    3.064 --     9 C    1.366     7 C    1.361
     9   6 C    3.955 --     8 N    1.366    22 C    1.225    10 N    1.126
    10   7 N    3.362 --     9 C    1.126    11 C    1.100    39 H    0.855
    11   6 C    3.941 --    20 C    1.330    12 C    1.327    10 N    1.100
    12   6 C    3.965 --    13 C    1.483    11 C    1.327    40 H    0.963
    13   6 C    3.970 --    12 C    1.483    14 C    1.328    41 H    0.968
    14   6 C    3.939 --    13 C    1.328    19 C    1.260    15 N    1.160
    15   7 N    3.531 --    16 C    1.197    14 C    1.160    42 H    0.942
                            18 N    0.103
    16   6 C    3.955 --    18 N    1.560    15 N    1.197    17 C    1.035
    17   6 C    3.991 --    16 C    1.035    44 H    0.979    45 H    0.966
                            43 H    0.966
    18   7 N    3.010 --    16 C    1.560    19 C    1.208    15 N    0.103
    19   6 C    3.979 --    20 C    1.299    14 C    1.260    18 N    1.208
    20   6 C    3.833 --    11 C    1.330    19 C    1.299    21 F    0.974
    21   9 F    1.178 --    20 C    0.974
    22   6 C    3.969 --    23 C    1.274     9 C    1.225     5 C    1.197
    23   6 C    3.962 --    24 C    1.421    22 C    1.274    46 H    0.944
    24   6 C    3.930 --    23 C    1.421     3 C    1.194    25 O    1.104
    25   8 O    2.300 --    24 C    1.104    26 C    0.953
    26   6 C    3.920 --    27 C    0.990    48 H    0.962    25 O    0.953
                            47 H    0.924
    27   6 C    3.984 --    33 C    0.997    28 C    0.992    26 C    0.990
                            49 H    0.953
    28   6 C    3.983 --    29 C    1.000    27 C    0.992    51 H    0.974
                            50 H    0.972
    29   6 C    3.973 --    30 N    1.002    28 C    1.000    53 H    0.972
                            52 H    0.957
    30   7 N    3.075 --    31 C    1.015    29 C    1.002    32 C    0.996
    31   6 C    3.977 --    30 N    1.015    56 H    0.982    54 H    0.981
                            55 H    0.969
    32   6 C    3.974 --    33 C    1.003    30 N    0.996    57 H    0.969
                            58 H    0.961
    33   6 C    3.990 --    32 C    1.003    27 C    0.997    59 H    0.975
                            60 H    0.973
    34   1 H    0.992 --     1 C    0.971
    35   1 H    0.992 --     1 C    0.918
    36   1 H    0.990 --     1 C    0.962
    37   1 H    0.989 --     4 C    0.942
    38   1 H    0.993 --     7 C    0.940
    39   1 H    0.933 --    10 N    0.855
    40   1 H    0.993 --    12 C    0.963
    41   1 H    0.997 --    13 C    0.968
    42   1 H    0.972 --    15 N    0.942
    43   1 H    0.993 --    17 C    0.966
    44   1 H    0.993 --    17 C    0.979
    45   1 H    0.993 --    17 C    0.966
    46   1 H    0.988 --    23 C    0.944
    47   1 H    0.984 --    26 C    0.924
    48   1 H    0.993 --    26 C    0.962
    49   1 H    0.992 --    27 C    0.953
    50   1 H    0.992 --    28 C    0.972
    51   1 H    0.997 --    28 C    0.974
    52   1 H    0.977 --    29 C    0.957
    53   1 H    0.996 --    29 C    0.972
    54   1 H    0.996 --    31 C    0.981
    55   1 H    0.983 --    31 C    0.969
    56   1 H    0.996 --    31 C    0.982
    57   1 H    0.989 --    32 C    0.969
    58   1 H    0.982 --    32 C    0.961
    59   1 H    0.996 --    33 C    0.975
    60   1 H    0.996 --    33 C    0.973
    61  22 Ti   4.046 --    80 O    2.014    67 Ti   0.575    62 Ti   0.298
                            73 C    0.234    64 Ti   0.180    76 C    0.146
                            68 Ti   0.107
    62  22 Ti   4.548 --    81 O    1.875    68 Ti   0.357    63 Ti   0.301
                            61 Ti   0.298    73 C    0.255    74 C    0.247
                            64 Ti   0.127    65 Ti   0.119    67 Ti   0.103
                            69 Ti   0.100
    63  22 Ti   4.032 --    82 O    1.977    69 Ti   0.576    62 Ti   0.301
                            74 C    0.262    65 Ti   0.194    77 C    0.165
                            68 Ti   0.104
    64  22 Ti   4.457 --    83 O    1.737    76 C    0.658    73 C    0.507
                            85 O    0.224    61 Ti   0.180    70 Ti   0.166
                            66 Ti   0.148    75 C    0.141    62 Ti   0.127
    65  22 Ti   4.463 --    84 O    1.718    77 C    0.655    74 C    0.500
                            86 O    0.227    63 Ti   0.194    71 Ti   0.162
                            66 Ti   0.150    75 C    0.144    62 Ti   0.119
    66  22 Ti   4.464 --    86 O    1.123    85 O    1.120    75 C    0.495
                            78 C    0.430    79 C    0.418    72 Ti   0.271
                            65 Ti   0.150    64 Ti   0.148
    67  22 Ti   4.032 --    87 O    2.016    61 Ti   0.575    68 Ti   0.338
                            73 C    0.300    70 Ti   0.210    76 C    0.189
                            62 Ti   0.103
    68  22 Ti   4.461 --    88 O    1.898    62 Ti   0.357    67 Ti   0.338
                            69 Ti   0.329    73 C    0.277    74 C    0.268
                            70 Ti   0.142    71 Ti   0.138    61 Ti   0.107
                            63 Ti   0.104
    69  22 Ti   4.019 --    89 O    2.017    63 Ti   0.576    68 Ti   0.329
                            74 C    0.304    71 Ti   0.208    77 C    0.189
                            62 Ti   0.100
    70  22 Ti   4.437 --    90 O    1.732    76 C    0.648    73 C    0.526
                            92 O    0.216    67 Ti   0.210    64 Ti   0.166
                            75 C    0.162    72 Ti   0.152    68 Ti   0.142
    71  22 Ti   4.436 --    91 O    1.736    77 C    0.636    74 C    0.516
                            93 O    0.220    69 Ti   0.208    75 C    0.168
                            65 Ti   0.162    72 Ti   0.158    68 Ti   0.138
    72  22 Ti   4.459 --    92 O    1.113    93 O    1.110    75 C    0.503
                            78 C    0.433    79 C    0.429    66 Ti   0.271
                            71 Ti   0.158    70 Ti   0.152
    73   6 C    3.647 --    76 C    0.884    70 Ti   0.526    64 Ti   0.507
                            67 Ti   0.300    68 Ti   0.277    62 Ti   0.255
                            61 Ti   0.234
    74   6 C    3.651 --    77 C    0.875    71 Ti   0.516    65 Ti   0.500
                            69 Ti   0.304    68 Ti   0.268    63 Ti   0.262
                            62 Ti   0.247
    75   6 C    3.798 --    79 C    0.823    78 C    0.821    72 Ti   0.503
                            66 Ti   0.495    71 Ti   0.168    70 Ti   0.162
                            65 Ti   0.144    64 Ti   0.141
    76   6 C    3.298 --    73 C    0.884    64 Ti   0.658    70 Ti   0.648
                            78 C    0.233    67 Ti   0.189    61 Ti   0.146
    77   6 C    3.306 --    74 C    0.875    65 Ti   0.655    71 Ti   0.636
                            79 C    0.242    69 Ti   0.189    63 Ti   0.165
    78   6 C    3.321 --    75 C    0.821    72 Ti   0.433    66 Ti   0.430
                            92 O    0.405    85 O    0.359    76 C    0.233
                            79 C    0.137
    79   6 C    3.324 --    75 C    0.823    72 Ti   0.429    66 Ti   0.418
                            93 O    0.397    86 O    0.375    77 C    0.242
                            78 C    0.137
    80   8 O    2.271 --    61 Ti   2.014
    81   8 O    2.198 --    62 Ti   1.875
    82   8 O    2.235 --    63 Ti   1.977
    83   8 O    2.118 --    64 Ti   1.737
    84   8 O    2.112 --    65 Ti   1.718
    85   8 O    2.126 --    66 Ti   1.120    78 C    0.359    64 Ti   0.224
                            92 O    0.128
    86   8 O    2.155 --    66 Ti   1.123    79 C    0.375    65 Ti   0.227
                            93 O    0.132
    87   8 O    2.261 --    67 Ti   2.016
    88   8 O    2.223 --    68 Ti   1.898
    89   8 O    2.260 --    69 Ti   2.017
    90   8 O    2.120 --    70 Ti   1.732
    91   8 O    2.121 --    71 Ti   1.736
    92   8 O    2.150 --    72 Ti   1.113    78 C    0.405    70 Ti   0.216
                            85 O    0.128
    93   8 O    2.151 --    72 Ti   1.110    79 C    0.397    71 Ti   0.220
                            86 O    0.132
 ---------------------------------------------------------------------------

Topologies differ in total number of bonds
Writing topology from bond orders to xtbtopo.mol

molecular dipole:
                 x           y           z       tot (Debye)
 q only:       -0.382      -9.226       9.405
   full:        0.321      -3.604       6.386      18.656
molecular quadrupole (traceless):
                xx          xy          yy          xz          yz          zz
 q only:       53.269      16.717       1.182       3.577      -0.874     -54.451
  q+dip:       64.797      12.281      -1.053      11.583      16.777     -63.745
   full:       62.683      11.447       4.643       9.708      18.533     -67.326


           -------------------------------------------------
          | TOTAL ENERGY             -182.654477236022 Eh   |
          | GRADIENT NORM               5.382320656366 Eh/α |
          | HOMO-LUMO GAP               0.091928900207 eV   |
           -------------------------------------------------

------------------------------------------------------------------------
 * finished run on 2026/08/31 at 20:38:50.998     
------------------------------------------------------------------------
 total:
 * wall-time:     0 d,  0 h,  0 min,  2.202 sec
 *  cpu-time:     0 d,  0 h,  0 min, 18.453 sec
 * ratio c/w:     8.380 speedup
 SCF:
 * wall-time:     0 d,  0 h,  0 min,  2.144 sec
 *  cpu-time:     0 d,  0 h,  0 min, 18.016 sec
 * ratio c/w:     8.403 speedup

normal termination of xtb
