93
Drug@Ti3C2O2 complex
C     -3.456604     -4.916040      4.302268
O     -3.121022     -3.565479      4.588195
C     -1.789553     -3.242136      4.672605
C     -0.741940     -4.162567      4.556007
C      0.589790     -3.779992      4.652820
N      1.528803     -4.723052      4.539297
C      2.799580     -4.322880      4.645714
N      3.218084     -3.071260      4.845416
C      2.269199     -2.122392      4.940832
N      2.657960     -0.769039      5.118610
C      3.944711     -0.252721      5.423710
C      4.863691     -0.938248      6.230433
C      6.109427     -0.390418      6.576473
C      6.391117      0.891033      6.100623
N      7.481296      1.710959      6.242949
C      7.230131      2.883334      5.573882
C      8.210175      3.993142      5.528588
N      6.040032      2.857844      5.012040
C      5.502794      1.627110      5.323732
C      4.264970      1.051023      4.993967
F      3.368867      1.728459      4.254731
C      0.894538     -2.430557      4.865314
C     -0.161550     -1.491656      4.997698
C     -1.495981     -1.889668      4.903712
O     -2.570508     -1.046342      5.013419
C     -2.327304      0.313705      5.369551
C     -3.671913      1.037728      5.509289
C     -3.463071      2.540047      5.775634
C     -4.571050      3.166616      6.632022
N     -5.859951      2.559741      6.313980
C     -6.970587      3.298751      6.906333
C     -5.907874      1.139620      6.695751
C     -4.551574      0.424679      6.603915
H     -3.126449     -5.582424      5.105802
H     -3.050212     -5.228860      3.334810
H     -4.547109     -4.983907      4.241949
H     -0.938153     -5.217015      4.388444
H      3.563688     -5.087762      4.559945
H      2.220530     -0.191696      4.401461
H      4.615383     -1.926141      6.613465
H      6.809415     -0.944174      7.193314
H      8.324319      1.492261      6.753776
H      8.430761      4.353578      6.538033
H      7.816230      4.831376      4.945723
H      9.144171      3.663430      5.063299
H      0.087926     -0.452683      5.185404
H     -1.739683      0.800300      4.581444
H     -1.782656      0.361853      6.320901
H     -4.213543      0.922745      4.559400
H     -3.407595      3.056494      4.808572
H     -2.502602      2.718697      6.274929
H     -4.337473      3.049189      7.698545
H     -4.585245      4.244676      6.429096
H     -6.986702      4.330294      6.537530
H     -6.911575      3.325742      8.000359
H     -7.928142      2.848371      6.622013
H     -6.621807      0.636456      6.032401
H     -6.281926      1.011184      7.720027
H     -4.034145      0.501314      7.569442
H     -4.722095     -0.642643      6.421508
Ti     -3.000000     -2.600000      1.250000
Ti      0.000000     -2.600000      1.250000
Ti      3.000000     -2.600000      1.250000
Ti     -1.500000      0.000000      1.250000
Ti      1.500000      0.000000      1.250000
Ti      0.000000      2.600000      1.250000
Ti     -3.000000     -2.600000     -1.250000
Ti      0.000000     -2.600000     -1.250000
Ti      3.000000     -2.600000     -1.250000
Ti     -1.500000      0.000000     -1.250000
Ti      1.500000      0.000000     -1.250000
Ti      0.000000      2.600000     -1.250000
C     -1.500000     -1.300000      0.000000
C      1.500000     -1.300000      0.000000
C      0.000000      1.300000      0.000000
C     -3.000000      0.000000      0.000000
C      3.000000      0.000000      0.000000
C     -1.500000      2.600000      0.000000
C      1.500000      2.600000      0.000000
O     -3.000000     -2.600000      2.450000
O      0.000000     -2.600000      2.450000
O      3.000000     -2.600000      2.450000
O     -1.500000      0.000000      2.450000
O      1.500000      0.000000      2.450000
O     -1.500000      2.600000      2.450000
O      1.500000      2.600000      2.450000
O     -3.000000     -2.600000     -2.450000
O      0.000000     -2.600000     -2.450000
O      3.000000     -2.600000     -2.450000
O     -1.500000      0.000000     -2.450000
O      1.500000      0.000000     -2.450000
O     -1.500000      2.600000     -2.450000
O      1.500000      2.600000     -2.450000
