      -----------------------------------------------------------      
     |                   =====================                   |     
     |                           x T B                           |     
     |                   =====================                   |     
     |                         S. Grimme                         |     
     |          Mulliken Center for Theoretical Chemistry        |     
     |                    University of Bonn                     |     
      -----------------------------------------------------------      

   * xtb version 6.7.1pre (5071a88) compiled by 'Marcel@Raven' on 2024-07-23

   xtb is free software: you can redistribute it and/or modify it under
   the terms of the GNU Lesser General Public License as published by
   the Free Software Foundation, either version 3 of the License, or
   (at your option) any later version.
   
   xtb is distributed in the hope that it will be useful,
   but WITHOUT ANY WARRANTY; without even the implied warranty of
   MERCHANTABILITY or FITNESS FOR A PARTICULAR PURPOSE.  See the
   GNU Lesser General Public License for more details.
   
   Cite this work as:
   * C. Bannwarth, E. Caldeweyher, S. Ehlert, A. Hansen, P. Pracht,
     J. Seibert, S. Spicher, S. Grimme, WIREs Comput. Mol. Sci., 2020, 11,
     e01493. DOI: 10.1002/wcms.1493
   
   for GFN2-xTB:
   * C. Bannwarth, S. Ehlert and S. Grimme., J. Chem. Theory Comput., 2019,
     15, 1652-1671. DOI: 10.1021/acs.jctc.8b01176
   for GFN1-xTB:
   * S. Grimme, C. Bannwarth, P. Shushkov, J. Chem. Theory Comput., 2017,
     13, 1989-2009. DOI: 10.1021/acs.jctc.7b00118
   for GFN0-xTB:
   * P. Pracht, E. Caldeweyher, S. Ehlert, S. Grimme, ChemRxiv, 2019, preprint.
     DOI: 10.26434/chemrxiv.8326202.v1
   for GFN-FF:
   * S. Spicher and S. Grimme, Angew. Chem. Int. Ed., 2020, 59, 15665-15673.
     DOI: 10.1002/anie.202004239
   
   for ALPB and GBSA implicit solvation:
   * S. Ehlert, M. Stahn, S. Spicher, S. Grimme, J. Chem. Theory Comput.,
     2021, 17, 4250-4261. DOI: 10.1021/acs.jctc.1c00471
   
   for ddCOSMO and CPCM-X implicit solvation:
   * M. Stahn, S. Ehlert, S. Grimme, J. Phys. Chem. A,
     2023, XX, XXXX-XXXX. DOI: 10.1021/acs.jpca.3c04382
   
   for DFT-D4:
   * E. Caldeweyher, C. Bannwarth and S. Grimme, J. Chem. Phys., 2017,
     147, 034112. DOI: 10.1063/1.4993215
   * E. Caldeweyher, S. Ehlert, A. Hansen, H. Neugebauer, S. Spicher,
     C. Bannwarth and S. Grimme, J. Chem. Phys., 2019, 150, 154122.
     DOI: 10.1063/1.5090222
   * E. Caldeweyher, J.-M. Mewes, S. Ehlert and S. Grimme, Phys. Chem. Chem. Phys.
     2020, 22, 8499-8512. DOI: 10.1039/D0CP00502A
   
   for sTDA-xTB:
   * S. Grimme and C. Bannwarth, J. Chem. Phys., 2016, 145, 054103.
     DOI: 10.1063/1.4959605
   
   in the mass-spec context:
   * V. Asgeirsson, C. Bauer and S. Grimme, Chem. Sci., 2017, 8, 4879.
     DOI: 10.1039/c7sc00601b
   * J. Koopman and S. Grimme, ACS Omega 2019, 4, 12, 15120-15133.
     DOI: 10.1021/acsomega.9b02011
   
   for metadynamics refer to:
   * S. Grimme, J. Chem. Theory Comput., 2019, 155, 2847-2862
     DOI: 10.1021/acs.jctc.9b00143
   
   for SPH calculations refer to:
   * S. Spicher and S. Grimme, J. Chem. Theory Comput., 2021, 17, 1701-1714
     DOI: 10.1021/acs.jctc.0c01306
   
   for ONIOM refer to:
   * C. Plett, A. Katbashev, S. Ehlert, S. Grimme, M. Bursch,
     Phys. Chem. Chem. Phys., 2023, 25, 17860-17868. DOI: 10.1039/D3CP02178E
   
   for DIPRO refer to:
   * J. Kohn, N. Gildemeister, S. Grimme, D. Fazzi, A. Hansen,
     J. Chem. Phys., 2023, just accepted.
   
   for PTB refer to:
   * S. Grimme, M. Mueller, A. Hansen, J. Chem. Phys., 2023, 158, 124111.
     DOI: 10.1063/5.0137838
   
   with help from (in alphabetical order)
   P. Atkinson, C. Bannwarth, F. Bohle, G. Brandenburg, E. Caldeweyher
   M. Checinski, S. Dohm, S. Ehlert, S. Ehrlich, I. Gerasimov, C. Hölzer
   A. Katbashev, J. Kohn, J. Koopman, C. Lavigne, S. Lehtola, F. März, M. Müller,
   F. Musil, H. Neugebauer, J. Pisarek, C. Plett, P. Pracht, F. Pultar,
   J. Seibert, P. Shushkov, S. Spicher, M. Stahn, M. Steiner, T. Strunk,
   J. Stückrath, T. Rose, and J. Unsleber
   
 * started run on 2026/08/31 at 21:56:12.494     
   ID    Z sym.   atoms
    1    6 C      1, 3-6, 8-11, 13, 15, 17, 19-21, 23-26, 28-30, 67-73
    2    8 O      2, 22, 74-87
    3    7 N      7, 16, 18, 27
    4   17 Cl     12
    5    9 F      14
    6    1 H      31-54
    7   22 Ti     55-66

           -------------------------------------------------
          |                Calculation Setup                |
           -------------------------------------------------

          program call               : "c:\Users\Andre\Proyectos doctorado\kras-pancreatic-gC3N4-ai\tools\xtb\xtb-6.7.1\bin\xtb.exe" "c:\Users\Andre\Proyectos doctorado\mxene-glioblastoma-qsar-ai\calculations\gbm\Cediranib\Cediranib_Ti12C7O14_clean_complex.xyz" --gfn 2 --sp --chrg 0 --uhf 0 --etemp 500 --acc 1.0 --iterations 500 --norestart
          coordinate file            : c:\Users\Andre\Proyectos doctorado\mxene-glioblastoma-qsar-ai\calculations\gbm\Cediranib\Cediranib_Ti12C7O14_clean_complex.xyz
          omp threads                :                    16


molecular fragmentation (1/2 indicates fragments):
111111111111111111111111111111111111111111111111111111222222222222222222
222222222222222
# atoms in fragment 1/2:    54    33
 fragment masses (1/2) :      430.90      882.47
CMA distance (Bohr)    :  18.608
constraining FC (au)   :  0.0500

           -------------------------------------------------
          |                 G F N 2 - x T B                 |
           -------------------------------------------------

        Reference                      10.1021/acs.jctc.8b01176
      * Hamiltonian:
        H0-scaling (s, p, d)           1.850000    2.230000    2.230000
        zeta-weighting                 0.500000
      * Dispersion:
        s8                             2.700000
        a1                             0.520000
        a2                             5.000000
        s9                             5.000000
      * Repulsion:
        kExp                           1.500000    1.000000
        rExp                           1.000000
      * Coulomb:
        alpha                          2.000000
        third order                    shell-resolved
        anisotropic                    true
        a3                             3.000000
        a5                             4.000000
        cn-shift                       1.200000
        cn-exp                         4.000000
        max-rad                        5.000000


          ...................................................
          :                      SETUP                      :
          :.................................................:
          :  # basis functions                 354          :
          :  # atomic orbitals                 341          :
          :  # shells                          163          :
          :  # electrons                       318          :
          :  max. iterations                   500          :
          :  Hamiltonian                  GFN2-xTB          :
          :  restarted?                      false          :
          :  GBSA solvation                  false          :
          :  PC potential                    false          :
          :  electronic temp.          500.0000000     K    :
          :  accuracy                    1.0000000          :
          :  -> integral cutoff          0.2500000E+02      :
          :  -> integral neglect         0.1000000E-07      :
          :  -> SCF convergence          0.1000000E-05 Eh   :
          :  -> wf. convergence          0.1000000E-03 e    :
          :  Broyden damping             0.4000000          :
          :  net charge                          0          :
          :  unpaired electrons                  0          :
          ...................................................

 iter      E             dE          RMSdq      gap      omega  full diag
   1   -179.4872734 -0.179487E+03  0.132E+01    0.11       0.0  T
   2   -144.1190465  0.353682E+02  0.141E+01    0.06       1.0  T
   3    -16.6011069  0.127518E+03  0.269E+01    0.01       1.0  T
   4   -153.1668489 -0.136566E+03  0.126E+01    0.18       1.0  T
   5    -92.2854983  0.608814E+02  0.160E+01    0.11       1.0  T
   6   -180.1955021 -0.879100E+02  0.740E+00    0.35       1.0  T
   7   -180.9609243 -0.765422E+00  0.605E+00    0.23       1.0  T
   8   -181.7236550 -0.762731E+00  0.528E+00    0.56       1.0  T
   9   -181.8250722 -0.101417E+00  0.475E+00    0.35       1.0  T
  10   -181.5127606  0.312312E+00  0.443E+00    0.03       1.0  T
  11   -181.8246163 -0.311856E+00  0.332E+00    0.19       1.0  T
  12   -181.8616112 -0.369949E-01  0.265E+00    0.12       1.0  T
  13   -181.5691768  0.292434E+00  0.380E+00    0.03       1.0  T
  14   -181.7603859 -0.191209E+00  0.305E+00    0.04       1.0  T
  15   -181.4822676  0.278118E+00  0.360E+00    0.06       1.0  T
  16   -182.0032862 -0.521019E+00  0.197E+00    0.18       1.0  T
  17   -182.1903456 -0.187059E+00  0.127E+00    0.55       1.0  T
  18   -182.2148084 -0.244629E-01  0.118E+00    0.77       1.0  T
  19   -182.2224852 -0.767681E-02  0.109E+00    0.80       1.0  T
  20   -182.2287946 -0.630935E-02  0.102E+00    0.79       1.0  T
  21   -182.2473744 -0.185798E-01  0.780E-01    0.76       1.0  T
  22   -182.2509782 -0.360376E-02  0.692E-01    0.55       1.0  T
  23   -182.2604500 -0.947182E-02  0.523E-01    0.56       1.0  T
  24   -182.2647440 -0.429396E-02  0.408E-01    0.59       1.0  T
  25   -182.2665682 -0.182425E-02  0.330E-01    0.59       1.0  T
  26   -182.2672671 -0.698921E-03  0.262E-01    0.56       1.0  T
  27   -182.2680284 -0.761309E-03  0.217E-01    0.57       1.0  T
  28   -182.2688404 -0.811981E-03  0.163E-01    0.63       1.0  T
  29   -182.2693124 -0.471988E-03  0.117E-01    0.65       1.0  T
  30   -182.2694358 -0.123435E-03  0.836E-02    0.64       1.0  T
  31   -182.2695241 -0.882797E-04  0.556E-02    0.66       1.0  T
  32   -182.2695941 -0.700146E-04  0.377E-02    0.66       1.0  T
  33   -182.2696222 -0.280618E-04  0.306E-02    0.65       1.0  T
  34   -182.2696358 -0.136114E-04  0.233E-02    0.66       1.0  T
  35   -182.2696483 -0.125153E-04  0.196E-02    0.64       1.0  T
  36   -182.2696575 -0.920987E-05  0.170E-02    0.63       1.0  T
  37   -182.2696650 -0.745754E-05  0.148E-02    0.61       1.0  T
  38   -182.2696706 -0.561197E-05  0.114E-02    0.60       1.0  T
  39   -182.2696745 -0.392458E-05  0.946E-03    0.59       1.1  T
  40   -182.2696774 -0.283332E-05  0.679E-03    0.58       1.6  T
  41   -182.2696786 -0.119533E-05  0.450E-03    0.57       2.4  T
  42   -182.2696793 -0.780395E-06  0.248E-03    0.57       4.3  T
  43   -182.2696797 -0.371519E-06  0.113E-03    0.56       9.5  T
  44   -182.2696798 -0.638321E-07  0.712E-04    0.56      15.1  T
  45   -182.2696798 -0.432337E-08  0.655E-04    0.56      16.4  T

   *** convergence criteria satisfied after 45 iterations ***

         #    Occupation            Energy/Eh            Energy/eV
      -------------------------------------------------------------
         1        2.0000           -1.0512859             -28.6069
       ...           ...                  ...                  ...
       153        2.0000           -0.3589212              -9.7667
       154        2.0000           -0.3547048              -9.6520
       155        2.0000           -0.3496845              -9.5154
       156        2.0000           -0.3419993              -9.3063
       157        2.0000           -0.3395154              -9.2387
       158        2.0000           -0.3279221              -8.9232
       159        1.9965           -0.3133601              -8.5270 (HOMO)
       160        0.0027           -0.2928518              -7.9689 (LUMO)
       161        0.0004           -0.2899004              -7.8886
       162        0.0002           -0.2885675              -7.8523
       163        0.0001           -0.2879920              -7.8367
       164        0.0001           -0.2876139              -7.8264
       ...           ...                  ...                  ...
       341                         13.3239110             362.5621
      -------------------------------------------------------------
                  HL-Gap            0.0205083 Eh            0.5581 eV
             Fermi-level           -0.3033200 Eh           -8.2538 eV

 SCC (total)                   0 d,  0 h,  0 min,  3.447 sec
 SCC setup                      ...        0 min,  0.002 sec (  0.058%)
 Dispersion                     ...        0 min,  0.003 sec (  0.087%)
 classical contributions        ...        0 min,  0.000 sec (  0.000%)
 integral evaluation            ...        0 min,  0.013 sec (  0.377%)
 iterations                     ...        0 min,  3.378 sec ( 97.998%)
 molecular gradient             ...        0 min,  0.048 sec (  1.393%)
 printout                       ...        0 min,  0.003 sec (  0.087%)

         :::::::::::::::::::::::::::::::::::::::::::::::::::::
         ::                     SUMMARY                     ::
         :::::::::::::::::::::::::::::::::::::::::::::::::::::
         :: total energy            -180.511151187670 Eh    ::
         :: gradient norm              0.103802863114 Eh/a0 ::
         :: HOMO-LUMO gap              0.558058635387 eV    ::
         ::.................................................::
         :: SCC energy              -182.267374346980 Eh    ::
         :: -> isotropic ES            0.979025913469 Eh    ::
         :: -> anisotropic ES         -0.370144361216 Eh    ::
         :: -> anisotropic XC         -0.025474311958 Eh    ::
         :: -> dispersion             -0.148080190165 Eh    ::
         :: repulsion energy           1.756223159310 Eh    ::
         :: add. restraining           0.000000000000 Eh    ::
         :: total charge               0.000000000015 e     ::
         :::::::::::::::::::::::::::::::::::::::::::::::::::::

           -------------------------------------------------
          |                Property Printout                |
           -------------------------------------------------

    * Orbital Energies and Occupations

         #    Occupation            Energy/Eh            Energy/eV
      -------------------------------------------------------------
         1        2.0000           -1.0512859             -28.6069
       ...           ...                  ...                  ...
       147        2.0000           -0.3815485             -10.3825
       148        2.0000           -0.3802836             -10.3480
       149        2.0000           -0.3738221             -10.1722
       150        2.0000           -0.3685686             -10.0293
       151        2.0000           -0.3654711              -9.9450
       152        2.0000           -0.3632137              -9.8835
       153        2.0000           -0.3589212              -9.7667
       154        2.0000           -0.3547048              -9.6520
       155        2.0000           -0.3496845              -9.5154
       156        2.0000           -0.3419993              -9.3063
       157        2.0000           -0.3395154              -9.2387
       158        2.0000           -0.3279221              -8.9232
       159        1.9965           -0.3133601              -8.5270 (HOMO)
       160        0.0027           -0.2928518              -7.9689 (LUMO)
       161        0.0004           -0.2899004              -7.8886
       162        0.0002           -0.2885675              -7.8523
       163        0.0001           -0.2879920              -7.8367
       164        0.0001           -0.2876139              -7.8264
       165        0.0000           -0.2842533              -7.7349
       166        0.0000           -0.2790844              -7.5943
       167        0.0000           -0.2780097              -7.5650
       168                         -0.2760508              -7.5117
       169                         -0.2757802              -7.5044
       170                         -0.2753933              -7.4938
       ...                                ...                  ...
       341                         13.3239110             362.5621
      -------------------------------------------------------------
                  HL-Gap            0.0205083 Eh            0.5581 eV
             Fermi-level           -0.3033200 Eh           -8.2538 eV

     #   Z          covCN         q      C6AA      α(0)
     1   6 C        3.639     0.024    20.526     6.516
     2   8 O        1.703    -0.261    18.330     5.780
     3   6 C        2.850     0.124    25.278     8.240
     4   6 C        2.915    -0.086    30.154     9.005
     5   6 C        2.980    -0.033    28.807     8.804
     6   6 C        2.892     0.159    24.564     8.126
     7   7 N        2.689    -0.173    24.736     7.387
     8   6 C        2.891     0.078    26.265     8.402
     9   6 C        2.916    -0.049    29.221     8.864
    10   6 C        2.949    -0.043    29.056     8.841
    11   6 C        2.879     0.072    26.388     8.421
    12  17 Cl       0.963    -0.144   103.666    15.577
    13   6 C        2.805     0.163    24.470     8.104
    14   9 F        0.787    -0.203    11.264     3.964
    15   6 C        2.919    -0.077    29.921     8.970
    16   7 N        1.831    -0.271    27.889     7.826
    17   6 C        2.882     0.140    24.943     8.188
    18   7 N        1.844    -0.260    27.605     7.787
    19   6 C        2.984     0.102    25.729     8.320
    20   6 C        2.932    -0.070    29.754     8.946
    21   6 C        2.866     0.131    25.124     8.216
    22   8 O        1.703    -0.272    18.515     5.810
    23   6 C        3.699     0.073    19.509     6.317
    24   6 C        3.850    -0.024    20.972     6.514
    25   6 C        3.801    -0.066    21.759     6.641
    26   6 C        3.752     0.006    20.536     6.463
    27   7 N        2.722    -0.177    24.836     7.402
    28   6 C        3.703    -0.040    21.436     6.620
    29   6 C        3.748     0.002    20.603     6.474
    30   6 C        3.802    -0.066    21.758     6.641
    31   1 H        0.924     0.069     2.092     2.262
    32   1 H        0.924     0.050     2.321     2.383
    33   1 H        0.924     0.050     2.319     2.382
    34   1 H        0.925     0.049     2.332     2.388
    35   1 H        0.860     0.181     1.210     1.723
    36   1 H        0.925     0.073     2.050     2.239
    37   1 H        0.925     0.074     2.044     2.236
    38   1 H        0.925     0.063     2.166     2.302
    39   1 H        0.925     0.050     2.323     2.383
    40   1 H        0.925     0.081     1.965     2.192
    41   1 H        0.923     0.031     2.571     2.508
    42   1 H        0.924     0.048     2.349     2.397
    43   1 H        0.923     0.049     2.336     2.390
    44   1 H        0.924     0.046     2.368     2.407
    45   1 H        0.923     0.046     2.367     2.406
    46   1 H        0.923     0.012     2.856     2.643
    47   1 H        0.924     0.035     2.516     2.480
    48   1 H        0.924     0.040     2.454     2.450
    49   1 H        0.924     0.015     2.808     2.621
    50   1 H        0.924     0.037     2.485     2.465
    51   1 H        0.924     0.036     2.509     2.477
    52   1 H        0.924     0.038     2.472     2.459
    53   1 H        0.923     0.031     2.572     2.508
    54   1 H        0.924     0.033     2.548     2.496
    55  22 Ti       3.637     1.052   101.777    24.486
    56  22 Ti       6.855     1.550    84.062    14.886
    57  22 Ti       3.227     1.050   102.622    24.736
    58  22 Ti       5.860     1.380    85.669    15.027
    59  22 Ti       5.627     1.119    88.227    15.250
    60  22 Ti       3.541     1.039   102.477    24.672
    61  22 Ti       2.352     0.882   202.641    34.855
    62  22 Ti       6.011     1.349    85.968    15.053
    63  22 Ti       3.414     1.010   103.035    24.777
    64  22 Ti       5.519     1.097    88.449    15.269
    65  22 Ti       5.687     1.191    87.513    15.188
    66  22 Ti       3.581     1.027   102.461    24.641
    67   6 C        2.246    -0.258    37.643     9.940
    68   6 C        2.142    -0.254    38.284    10.002
    69   6 C        2.248    -0.020    30.624     8.966
    70   6 C        1.838    -0.209    37.290     9.865
    71   6 C        1.894    -0.223    37.705     9.917
    72   6 C        1.821    -0.347    42.185    10.494
    73   6 C        2.631    -0.404    39.935    10.337
    74   8 O        1.554    -0.847    31.985     7.630
    75   8 O        1.464    -0.880    33.200     7.767
    76   8 O        1.557    -0.956    35.590     8.049
    77   8 O        1.523    -1.007    37.478     8.257
    78   8 O        1.523    -0.912    34.149     7.882
    79   8 O        1.458    -0.821    31.358     7.547
    80   8 O        1.455    -0.798    30.663     7.463
    81   8 O        0.727    -0.634    27.055     6.970
    82   8 O        1.453    -0.864    32.692     7.706
    83   8 O        1.476    -0.799    30.661     7.465
    84   8 O        1.603    -0.946    35.194     8.007
    85   8 O        1.547    -0.969    36.089     8.105
    86   8 O        1.700    -0.817    30.962     7.513
    87   8 O        1.453    -0.780    30.151     7.400

 Mol. C6AA /au·bohr⁶  :     180698.758217
 Mol. C8AA /au·bohr⁸  :    7696385.841878
 Mol. α(0) /au        :        716.484246


Wiberg/Mayer (AO) data.
largest (>0.10) Wiberg bond orders for each atom

 ---------------------------------------------------------------------------
     #   Z sym  total        # sym  WBO       # sym  WBO       # sym  WBO
 ---------------------------------------------------------------------------
     1   6 C    3.938 --    31 H    0.978     2 O    0.978    33 H    0.977
                            32 H    0.976
     2   8 O    2.231 --     3 C    1.068     1 C    0.978
     3   6 C    3.936 --     4 C    1.451    21 C    1.235     2 O    1.068
     4   6 C    3.980 --     3 C    1.451     5 C    1.280    34 H    0.962
                            20 C    0.109
     5   6 C    3.986 --     4 C    1.280     6 C    1.247    19 C    1.225
     6   6 C    3.960 --    16 N    1.411     5 C    1.247     7 N    1.088
     7   7 N    3.379 --     8 C    1.104     6 C    1.088    35 H    0.925
     8   6 C    3.970 --    15 C    1.360     9 C    1.359     7 N    1.104
     9   6 C    3.980 --    10 C    1.453     8 C    1.359    36 H    0.964
    10   6 C    3.985 --     9 C    1.453    11 C    1.392    37 H    0.966
                            15 C    0.101
    11   6 C    3.917 --    10 C    1.392    13 C    1.350    12 Cl   0.991
    12  17 Cl   1.129 --    11 C    0.991
    13   6 C    3.892 --    15 C    1.403    11 C    1.350    14 F    0.976
    14   9 F    1.113 --    13 C    0.976
    15   6 C    3.975 --    13 C    1.403     8 C    1.360    38 H    0.963
                            10 C    0.101
    16   7 N    3.042 --     6 C    1.411    17 C    1.365
    17   6 C    3.958 --    18 N    1.489    16 N    1.365    39 H    0.958
    18   7 N    3.039 --    17 C    1.489    19 C    1.292
    19   6 C    3.983 --    20 C    1.292    18 N    1.292     5 C    1.225
    20   6 C    3.979 --    21 C    1.453    19 C    1.292    40 H    0.962
                             4 C    0.109
    21   6 C    3.945 --    20 C    1.453     3 C    1.235    22 O    1.064
    22   8 O    2.188 --    21 C    1.064    23 C    0.947
    23   6 C    3.936 --    24 C    0.988    41 H    0.972    42 H    0.968
                            22 O    0.947
    24   6 C    3.990 --    25 C    0.993    30 C    0.993    23 C    0.988
                            43 H    0.970
    25   6 C    3.995 --    26 C    1.009    24 C    0.993    45 H    0.978
                            44 H    0.973
    26   6 C    3.988 --    25 C    1.009    27 N    0.998    47 H    0.972
                            46 H    0.966
    27   7 N    3.108 --    28 C    1.017    29 C    1.000    26 C    0.998
    28   6 C    3.987 --    27 N    1.017    50 H    0.983    48 H    0.982
                            49 H    0.975
    29   6 C    3.987 --    30 C    1.001    27 N    1.000    51 H    0.973
                            52 H    0.971
    30   6 C    3.996 --    29 C    1.001    24 C    0.993    54 H    0.977
                            53 H    0.975
    31   1 H    0.995 --     1 C    0.978
    32   1 H    0.996 --     1 C    0.976
    33   1 H    0.997 --     1 C    0.977
    34   1 H    0.997 --     4 C    0.962
    35   1 H    0.967 --     7 N    0.925
    36   1 H    0.995 --     9 C    0.964
    37   1 H    0.994 --    10 C    0.966
    38   1 H    0.996 --    15 C    0.963
    39   1 H    0.997 --    17 C    0.958
    40   1 H    0.992 --    20 C    0.962
    41   1 H    0.998 --    23 C    0.972
    42   1 H    0.997 --    23 C    0.968
    43   1 H    0.998 --    24 C    0.970
    44   1 H    0.998 --    25 C    0.973
    45   1 H    0.998 --    25 C    0.978
    46   1 H    0.999 --    26 C    0.966
    47   1 H    0.999 --    26 C    0.972
    48   1 H    0.998 --    28 C    0.982
    49   1 H    1.000 --    28 C    0.975
    50   1 H    0.999 --    28 C    0.983
    51   1 H    0.998 --    29 C    0.973
    52   1 H    0.999 --    29 C    0.971
    53   1 H    0.999 --    30 C    0.975
    54   1 H    0.999 --    30 C    0.977
    55  22 Ti   2.824 --    74 O    0.845    75 O    0.814    61 Ti   0.331
                            56 Ti   0.202    58 Ti   0.199
    56  22 Ti   3.854 --    75 O    0.753    78 O    0.747    76 O    0.692
                            77 O    0.606    55 Ti   0.202    57 Ti   0.188
                            59 Ti   0.138    60 Ti   0.134
    57  22 Ti   2.722 --    83 O    0.962    76 O    0.598    63 Ti   0.372
                            56 Ti   0.188    61 Ti   0.140    78 O    0.110
    58  22 Ti   3.917 --    79 O    0.936    67 C    0.721    74 O    0.707
                            77 O    0.562    60 Ti   0.208    55 Ti   0.199
                            64 Ti   0.177    84 O    0.124
    59  22 Ti   4.073 --    73 C    0.895    80 O    0.768    71 C    0.745
                            78 O    0.601    65 Ti   0.284    60 Ti   0.173
                            72 C    0.161    68 C    0.153    56 Ti   0.138
    60  22 Ti   2.642 --    80 O    0.977    79 O    0.712    58 Ti   0.208
                            59 Ti   0.173    56 Ti   0.134    75 O    0.123
    61  22 Ti   3.769 --    81 O    1.997    62 Ti   0.608    55 Ti   0.331
                            76 O    0.153    74 O    0.147    57 Ti   0.140
                            84 O    0.112
    62  22 Ti   4.017 --    84 O    0.802    82 O    0.753    85 O    0.714
                            61 Ti   0.608    86 O    0.196    63 Ti   0.166
                            66 Ti   0.148    64 Ti   0.141
    63  22 Ti   2.745 --    82 O    0.834    83 O    0.764    57 Ti   0.372
                            66 Ti   0.220    62 Ti   0.166    65 Ti   0.130
    64  22 Ti   4.009 --    72 C    1.056    70 C    0.726    86 O    0.615
                            84 O    0.442    73 C    0.231    66 Ti   0.200
                            58 Ti   0.177    67 C    0.155    62 Ti   0.141
    65  22 Ti   4.080 --    87 O    0.969    68 C    0.670    73 C    0.651
                            85 O    0.442    59 Ti   0.284    66 Ti   0.211
                            72 C    0.140    63 Ti   0.130    83 O    0.114
    66  22 Ti   2.790 --    86 O    0.900    87 O    0.734    63 Ti   0.220
                            65 Ti   0.211    64 Ti   0.200    62 Ti   0.148
    67   6 C    3.843 --    70 C    2.739    58 Ti   0.721    64 Ti   0.155
    68   6 C    3.782 --    71 C    2.732    65 Ti   0.670    59 Ti   0.153
    69   6 C    3.979 --    72 C    2.008    73 C    1.603
    70   6 C    3.705 --    67 C    2.739    64 Ti   0.726
    71   6 C    3.750 --    68 C    2.732    59 Ti   0.745
    72   6 C    3.767 --    69 C    2.008    64 Ti   1.056    59 Ti   0.161
                            65 Ti   0.140
    73   6 C    3.828 --    69 C    1.603    59 Ti   0.895    65 Ti   0.651
                            64 Ti   0.231
    74   8 O    1.935 --    55 Ti   0.845    58 Ti   0.707    61 Ti   0.147
    75   8 O    1.894 --    55 Ti   0.814    56 Ti   0.753    60 Ti   0.123
    76   8 O    1.783 --    56 Ti   0.692    57 Ti   0.598    61 Ti   0.153
    77   8 O    1.720 --    56 Ti   0.606    58 Ti   0.562
    78   8 O    1.848 --    56 Ti   0.747    59 Ti   0.601    57 Ti   0.110
    79   8 O    1.973 --    58 Ti   0.936    60 Ti   0.712
    80   8 O    2.015 --    60 Ti   0.977    59 Ti   0.768
    81   8 O    2.172 --    61 Ti   1.997
    82   8 O    1.911 --    63 Ti   0.834    62 Ti   0.753
    83   8 O    2.008 --    57 Ti   0.962    63 Ti   0.764    65 Ti   0.114
    84   8 O    1.799 --    62 Ti   0.802    64 Ti   0.442    58 Ti   0.124
                            61 Ti   0.112
    85   8 O    1.772 --    62 Ti   0.714    65 Ti   0.442
    86   8 O    1.987 --    66 Ti   0.900    64 Ti   0.615    62 Ti   0.196
    87   8 O    2.032 --    65 Ti   0.969    66 Ti   0.734
 ---------------------------------------------------------------------------

Topologies differ in total number of bonds
Writing topology from bond orders to xtbtopo.mol

molecular dipole:
                 x           y           z       tot (Debye)
 q only:       -1.091      -0.008      -1.467
   full:       -1.811       0.437      -1.153       5.570
molecular quadrupole (traceless):
                xx          xy          yy          xz          yz          zz
 q only:      -60.116      -1.520      28.864     -66.170      20.275      31.253
  q+dip:      -39.437      -9.175      21.255     -19.505      26.068      18.182
   full:      -37.908      -7.126      19.928     -17.259      29.502      17.981


           -------------------------------------------------
          | TOTAL ENERGY             -180.511151187670 Eh   |
          | GRADIENT NORM               0.103802863114 Eh/α |
          | HOMO-LUMO GAP               0.558058635387 eV   |
           -------------------------------------------------

------------------------------------------------------------------------
 * finished run on 2026/08/31 at 21:56:16.010     
------------------------------------------------------------------------
 total:
 * wall-time:     0 d,  0 h,  0 min,  3.514 sec
 *  cpu-time:     0 d,  0 h,  0 min, 11.391 sec
 * ratio c/w:     3.241 speedup
 SCF:
 * wall-time:     0 d,  0 h,  0 min,  3.448 sec
 *  cpu-time:     0 d,  0 h,  0 min, 11.234 sec
 * ratio c/w:     3.258 speedup

normal termination of xtb
