      -----------------------------------------------------------      
     |                   =====================                   |     
     |                           x T B                           |     
     |                   =====================                   |     
     |                         S. Grimme                         |     
     |          Mulliken Center for Theoretical Chemistry        |     
     |                    University of Bonn                     |     
      -----------------------------------------------------------      

   * xtb version 6.7.1pre (5071a88) compiled by 'Marcel@Raven' on 2024-07-23

   xtb is free software: you can redistribute it and/or modify it under
   the terms of the GNU Lesser General Public License as published by
   the Free Software Foundation, either version 3 of the License, or
   (at your option) any later version.
   
   xtb is distributed in the hope that it will be useful,
   but WITHOUT ANY WARRANTY; without even the implied warranty of
   MERCHANTABILITY or FITNESS FOR A PARTICULAR PURPOSE.  See the
   GNU Lesser General Public License for more details.
   
   Cite this work as:
   * C. Bannwarth, E. Caldeweyher, S. Ehlert, A. Hansen, P. Pracht,
     J. Seibert, S. Spicher, S. Grimme, WIREs Comput. Mol. Sci., 2020, 11,
     e01493. DOI: 10.1002/wcms.1493
   
   for GFN2-xTB:
   * C. Bannwarth, S. Ehlert and S. Grimme., J. Chem. Theory Comput., 2019,
     15, 1652-1671. DOI: 10.1021/acs.jctc.8b01176
   for GFN1-xTB:
   * S. Grimme, C. Bannwarth, P. Shushkov, J. Chem. Theory Comput., 2017,
     13, 1989-2009. DOI: 10.1021/acs.jctc.7b00118
   for GFN0-xTB:
   * P. Pracht, E. Caldeweyher, S. Ehlert, S. Grimme, ChemRxiv, 2019, preprint.
     DOI: 10.26434/chemrxiv.8326202.v1
   for GFN-FF:
   * S. Spicher and S. Grimme, Angew. Chem. Int. Ed., 2020, 59, 15665-15673.
     DOI: 10.1002/anie.202004239
   
   for ALPB and GBSA implicit solvation:
   * S. Ehlert, M. Stahn, S. Spicher, S. Grimme, J. Chem. Theory Comput.,
     2021, 17, 4250-4261. DOI: 10.1021/acs.jctc.1c00471
   
   for ddCOSMO and CPCM-X implicit solvation:
   * M. Stahn, S. Ehlert, S. Grimme, J. Phys. Chem. A,
     2023, XX, XXXX-XXXX. DOI: 10.1021/acs.jpca.3c04382
   
   for DFT-D4:
   * E. Caldeweyher, C. Bannwarth and S. Grimme, J. Chem. Phys., 2017,
     147, 034112. DOI: 10.1063/1.4993215
   * E. Caldeweyher, S. Ehlert, A. Hansen, H. Neugebauer, S. Spicher,
     C. Bannwarth and S. Grimme, J. Chem. Phys., 2019, 150, 154122.
     DOI: 10.1063/1.5090222
   * E. Caldeweyher, J.-M. Mewes, S. Ehlert and S. Grimme, Phys. Chem. Chem. Phys.
     2020, 22, 8499-8512. DOI: 10.1039/D0CP00502A
   
   for sTDA-xTB:
   * S. Grimme and C. Bannwarth, J. Chem. Phys., 2016, 145, 054103.
     DOI: 10.1063/1.4959605
   
   in the mass-spec context:
   * V. Asgeirsson, C. Bauer and S. Grimme, Chem. Sci., 2017, 8, 4879.
     DOI: 10.1039/c7sc00601b
   * J. Koopman and S. Grimme, ACS Omega 2019, 4, 12, 15120-15133.
     DOI: 10.1021/acsomega.9b02011
   
   for metadynamics refer to:
   * S. Grimme, J. Chem. Theory Comput., 2019, 155, 2847-2862
     DOI: 10.1021/acs.jctc.9b00143
   
   for SPH calculations refer to:
   * S. Spicher and S. Grimme, J. Chem. Theory Comput., 2021, 17, 1701-1714
     DOI: 10.1021/acs.jctc.0c01306
   
   for ONIOM refer to:
   * C. Plett, A. Katbashev, S. Ehlert, S. Grimme, M. Bursch,
     Phys. Chem. Chem. Phys., 2023, 25, 17860-17868. DOI: 10.1039/D3CP02178E
   
   for DIPRO refer to:
   * J. Kohn, N. Gildemeister, S. Grimme, D. Fazzi, A. Hansen,
     J. Chem. Phys., 2023, just accepted.
   
   for PTB refer to:
   * S. Grimme, M. Mueller, A. Hansen, J. Chem. Phys., 2023, 158, 124111.
     DOI: 10.1063/5.0137838
   
   with help from (in alphabetical order)
   P. Atkinson, C. Bannwarth, F. Bohle, G. Brandenburg, E. Caldeweyher
   M. Checinski, S. Dohm, S. Ehlert, S. Ehrlich, I. Gerasimov, C. Hölzer
   A. Katbashev, J. Kohn, J. Koopman, C. Lavigne, S. Lehtola, F. März, M. Müller,
   F. Musil, H. Neugebauer, J. Pisarek, C. Plett, P. Pracht, F. Pultar,
   J. Seibert, P. Shushkov, S. Spicher, M. Stahn, M. Steiner, T. Strunk,
   J. Stückrath, T. Rose, and J. Unsleber
   
 * started run on 2026/08/31 at 21:56:12.127     
   ID    Z sym.   atoms
    1    6 C      1, 3-6, 8-11, 13, 15, 17, 19-21, 23-26, 28-30
    2    8 O      2, 22
    3    7 N      7, 16, 18, 27
    4   17 Cl     12
    5    9 F      14
    6    1 H      31-54

           -------------------------------------------------
          |                Calculation Setup                |
           -------------------------------------------------

          program call               : "c:\Users\Andre\Proyectos doctorado\kras-pancreatic-gC3N4-ai\tools\xtb\xtb-6.7.1\bin\xtb.exe" "c:\Users\Andre\Proyectos doctorado\mxene-glioblastoma-qsar-ai\calculations\gbm\Cediranib\Cediranib_drug.xyz" --gfn 2 --sp --chrg 0 --uhf 0 --etemp 500 --acc 1.0 --iterations 500 --norestart
          coordinate file            : c:\Users\Andre\Proyectos doctorado\mxene-glioblastoma-qsar-ai\calculations\gbm\Cediranib\Cediranib_drug.xyz
          omp threads                :                    16


           -------------------------------------------------
          |                 G F N 2 - x T B                 |
           -------------------------------------------------

        Reference                      10.1021/acs.jctc.8b01176
      * Hamiltonian:
        H0-scaling (s, p, d)           1.850000    2.230000    2.230000
        zeta-weighting                 0.500000
      * Dispersion:
        s8                             2.700000
        a1                             0.520000
        a2                             5.000000
        s9                             5.000000
      * Repulsion:
        kExp                           1.500000    1.000000
        rExp                           1.000000
      * Coulomb:
        alpha                          2.000000
        third order                    shell-resolved
        anisotropic                    true
        a3                             3.000000
        a5                             4.000000
        cn-shift                       1.200000
        cn-exp                         4.000000
        max-rad                        5.000000


          ...................................................
          :                      SETUP                      :
          :.................................................:
          :  # basis functions                 150          :
          :  # atomic orbitals                 149          :
          :  # shells                           85          :
          :  # electrons                       158          :
          :  max. iterations                   500          :
          :  Hamiltonian                  GFN2-xTB          :
          :  restarted?                      false          :
          :  GBSA solvation                  false          :
          :  PC potential                    false          :
          :  electronic temp.          500.0000000     K    :
          :  accuracy                    1.0000000          :
          :  -> integral cutoff          0.2500000E+02      :
          :  -> integral neglect         0.1000000E-07      :
          :  -> SCF convergence          0.1000000E-05 Eh   :
          :  -> wf. convergence          0.1000000E-03 e    :
          :  Broyden damping             0.4000000          :
          :  net charge                          0          :
          :  unpaired electrons                  0          :
          ...................................................

 iter      E             dE          RMSdq      gap      omega  full diag
   1    -89.4475618 -0.894476E+02  0.387E+00    2.14       0.0  T
   2    -89.5401433 -0.925815E-01  0.236E+00    2.20       1.0  T
   3    -89.5220708  0.180725E-01  0.114E+00    1.51       1.0  T
   4    -89.5557802 -0.337094E-01  0.399E-01    1.33       1.0  T
   5    -89.5618503 -0.607008E-02  0.111E-01    1.23       1.0  T
   6    -89.5621169 -0.266645E-03  0.577E-02    1.26       1.0  T
   7    -89.5621547 -0.377599E-04  0.286E-02    1.27       1.0  T
   8    -89.5621651 -0.104485E-04  0.185E-02    1.28       1.0  T
   9    -89.5621702 -0.511357E-05  0.137E-02    1.28       1.0  T
  10    -89.5621733 -0.305907E-05  0.968E-03    1.28       1.4  T
  11    -89.5621751 -0.177572E-05  0.631E-03    1.28       2.2  T
  12    -89.5621762 -0.116221E-05  0.194E-03    1.28       7.0  T
  13    -89.5621763 -0.747720E-07  0.956E-04    1.28      14.2  T
  14    -89.5621763 -0.949339E-08  0.424E-04    1.28      32.1  T

   *** convergence criteria satisfied after 14 iterations ***

         #    Occupation            Energy/Eh            Energy/eV
      -------------------------------------------------------------
         1        2.0000           -1.0575949             -28.7786
       ...           ...                  ...                  ...
        73        2.0000           -0.4204993             -11.4424
        74        2.0000           -0.4059483             -11.0464
        75        2.0000           -0.4023961             -10.9498
        76        2.0000           -0.3976765             -10.8213
        77        2.0000           -0.3828917             -10.4190
        78        2.0000           -0.3701937             -10.0735
        79        2.0000           -0.3418810              -9.3031 (HOMO)
        80        0.0000           -0.2947768              -8.0213 (LUMO)
        81                         -0.2522331              -6.8636
        82                         -0.2518174              -6.8523
        83                         -0.2417752              -6.5790
        84                         -0.2168308              -5.9003
       ...                                ...                  ...
       149                          0.6563929              17.8614
      -------------------------------------------------------------
                  HL-Gap            0.0471042 Eh            1.2818 eV
             Fermi-level           -0.3183289 Eh           -8.6622 eV

 SCC (total)                   0 d,  0 h,  0 min,  0.275 sec
 SCC setup                      ...        0 min,  0.000 sec (  0.000%)
 Dispersion                     ...        0 min,  0.002 sec (  0.727%)
 classical contributions        ...        0 min,  0.000 sec (  0.000%)
 integral evaluation            ...        0 min,  0.003 sec (  1.091%)
 iterations                     ...        0 min,  0.259 sec ( 94.182%)
 molecular gradient             ...        0 min,  0.010 sec (  3.636%)
 printout                       ...        0 min,  0.001 sec (  0.364%)

         :::::::::::::::::::::::::::::::::::::::::::::::::::::
         ::                     SUMMARY                     ::
         :::::::::::::::::::::::::::::::::::::::::::::::::::::
         :: total energy             -88.480283200805 Eh    ::
         :: gradient norm              0.103980383909 Eh/a0 ::
         :: HOMO-LUMO gap              1.281771586064 eV    ::
         ::.................................................::
         :: SCC energy               -89.562352497856 Eh    ::
         :: -> isotropic ES            0.074728342284 Eh    ::
         :: -> anisotropic ES          0.011565416595 Eh    ::
         :: -> anisotropic XC          0.038468626038 Eh    ::
         :: -> dispersion             -0.058771179765 Eh    ::
         :: repulsion energy           1.082069297051 Eh    ::
         :: add. restraining           0.000000000000 Eh    ::
         :: total charge              -0.000000000000 e     ::
         :::::::::::::::::::::::::::::::::::::::::::::::::::::

           -------------------------------------------------
          |                Property Printout                |
           -------------------------------------------------

    * Orbital Energies and Occupations

         #    Occupation            Energy/Eh            Energy/eV
      -------------------------------------------------------------
         1        2.0000           -1.0575949             -28.7786
       ...           ...                  ...                  ...
        67        2.0000           -0.4454334             -12.1209
        68        2.0000           -0.4307751             -11.7220
        69        2.0000           -0.4297473             -11.6940
        70        2.0000           -0.4295450             -11.6885
        71        2.0000           -0.4230121             -11.5107
        72        2.0000           -0.4208209             -11.4511
        73        2.0000           -0.4204993             -11.4424
        74        2.0000           -0.4059483             -11.0464
        75        2.0000           -0.4023961             -10.9498
        76        2.0000           -0.3976765             -10.8213
        77        2.0000           -0.3828917             -10.4190
        78        2.0000           -0.3701937             -10.0735
        79        2.0000           -0.3418810              -9.3031 (HOMO)
        80        0.0000           -0.2947768              -8.0213 (LUMO)
        81                         -0.2522331              -6.8636
        82                         -0.2518174              -6.8523
        83                         -0.2417752              -6.5790
        84                         -0.2168308              -5.9003
        85                         -0.1773741              -4.8266
        86                         -0.1406927              -3.8284
        87                         -0.1236532              -3.3648
        88                         -0.0841843              -2.2908
        89                         -0.0258176              -0.7025
        90                         -0.0144166              -0.3923
       ...                                ...                  ...
       149                          0.6563929              17.8614
      -------------------------------------------------------------
                  HL-Gap            0.0471042 Eh            1.2818 eV
             Fermi-level           -0.3183289 Eh           -8.6622 eV

     #   Z          covCN         q      C6AA      α(0)
     1   6 C        3.639     0.034    20.369     6.491
     2   8 O        1.703    -0.263    18.353     5.784
     3   6 C        2.850     0.125    25.246     8.235
     4   6 C        2.915    -0.083    30.071     8.992
     5   6 C        2.980    -0.032    28.790     8.801
     6   6 C        2.892     0.161    24.532     8.121
     7   7 N        2.689    -0.172    24.724     7.385
     8   6 C        2.891     0.079    26.244     8.399
     9   6 C        2.916    -0.047    29.163     8.855
    10   6 C        2.949    -0.041    29.007     8.834
    11   6 C        2.879     0.073    26.357     8.416
    12  17 Cl       0.963    -0.149   103.808    15.587
    13   6 C        2.805     0.163    24.477     8.105
    14   9 F        0.787    -0.203    11.266     3.965
    15   6 C        2.919    -0.076    29.888     8.965
    16   7 N        1.831    -0.271    27.891     7.826
    17   6 C        2.882     0.143    24.891     8.179
    18   7 N        1.844    -0.259    27.595     7.785
    19   6 C        2.984     0.103    25.707     8.317
    20   6 C        2.932    -0.068    29.695     8.937
    21   6 C        2.866     0.133    25.098     8.212
    22   8 O        1.703    -0.274    18.541     5.814
    23   6 C        3.699     0.079    19.415     6.302
    24   6 C        3.850    -0.023    20.947     6.510
    25   6 C        3.801    -0.063    21.703     6.633
    26   6 C        3.752     0.012    20.431     6.446
    27   7 N        2.722    -0.180    24.895     7.410
    28   6 C        3.703    -0.030    21.271     6.594
    29   6 C        3.748     0.006    20.537     6.463
    30   6 C        3.802    -0.061    21.672     6.628
    31   1 H        0.924     0.066     2.131     2.283
    32   1 H        0.924     0.047     2.361     2.403
    33   1 H        0.924     0.046     2.370     2.408
    34   1 H        0.925     0.046     2.374     2.410
    35   1 H        0.860     0.179     1.221     1.731
    36   1 H        0.925     0.073     2.055     2.242
    37   1 H        0.925     0.073     2.053     2.241
    38   1 H        0.925     0.060     2.195     2.317
    39   1 H        0.925     0.049     2.333     2.389
    40   1 H        0.925     0.080     1.980     2.201
    41   1 H        0.923     0.029     2.597     2.520
    42   1 H        0.924     0.045     2.388     2.417
    43   1 H        0.923     0.046     2.369     2.407
    44   1 H        0.924     0.045     2.387     2.416
    45   1 H        0.923     0.044     2.398     2.422
    46   1 H        0.923     0.010     2.882     2.655
    47   1 H        0.924     0.034     2.534     2.489
    48   1 H        0.924     0.036     2.502     2.474
    49   1 H        0.924     0.012     2.863     2.646
    50   1 H        0.924     0.036     2.498     2.472
    51   1 H        0.924     0.033     2.539     2.492
    52   1 H        0.924     0.036     2.502     2.474
    53   1 H        0.923     0.028     2.608     2.526
    54   1 H        0.924     0.030     2.585     2.514

 Mol. C6AA /au·bohr⁶  :      35457.117192
 Mol. C8AA /au·bohr⁸  :     861794.250458
 Mol. α(0) /au        :        290.539002


Wiberg/Mayer (AO) data.
largest (>0.10) Wiberg bond orders for each atom

 ---------------------------------------------------------------------------
     #   Z sym  total        # sym  WBO       # sym  WBO       # sym  WBO
 ---------------------------------------------------------------------------
     1   6 C    3.941 --    31 H    0.979     2 O    0.978    33 H    0.977
                            32 H    0.977
     2   8 O    2.230 --     3 C    1.066     1 C    0.978
     3   6 C    3.936 --     4 C    1.452    21 C    1.235     2 O    1.066
     4   6 C    3.981 --     3 C    1.452     5 C    1.279    34 H    0.962
                            20 C    0.110
     5   6 C    3.986 --     4 C    1.279     6 C    1.247    19 C    1.225
     6   6 C    3.961 --    16 N    1.412     5 C    1.247     7 N    1.086
     7   7 N    3.378 --     8 C    1.104     6 C    1.086    35 H    0.926
     8   6 C    3.970 --    15 C    1.360     9 C    1.359     7 N    1.104
     9   6 C    3.980 --    10 C    1.453     8 C    1.359    36 H    0.964
    10   6 C    3.985 --     9 C    1.453    11 C    1.392    37 H    0.966
                            15 C    0.101
    11   6 C    3.915 --    10 C    1.392    13 C    1.350    12 Cl   0.989
    12  17 Cl   1.126 --    11 C    0.989
    13   6 C    3.892 --    15 C    1.403    11 C    1.350    14 F    0.975
    14   9 F    1.113 --    13 C    0.975
    15   6 C    3.975 --    13 C    1.403     8 C    1.360    38 H    0.963
                            10 C    0.101
    16   7 N    3.042 --     6 C    1.412    17 C    1.365
    17   6 C    3.959 --    18 N    1.489    16 N    1.365    39 H    0.958
    18   7 N    3.041 --    17 C    1.489    19 C    1.292
    19   6 C    3.983 --    18 N    1.292    20 C    1.292     5 C    1.225
    20   6 C    3.980 --    21 C    1.454    19 C    1.292    40 H    0.962
                             4 C    0.110
    21   6 C    3.945 --    20 C    1.454     3 C    1.235    22 O    1.063
    22   8 O    2.187 --    21 C    1.063    23 C    0.947
    23   6 C    3.937 --    24 C    0.988    41 H    0.973    42 H    0.968
                            22 O    0.947
    24   6 C    3.990 --    25 C    0.993    30 C    0.993    23 C    0.988
                            43 H    0.970
    25   6 C    3.995 --    26 C    1.009    24 C    0.993    45 H    0.978
                            44 H    0.974
    26   6 C    3.988 --    25 C    1.009    27 N    0.998    47 H    0.972
                            46 H    0.967
    27   7 N    3.107 --    28 C    1.016    29 C    1.000    26 C    0.998
    28   6 C    3.988 --    27 N    1.016    50 H    0.983    48 H    0.983
                            49 H    0.976
    29   6 C    3.987 --    30 C    1.001    27 N    1.000    51 H    0.973
                            52 H    0.971
    30   6 C    3.996 --    29 C    1.001    24 C    0.993    54 H    0.977
                            53 H    0.976
    31   1 H    0.995 --     1 C    0.979
    32   1 H    0.997 --     1 C    0.977
    33   1 H    0.997 --     1 C    0.977
    34   1 H    0.998 --     4 C    0.962
    35   1 H    0.968 --     7 N    0.926
    36   1 H    0.995 --     9 C    0.964
    37   1 H    0.994 --    10 C    0.966
    38   1 H    0.996 --    15 C    0.963
    39   1 H    0.997 --    17 C    0.958
    40   1 H    0.992 --    20 C    0.962
    41   1 H    0.999 --    23 C    0.973
    42   1 H    0.997 --    23 C    0.968
    43   1 H    0.998 --    24 C    0.970
    44   1 H    0.998 --    25 C    0.974
    45   1 H    0.998 --    25 C    0.978
    46   1 H    1.000 --    26 C    0.967
    47   1 H    0.999 --    26 C    0.972
    48   1 H    0.998 --    28 C    0.983
    49   1 H    1.000 --    28 C    0.976
    50   1 H    0.999 --    28 C    0.983
    51   1 H    0.998 --    29 C    0.973
    52   1 H    0.999 --    29 C    0.971
    53   1 H    0.999 --    30 C    0.976
    54   1 H    0.999 --    30 C    0.977
 ---------------------------------------------------------------------------

Topologies differ in total number of bonds
Writing topology from bond orders to xtbtopo.mol

molecular dipole:
                 x           y           z       tot (Debye)
 q only:       -1.793       0.992      -0.216
   full:       -1.219       1.659      -0.649       5.488
molecular quadrupole (traceless):
                xx          xy          yy          xz          yz          zz
 q only:      -35.925       1.502      25.718      16.189       1.039      10.206
  q+dip:      -36.789      -0.994      27.478      15.957       4.702       9.311
   full:      -37.521      -0.761      25.198      18.814       5.382      12.323


           -------------------------------------------------
          | TOTAL ENERGY              -88.480283200805 Eh   |
          | GRADIENT NORM               0.103980383909 Eh/α |
          | HOMO-LUMO GAP               1.281771586064 eV   |
           -------------------------------------------------

------------------------------------------------------------------------
 * finished run on 2026/08/31 at 21:56:12.447     
------------------------------------------------------------------------
 total:
 * wall-time:     0 d,  0 h,  0 min,  0.317 sec
 *  cpu-time:     0 d,  0 h,  0 min,  0.844 sec
 * ratio c/w:     2.662 speedup
 SCF:
 * wall-time:     0 d,  0 h,  0 min,  0.276 sec
 *  cpu-time:     0 d,  0 h,  0 min,  0.766 sec
 * ratio c/w:     2.774 speedup

normal termination of xtb
