93
Drug@Ti12C7O14 non-overlapping complex
C     -3.456604     -4.916040      8.148688
O     -3.121022     -3.565479      8.434615
C     -1.789553     -3.242136      8.519025
C     -0.741940     -4.162567      8.402427
C      0.589790     -3.779992      8.499240
N      1.528803     -4.723052      8.385717
C      2.799580     -4.322880      8.492134
N      3.218084     -3.071260      8.691836
C      2.269199     -2.122392      8.787252
N      2.657960     -0.769039      8.965030
C      3.944711     -0.252721      9.270130
C      4.863691     -0.938248     10.076853
C      6.109427     -0.390418     10.422893
C      6.391117      0.891033      9.947043
N      7.481296      1.710959     10.089369
C      7.230131      2.883334      9.420302
C      8.210175      3.993142      9.375008
N      6.040032      2.857844      8.858460
C      5.502794      1.627110      9.170152
C      4.264970      1.051023      8.840387
F      3.368867      1.728459      8.101151
C      0.894538     -2.430557      8.711734
C     -0.161550     -1.491656      8.844118
C     -1.495981     -1.889668      8.750132
O     -2.570508     -1.046342      8.859839
C     -2.327304      0.313705      9.215971
C     -3.671913      1.037728      9.355709
C     -3.463071      2.540047      9.622054
C     -4.571050      3.166616     10.478442
N     -5.859951      2.559741     10.160400
C     -6.970587      3.298751     10.752753
C     -5.907874      1.139620     10.542171
C     -4.551574      0.424679     10.450335
H     -3.126449     -5.582424      8.952222
H     -3.050212     -5.228860      7.181230
H     -4.547109     -4.983907      8.088369
H     -0.938153     -5.217015      8.234864
H      3.563688     -5.087762      8.406365
H      2.220530     -0.191696      8.247881
H      4.615383     -1.926141     10.459885
H      6.809415     -0.944174     11.039734
H      8.324319      1.492261     10.600196
H      8.430761      4.353578     10.384453
H      7.816230      4.831376      8.792143
H      9.144171      3.663430      8.909719
H      0.087926     -0.452683      9.031824
H     -1.739683      0.800300      8.427864
H     -1.782656      0.361853     10.167321
H     -4.213543      0.922745      8.405820
H     -3.407595      3.056494      8.654992
H     -2.502602      2.718697     10.121349
H     -4.337473      3.049189     11.544965
H     -4.585245      4.244676     10.275516
H     -6.986702      4.330294     10.383950
H     -6.911575      3.325742     11.846779
H     -7.928142      2.848371     10.468433
H     -6.621807      0.636456      9.878821
H     -6.281926      1.011184     11.566447
H     -4.034145      0.501314     11.415862
H     -4.722095     -0.642643     10.267928
Ti     -2.141866     -3.008818      2.119748
Ti      0.288991     -1.694759      1.432425
Ti      1.903098     -3.067749     -0.729322
Ti     -2.521502     -0.251928      1.303687
Ti      2.142050      0.499533      2.204434
Ti     -0.681448      0.189635      3.681230
Ti     -2.036770     -3.077740     -1.200512
Ti     -0.605340     -0.770900     -2.035132
Ti      1.945488     -1.587317     -3.412400
Ti     -1.878170      1.746573     -1.240030
Ti      2.412512      0.454231     -0.774247
Ti      0.817742      1.838452     -2.940004
C     -3.678414      1.281398      0.600737
C      4.128193      0.482847      0.387293
C      0.455479      2.267202      0.349695
C     -3.666709      2.118834     -0.313920
C      4.115962      0.632239      1.621354
C     -0.635167      2.741046     -0.118921
C      1.630072      1.780996      0.734224
O     -3.093456     -1.956907      1.037949
O     -0.487250     -2.605849      2.701203
O      0.314079     -2.888890      0.145001
O     -0.800785     -0.435934      0.971227
O      1.902865     -1.158331      1.469449
O     -2.322673     -0.113878      3.024800
O      1.013786      0.441598      3.568761
O     -1.772019     -4.587905     -1.652810
O      0.190605     -1.189189     -3.534030
O      2.831420     -2.170248     -1.918042
O     -2.054558     -0.224445     -1.337505
O      0.768511     -0.390574     -1.063664
O     -0.900039      1.649313     -2.818565
O      2.415313      1.357463     -2.264115
