      -----------------------------------------------------------      
     |                   =====================                   |     
     |                           x T B                           |     
     |                   =====================                   |     
     |                         S. Grimme                         |     
     |          Mulliken Center for Theoretical Chemistry        |     
     |                    University of Bonn                     |     
      -----------------------------------------------------------      

   * xtb version 6.7.1pre (5071a88) compiled by 'Marcel@Raven' on 2024-07-23

   xtb is free software: you can redistribute it and/or modify it under
   the terms of the GNU Lesser General Public License as published by
   the Free Software Foundation, either version 3 of the License, or
   (at your option) any later version.
   
   xtb is distributed in the hope that it will be useful,
   but WITHOUT ANY WARRANTY; without even the implied warranty of
   MERCHANTABILITY or FITNESS FOR A PARTICULAR PURPOSE.  See the
   GNU Lesser General Public License for more details.
   
   Cite this work as:
   * C. Bannwarth, E. Caldeweyher, S. Ehlert, A. Hansen, P. Pracht,
     J. Seibert, S. Spicher, S. Grimme, WIREs Comput. Mol. Sci., 2020, 11,
     e01493. DOI: 10.1002/wcms.1493
   
   for GFN2-xTB:
   * C. Bannwarth, S. Ehlert and S. Grimme., J. Chem. Theory Comput., 2019,
     15, 1652-1671. DOI: 10.1021/acs.jctc.8b01176
   for GFN1-xTB:
   * S. Grimme, C. Bannwarth, P. Shushkov, J. Chem. Theory Comput., 2017,
     13, 1989-2009. DOI: 10.1021/acs.jctc.7b00118
   for GFN0-xTB:
   * P. Pracht, E. Caldeweyher, S. Ehlert, S. Grimme, ChemRxiv, 2019, preprint.
     DOI: 10.26434/chemrxiv.8326202.v1
   for GFN-FF:
   * S. Spicher and S. Grimme, Angew. Chem. Int. Ed., 2020, 59, 15665-15673.
     DOI: 10.1002/anie.202004239
   
   for ALPB and GBSA implicit solvation:
   * S. Ehlert, M. Stahn, S. Spicher, S. Grimme, J. Chem. Theory Comput.,
     2021, 17, 4250-4261. DOI: 10.1021/acs.jctc.1c00471
   
   for ddCOSMO and CPCM-X implicit solvation:
   * M. Stahn, S. Ehlert, S. Grimme, J. Phys. Chem. A,
     2023, XX, XXXX-XXXX. DOI: 10.1021/acs.jpca.3c04382
   
   for DFT-D4:
   * E. Caldeweyher, C. Bannwarth and S. Grimme, J. Chem. Phys., 2017,
     147, 034112. DOI: 10.1063/1.4993215
   * E. Caldeweyher, S. Ehlert, A. Hansen, H. Neugebauer, S. Spicher,
     C. Bannwarth and S. Grimme, J. Chem. Phys., 2019, 150, 154122.
     DOI: 10.1063/1.5090222
   * E. Caldeweyher, J.-M. Mewes, S. Ehlert and S. Grimme, Phys. Chem. Chem. Phys.
     2020, 22, 8499-8512. DOI: 10.1039/D0CP00502A
   
   for sTDA-xTB:
   * S. Grimme and C. Bannwarth, J. Chem. Phys., 2016, 145, 054103.
     DOI: 10.1063/1.4959605
   
   in the mass-spec context:
   * V. Asgeirsson, C. Bauer and S. Grimme, Chem. Sci., 2017, 8, 4879.
     DOI: 10.1039/c7sc00601b
   * J. Koopman and S. Grimme, ACS Omega 2019, 4, 12, 15120-15133.
     DOI: 10.1021/acsomega.9b02011
   
   for metadynamics refer to:
   * S. Grimme, J. Chem. Theory Comput., 2019, 155, 2847-2862
     DOI: 10.1021/acs.jctc.9b00143
   
   for SPH calculations refer to:
   * S. Spicher and S. Grimme, J. Chem. Theory Comput., 2021, 17, 1701-1714
     DOI: 10.1021/acs.jctc.0c01306
   
   for ONIOM refer to:
   * C. Plett, A. Katbashev, S. Ehlert, S. Grimme, M. Bursch,
     Phys. Chem. Chem. Phys., 2023, 25, 17860-17868. DOI: 10.1039/D3CP02178E
   
   for DIPRO refer to:
   * J. Kohn, N. Gildemeister, S. Grimme, D. Fazzi, A. Hansen,
     J. Chem. Phys., 2023, just accepted.
   
   for PTB refer to:
   * S. Grimme, M. Mueller, A. Hansen, J. Chem. Phys., 2023, 158, 124111.
     DOI: 10.1063/5.0137838
   
   with help from (in alphabetical order)
   P. Atkinson, C. Bannwarth, F. Bohle, G. Brandenburg, E. Caldeweyher
   M. Checinski, S. Dohm, S. Ehlert, S. Ehrlich, I. Gerasimov, C. Hölzer
   A. Katbashev, J. Kohn, J. Koopman, C. Lavigne, S. Lehtola, F. März, M. Müller,
   F. Musil, H. Neugebauer, J. Pisarek, C. Plett, P. Pracht, F. Pultar,
   J. Seibert, P. Shushkov, S. Spicher, M. Stahn, M. Steiner, T. Strunk,
   J. Stückrath, T. Rose, and J. Unsleber
   
 * started run on 2026/09/02 at 20:09:11.429     
   ID    Z sym.   atoms
    1    6 C      1-5, 7, 9, 12, 13, 15-18, 20, 22, 23, 25, 26, 28, 70-76
    2    7 N      6, 8, 10, 11, 19, 21, 27, 29
    3    8 O      14, 24, 77-90
    4    1 H      30-57
    5   22 Ti     58-69

           -------------------------------------------------
          |                Calculation Setup                |
           -------------------------------------------------

          program call               : "c:\Users\Andre\Proyectos doctorado\nano-qsar-ai-papers\kras-pancreatic-gC3N4-ai\tools\xtb\xtb-6.7.1\bin\xtb.exe" "c:\Users\Andre\Proyectos doctorado\nano-qsar-ai-papers\mxene-glioblastoma-qsar-ai\calculations\gbm\Paxalisib\Paxalisib_opt_orient_270deg.xyz" --opt loose --gfn 2 --chrg 0 --uhf 0 --iterations 500 --cycles 400 --norestart
          coordinate file            : c:\Users\Andre\Proyectos doctorado\nano-qsar-ai-papers\mxene-glioblastoma-qsar-ai\calculations\gbm\Paxalisib\Paxalisib_opt_orient_270deg.xyz
          omp threads                :                     4


molecular fragmentation (1/2 indicates fragments):
111111111111111111111111111111111111111111111111111111111222222222222222
222222222222222222
# atoms in fragment 1/2:    57    33
 fragment masses (1/2) :      400.48      882.47
CMA distance (Bohr)    :  17.250
constraining FC (au)   :  0.0500

           -------------------------------------------------
          |                 G F N 2 - x T B                 |
           -------------------------------------------------

        Reference                      10.1021/acs.jctc.8b01176
      * Hamiltonian:
        H0-scaling (s, p, d)           1.850000    2.230000    2.230000
        zeta-weighting                 0.500000
      * Dispersion:
        s8                             2.700000
        a1                             0.520000
        a2                             5.000000
        s9                             5.000000
      * Repulsion:
        kExp                           1.500000    1.000000
        rExp                           1.000000
      * Coulomb:
        alpha                          2.000000
        third order                    shell-resolved
        anisotropic                    true
        a3                             3.000000
        a5                             4.000000
        cn-shift                       1.200000
        cn-exp                         4.000000
        max-rad                        5.000000


          ...................................................
          :                      SETUP                      :
          :.................................................:
          :  # basis functions                 348          :
          :  # atomic orbitals                 336          :
          :  # shells                          164          :
          :  # electrons                       316          :
          :  max. iterations                   500          :
          :  Hamiltonian                  GFN2-xTB          :
          :  restarted?                      false          :
          :  GBSA solvation                  false          :
          :  PC potential                    false          :
          :  electronic temp.          300.0000000     K    :
          :  accuracy                    1.0000000          :
          :  -> integral cutoff          0.2500000E+02      :
          :  -> integral neglect         0.1000000E-07      :
          :  -> SCF convergence          0.1000000E-05 Eh   :
          :  -> wf. convergence          0.1000000E-03 e    :
          :  Broyden damping             0.4000000          :
          :  net charge                          0          :
          :  unpaired electrons                  0          :
          ...................................................

 iter      E             dE          RMSdq      gap      omega  full diag
   1   -177.4006137 -0.177401E+03  0.132E+01    0.09       0.0  T
   2   -138.6741064  0.387265E+02  0.149E+01    0.04       1.0  T
   3    -27.4519584  0.111222E+03  0.262E+01    0.11       1.0  T
   4   -163.9295370 -0.136478E+03  0.115E+01    0.17       1.0  T
   5   -141.9418960  0.219876E+02  0.128E+01    0.04       1.0  T
   6   -177.8447085 -0.359028E+02  0.738E+00    0.02       1.0  T
   7   -175.1660397  0.267867E+01  0.648E+00    0.03       1.0  T
   8   -178.7063318 -0.354029E+01  0.623E+00    0.12       1.0  T
   9   -179.3803380 -0.674006E+00  0.515E+00    0.08       1.0  T
  10   -179.2789927  0.101345E+00  0.522E+00    0.09       1.0  T
  11   -179.3007899 -0.217972E-01  0.534E+00    0.09       1.0  T
  12   -179.3435913 -0.428014E-01  0.516E+00    0.01       1.0  T
  13   -179.8145570 -0.470966E+00  0.518E+00    0.07       1.0  T
  14   -179.8394288 -0.248718E-01  0.511E+00    0.10       1.0  T
  15   -178.8198506  0.101958E+01  0.628E+00    0.33       1.0  T
  16   -178.9035798 -0.837293E-01  0.641E+00    0.02       1.0  T
  17   -179.2304192 -0.326839E+00  0.561E+00    0.14       1.0  T
  18   -178.9100834  0.320336E+00  0.585E+00    0.02       1.0  T
  19   -178.7614661  0.148617E+00  0.575E+00    0.06       1.0  T
  20   -179.6605454 -0.899079E+00  0.352E+00    0.21       1.0  T
  21   -179.5094242  0.151121E+00  0.413E+00    0.14       1.0  T
  22   -179.8619857 -0.352561E+00  0.304E+00    0.19       1.0  T
  23   -179.2917387  0.570247E+00  0.365E+00    0.34       1.0  T
  24   -179.9425828 -0.650844E+00  0.251E+00    0.10       1.0  T
  25   -180.0017029 -0.591201E-01  0.228E+00    0.05       1.0  T
  26   -180.0055090 -0.380612E-02  0.244E+00    0.05       1.0  T
  27   -180.0161478 -0.106388E-01  0.228E+00    0.05       1.0  T
  28   -180.0006000  0.155479E-01  0.184E+00    0.05       1.0  T
  29   -179.9944479  0.615207E-02  0.179E+00    0.05       1.0  T
  30   -180.0046479 -0.102000E-01  0.167E+00    0.05       1.0  T
  31   -180.0288059 -0.241580E-01  0.140E+00    0.04       1.0  T
  32   -180.0341588 -0.535293E-02  0.123E+00    0.04       1.0  T
  33   -180.0325445  0.161429E-02  0.126E+00    0.04       1.0  T
  34   -179.9865996  0.459449E-01  0.110E+00    0.08       1.0  T
  35   -179.9918505 -0.525093E-02  0.113E+00    0.07       1.0  T
  36   -180.0288447 -0.369942E-01  0.844E-01    0.06       1.0  T
  37   -180.0381212 -0.927647E-02  0.551E-01    0.03       1.0  T
  38   -180.0188746  0.192466E-01  0.110E+00    0.06       1.0  T
  39   -180.0325760 -0.137014E-01  0.781E-01    0.06       1.0  T
  40   -180.0423219 -0.974590E-02  0.519E-01    0.05       1.0  T
  41   -180.0433208 -0.998938E-03  0.422E-01    0.05       1.0  T
  42   -180.0442098 -0.888967E-03  0.351E-01    0.04       1.0  T
  43   -180.0446318 -0.422026E-03  0.170E-01    0.04       1.0  T
  44   -180.0443211  0.310755E-03  0.147E-01    0.03       1.0  T
  45   -180.0444587 -0.137654E-03  0.127E-01    0.04       1.0  T
  46   -180.0425129  0.194580E-02  0.271E-01    0.03       1.0  T
  47   -180.0429302 -0.417325E-03  0.264E-01    0.05       1.0  T
  48   -180.0451149 -0.218466E-02  0.118E-01    0.04       1.0  T
  49   -180.0439888  0.112612E-02  0.170E-01    0.05       1.0  T
  50   -180.0443136 -0.324781E-03  0.133E-01    0.05       1.0  T
  51   -180.0448464 -0.532866E-03  0.899E-02    0.04       1.0  T
  52   -180.0448433  0.314695E-05  0.958E-02    0.05       1.0  T
  53   -180.0452481 -0.404842E-03  0.563E-02    0.04       1.0  T
  54   -180.0453585 -0.110396E-03  0.447E-02    0.04       1.0  T
  55   -180.0454242 -0.656731E-04  0.390E-02    0.04       1.0  T
  56   -180.0454464 -0.222166E-04  0.353E-02    0.04       1.0  T
  57   -180.0454006  0.458178E-04  0.407E-02    0.04       1.0  T
  58   -180.0454346 -0.339769E-04  0.347E-02    0.04       1.0  T
  59   -180.0454584 -0.238032E-04  0.215E-02    0.04       1.0  T
  60   -180.0454626 -0.424451E-05  0.153E-02    0.04       1.0  T
  61   -180.0454539  0.873130E-05  0.212E-02    0.04       1.0  T
  62   -180.0454601 -0.620069E-05  0.152E-02    0.04       1.0  T
  63   -180.0454684 -0.828965E-05  0.999E-03    0.04       1.1  T
  64   -180.0454662  0.213895E-05  0.651E-03    0.04       1.6  T
  65   -180.0454690 -0.279952E-05  0.433E-03    0.04       2.4  T
  66   -180.0454690 -0.464971E-08  0.271E-03    0.04       3.9  T
  67   -180.0454692 -0.197317E-06  0.247E-03    0.04       4.3  T
  68   -180.0454696 -0.339176E-06  0.133E-03    0.04       7.9  T
  69   -180.0454696  0.212856E-07  0.674E-04    0.04      15.6  T
  70   -180.0454696 -0.145324E-07  0.506E-04    0.04      20.8  T

   *** convergence criteria satisfied after 70 iterations ***

         #    Occupation            Energy/Eh            Energy/eV
      -------------------------------------------------------------
         1        2.0000           -0.8518528             -23.1801
       ...           ...                  ...                  ...
       152        2.0000           -0.3801029             -10.3431
       153        2.0000           -0.3774133             -10.2699
       154        2.0000           -0.3747535             -10.1976
       155        1.9951           -0.3679215             -10.0117
       156        1.9946           -0.3678317             -10.0092
       157        1.7958           -0.3642819              -9.9126
       158        1.4680           -0.3631807              -9.8827 (HOMO)
       159        0.7465           -0.3617239              -9.8430 (LUMO)
       160        0.0000           -0.3490367              -9.4978
       161                         -0.3455404              -9.4026
       162                         -0.3259432              -8.8694
       163                         -0.3200887              -8.7101
       ...                                ...                  ...
       336                         13.3360396             362.8921
      -------------------------------------------------------------
                  HL-Gap            0.0014568 Eh            0.0396 eV
             Fermi-level           -0.3622164 Eh           -9.8564 eV

 SCC (total)                   0 d,  0 h,  0 min,  1.614 sec
 SCC setup                      ...        0 min,  0.001 sec (  0.062%)
 Dispersion                     ...        0 min,  0.002 sec (  0.124%)
 classical contributions        ...        0 min,  0.000 sec (  0.000%)
 integral evaluation            ...        0 min,  0.018 sec (  1.115%)
 iterations                     ...        0 min,  1.546 sec ( 95.787%)
 molecular gradient             ...        0 min,  0.045 sec (  2.788%)
 printout                       ...        0 min,  0.002 sec (  0.124%)

         :::::::::::::::::::::::::::::::::::::::::::::::::::::
         ::                     SUMMARY                     ::
         :::::::::::::::::::::::::::::::::::::::::::::::::::::
         :: total energy            -178.342912250112 Eh    ::
         :: gradient norm              0.133024653910 Eh/a0 ::
         :: HOMO-LUMO gap              0.039640617238 eV    ::
         ::.................................................::
         :: SCC energy              -180.042516908676 Eh    ::
         :: -> isotropic ES            0.823825296920 Eh    ::
         :: -> anisotropic ES         -0.275446440023 Eh    ::
         :: -> anisotropic XC          0.005422483445 Eh    ::
         :: -> dispersion             -0.148341599428 Eh    ::
         :: repulsion energy           1.699604658563 Eh    ::
         :: add. restraining           0.000000000000 Eh    ::
         :: total charge               0.000000000000 e     ::
         :::::::::::::::::::::::::::::::::::::::::::::::::::::

      ----------------------------------------------------------- 
     |                   =====================                   |
     |                        A N C O P T                        |
     |                   =====================                   |
     |               Approximate Normal Coordinate               |
     |                Rational Function Optimizer                |
      ----------------------------------------------------------- 
      ----------------------------------------------------------- 
     |                   =====================                   |
     |                        A N C O P T                        |
     |                   =====================                   |
     |               Approximate Normal Coordinate               |
     |                Rational Function Optimizer                |
      ----------------------------------------------------------- 

          ...................................................
          :                      SETUP                      :
          :.................................................:
          :   optimization level             loose          :
          :   max. optcycles                   400          :
          :   ANC micro-cycles                  20          :
          :   degrees of freedom               264          :
          :.................................................:
          :   RF solver                   davidson          :
          :   write xtbopt.log                true          :
          :   linear?                        false          :
          :   energy convergence         0.5000000E-04 Eh   :
          :   grad. convergence          0.4000000E-02 Eh/α :
          :   maxmium RF displ.          1.0000000          :
          :   Hlow (freq-cutoff)         0.1000000E-01      :
          :   Hmax (freq-cutoff)         5.0000000          :
          :   S6 in model hess.         20.0000000          :
          ...................................................

generating ANC from exact Hessian ...
Using Lindh-Hessian (1995)
 Shifting diagonal of input Hessian by   1.791465419230784E-002
 Lowest  eigenvalues of input Hessian
    0.010000    0.017288    0.017393    0.017432    0.000000    0.000000
    0.000000    0.000000    0.000000    0.000000    0.017937    0.017948
    0.017973    0.018191    0.018355    0.018356    0.018541    0.018599
 Highest eigenvalues
    2.136164    2.175012    2.186722    2.237820    2.253638    2.262054
 

........................................................................
.............................. CYCLE    1 ..............................
........................................................................

 iter      E             dE          RMSdq      gap      omega  full diag
   1   -180.0454696 -0.180045E+03  0.348E-04    0.04       0.0  T
   2   -180.0454690  0.599358E-06  0.392E-03    0.04       2.7  T
   3   -180.0454695 -0.494399E-06  0.169E-03    0.04       6.3  T
   4   -180.0454695 -0.758236E-07  0.127E-03    0.04       8.3  T
   5   -180.0454695 -0.962865E-08  0.112E-03    0.04       9.4  T
   6   -180.0454696 -0.180057E-07  0.501E-04    0.04      21.0  T
   7   -180.0454696 -0.523306E-08  0.247E-04    0.04      42.7  T
     SCC iter.                  ...        0 min,  0.152 sec
     gradient                   ...        0 min,  0.045 sec
 * total energy  :  -178.3429123 Eh     change        0.4746425E-10 Eh
   gradient norm :     0.1330248 Eh/α   predicted     0.0000000E+00 (-100.00%)
   displ. norm   :     0.6254391 α      lambda       -0.5546952E-01
   maximum displ.:     0.1924646 α      in ANC's #128, #56, #35, ...

........................................................................
.............................. CYCLE    2 ..............................
........................................................................

 iter      E             dE          RMSdq      gap      omega  full diag
   1   -179.6834426 -0.179683E+03  0.399E+00    0.13       0.0  T
   2   -168.5216856  0.111618E+02  0.124E+01    0.05       1.0  T
   3   -182.6117760 -0.140901E+02  0.721E+00    0.40       1.0  T
   4   -182.2497689  0.362007E+00  0.725E+00    0.04       1.0  T
   5   -181.8533551  0.396414E+00  0.741E+00    0.23       1.0  T
   6   -181.8720191 -0.186640E-01  0.739E+00    0.23       1.0  T
   7   -181.5746938  0.297325E+00  0.743E+00    0.36       1.0  T
   8   -175.0061428  0.656855E+01  0.722E+00    0.25       1.0  T
   9   -176.4214131 -0.141527E+01  0.734E+00    0.06       1.0  T
  10   -178.4384860 -0.201707E+01  0.529E+00    0.20       1.0  T
  11   -178.6218917 -0.183406E+00  0.487E+00    0.11       1.0  T
  12   -179.1852447 -0.563353E+00  0.515E+00    0.13       1.0  T
  13   -179.2088049 -0.235603E-01  0.498E+00    0.12       1.0  T
  14   -179.9237135 -0.714909E+00  0.167E+00    0.06       1.0  T
  15   -180.0693092 -0.145596E+00  0.231E+00    0.07       1.0  T
  16   -180.0539373  0.153718E-01  0.245E+00    0.09       1.0  T
  17   -180.0943275 -0.403901E-01  0.119E+00    0.03       1.0  T
  18   -180.0556255  0.387020E-01  0.190E+00    0.07       1.0  T
  19   -180.0531808  0.244467E-02  0.190E+00    0.07       1.0  T
  20   -180.0570302 -0.384940E-02  0.182E+00    0.07       1.0  T
  21   -180.0528694  0.416079E-02  0.185E+00    0.07       1.0  T
  22   -180.0589682 -0.609878E-02  0.191E+00    0.07       1.0  T
  23   -180.0861904 -0.272222E-01  0.152E+00    0.05       1.0  T
  24   -180.0231110  0.630794E-01  0.109E+00    0.05       1.0  T
  25   -180.0983304 -0.752194E-01  0.410E-01    0.02       1.0  T
  26   -180.1033218 -0.499136E-02  0.875E-01    0.04       1.0  T
  27   -180.0732004  0.301214E-01  0.139E+00    0.05       1.0  T
  28   -180.0769787 -0.377836E-02  0.133E+00    0.05       1.0  T
  29   -180.0894411 -0.124624E-01  0.107E+00    0.05       1.0  T
  30   -180.1064155 -0.169744E-01  0.230E-01    0.02       1.0  T
  31   -180.0966114  0.980404E-02  0.388E-01    0.02       1.0  T
  32   -180.0981932 -0.158179E-02  0.326E-01    0.02       1.0  T
  33   -180.1066725 -0.847932E-02  0.344E-01    0.03       1.0  T
  34   -180.1050006  0.167197E-02  0.458E-01    0.04       1.0  T
  35   -180.1063493 -0.134873E-02  0.148E-01    0.02       1.0  T
  36   -180.1014455  0.490384E-02  0.536E-01    0.04       1.0  T
  37   -180.1016825 -0.237021E-03  0.464E-01    0.04       1.0  T
  38   -180.1036632 -0.198075E-02  0.336E-01    0.04       1.0  T
  39   -180.1052289 -0.156563E-02  0.203E-01    0.03       1.0  T
  40   -180.1063273 -0.109849E-02  0.626E-02    0.02       1.0  T
  41   -180.1063286 -0.126273E-05  0.841E-02    0.03       1.0  T
  42   -180.1055579  0.770680E-03  0.213E-01    0.03       1.0  T
  43   -180.1063273 -0.769383E-03  0.990E-02    0.03       1.0  T
  44   -180.1064681 -0.140791E-03  0.425E-02    0.02       1.0  T
  45   -180.1064674  0.712422E-06  0.396E-02    0.03       1.0  T
  46   -180.1064459  0.214731E-04  0.373E-02    0.02       1.0  T
  47   -180.1064728 -0.268876E-04  0.225E-02    0.02       1.0  T
  48   -180.1064830 -0.101646E-04  0.917E-03    0.02       1.1  T
  49   -180.1064832 -0.237181E-06  0.861E-03    0.02       1.2  T
  50   -180.1064847 -0.150897E-05  0.167E-03    0.02       6.3  T
  51   -180.1064843  0.436235E-06  0.366E-03    0.02       2.9  T
  52   -180.1064845 -0.201642E-06  0.289E-03    0.02       3.7  T
  53   -180.1064846 -0.753463E-07  0.250E-03    0.02       4.2  T
  54   -180.1064847 -0.147575E-06  0.174E-03    0.02       6.1  T
  55   -180.1064848 -0.100684E-06  0.585E-04    0.02      18.0  T
  56   -180.1064848  0.180250E-09  0.532E-04    0.02      19.8  T
     SCC iter.                  ...        0 min,  1.221 sec
     gradient                   ...        0 min,  0.044 sec
 * total energy  :  -178.3867821 Eh     change       -0.4386988E-01 Eh
   gradient norm :     0.0732574 Eh/α   predicted    -0.3859429E-01 ( -12.03%)
   displ. norm   :     0.6889982 α      lambda       -0.3588792E-01
   maximum displ.:     0.2043338 α      in ANC's #128, #56, #29, ...

........................................................................
.............................. CYCLE    3 ..............................
........................................................................

 iter      E             dE          RMSdq      gap      omega  full diag
   1   -179.7651064 -0.179765E+03  0.382E+00    0.10       0.0  T
   2   -169.1540329  0.106111E+02  0.119E+01    0.03       1.0  T
   3   -182.6412967 -0.134873E+02  0.714E+00    0.28       1.0  T
   4   -182.8607778 -0.219481E+00  0.704E+00    0.12       1.0  T
   5   -181.5509848  0.130979E+01  0.740E+00    0.49       1.0  T
   6   -181.9612352 -0.410250E+00  0.688E+00    0.26       1.0  T
   7   -181.1071392  0.854096E+00  0.678E+00    0.38       1.0  T
   8   -178.3841813  0.272296E+01  0.652E+00    0.22       1.0  T
   9   -179.5720422 -0.118786E+01  0.485E+00    0.09       1.0  T
  10   -179.5212463  0.507959E-01  0.441E+00    0.02       1.0  T
  11   -179.9002046 -0.378958E+00  0.388E+00    0.25       1.0  T
  12   -179.9117488 -0.115442E-01  0.385E+00    0.22       1.0  T
  13   -179.9942075 -0.824587E-01  0.325E+00    0.21       1.0  T
  14   -180.0156406 -0.214331E-01  0.239E+00    0.09       1.0  T
  15   -180.1153157 -0.996751E-01  0.233E+00    0.10       1.0  T
  16   -180.1171354 -0.181976E-02  0.210E+00    0.09       1.0  T
  17   -180.0058178  0.111318E+00  0.192E+00    0.07       1.0  T
  18   -179.8757550  0.130063E+00  0.257E+00    0.25       1.0  T
  19   -179.8770242 -0.126926E-02  0.256E+00    0.24       1.0  T
  20   -180.1358469 -0.258823E+00  0.143E+00    0.05       1.0  T
  21   -180.1215904  0.142565E-01  0.137E+00    0.04       1.0  T
  22   -180.0829404  0.386500E-01  0.114E+00    0.05       1.0  T
  23   -180.1147724 -0.318321E-01  0.140E+00    0.05       1.0  T
  24   -180.1425051 -0.277327E-01  0.784E-01    0.03       1.0  T
  25   -180.1390384  0.346677E-02  0.847E-01    0.03       1.0  T
  26   -180.1412847 -0.224637E-02  0.713E-01    0.03       1.0  T
  27   -180.1313691  0.991570E-02  0.928E-01    0.04       1.0  T
  28   -180.1296943  0.167475E-02  0.952E-01    0.04       1.0  T
  29   -180.1390918 -0.939747E-02  0.620E-01    0.03       1.0  T
  30   -180.1478483 -0.875656E-02  0.168E-01    0.01       1.0  T
  31   -180.1483606 -0.512284E-03  0.270E-01    0.01       1.0  T
  32   -180.1435105  0.485008E-02  0.454E-01    0.01       1.0  T
  33   -180.1484369 -0.492636E-02  0.223E-01    0.02       1.0  T
  34   -180.1483810  0.559256E-04  0.220E-01    0.02       1.0  T
  35   -180.1399783  0.840267E-02  0.506E-01    0.02       1.0  T
  36   -180.1481237 -0.814546E-02  0.851E-02    0.01       1.0  T
  37   -180.1485982 -0.474417E-03  0.525E-02    0.01       1.0  T
  38   -180.1485008  0.973911E-04  0.110E-01    0.01       1.0  T
  39   -180.1485623 -0.614987E-04  0.655E-02    0.01       1.0  T
  40   -180.1486116 -0.493476E-04  0.411E-02    0.01       1.0  T
  41   -180.1486645 -0.528969E-04  0.935E-03    0.01       1.1  T
  42   -180.1486523  0.122233E-04  0.254E-02    0.01       1.0  T
  43   -180.1486638 -0.114915E-04  0.125E-02    0.01       1.0  T
  44   -180.1486632  0.542429E-06  0.101E-02    0.01       1.0  T
  45   -180.1486655 -0.228020E-05  0.415E-03    0.01       2.5  T
  46   -180.1486650  0.523234E-06  0.592E-03    0.01       1.8  T
  47   -180.1486656 -0.651866E-06  0.378E-03    0.01       2.8  T
  48   -180.1486650  0.638262E-06  0.627E-03    0.01       1.7  T
  49   -180.1486659 -0.897630E-06  0.148E-03    0.01       7.1  T
  50   -180.1486659  0.407316E-07  0.137E-03    0.01       7.7  T
  51   -180.1486659 -0.639608E-07  0.932E-04    0.01      11.3  T
  52   -180.1486659 -0.147750E-07  0.802E-04    0.01      13.2  T
     SCC iter.                  ...        0 min,  1.168 sec
     gradient                   ...        0 min,  0.045 sec
 * total energy  :  -178.4094018 Eh     change       -0.2261972E-01 Eh
   gradient norm :     0.0385218 Eh/α   predicted    -0.2646233E-01 (  16.99%)
   displ. norm   :     0.6221321 α      lambda       -0.1443772E-01
   maximum displ.:     0.2111024 α      in ANC's #1, #27, #29, ...

........................................................................
.............................. CYCLE    4 ..............................
........................................................................

 iter      E             dE          RMSdq      gap      omega  full diag
   1   -180.0014590 -0.180001E+03  0.268E+00    0.30       0.0  T
   2   -178.2212559  0.178020E+01  0.604E+00    0.12       1.0  T
   3   -180.5731705 -0.235191E+01  0.498E+00    0.06       1.0  T
   4   -177.7573945  0.281578E+01  0.617E+00    0.17       1.0  T
   5   -175.0477392  0.270966E+01  0.703E+00    0.19       1.0  T
   6   -175.0565939 -0.885466E-02  0.702E+00    0.13       1.0  T
   7   -175.0814259 -0.248320E-01  0.702E+00    0.19       1.0  T
   8   -175.0330011  0.484248E-01  0.703E+00    0.21       1.0  T
   9   -174.8168395  0.216162E+00  0.709E+00    0.29       1.0  T
  10   -171.4200677  0.339677E+01  0.758E+00    0.01       1.0  T
  11   -174.3455728 -0.292551E+01  0.706E+00    0.42       1.0  T
  12   -177.7247474 -0.337917E+01  0.468E+00    0.06       1.0  T
  13   -180.0819292 -0.235718E+01  0.190E+00    0.08       1.0  T
  14   -180.0645729  0.173563E-01  0.406E+00    0.26       1.0  T
  15   -180.0680222 -0.344930E-02  0.362E+00    0.24       1.0  T
  16   -180.0892079 -0.211857E-01  0.295E+00    0.16       1.0  T
  17   -180.1027584 -0.135505E-01  0.310E+00    0.17       1.0  T
  18   -180.0948917  0.786663E-02  0.229E+00    0.11       1.0  T
  19   -179.9833098  0.111582E+00  0.223E+00    0.25       1.0  T
  20   -179.7728109  0.210499E+00  0.176E+00    0.07       1.0  T
  21   -180.0840676 -0.311257E+00  0.130E+00    0.02       1.0  T
  22   -180.0864019 -0.233427E-02  0.163E+00    0.06       1.0  T
  23   -180.0758545  0.105473E-01  0.175E+00    0.06       1.0  T
  24   -180.0808430 -0.498850E-02  0.167E+00    0.07       1.0  T
  25   -180.0844195 -0.357644E-02  0.160E+00    0.07       1.0  T
  26   -180.1568009 -0.723814E-01  0.154E-01    0.01       1.0  T
  27   -180.1533529  0.344797E-02  0.392E-01    0.01       1.0  T
  28   -180.1385635  0.147894E-01  0.808E-01    0.05       1.0  T
  29   -180.1560673 -0.175039E-01  0.244E-01    0.02       1.0  T
  30   -180.1368111  0.192562E-01  0.901E-01    0.04       1.0  T
  31   -180.1478624 -0.110513E-01  0.605E-01    0.02       1.0  T
  32   -180.1555976 -0.773520E-02  0.242E-01    0.02       1.0  T
  33   -180.1535316  0.206602E-02  0.350E-01    0.03       1.0  T
  34   -180.1571044 -0.357276E-02  0.124E-01    0.01       1.0  T
  35   -180.1572982 -0.193845E-03  0.952E-02    0.01       1.0  T
  36   -180.1566737  0.624468E-03  0.134E-01    0.02       1.0  T
  37   -180.1573280 -0.654248E-03  0.364E-02    0.01       1.0  T
  38   -180.1567548  0.573187E-03  0.125E-01    0.01       1.0  T
  39   -180.1569598 -0.204985E-03  0.101E-01    0.01       1.0  T
  40   -180.1573017 -0.341910E-03  0.443E-02    0.01       1.0  T
  41   -180.1573106 -0.886252E-05  0.434E-02    0.01       1.0  T
  42   -180.1573338 -0.232676E-04  0.388E-02    0.01       1.0  T
  43   -180.1573854 -0.515668E-04  0.249E-02    0.01       1.0  T
  44   -180.1573752  0.101661E-04  0.286E-02    0.01       1.0  T
  45   -180.1574112 -0.359347E-04  0.181E-02    0.01       1.0  T
  46   -180.1574129 -0.171912E-05  0.172E-02    0.01       1.0  T
  47   -180.1574168 -0.393124E-05  0.152E-02    0.01       1.0  T
  48   -180.1574216 -0.483577E-05  0.140E-02    0.01       1.0  T
  49   -180.1574254 -0.373921E-05  0.108E-02    0.01       1.0  T
  50   -180.1574281 -0.271388E-05  0.829E-03    0.01       1.3  T
  51   -180.1574276  0.522301E-06  0.782E-03    0.01       1.3  T
  52   -180.1574264  0.119840E-05  0.971E-03    0.01       1.1  T
  53   -180.1574274 -0.984147E-06  0.924E-03    0.01       1.1  T
  54   -180.1574295 -0.219219E-05  0.741E-03    0.01       1.4  T
  55   -180.1574314 -0.183254E-05  0.536E-03    0.01       2.0  T
  56   -180.1574326 -0.123426E-05  0.243E-03    0.01       4.3  T
  57   -180.1574327 -0.128694E-06  0.282E-03    0.01       3.7  T
  58   -180.1574330 -0.232373E-06  0.135E-03    0.01       7.8  T
  59   -180.1574330 -0.321716E-07  0.112E-03    0.01       9.4  T
  60   -180.1574330 -0.204778E-07  0.816E-04    0.01      12.9  T
  61   -180.1574330 -0.120548E-07  0.669E-04    0.01      15.7  T
     SCC iter.                  ...        0 min,  1.276 sec
     gradient                   ...        0 min,  0.047 sec
 * total energy  :  -178.4152822 Eh     change       -0.5880339E-02 Eh
   gradient norm :     0.0583712 Eh/α   predicted    -0.1001297E-01 (  70.28%)
   displ. norm   :     0.6293906 α      lambda       -0.1802314E-01
   maximum displ.:     0.3603394 α      in ANC's #1, #26, #22, ...

........................................................................
.............................. CYCLE    5 ..............................
........................................................................

 iter      E             dE          RMSdq      gap      omega  full diag
   1   -180.0371159 -0.180037E+03  0.234E+00    0.19       0.0  T
   2   -178.2760194  0.176110E+01  0.567E+00    0.13       1.0  T
   3   -180.4079538 -0.213193E+01  0.418E+00    0.05       1.0  T
   4   -179.3788191  0.102913E+01  0.448E+00    0.09       1.0  T
   5   -179.2199936  0.158826E+00  0.455E+00    0.11       1.0  T
   6   -179.7192906 -0.499297E+00  0.343E+00    0.06       1.0  T
   7   -179.9170010 -0.197710E+00  0.288E+00    0.10       1.0  T
   8   -179.8905729  0.264282E-01  0.265E+00    0.08       1.0  T
   9   -180.0576785 -0.167106E+00  0.194E+00    0.09       1.0  T
  10   -180.0745974 -0.169189E-01  0.170E+00    0.08       1.0  T
  11   -180.1184213 -0.438239E-01  0.121E+00    0.07       1.0  T
  12   -180.0370542  0.813671E-01  0.227E+00    0.20       1.0  T
  13   -180.1635066 -0.126452E+00  0.169E-01    0.01       1.0  T
  14   -180.1605427  0.296392E-02  0.383E-01    0.03       1.0  T
  15   -180.1632890 -0.274633E-02  0.185E-01    0.02       1.0  T
  16   -180.1587082  0.458083E-02  0.445E-01    0.03       1.0  T
  17   -180.1621906 -0.348240E-02  0.264E-01    0.02       1.0  T
  18   -180.1639851 -0.179452E-02  0.751E-02    0.01       1.0  T
  19   -180.1639605  0.246459E-04  0.820E-02    0.02       1.0  T
  20   -180.1641209 -0.160438E-03  0.358E-02    0.01       1.0  T
  21   -180.1639777  0.143260E-03  0.836E-02    0.01       1.0  T
  22   -180.1641153 -0.137653E-03  0.439E-02    0.01       1.0  T
  23   -180.1640935  0.217803E-04  0.524E-02    0.01       1.0  T
  24   -180.1641070 -0.134364E-04  0.474E-02    0.01       1.0  T
  25   -180.1641393 -0.323665E-04  0.318E-02    0.01       1.0  T
  26   -180.1641570 -0.176872E-04  0.212E-02    0.01       1.0  T
  27   -180.1641564  0.611042E-06  0.236E-02    0.01       1.0  T
  28   -180.1641586 -0.215509E-05  0.236E-02    0.01       1.0  T
  29   -180.1641690 -0.104156E-04  0.159E-02    0.01       1.0  T
  30   -180.1641686  0.420722E-06  0.184E-02    0.01       1.0  T
  31   -180.1641754 -0.686916E-05  0.119E-02    0.01       1.0  T
  32   -180.1641782 -0.274943E-05  0.778E-03    0.01       1.4  T
  33   -180.1641787 -0.503897E-06  0.710E-03    0.01       1.5  T
  34   -180.1641795 -0.822131E-06  0.520E-03    0.01       2.0  T
  35   -180.1641804 -0.887907E-06  0.102E-03    0.01      10.4  T
  36   -180.1641804  0.367163E-08  0.127E-03    0.01       8.3  T
  37   -180.1641804 -0.553235E-07  0.319E-04    0.01      33.0  T
  38   -180.1641804  0.596884E-09  0.412E-04    0.01      25.6  T
     SCC iter.                  ...        0 min,  0.788 sec
     gradient                   ...        0 min,  0.043 sec
 * total energy  :  -178.4240882 Eh     change       -0.8805972E-02 Eh
   gradient norm :     0.0399634 Eh/α   predicted    -0.1258135E-01 (  42.87%)
   displ. norm   :     0.4942106 α      lambda       -0.9669651E-02
   maximum displ.:     0.1662020 α      in ANC's #31, #35, #22, ...

........................................................................
.............................. CYCLE    6 ..............................
........................................................................

 iter      E             dE          RMSdq      gap      omega  full diag
   1   -180.0855505 -0.180086E+03  0.171E+00    0.08       0.0  T
   2   -178.2754325  0.181012E+01  0.502E+00    0.09       1.0  T
   3   -180.1023543 -0.182692E+01  0.184E+00    0.11       1.0  T
   4   -180.1243377 -0.219833E-01  0.218E+00    0.15       1.0  T
   5   -180.1430983 -0.187607E-01  0.166E+00    0.10       1.0  T
   6   -180.1701186 -0.270203E-01  0.114E+00    0.01       1.0  T
   7   -180.0333807  0.136738E+00  0.243E+00    0.25       1.0  T
   8   -180.0982042 -0.648235E-01  0.179E+00    0.09       1.0  T
   9   -180.1050154 -0.681114E-02  0.151E+00    0.08       1.0  T
  10   -180.1466017 -0.415864E-01  0.992E-01    0.06       1.0  T
  11   -180.1667145 -0.201128E-01  0.474E-01    0.03       1.0  T
  12   -180.1713328 -0.461829E-02  0.354E-01    0.01       1.0  T
  13   -180.1719483 -0.615485E-03  0.224E-01    0.02       1.0  T
  14   -180.1735225 -0.157418E-02  0.133E-01    0.01       1.0  T
  15   -180.1708328  0.268969E-02  0.343E-01    0.01       1.0  T
  16   -180.1737452 -0.291246E-02  0.422E-02    0.01       1.0  T
  17   -180.1737864 -0.411478E-04  0.301E-02    0.01       1.0  T
  18   -180.1736835  0.102848E-03  0.568E-02    0.01       1.0  T
  19   -180.1731181  0.565468E-03  0.161E-01    0.02       1.0  T
  20   -180.1736437 -0.525657E-03  0.764E-02    0.02       1.0  T
  21   -180.1737741 -0.130351E-03  0.284E-02    0.01       1.0  T
  22   -180.1737483  0.257998E-04  0.428E-02    0.01       1.0  T
  23   -180.1737970 -0.487505E-04  0.368E-03    0.01       2.9  T
  24   -180.1737875  0.953460E-05  0.189E-02    0.01       1.0  T
  25   -180.1737971 -0.958251E-05  0.306E-03    0.01       3.5  T
  26   -180.1737974 -0.302147E-06  0.473E-04    0.01      22.3  T
  27   -180.1737970  0.333238E-06  0.343E-03    0.01       3.1  T
  28   -180.1737973 -0.294773E-06  0.118E-03    0.01       8.9  T
  29   -180.1737974 -0.422194E-07  0.132E-04    0.01      80.0  T
     SCC iter.                  ...        0 min,  0.615 sec
     gradient                   ...        0 min,  0.044 sec
 * total energy  :  -178.4298651 Eh     change       -0.5776904E-02 Eh
   gradient norm :     0.0309965 Eh/α   predicted    -0.6015701E-02 (   4.13%)
   displ. norm   :     0.5631838 α      lambda       -0.7324121E-02
   maximum displ.:     0.1692481 α      in ANC's #14, #31, #22, ...

........................................................................
.............................. CYCLE    7 ..............................
........................................................................

 iter      E             dE          RMSdq      gap      omega  full diag
   1   -180.0927836 -0.180093E+03  0.198E+00    0.10       0.0  T
   2   -179.1398447  0.952939E+00  0.422E+00    0.08       1.0  T
   3   -180.5767175 -0.143687E+01  0.352E+00    0.01       1.0  T
   4   -179.9406646  0.636053E+00  0.402E+00    0.15       1.0  T
   5   -179.9159880  0.246765E-01  0.335E+00    0.14       1.0  T
   6   -179.8035766  0.112411E+00  0.222E+00    0.08       1.0  T
   7   -179.9197874 -0.116211E+00  0.255E+00    0.13       1.0  T
   8   -180.1372757 -0.217488E+00  0.155E+00    0.03       1.0  T
   9   -180.1794813 -0.422057E-01  0.112E+00    0.03       1.0  T
  10   -180.1658616  0.136198E-01  0.128E+00    0.05       1.0  T
  11   -180.1718018 -0.594022E-02  0.922E-01    0.04       1.0  T
  12   -180.1614288  0.103730E-01  0.644E-01    0.03       1.0  T
  13   -180.1690471 -0.761828E-02  0.847E-01    0.05       1.0  T
  14   -180.1500433  0.190038E-01  0.113E+00    0.07       1.0  T
  15   -180.1639171 -0.138737E-01  0.758E-01    0.05       1.0  T
  16   -180.1708694 -0.695236E-02  0.717E-01    0.03       1.0  T
  17   -180.1798535 -0.898413E-02  0.112E-01    0.01       1.0  T
  18   -180.1799117 -0.581209E-04  0.932E-02    0.01       1.0  T
  19   -180.1779715  0.194013E-02  0.284E-01    0.03       1.0  T
  20   -180.1785822 -0.610624E-03  0.243E-01    0.02       1.0  T
  21   -180.1798112 -0.122900E-02  0.105E-01    0.02       1.0  T
  22   -180.1800120 -0.200812E-03  0.636E-02    0.02       1.0  T
  23   -180.1799844  0.275270E-04  0.669E-02    0.02       1.0  T
  24   -180.1800713 -0.868930E-04  0.452E-02    0.02       1.0  T
  25   -180.1800779 -0.654081E-05  0.400E-02    0.02       1.0  T
  26   -180.1801125 -0.346145E-04  0.320E-02    0.02       1.0  T
  27   -180.1801194 -0.691397E-05  0.310E-02    0.02       1.0  T
  28   -180.1801244 -0.497248E-05  0.334E-02    0.02       1.0  T
  29   -180.1801475 -0.231072E-04  0.298E-02    0.02       1.0  T
  30   -180.1801646 -0.170846E-04  0.289E-02    0.02       1.0  T
  31   -180.1802038 -0.391938E-04  0.696E-03    0.02       1.5  T
  32   -180.1802062 -0.244753E-05  0.781E-03    0.01       1.3  T
  33   -180.1802064 -0.186570E-06  0.601E-03    0.01       1.8  T
  34   -180.1802058  0.644080E-06  0.855E-03    0.01       1.2  T
  35   -180.1802073 -0.151889E-05  0.332E-03    0.01       3.2  T
  36   -180.1802074 -0.111797E-06  0.755E-04    0.02      14.0  T
  37   -180.1802074 -0.232385E-07  0.404E-04    0.02      26.1  T
     SCC iter.                  ...        0 min,  0.790 sec
     gradient                   ...        0 min,  0.045 sec
 * total energy  :  -178.4354332 Eh     change       -0.5568140E-02 Eh
   gradient norm :     0.0321834 Eh/α   predicted    -0.4823583E-02 ( -13.37%)
   displ. norm   :     0.6022498 α      lambda       -0.6336528E-02
   maximum displ.:     0.1811013 α      in ANC's #6, #14, #35, ...

........................................................................
.............................. CYCLE    8 ..............................
........................................................................

 iter      E             dE          RMSdq      gap      omega  full diag
   1   -180.1009298 -0.180101E+03  0.217E+00    0.13       0.0  T
   2   -179.2293667  0.871563E+00  0.423E+00    0.08       1.0  T
   3   -180.9349213 -0.170555E+01  0.429E+00    0.06       1.0  T
   4   -180.1694747  0.765447E+00  0.433E+00    0.20       1.0  T
   5   -179.9226590  0.246816E+00  0.421E+00    0.29       1.0  T
   6   -179.6514040  0.271255E+00  0.302E+00    0.03       1.0  T
   7   -179.8404735 -0.189070E+00  0.344E+00    0.15       1.0  T
   8   -180.1379967 -0.297523E+00  0.165E+00    0.03       1.0  T
   9   -180.1797361 -0.417394E-01  0.152E+00    0.07       1.0  T
  10   -180.1354756  0.442605E-01  0.181E+00    0.08       1.0  T
  11   -180.1428492 -0.737357E-02  0.164E+00    0.08       1.0  T
  12   -180.1648995 -0.220503E-01  0.806E-01    0.03       1.0  T
  13   -180.1826464 -0.177470E-01  0.499E-01    0.02       1.0  T
  14   -180.1851190 -0.247259E-02  0.536E-01    0.04       1.0  T
  15   -180.1891566 -0.403762E-02  0.302E-01    0.01       1.0  T
  16   -180.1863290  0.282764E-02  0.443E-01    0.03       1.0  T
  17   -180.1872294 -0.900393E-03  0.405E-01    0.03       1.0  T
  18   -180.1910344 -0.380503E-02  0.146E-01    0.02       1.0  T
  19   -180.1916631 -0.628655E-03  0.885E-02    0.01       1.0  T
  20   -180.1914211  0.241968E-03  0.151E-01    0.01       1.0  T
  21   -180.1917535 -0.332388E-03  0.580E-02    0.01       1.0  T
  22   -180.1917664 -0.129157E-04  0.350E-02    0.01       1.0  T
  23   -180.1917666 -0.129813E-06  0.313E-02    0.01       1.0  T
  24   -180.1916209  0.145657E-03  0.553E-02    0.02       1.0  T
  25   -180.1917015 -0.805609E-04  0.335E-02    0.02       1.0  T
  26   -180.1917146 -0.131684E-04  0.296E-02    0.02       1.0  T
  27   -180.1917321 -0.174470E-04  0.240E-02    0.02       1.0  T
  28   -180.1917240  0.805839E-05  0.284E-02    0.02       1.0  T
  29   -180.1917303 -0.628300E-05  0.267E-02    0.02       1.0  T
  30   -180.1917708 -0.405027E-04  0.108E-02    0.02       1.0  T
  31   -180.1917783 -0.746364E-05  0.726E-03    0.02       1.5  T
  32   -180.1917839 -0.565400E-05  0.210E-03    0.02       5.0  T
  33   -180.1917842 -0.292804E-06  0.237E-03    0.02       4.4  T
  34   -180.1917842  0.384131E-07  0.161E-03    0.02       6.5  T
  35   -180.1917842  0.315907E-08  0.159E-03    0.02       6.6  T
  36   -180.1917843 -0.994736E-07  0.447E-04    0.02      23.6  T
  37   -180.1917843 -0.168910E-09  0.452E-04    0.02      23.3  T
     SCC iter.                  ...        0 min,  0.784 sec
     gradient                   ...        0 min,  0.044 sec
 * total energy  :  -178.4402768 Eh     change       -0.4843567E-02 Eh
   gradient norm :     0.0274130 Eh/α   predicted    -0.4317412E-02 ( -10.86%)
   displ. norm   :     0.6505498 α      lambda       -0.6082190E-02
   maximum displ.:     0.2387228 α      in ANC's #35, #6, #14, ...

........................................................................
.............................. CYCLE    9 ..............................
........................................................................

 iter      E             dE          RMSdq      gap      omega  full diag
   1   -180.1327751 -0.180133E+03  0.183E+00    0.09       0.0  T
   2   -179.6097708  0.523004E+00  0.392E+00    0.08       1.0  T
   3   -180.3125235 -0.702753E+00  0.198E+00    0.12       1.0  T
   4   -180.2092002  0.103323E+00  0.196E+00    0.16       1.0  T
   5   -179.4812683  0.727932E+00  0.243E+00    0.30       1.0  T
   6   -180.1215243 -0.640256E+00  0.153E+00    0.11       1.0  T
   7   -180.0905451  0.309792E-01  0.233E+00    0.08       1.0  T
   8   -180.0913294 -0.784219E-03  0.214E+00    0.08       1.0  T
   9   -180.0936889 -0.235957E-02  0.207E+00    0.08       1.0  T
  10   -180.0940627 -0.373725E-03  0.205E+00    0.08       1.0  T
  11   -180.1060099 -0.119473E-01  0.192E+00    0.08       1.0  T
  12   -180.1210385 -0.150286E-01  0.204E+00    0.16       1.0  T
  13   -180.1942601 -0.732216E-01  0.579E-01    0.02       1.0  T
  14   -180.1683938  0.258663E-01  0.102E+00    0.05       1.0  T
  15   -180.1736443 -0.525050E-02  0.740E-01    0.02       1.0  T
  16   -180.1960347 -0.223904E-01  0.451E-01    0.02       1.0  T
  17   -180.1977250 -0.169026E-02  0.184E-01    0.02       1.0  T
  18   -180.1990922 -0.136722E-02  0.108E-01    0.01       1.0  T
  19   -180.1990196  0.726280E-04  0.129E-01    0.01       1.0  T
  20   -180.1991794 -0.159793E-03  0.475E-02    0.01       1.0  T
  21   -180.1983533  0.826095E-03  0.144E-01    0.02       1.0  T
  22   -180.1991078 -0.754505E-03  0.355E-02    0.01       1.0  T
  23   -180.1991947 -0.869185E-04  0.284E-02    0.01       1.0  T
  24   -180.1991828  0.118890E-04  0.230E-02    0.01       1.0  T
  25   -180.1991812  0.158566E-05  0.220E-02    0.01       1.0  T
  26   -180.1991733  0.798229E-05  0.241E-02    0.01       1.0  T
  27   -180.1992075 -0.342847E-04  0.168E-02    0.01       1.0  T
  28   -180.1992002  0.737530E-05  0.166E-02    0.01       1.0  T
  29   -180.1992158 -0.156221E-04  0.107E-02    0.01       1.0  T
  30   -180.1992172 -0.136933E-05  0.101E-02    0.01       1.0  T
  31   -180.1992217 -0.452291E-05  0.698E-03    0.01       1.5  T
  32   -180.1992243 -0.265314E-05  0.409E-03    0.01       2.6  T
  33   -180.1992257 -0.133960E-05  0.257E-03    0.01       4.1  T
  34   -180.1992255  0.206513E-06  0.240E-03    0.01       4.4  T
  35   -180.1992258 -0.327672E-06  0.879E-04    0.01      12.0  T
  36   -180.1992259 -0.633137E-07  0.391E-04    0.01      26.9  T
     SCC iter.                  ...        0 min,  0.842 sec
     gradient                   ...        0 min,  0.047 sec
 * total energy  :  -178.4443922 Eh     change       -0.4115416E-02 Eh
   gradient norm :     0.0314843 Eh/α   predicted    -0.4328139E-02 (   5.17%)
   displ. norm   :     0.6247370 α      lambda       -0.5740239E-02
   maximum displ.:     0.2435663 α      in ANC's #6, #60, #14, ...

........................................................................
.............................. CYCLE   10 ..............................
........................................................................

 iter      E             dE          RMSdq      gap      omega  full diag
   1   -180.1018135 -0.180102E+03  0.233E+00    0.17       0.0  T
   2   -179.3355833  0.766230E+00  0.438E+00    0.07       1.0  T
   3   -181.0476054 -0.171202E+01  0.460E+00    0.08       1.0  T
   4   -178.3645257  0.268308E+01  0.576E+00    0.06       1.0  T
   5   -177.3294344  0.103509E+01  0.614E+00    0.03       1.0  T
   6   -175.9837718  0.134566E+01  0.676E+00    0.05       1.0  T
   7   -177.5936190 -0.160985E+01  0.592E+00    0.07       1.0  T
   8   -180.0500969 -0.245648E+01  0.427E+00    0.05       1.0  T
   9   -180.0949010 -0.448041E-01  0.196E+00    0.11       1.0  T
  10   -180.1473967 -0.524957E-01  0.297E+00    0.09       1.0  T
  11   -180.1471865  0.210158E-03  0.214E+00    0.09       1.0  T
  12   -180.1952707 -0.480841E-01  0.981E-01    0.05       1.0  T
  13   -180.2021929 -0.692223E-02  0.221E-01    0.01       1.0  T
  14   -180.2042122 -0.201932E-02  0.150E-01    0.01       1.0  T
  15   -180.2036163  0.595866E-03  0.310E-01    0.02       1.0  T
  16   -180.2053487 -0.173236E-02  0.568E-02    0.01       1.0  T
  17   -180.2049180  0.430651E-03  0.125E-01    0.01       1.0  T
  18   -180.2051990 -0.280905E-03  0.102E-01    0.01       1.0  T
  19   -180.2053390 -0.140050E-03  0.591E-02    0.01       1.0  T
  20   -180.2053097  0.292570E-04  0.686E-02    0.01       1.0  T
  21   -180.2053519 -0.421937E-04  0.290E-02    0.01       1.0  T
  22   -180.2053698 -0.178887E-04  0.172E-02    0.01       1.0  T
  23   -180.2053832 -0.133696E-04  0.121E-02    0.01       1.0  T
  24   -180.2053779  0.529039E-05  0.120E-02    0.01       1.0  T
  25   -180.2053835 -0.563915E-05  0.102E-02    0.01       1.0  T
  26   -180.2053831  0.413706E-06  0.834E-03    0.01       1.3  T
  27   -180.2053841 -0.967378E-06  0.737E-03    0.01       1.4  T
  28   -180.2053849 -0.771582E-06  0.864E-03    0.01       1.2  T
  29   -180.2053850 -0.971717E-07  0.565E-03    0.01       1.9  T
  30   -180.2053854 -0.417864E-06  0.421E-03    0.01       2.5  T
  31   -180.2053858 -0.379593E-06  0.426E-03    0.01       2.5  T
  32   -180.2053859 -0.115180E-06  0.372E-03    0.01       2.8  T
  33   -180.2053860 -0.147251E-06  0.379E-03    0.01       2.8  T
  34   -180.2053862 -0.128945E-06  0.297E-03    0.01       3.5  T
  35   -180.2053863 -0.190802E-06  0.183E-03    0.01       5.7  T
  36   -180.2053864 -0.671974E-07  0.155E-03    0.01       6.8  T
  37   -180.2053865 -0.716713E-07  0.131E-03    0.01       8.1  T
  38   -180.2053865 -0.600904E-07  0.751E-04    0.01      14.0  T
  39   -180.2053866 -0.171589E-07  0.438E-04    0.01      24.1  T
     SCC iter.                  ...        0 min,  0.841 sec
     gradient                   ...        0 min,  0.045 sec
 * total energy  :  -178.4482317 Eh     change       -0.3839562E-02 Eh
   gradient norm :     0.0354975 Eh/α   predicted    -0.3990317E-02 (   3.93%)
   displ. norm   :     0.5550926 α      lambda       -0.5984406E-02
   maximum displ.:     0.2547810 α      in ANC's #6, #8, #18, ...

........................................................................
.............................. CYCLE   11 ..............................
........................................................................

 iter      E             dE          RMSdq      gap      omega  full diag
   1   -180.2283204 -0.180228E+03  0.486E-01    0.01       0.0  T
   2   -180.1106466  0.117674E+00  0.184E+00    0.07       1.0  T
   3   -180.1029304  0.771619E-02  0.215E+00    0.16       1.0  T
   4   -180.1865666 -0.836362E-01  0.133E+00    0.07       1.0  T
   5   -180.1787752  0.779137E-02  0.160E+00    0.10       1.0  T
   6   -180.2057107 -0.269355E-01  0.103E+00    0.05       1.0  T
   7   -180.2276161 -0.219054E-01  0.290E-01    0.01       1.0  T
   8   -180.2288910 -0.127498E-02  0.208E-01    0.01       1.0  T
   9   -180.2287104  0.180679E-03  0.193E-01    0.01       1.0  T
  10   -180.2280302  0.680185E-03  0.246E-01    0.02       1.0  T
  11   -180.2297828 -0.175264E-02  0.238E-02    0.01       1.0  T
  12   -180.2293797  0.403095E-03  0.122E-01    0.01       1.0  T
  13   -180.2297938 -0.414118E-03  0.848E-03    0.01       1.2  T
  14   -180.2297000  0.938167E-04  0.608E-02    0.01       1.0  T
  15   -180.2297606 -0.605317E-04  0.352E-02    0.01       1.0  T
  16   -180.2297926 -0.320949E-04  0.142E-02    0.01       1.0  T
  17   -180.2297781  0.145841E-04  0.259E-02    0.01       1.0  T
  18   -180.2297906 -0.125112E-04  0.143E-02    0.01       1.0  T
  19   -180.2297918 -0.122446E-05  0.128E-02    0.01       1.0  T
  20   -180.2297955 -0.373590E-05  0.402E-03    0.01       2.6  T
  21   -180.2297959 -0.404137E-06  0.556E-04    0.01      19.0  T
  22   -180.2297957  0.263668E-06  0.326E-03    0.01       3.2  T
  23   -180.2297959 -0.270417E-06  0.312E-04    0.01      33.8  T
     SCC iter.                  ...        0 min,  0.487 sec
     gradient                   ...        0 min,  0.047 sec
 * total energy  :  -178.4510268 Eh     change       -0.2795028E-02 Eh
   gradient norm :     0.0367751 Eh/α   predicted    -0.3914182E-02 (  40.04%)
   displ. norm   :     0.5861780 α      lambda       -0.6100975E-02
   maximum displ.:     0.2483323 α      in ANC's #6, #60, #14, ...

........................................................................
.............................. CYCLE   12 ..............................
........................................................................

 iter      E             dE          RMSdq      gap      omega  full diag
   1   -180.2181948 -0.180218E+03  0.594E-01    0.01       0.0  T
   2   -180.0426694  0.175525E+00  0.218E+00    0.07       1.0  T
   3   -180.1072632 -0.645938E-01  0.210E+00    0.16       1.0  T
   4   -180.1578966 -0.506334E-01  0.177E+00    0.12       1.0  T
   5   -180.1580304 -0.133789E-03  0.174E+00    0.12       1.0  T
   6   -180.2111831 -0.531527E-01  0.654E-01    0.03       1.0  T
   7   -180.1964356  0.147475E-01  0.956E-01    0.05       1.0  T
   8   -180.2138972 -0.174616E-01  0.519E-01    0.03       1.0  T
   9   -180.2171120 -0.321480E-02  0.443E-01    0.02       1.0  T
  10   -180.2188917 -0.177970E-02  0.337E-01    0.01       1.0  T
  11   -180.2218997 -0.300797E-02  0.342E-02    0.01       1.0  T
  12   -180.2202439  0.165574E-02  0.254E-01    0.01       1.0  T
  13   -180.2215295 -0.128552E-02  0.120E-01    0.01       1.0  T
  14   -180.2215426 -0.130781E-04  0.122E-01    0.01       1.0  T
  15   -180.2219088 -0.366208E-03  0.213E-02    0.01       1.0  T
  16   -180.2218825  0.262324E-04  0.402E-02    0.01       1.0  T
  17   -180.2219185 -0.359331E-04  0.119E-02    0.01       1.0  T
  18   -180.2219173  0.118336E-05  0.144E-02    0.01       1.0  T
  19   -180.2219151  0.219958E-05  0.167E-02    0.01       1.0  T
  20   -180.2219221 -0.706509E-05  0.291E-03    0.01       3.6  T
  21   -180.2219221  0.402531E-08  0.245E-03    0.01       4.3  T
  22   -180.2219198  0.229795E-05  0.100E-02    0.01       1.1  T
  23   -180.2219222 -0.236130E-05  0.209E-03    0.01       5.0  T
  24   -180.2219223 -0.891737E-07  0.114E-03    0.01       9.2  T
  25   -180.2219223 -0.226164E-07  0.678E-04    0.01      15.5  T
  26   -180.2219223 -0.997321E-08  0.231E-04    0.01      45.6  T
     SCC iter.                  ...        0 min,  0.552 sec
     gradient                   ...        0 min,  0.045 sec
 * total energy  :  -178.4536974 Eh     change       -0.2670615E-02 Eh
   gradient norm :     0.0446464 Eh/α   predicted    -0.4098650E-02 (  53.47%)
   displ. norm   :     0.4456413 α      lambda       -0.6125313E-02
   maximum displ.:     0.1873232 α      in ANC's #6, #14, #33, ...

........................................................................
.............................. CYCLE   13 ..............................
........................................................................

 iter      E             dE          RMSdq      gap      omega  full diag
   1   -180.1459345 -0.180146E+03  0.174E+00    0.09       0.0  T
   2   -179.6241890  0.521745E+00  0.421E+00    0.08       1.0  T
   3   -180.2974854 -0.673296E+00  0.152E+00    0.07       1.0  T
   4   -179.8929282  0.404557E+00  0.143E+00    0.03       1.0  T
   5   -179.9945182 -0.101590E+00  0.225E+00    0.15       1.0  T
   6   -180.0827349 -0.882167E-01  0.210E+00    0.06       1.0  T
   7   -180.1495666 -0.668317E-01  0.136E+00    0.06       1.0  T
   8   -180.2089822 -0.594157E-01  0.139E-01    0.01       1.0  T
   9   -180.1637126  0.452697E-01  0.138E+00    0.07       1.0  T
  10   -180.2019344 -0.382218E-01  0.516E-01    0.02       1.0  T
  11   -180.2087940 -0.685967E-02  0.192E-01    0.01       1.0  T
  12   -180.1871966  0.215975E-01  0.965E-01    0.05       1.0  T
  13   -180.1823734  0.482313E-02  0.104E+00    0.05       1.0  T
  14   -180.2010564 -0.186829E-01  0.582E-01    0.03       1.0  T
  15   -180.2078478 -0.679143E-02  0.213E-01    0.01       1.0  T
  16   -180.2092822 -0.143442E-02  0.428E-02    0.00       1.0  T
  17   -180.2089358  0.346479E-03  0.173E-01    0.01       1.0  T
  18   -180.2088116  0.124151E-03  0.187E-01    0.01       1.0  T
  19   -180.2087832  0.283739E-04  0.184E-01    0.01       1.0  T
  20   -180.2092822 -0.498939E-03  0.894E-02    0.01       1.0  T
  21   -180.2093877 -0.105553E-03  0.303E-02    0.01       1.0  T
  22   -180.2093903 -0.256579E-05  0.293E-02    0.01       1.0  T
  23   -180.2093959 -0.563864E-05  0.187E-02    0.01       1.0  T
  24   -180.2093990 -0.311545E-05  0.562E-03    0.01       1.9  T
  25   -180.2093818  0.172127E-04  0.298E-02    0.01       1.0  T
  26   -180.2093971 -0.152515E-04  0.126E-02    0.01       1.0  T
  27   -180.2093991 -0.202916E-05  0.695E-03    0.01       1.5  T
  28   -180.2094000 -0.918412E-06  0.130E-03    0.01       8.1  T
  29   -180.2094000  0.266195E-07  0.173E-03    0.01       6.1  T
  30   -180.2094000 -0.277469E-07  0.126E-03    0.01       8.4  T
  31   -180.2094000 -0.102355E-07  0.911E-04    0.01      11.6  T
  32   -180.2094000 -0.102850E-07  0.501E-04    0.01      21.0  T
     SCC iter.                  ...        0 min,  0.675 sec
     gradient                   ...        0 min,  0.046 sec
 * total energy  :  -178.4553718 Eh     change       -0.1674360E-02 Eh
   gradient norm :     0.0538317 Eh/α   predicted    -0.3670893E-02 ( 119.24%)
   displ. norm   :     0.3620579 α      lambda       -0.5801475E-02
   maximum displ.:     0.1852109 α      in ANC's #6, #27, #8, ...

........................................................................
.............................. CYCLE   14 ..............................
........................................................................

 iter      E             dE          RMSdq      gap      omega  full diag
   1   -180.1741250 -0.180174E+03  0.148E+00    0.08       0.0  T
   2   -179.6996687  0.474456E+00  0.395E+00    0.08       1.0  T
   3   -180.2661165 -0.566448E+00  0.125E+00    0.07       1.0  T
   4   -180.2063304  0.597861E-01  0.858E-01    0.02       1.0  T
   5   -180.2219030 -0.155726E-01  0.372E-01    0.02       1.0  T
   6   -180.1744899  0.474130E-01  0.144E+00    0.09       1.0  T
   7   -180.2181041 -0.436142E-01  0.361E-01    0.01       1.0  T
   8   -180.2185324 -0.428341E-03  0.350E-01    0.01       1.0  T
   9   -180.2149151  0.361736E-02  0.500E-01    0.02       1.0  T
  10   -180.2218418 -0.692673E-02  0.111E-01    0.01       1.0  T
  11   -180.2216468  0.195021E-03  0.149E-01    0.01       1.0  T
  12   -180.2214922  0.154565E-03  0.165E-01    0.01       1.0  T
  13   -180.2218266 -0.334365E-03  0.125E-01    0.01       1.0  T
  14   -180.2222160 -0.389369E-03  0.157E-02    0.00       1.0  T
  15   -180.2221845  0.314203E-04  0.398E-02    0.00       1.0  T
  16   -180.2222025 -0.179545E-04  0.298E-02    0.00       1.0  T
  17   -180.2221958  0.673526E-05  0.337E-02    0.00       1.0  T
  18   -180.2222189 -0.231739E-04  0.165E-02    0.00       1.0  T
  19   -180.2222248 -0.585523E-05  0.731E-03    0.00       1.4  T
  20   -180.2222245  0.336482E-06  0.813E-03    0.00       1.3  T
  21   -180.2222262 -0.176442E-05  0.603E-04    0.00      17.5  T
  22   -180.2222261  0.880522E-07  0.195E-03    0.00       5.4  T
  23   -180.2222262 -0.508217E-07  0.136E-03    0.00       7.8  T
  24   -180.2222262 -0.392013E-07  0.606E-04    0.00      17.4  T
  25   -180.2222262 -0.996451E-08  0.721E-05    0.00     146.1  T
     SCC iter.                  ...        0 min,  0.540 sec
     gradient                   ...        0 min,  0.045 sec
 * total energy  :  -178.4587546 Eh     change       -0.3382829E-02 Eh
   gradient norm :     0.0211006 Eh/α   predicted    -0.3280991E-02 (  -3.01%)
   displ. norm   :     0.5788717 α      lambda       -0.4455212E-02
   maximum displ.:     0.3311513 α      in ANC's #6, #8, #12, ...

........................................................................
.............................. CYCLE   15 ..............................
........................................................................

 iter      E             dE          RMSdq      gap      omega  full diag
   1   -180.2298491 -0.180230E+03  0.630E-01    0.02       0.0  T
   2   -180.0237872  0.206062E+00  0.238E+00    0.07       1.0  T
   3   -180.1123772 -0.885900E-01  0.214E+00    0.14       1.0  T
   4   -180.1858261 -0.734489E-01  0.182E+00    0.12       1.0  T
   5   -180.2319514 -0.461253E-01  0.505E-01    0.03       1.0  T
   6   -180.2218044  0.101470E-01  0.501E-01    0.02       1.0  T
   7   -180.2129308  0.887360E-02  0.990E-01    0.05       1.0  T
   8   -180.1973334  0.155974E-01  0.118E+00    0.06       1.0  T
   9   -180.2299117 -0.325784E-01  0.324E-01    0.01       1.0  T
  10   -180.2284238  0.148791E-02  0.486E-01    0.02       1.0  T
  11   -180.2292918 -0.867995E-03  0.412E-01    0.02       1.0  T
  12   -180.2310914 -0.179959E-02  0.297E-01    0.01       1.0  T
  13   -180.2332157 -0.212424E-02  0.698E-02    0.00       1.0  T
  14   -180.2333166 -0.100945E-03  0.320E-02    0.00       1.0  T
  15   -180.2333222 -0.563635E-05  0.283E-02    0.00       1.0  T
  16   -180.2332887  0.335488E-04  0.409E-02    0.00       1.0  T
  17   -180.2331276  0.161106E-03  0.921E-02    0.00       1.0  T
  18   -180.2333363 -0.208752E-03  0.805E-03    0.00       1.3  T
  19   -180.2333358  0.515052E-06  0.895E-03    0.00       1.2  T
  20   -180.2333375 -0.169664E-05  0.187E-03    0.00       5.6  T
  21   -180.2333375 -0.129246E-07  0.166E-03    0.00       6.4  T
  22   -180.2333375  0.345887E-08  0.204E-03    0.00       5.2  T
  23   -180.2333374  0.135898E-06  0.294E-03    0.00       3.6  T
  24   -180.2333371  0.278815E-06  0.444E-03    0.00       2.4  T
  25   -180.2333376 -0.462760E-06  0.110E-03    0.00       9.6  T
  26   -180.2333375  0.301125E-07  0.166E-03    0.00       6.3  T
  27   -180.2333376 -0.282309E-07  0.117E-03    0.00       9.0  T
  28   -180.2333376 -0.311197E-07  0.335E-04    0.00      31.4  T
  29   -180.2333376 -0.217091E-08  0.141E-04    0.00      74.8  T
     SCC iter.                  ...        0 min,  0.612 sec
     gradient                   ...        0 min,  0.048 sec
 * total energy  :  -178.4617943 Eh     change       -0.3039749E-02 Eh
   gradient norm :     0.0276162 Eh/α   predicted    -0.2974064E-02 (  -2.16%)
   displ. norm   :     0.6230388 α      lambda       -0.4072595E-02
   maximum displ.:     0.3852608 α      in ANC's #6, #8, #12, ...

........................................................................
.............................. CYCLE   16 ..............................
........................................................................

 iter      E             dE          RMSdq      gap      omega  full diag
   1   -180.2020873 -0.180202E+03  0.134E+00    0.06       0.0  T
   2   -179.7579487  0.444139E+00  0.377E+00    0.07       1.0  T
   3   -180.2500703 -0.492122E+00  0.160E+00    0.07       1.0  T
   4   -180.2071248  0.429455E-01  0.152E+00    0.08       1.0  T
   5   -180.1092839  0.978409E-01  0.207E+00    0.08       1.0  T
   6   -180.1390226 -0.297387E-01  0.181E+00    0.07       1.0  T
   7   -180.2037745 -0.647519E-01  0.105E+00    0.05       1.0  T
   8   -180.2278962 -0.241217E-01  0.703E-01    0.03       1.0  T
   9   -180.2286664 -0.770234E-03  0.559E-01    0.02       1.0  T
  10   -180.2213175  0.734887E-02  0.739E-01    0.04       1.0  T
  11   -180.2336363 -0.123187E-01  0.334E-01    0.01       1.0  T
  12   -180.2339311 -0.294838E-03  0.305E-01    0.01       1.0  T
  13   -180.2337552  0.175865E-03  0.321E-01    0.02       1.0  T
  14   -180.2361164 -0.236110E-02  0.118E-01    0.01       1.0  T
  15   -180.2364950 -0.378622E-03  0.981E-03    0.00       1.1  T
  16   -180.2364359  0.590908E-04  0.492E-02    0.00       1.0  T
  17   -180.2364957 -0.598519E-04  0.569E-03    0.00       1.9  T
  18   -180.2364790  0.167063E-04  0.248E-02    0.00       1.0  T
  19   -180.2364951 -0.160982E-04  0.516E-03    0.00       2.0  T
  20   -180.2364463  0.488017E-04  0.436E-02    0.00       1.0  T
  21   -180.2364832 -0.368847E-04  0.222E-02    0.00       1.0  T
  22   -180.2364960 -0.127950E-04  0.156E-03    0.00       6.8  T
  23   -180.2364960 -0.384644E-07  0.974E-04    0.00      10.8  T
  24   -180.2364958  0.244413E-06  0.320E-03    0.00       3.3  T
  25   -180.2364956  0.239633E-06  0.437E-03    0.00       2.4  T
  26   -180.2364961 -0.507452E-06  0.223E-04    0.00      47.3  T
     SCC iter.                  ...        0 min,  0.549 sec
     gradient                   ...        0 min,  0.044 sec
 * total energy  :  -178.4654184 Eh     change       -0.3624041E-02 Eh
   gradient norm :     0.0238496 Eh/α   predicted    -0.2826748E-02 ( -22.00%)
   displ. norm   :     0.7252796 α      lambda       -0.5798180E-02
   maximum displ.:     0.4609146 α      in ANC's #6, #8, #14, ...

........................................................................
.............................. CYCLE   17 ..............................
........................................................................

 iter      E             dE          RMSdq      gap      omega  full diag
   1   -180.2089908 -0.180209E+03  0.131E+00    0.04       0.0  T
   2   -179.7704003  0.438591E+00  0.372E+00    0.06       1.0  T
   3   -180.2407313 -0.470331E+00  0.159E+00    0.05       1.0  T
   4   -180.2341618  0.656955E-02  0.160E+00    0.05       1.0  T
   5   -180.1011397  0.133022E+00  0.213E+00    0.08       1.0  T
   6   -180.1223216 -0.211819E-01  0.192E+00    0.07       1.0  T
   7   -180.2313051 -0.108983E+00  0.552E-01    0.02       1.0  T
   8   -180.2399980 -0.869294E-02  0.207E-01    0.01       1.0  T
   9   -180.2377299  0.226809E-02  0.372E-01    0.01       1.0  T
  10   -180.2396906 -0.196063E-02  0.225E-01    0.00       1.0  T
  11   -180.2144255  0.252651E-01  0.977E-01    0.05       1.0  T
  12   -180.2401490 -0.257235E-01  0.207E-01    0.02       1.0  T
  13   -180.2391740  0.974953E-03  0.282E-01    0.01       1.0  T
  14   -180.2407682 -0.159420E-02  0.138E-01    0.01       1.0  T
  15   -180.2411288 -0.360568E-03  0.829E-02    0.01       1.0  T
  16   -180.2412995 -0.170661E-03  0.689E-03    0.01       1.5  T
  17   -180.2412076  0.918328E-04  0.580E-02    0.01       1.0  T
  18   -180.2413002 -0.925517E-04  0.603E-03    0.01       1.7  T
  19   -180.2412395  0.606306E-04  0.481E-02    0.00       1.0  T
  20   -180.2412995 -0.599486E-04  0.708E-03    0.01       1.5  T
  21   -180.2413001 -0.616746E-06  0.582E-03    0.01       1.8  T
  22   -180.2412966  0.354607E-05  0.127E-02    0.01       1.0  T
  23   -180.2413008 -0.422694E-05  0.123E-03    0.01       8.6  T
  24   -180.2413004  0.339529E-06  0.375E-03    0.01       2.8  T
  25   -180.2413008 -0.369073E-06  0.165E-04    0.01      63.8  T
  26   -180.2413008  0.424488E-07  0.123E-03    0.01       8.6  T
  27   -180.2413008 -0.271997E-07  0.744E-04    0.01      14.2  T
     SCC iter.                  ...        0 min,  0.605 sec
     gradient                   ...        0 min,  0.047 sec
 * total energy  :  -178.4698461 Eh     change       -0.4427749E-02 Eh
   gradient norm :     0.0268934 Eh/α   predicted    -0.4424094E-02 (  -0.08%)
   displ. norm   :     0.7853351 α      lambda       -0.5145066E-02
   maximum displ.:     0.4907241 α      in ANC's #6, #8, #12, ...

........................................................................
.............................. CYCLE   18 ..............................
........................................................................

 iter      E             dE          RMSdq      gap      omega  full diag
   1   -180.1754561 -0.180175E+03  0.172E+00    0.06       0.0  T
   2   -179.6117192  0.563737E+00  0.449E+00    0.06       1.0  T
   3   -180.2943568 -0.682638E+00  0.140E+00    0.06       1.0  T
   4   -180.2185157  0.758411E-01  0.895E-01    0.02       1.0  T
   5   -180.1700611  0.484546E-01  0.181E+00    0.05       1.0  T
   6   -180.1672108  0.285039E-02  0.140E+00    0.06       1.0  T
   7   -180.2329484 -0.657376E-01  0.227E-01    0.01       1.0  T
   8   -180.2208765  0.120719E-01  0.603E-01    0.03       1.0  T
   9   -180.2294861 -0.860963E-02  0.340E-01    0.02       1.0  T
  10   -180.2203480  0.913813E-02  0.642E-01    0.03       1.0  T
  11   -180.2299270 -0.957898E-02  0.314E-01    0.02       1.0  T
  12   -180.2276120  0.231493E-02  0.429E-01    0.01       1.0  T
  13   -180.2287123 -0.110024E-02  0.380E-01    0.01       1.0  T
  14   -180.2318922 -0.317990E-02  0.174E-01    0.01       1.0  T
  15   -180.2315059  0.386297E-03  0.222E-01    0.01       1.0  T
  16   -180.2324435 -0.937645E-03  0.118E-01    0.01       1.0  T
  17   -180.2328406 -0.397057E-03  0.284E-02    0.01       1.0  T
  18   -180.2328117  0.288910E-04  0.419E-02    0.01       1.0  T
  19   -180.2328587 -0.470518E-04  0.313E-03    0.01       3.4  T
  20   -180.2328523  0.642124E-05  0.153E-02    0.01       1.0  T
  21   -180.2328589 -0.656744E-05  0.139E-03    0.01       7.6  T
  22   -180.2328585  0.418501E-06  0.432E-03    0.01       2.4  T
  23   -180.2328589 -0.450752E-06  0.634E-04    0.01      16.6  T
  24   -180.2328588  0.854780E-07  0.181E-03    0.01       5.8  T
  25   -180.2328589 -0.665176E-07  0.945E-04    0.01      11.2  T
     SCC iter.                  ...        0 min,  0.566 sec
     gradient                   ...        0 min,  0.047 sec
 * total energy  :  -178.4735406 Eh     change       -0.3694445E-02 Eh
   gradient norm :     0.0398810 Eh/α   predicted    -0.4159145E-02 (  12.58%)
   displ. norm   :     0.6149087 α      lambda       -0.6057598E-02
   maximum displ.:     0.3418480 α      in ANC's #6, #22, #8, ...

........................................................................
.............................. CYCLE   19 ..............................
........................................................................

 iter      E             dE          RMSdq      gap      omega  full diag
   1   -180.2308978 -0.180231E+03  0.100E+00    0.05       0.0  T
   2   -179.8696131  0.361285E+00  0.322E+00    0.07       1.0  T
   3   -180.2046392 -0.335026E+00  0.169E+00    0.07       1.0  T
   4   -180.2294576 -0.248184E-01  0.162E+00    0.07       1.0  T
   5   -180.1172283  0.112229E+00  0.202E+00    0.08       1.0  T
   6   -180.1291798 -0.119515E-01  0.182E+00    0.07       1.0  T
   7   -180.2423634 -0.113184E+00  0.440E-01    0.03       1.0  T
   8   -180.2457205 -0.335714E-02  0.269E-01    0.02       1.0  T
   9   -180.2362470  0.947357E-02  0.595E-01    0.02       1.0  T
  10   -180.2440997 -0.785277E-02  0.304E-01    0.01       1.0  T
  11   -180.2467656 -0.266584E-02  0.146E-01    0.01       1.0  T
  12   -180.2467481  0.174638E-04  0.139E-01    0.01       1.0  T
  13   -180.2470777 -0.329640E-03  0.942E-02    0.01       1.0  T
  14   -180.2469711  0.106676E-03  0.108E-01    0.01       1.0  T
  15   -180.2472810 -0.309955E-03  0.176E-02    0.01       1.0  T
  16   -180.2472872 -0.620239E-05  0.867E-03    0.01       1.2  T
  17   -180.2472792  0.800706E-05  0.209E-02    0.01       1.0  T
  18   -180.2472818 -0.254399E-05  0.170E-02    0.01       1.0  T
  19   -180.2472787  0.302088E-05  0.209E-02    0.01       1.0  T
  20   -180.2472866 -0.786591E-05  0.108E-02    0.01       1.0  T
  21   -180.2472885 -0.190118E-05  0.719E-03    0.01       1.5  T
  22   -180.2472898 -0.127531E-05  0.262E-03    0.01       4.0  T
  23   -180.2472899 -0.886036E-07  0.172E-03    0.01       6.1  T
  24   -180.2472895  0.345043E-06  0.400E-03    0.01       2.6  T
  25   -180.2472900 -0.424433E-06  0.452E-04    0.01      23.3  T
  26   -180.2472900  0.124180E-08  0.515E-04    0.01      20.5  T
     SCC iter.                  ...        0 min,  0.519 sec
     gradient                   ...        0 min,  0.047 sec
 * total energy  :  -178.4770775 Eh     change       -0.3536974E-02 Eh
   gradient norm :     0.0381769 Eh/α   predicted    -0.4174026E-02 (  18.01%)
   displ. norm   :     0.6229586 α      lambda       -0.6527583E-02
   maximum displ.:     0.3674908 α      in ANC's #6, #29, #8, ...

........................................................................
.............................. CYCLE   20 ..............................
........................................................................

 iter      E             dE          RMSdq      gap      omega  full diag
   1   -180.1741386 -0.180174E+03  0.195E+00    0.08       0.0  T
   2   -179.4799362  0.694202E+00  0.519E+00    0.05       1.0  T
   3   -180.2664787 -0.786542E+00  0.142E+00    0.05       1.0  T
   4   -180.4597560 -0.193277E+00  0.197E+00    0.10       1.0  T
   5   -179.6283634  0.831393E+00  0.368E+00    0.12       1.0  T
   6   -180.0877800 -0.459417E+00  0.200E+00    0.09       1.0  T
   7   -180.1249518 -0.371718E-01  0.210E+00    0.08       1.0  T
   8   -180.1858198 -0.608679E-01  0.158E+00    0.06       1.0  T
   9   -180.2465014 -0.606817E-01  0.563E-01    0.01       1.0  T
  10   -180.2572922 -0.107908E-01  0.284E-01    0.01       1.0  T
  11   -180.2207241  0.365681E-01  0.116E+00    0.04       1.0  T
  12   -180.2407158 -0.199918E-01  0.717E-01    0.02       1.0  T
  13   -180.2573335 -0.166177E-01  0.153E-01    0.01       1.0  T
  14   -180.2576755 -0.342010E-03  0.276E-01    0.02       1.0  T
  15   -180.2583703 -0.694800E-03  0.903E-02    0.01       1.0  T
  16   -180.2585670 -0.196732E-03  0.576E-02    0.01       1.0  T
  17   -180.2583235  0.243501E-03  0.827E-02    0.01       1.0  T
  18   -180.2578516  0.471979E-03  0.139E-01    0.01       1.0  T
  19   -180.2585943 -0.742772E-03  0.881E-02    0.01       1.0  T
  20   -180.2586377 -0.433338E-04  0.467E-02    0.01       1.0  T
  21   -180.2585423  0.953829E-04  0.406E-02    0.01       1.0  T
  22   -180.2585986 -0.563722E-04  0.278E-02    0.01       1.0  T
  23   -180.2585729  0.257722E-04  0.349E-02    0.01       1.0  T
  24   -180.2586334 -0.605681E-04  0.363E-02    0.01       1.0  T
  25   -180.2586379 -0.448411E-05  0.256E-02    0.01       1.0  T
  26   -180.2586399 -0.199009E-05  0.170E-02    0.01       1.0  T
  27   -180.2586406 -0.634909E-06  0.664E-03    0.01       1.6  T
  28   -180.2586408 -0.206019E-06  0.542E-03    0.01       1.9  T
  29   -180.2586408 -0.487618E-07  0.483E-03    0.01       2.2  T
  30   -180.2586408  0.121301E-07  0.337E-03    0.01       3.1  T
  31   -180.2586408 -0.527991E-07  0.917E-04    0.01      11.5  T
  32   -180.2586408  0.252160E-08  0.831E-04    0.01      12.7  T
     SCC iter.                  ...        0 min,  0.732 sec
     gradient                   ...        0 min,  0.047 sec
 * total energy  :  -178.4815589 Eh     change       -0.4481383E-02 Eh
   gradient norm :     0.0304011 Eh/α   predicted    -0.4530385E-02 (   1.09%)
   displ. norm   :     0.5660776 α      lambda       -0.6841095E-02
   maximum displ.:     0.2789523 α      in ANC's #6, #14, #21, ...
 * RMSD in coord.:     0.8942073 α      energy gain  -0.1386467E+00 Eh

generating ANC from exact Hessian ...
Using Lindh-Hessian (1995)
 Shifting diagonal of input Hessian by   1.929719725884855E-002
 Lowest  eigenvalues of input Hessian
    0.010000    0.015247    0.018610    0.018712    0.018876    0.019220
    0.000000    0.000000    0.000000    0.000000    0.000000    0.000000
    0.019326    0.019356    0.019398    0.019645    0.019766    0.019819
 Highest eigenvalues
    2.186828    2.239572    2.280374    2.283798    2.296187    2.328479
 

........................................................................
.............................. CYCLE   21 ..............................
........................................................................

 iter      E             dE          RMSdq      gap      omega  full diag
   1   -180.2658069 -0.180266E+03  0.505E-01    0.01       0.0  T
   2   -180.2528929  0.129140E-01  0.709E-01    0.04       1.0  T
   3   -180.0983675  0.154525E+00  0.213E+00    0.08       1.0  T
   4   -180.2053995 -0.107032E+00  0.133E+00    0.09       1.0  T
   5   -180.2513530 -0.459535E-01  0.798E-01    0.06       1.0  T
   6   -180.2414454  0.990756E-02  0.112E+00    0.08       1.0  T
   7   -180.2666504 -0.252050E-01  0.106E-01    0.01       1.0  T
   8   -180.2653355  0.131491E-02  0.284E-01    0.03       1.0  T
   9   -180.2667811 -0.144564E-02  0.108E-01    0.02       1.0  T
  10   -180.2658076  0.973507E-03  0.212E-01    0.00       1.0  T
  11   -180.2669479 -0.114030E-02  0.825E-02    0.01       1.0  T
  12   -180.2670521 -0.104193E-03  0.682E-02    0.02       1.0  T
  13   -180.2668867  0.165421E-03  0.946E-02    0.02       1.0  T
  14   -180.2671142 -0.227470E-03  0.426E-02    0.01       1.0  T
  15   -180.2671044  0.977474E-05  0.449E-02    0.01       1.0  T
  16   -180.2671525 -0.481427E-04  0.154E-02    0.01       1.0  T
  17   -180.2671579 -0.538078E-05  0.707E-03    0.01       1.5  T
  18   -180.2671590 -0.112711E-05  0.911E-04    0.01      11.6  T
  19   -180.2671590  0.292617E-07  0.113E-03    0.01       9.3  T
  20   -180.2671590 -0.361317E-07  0.275E-04    0.01      38.3  T
  21   -180.2671590  0.332648E-08  0.432E-04    0.01      24.4  T
     SCC iter.                  ...        0 min,  0.424 sec
     gradient                   ...        0 min,  0.046 sec
 * total energy  :  -178.4853729 Eh     change       -0.3814023E-02 Eh
   gradient norm :     0.0527067 Eh/α   predicted     0.0000000E+00 (-100.00%)
   displ. norm   :     0.3523061 α      lambda       -0.6188725E-02
   maximum displ.:     0.1262134 α      in ANC's #2, #21, #24, ...

........................................................................
.............................. CYCLE   22 ..............................
........................................................................

 iter      E             dE          RMSdq      gap      omega  full diag
   1   -180.2628846 -0.180263E+03  0.630E-01    0.01       0.0  T
   2   -180.1447094  0.118175E+00  0.186E+00    0.08       1.0  T
   3   -180.1281334  0.165760E-01  0.184E+00    0.09       1.0  T
   4   -180.1888804 -0.607470E-01  0.175E+00    0.09       1.0  T
   5   -180.2050686 -0.161882E-01  0.159E+00    0.08       1.0  T
   6   -180.1499887  0.550800E-01  0.180E+00    0.09       1.0  T
   7   -180.2614671 -0.111478E+00  0.421E-01    0.02       1.0  T
   8   -180.2178951  0.435720E-01  0.146E+00    0.10       1.0  T
   9   -180.2431799 -0.252848E-01  0.939E-01    0.06       1.0  T
  10   -180.2600113 -0.168314E-01  0.326E-01    0.03       1.0  T
  11   -180.2632908 -0.327954E-02  0.122E-01    0.01       1.0  T
  12   -180.2559567  0.733409E-02  0.533E-01    0.01       1.0  T
  13   -180.2622026 -0.624585E-02  0.214E-01    0.01       1.0  T
  14   -180.2631020 -0.899459E-03  0.161E-01    0.02       1.0  T
  15   -180.2632847 -0.182683E-03  0.125E-01    0.02       1.0  T
  16   -180.2636499 -0.365136E-03  0.910E-03    0.01       1.2  T
  17   -180.2636485  0.131061E-05  0.104E-02    0.01       1.0  T
  18   -180.2636451  0.345699E-05  0.153E-02    0.01       1.0  T
  19   -180.2636494 -0.428111E-05  0.712E-03    0.02       1.5  T
  20   -180.2636425  0.689373E-05  0.175E-02    0.02       1.0  T
  21   -180.2636502 -0.768907E-05  0.416E-03    0.02       2.5  T
  22   -180.2636507 -0.569307E-06  0.814E-04    0.01      12.9  T
  23   -180.2636507  0.608842E-07  0.177E-03    0.01       5.9  T
  24   -180.2636507 -0.582234E-07  0.576E-04    0.01      18.3  T
     SCC iter.                  ...        0 min,  0.531 sec
     gradient                   ...        0 min,  0.047 sec
 * total energy  :  -178.4891538 Eh     change       -0.3780877E-02 Eh
   gradient norm :     0.0295572 Eh/α   predicted    -0.3479783E-02 (  -7.96%)
   displ. norm   :     0.6485770 α      lambda       -0.9618516E-02
   maximum displ.:     0.2189687 α      in ANC's #2, #21, #26, ...

........................................................................
.............................. CYCLE   23 ..............................
........................................................................

 iter      E             dE          RMSdq      gap      omega  full diag
   1   -180.1864296 -0.180186E+03  0.207E+00    0.14       0.0  T
   2   -179.4512019  0.735228E+00  0.535E+00    0.05       1.0  T
   3   -180.3748411 -0.923639E+00  0.159E+00    0.15       1.0  T
   4   -180.3716652  0.317590E-02  0.158E+00    0.15       1.0  T
   5   -179.7636245  0.608041E+00  0.336E+00    0.12       1.0  T
   6   -180.1847426 -0.421118E+00  0.180E+00    0.16       1.0  T
   7   -180.1758229  0.891970E-02  0.180E+00    0.06       1.0  T
   8   -180.2393539 -0.635311E-01  0.912E-01    0.06       1.0  T
   9   -180.2332230  0.613092E-02  0.762E-01    0.05       1.0  T
  10   -180.2531766 -0.199536E-01  0.657E-01    0.01       1.0  T
  11   -180.2164122  0.367643E-01  0.126E+00    0.05       1.0  T
  12   -180.2611058 -0.446935E-01  0.225E-01    0.01       1.0  T
  13   -180.2533565  0.774929E-02  0.576E-01    0.04       1.0  T
  14   -180.2618261 -0.846959E-02  0.988E-02    0.01       1.0  T
  15   -180.2618874 -0.613538E-04  0.703E-02    0.01       1.0  T
  16   -180.2619310 -0.436347E-04  0.864E-02    0.02       1.0  T
  17   -180.2588019  0.312919E-02  0.317E-01    0.01       1.0  T
  18   -180.2602044 -0.140250E-02  0.228E-01    0.01       1.0  T
  19   -180.2612756 -0.107127E-02  0.132E-01    0.01       1.0  T
  20   -180.2619785 -0.702871E-03  0.415E-02    0.02       1.0  T
  21   -180.2619351  0.433692E-04  0.348E-02    0.01       1.0  T
  22   -180.2619908 -0.556249E-04  0.429E-02    0.02       1.0  T
  23   -180.2619433  0.474226E-04  0.300E-02    0.01       1.0  T
  24   -180.2619858 -0.424336E-04  0.260E-02    0.02       1.0  T
  25   -180.2619893 -0.351884E-05  0.255E-02    0.02       1.0  T
  26   -180.2619897 -0.446346E-06  0.209E-02    0.02       1.0  T
  27   -180.2619915 -0.174135E-05  0.241E-02    0.02       1.0  T
  28   -180.2619919 -0.430095E-06  0.180E-02    0.02       1.0  T
  29   -180.2619917  0.222291E-06  0.119E-02    0.02       1.0  T
  30   -180.2619909  0.796674E-06  0.662E-03    0.02       1.6  T
  31   -180.2619918 -0.921607E-06  0.468E-03    0.02       2.3  T
  32   -180.2619917  0.811329E-07  0.294E-03    0.02       3.6  T
  33   -180.2619920 -0.321091E-06  0.125E-03    0.02       8.4  T
  34   -180.2619921 -0.789761E-07  0.361E-04    0.02      29.2  T
  35   -180.2619921  0.184301E-08  0.675E-04    0.02      15.6  T
     SCC iter.                  ...        0 min,  0.719 sec
     gradient                   ...        0 min,  0.045 sec
 * total energy  :  -178.4923677 Eh     change       -0.3213889E-02 Eh
   gradient norm :     0.0529871 Eh/α   predicted    -0.6832286E-02 ( 112.59%)
   displ. norm   :     0.3720253 α      lambda       -0.6079465E-02
   maximum displ.:     0.1490608 α      in ANC's #21, #1, #24, ...

........................................................................
.............................. CYCLE   24 ..............................
........................................................................

 iter      E             dE          RMSdq      gap      omega  full diag
   1   -180.2681019 -0.180268E+03  0.598E-01    0.02       0.0  T
   2   -180.1147393  0.153363E+00  0.205E+00    0.09       1.0  T
   3   -180.1565088 -0.417694E-01  0.171E+00    0.11       1.0  T
   4   -180.2012435 -0.447348E-01  0.161E+00    0.08       1.0  T
   5   -180.1760041  0.252394E-01  0.180E+00    0.09       1.0  T
   6   -180.1592874  0.167167E-01  0.183E+00    0.09       1.0  T
   7   -180.2622253 -0.102938E+00  0.474E-01    0.01       1.0  T
   8   -180.2346743  0.275510E-01  0.123E+00    0.09       1.0  T
   9   -180.2473036 -0.126293E-01  0.893E-01    0.06       1.0  T
  10   -180.2691548 -0.218512E-01  0.101E-01    0.02       1.0  T
  11   -180.2682284  0.926337E-03  0.261E-01    0.01       1.0  T
  12   -180.2657226  0.250584E-02  0.369E-01    0.01       1.0  T
  13   -180.2687306 -0.300800E-02  0.131E-01    0.01       1.0  T
  14   -180.2691764 -0.445836E-03  0.472E-02    0.02       1.0  T
  15   -180.2691697  0.673674E-05  0.403E-02    0.02       1.0  T
  16   -180.2692158 -0.461154E-04  0.111E-02    0.02       1.0  T
  17   -180.2691977  0.180855E-04  0.284E-02    0.02       1.0  T
  18   -180.2692167 -0.189578E-04  0.979E-03    0.02       1.1  T
  19   -180.2692150  0.169322E-05  0.119E-02    0.02       1.0  T
  20   -180.2692166 -0.166084E-05  0.862E-03    0.02       1.2  T
  21   -180.2692191 -0.245729E-05  0.115E-03    0.02       9.2  T
  22   -180.2692191 -0.454602E-08  0.806E-04    0.02      13.1  T
  23   -180.2692191  0.571661E-07  0.175E-03    0.02       6.0  T
  24   -180.2692190  0.640193E-08  0.180E-03    0.02       5.9  T
  25   -180.2692191 -0.746656E-07  0.237E-04    0.02      44.4  T
     SCC iter.                  ...        0 min,  0.537 sec
     gradient                   ...        0 min,  0.044 sec
 * total energy  :  -178.4961157 Eh     change       -0.3747972E-02 Eh
   gradient norm :     0.0385100 Eh/α   predicted    -0.3460445E-02 (  -7.67%)
   displ. norm   :     0.4928105 α      lambda       -0.5464154E-02
   maximum displ.:     0.2097657 α      in ANC's #21, #24, #1, ...

........................................................................
.............................. CYCLE   25 ..............................
........................................................................

 iter      E             dE          RMSdq      gap      omega  full diag
   1   -180.2769529 -0.180277E+03  0.756E-01    0.02       0.0  T
   2   -180.1376092  0.139344E+00  0.202E+00    0.09       1.0  T
   3   -180.0978284  0.397808E-01  0.192E+00    0.11       1.0  T
   4   -180.1291419 -0.313136E-01  0.237E+00    0.14       1.0  T
   5   -180.1363656 -0.722363E-02  0.222E+00    0.13       1.0  T
   6   -180.1457929 -0.942728E-02  0.200E+00    0.10       1.0  T
   7   -180.2476751 -0.101882E+00  0.113E+00    0.07       1.0  T
   8   -180.1765450  0.711301E-01  0.176E+00    0.14       1.0  T
   9   -180.2215176 -0.449726E-01  0.143E+00    0.11       1.0  T
  10   -180.2574148 -0.358973E-01  0.765E-01    0.06       1.0  T
  11   -180.2590910 -0.167619E-02  0.814E-01    0.02       1.0  T
  12   -180.2658066 -0.671559E-02  0.614E-01    0.01       1.0  T
  13   -180.2774123 -0.116057E-01  0.102E-01    0.02       1.0  T
  14   -180.2775058 -0.935452E-04  0.898E-02    0.02       1.0  T
  15   -180.2775255 -0.196589E-04  0.607E-02    0.02       1.0  T
  16   -180.2771316  0.393872E-03  0.152E-01    0.03       1.0  T
  17   -180.2771323 -0.624067E-06  0.137E-01    0.03       1.0  T
  18   -180.2774704 -0.338173E-03  0.546E-02    0.02       1.0  T
  19   -180.2775068 -0.364042E-04  0.342E-02    0.02       1.0  T
  20   -180.2775242 -0.174159E-04  0.142E-02    0.02       1.0  T
  21   -180.2775241  0.181942E-06  0.130E-02    0.02       1.0  T
  22   -180.2775260 -0.190853E-05  0.752E-03    0.02       1.4  T
  23   -180.2775264 -0.418681E-06  0.653E-03    0.02       1.6  T
  24   -180.2775270 -0.646404E-06  0.392E-03    0.02       2.7  T
  25   -180.2775275 -0.458546E-06  0.176E-03    0.02       6.0  T
  26   -180.2775274  0.561244E-07  0.222E-03    0.02       4.7  T
  27   -180.2775275 -0.856824E-07  0.587E-04    0.02      18.0  T
  28   -180.2775275 -0.231941E-08  0.257E-04    0.02      41.1  T
     SCC iter.                  ...        0 min,  0.559 sec
     gradient                   ...        0 min,  0.046 sec
 * total energy  :  -178.4986009 Eh     change       -0.2485239E-02 Eh
   gradient norm :     0.0274656 Eh/α   predicted    -0.3395600E-02 (  36.63%)
   displ. norm   :     0.5536943 α      lambda       -0.5827776E-02
   maximum displ.:     0.2467736 α      in ANC's #21, #24, #26, ...

........................................................................
.............................. CYCLE   26 ..............................
........................................................................

 iter      E             dE          RMSdq      gap      omega  full diag
   1   -180.2267537 -0.180227E+03  0.174E+00    0.16       0.0  T
   2   -179.4582898  0.768464E+00  0.538E+00    0.04       1.0  T
   3   -180.2989327 -0.840643E+00  0.121E+00    0.07       1.0  T
   4   -180.3895972 -0.906644E-01  0.163E+00    0.15       1.0  T
   5   -179.7694458  0.620151E+00  0.347E+00    0.09       1.0  T
   6   -180.1384931 -0.369047E+00  0.188E+00    0.12       1.0  T
   7   -180.1632721 -0.247790E-01  0.208E+00    0.08       1.0  T
   8   -180.2657682 -0.102496E+00  0.800E-01    0.07       1.0  T
   9   -180.2814863 -0.157181E-01  0.487E-01    0.01       1.0  T
  10   -180.2442866  0.371997E-01  0.123E+00    0.04       1.0  T
  11   -180.2634833 -0.191967E-01  0.840E-01    0.03       1.0  T
  12   -180.2824824 -0.189991E-01  0.166E-01    0.03       1.0  T
  13   -180.2822966  0.185849E-03  0.211E-01    0.03       1.0  T
  14   -180.2833789 -0.108231E-02  0.148E-01    0.02       1.0  T
  15   -180.2837217 -0.342775E-03  0.449E-02    0.02       1.0  T
  16   -180.2837690 -0.472717E-04  0.519E-02    0.02       1.0  T
  17   -180.2831932  0.575741E-03  0.144E-01    0.02       1.0  T
  18   -180.2836967 -0.503530E-03  0.503E-02    0.02       1.0  T
  19   -180.2835168  0.179940E-03  0.879E-02    0.02       1.0  T
  20   -180.2837850 -0.268173E-03  0.173E-02    0.02       1.0  T
  21   -180.2837968 -0.118210E-04  0.341E-02    0.02       1.0  T
  22   -180.2837957  0.113727E-05  0.149E-02    0.02       1.0  T
  23   -180.2837998 -0.408864E-05  0.175E-02    0.02       1.0  T
  24   -180.2837943  0.543820E-05  0.125E-02    0.02       1.0  T
  25   -180.2837972 -0.287922E-05  0.113E-02    0.02       1.0  T
  26   -180.2837995 -0.228774E-05  0.111E-02    0.02       1.0  T
  27   -180.2838000 -0.566526E-06  0.109E-02    0.02       1.0  T
  28   -180.2838002 -0.110736E-06  0.892E-03    0.02       1.2  T
  29   -180.2838003 -0.148401E-06  0.768E-03    0.02       1.4  T
  30   -180.2837998  0.506315E-06  0.419E-03    0.02       2.5  T
  31   -180.2838002 -0.384889E-06  0.329E-03    0.02       3.2  T
  32   -180.2838001  0.380960E-07  0.216E-03    0.02       4.9  T
  33   -180.2838003 -0.171598E-06  0.121E-03    0.02       8.7  T
  34   -180.2838004 -0.664824E-07  0.428E-04    0.02      24.6  T
  35   -180.2838004 -0.942117E-08  0.341E-04    0.02      30.9  T
     SCC iter.                  ...        0 min,  0.752 sec
     gradient                   ...        0 min,  0.045 sec
 * total energy  :  -178.5013095 Eh     change       -0.2708626E-02 Eh
   gradient norm :     0.0337538 Eh/α   predicted    -0.3807242E-02 (  40.56%)
   displ. norm   :     0.4843391 α      lambda       -0.4767714E-02
   maximum displ.:     0.2053641 α      in ANC's #24, #21, #27, ...

........................................................................
.............................. CYCLE   27 ..............................
........................................................................

 iter      E             dE          RMSdq      gap      omega  full diag
   1   -180.2605906 -0.180261E+03  0.120E+00    0.09       0.0  T
   2   -179.7744612  0.486129E+00  0.390E+00    0.07       1.0  T
   3   -180.2775469 -0.503086E+00  0.138E+00    0.17       1.0  T
   4   -180.2474732  0.300737E-01  0.143E+00    0.17       1.0  T
   5   -180.0387477  0.208726E+00  0.245E+00    0.10       1.0  T
   6   -180.2621044 -0.223357E+00  0.108E+00    0.09       1.0  T
   7   -180.2784745 -0.163701E-01  0.463E-01    0.02       1.0  T
   8   -180.2825616 -0.408713E-02  0.221E-01    0.02       1.0  T
   9   -180.2808936  0.166800E-02  0.312E-01    0.01       1.0  T
  10   -180.2836940 -0.280032E-02  0.102E-01    0.02       1.0  T
  11   -180.2830797  0.614285E-03  0.159E-01    0.02       1.0  T
  12   -180.2836798 -0.600076E-03  0.947E-02    0.03       1.0  T
  13   -180.2831776  0.502147E-03  0.158E-01    0.03       1.0  T
  14   -180.2837445 -0.566850E-03  0.658E-02    0.02       1.0  T
  15   -180.2836270  0.117424E-03  0.960E-02    0.02       1.0  T
  16   -180.2838497 -0.222663E-03  0.332E-02    0.02       1.0  T
  17   -180.2838773 -0.276327E-04  0.866E-03    0.02       1.2  T
  18   -180.2838782 -0.899451E-06  0.687E-03    0.02       1.5  T
  19   -180.2838784 -0.209371E-06  0.641E-03    0.02       1.6  T
  20   -180.2838795 -0.105768E-05  0.256E-03    0.02       4.1  T
  21   -180.2838793  0.191948E-06  0.367E-03    0.02       2.9  T
  22   -180.2838796 -0.338812E-06  0.107E-03    0.02       9.9  T
  23   -180.2838796  0.826466E-07  0.219E-03    0.02       4.8  T
  24   -180.2838797 -0.919073E-07  0.921E-04    0.02      11.4  T
  25   -180.2838796  0.801653E-07  0.192E-03    0.02       5.5  T
  26   -180.2838797 -0.999282E-07  0.156E-04    0.02      67.8  T
     SCC iter.                  ...        0 min,  0.545 sec
     gradient                   ...        0 min,  0.046 sec
 * total energy  :  -178.5042212 Eh     change       -0.2911664E-02 Eh
   gradient norm :     0.0173158 Eh/α   predicted    -0.2943088E-02 (   1.08%)
   displ. norm   :     0.5780107 α      lambda       -0.4001826E-02
   maximum displ.:     0.2389753 α      in ANC's #24, #21, #6, ...

........................................................................
.............................. CYCLE   28 ..............................
........................................................................

 iter      E             dE          RMSdq      gap      omega  full diag
   1   -180.2787737 -0.180279E+03  0.752E-01    0.02       0.0  T
   2   -180.2716191  0.715461E-02  0.618E-01    0.02       1.0  T
   3   -179.9743216  0.297297E+00  0.229E+00    0.12       1.0  T
   4   -180.1229207 -0.148599E+00  0.208E+00    0.09       1.0  T
   5   -180.0834599  0.394608E-01  0.224E+00    0.10       1.0  T
   6   -180.0861899 -0.273001E-02  0.223E+00    0.10       1.0  T
   7   -180.0798421  0.634785E-02  0.223E+00    0.11       1.0  T
   8   -180.0804156 -0.573570E-03  0.223E+00    0.11       1.0  T
   9   -180.1751338 -0.947182E-01  0.161E+00    0.08       1.0  T
  10   -180.2631295 -0.879957E-01  0.132E+00    0.09       1.0  T
  11   -180.2536869  0.944255E-02  0.115E+00    0.09       1.0  T
  12   -180.2733686 -0.196817E-01  0.692E-01    0.05       1.0  T
  13   -180.2756921 -0.232351E-02  0.455E-01    0.05       1.0  T
  14   -180.2809326 -0.524054E-02  0.143E-01    0.03       1.0  T
  15   -180.2814538 -0.521153E-03  0.690E-02    0.02       1.0  T
  16   -180.2792671  0.218666E-02  0.306E-01    0.01       1.0  T
  17   -180.2793768 -0.109669E-03  0.286E-01    0.01       1.0  T
  18   -180.2813765 -0.199966E-02  0.751E-02    0.03       1.0  T
  19   -180.2814670 -0.905844E-04  0.415E-02    0.03       1.0  T
  20   -180.2814885 -0.214971E-04  0.206E-02    0.02       1.0  T
  21   -180.2814971 -0.857705E-05  0.111E-02    0.02       1.0  T
  22   -180.2814942  0.292329E-05  0.155E-02    0.02       1.0  T
  23   -180.2814907  0.353727E-05  0.197E-02    0.02       1.0  T
  24   -180.2815000 -0.938239E-05  0.412E-03    0.02       2.6  T
  25   -180.2815004 -0.352107E-06  0.150E-03    0.02       7.0  T
  26   -180.2815004 -0.518391E-07  0.530E-04    0.02      19.9  T
  27   -180.2815004  0.841993E-09  0.714E-04    0.02      14.8  T
     SCC iter.                  ...        0 min,  0.572 sec
     gradient                   ...        0 min,  0.047 sec
 * total energy  :  -178.5058237 Eh     change       -0.1602516E-02 Eh
   gradient norm :     0.0263099 Eh/α   predicted    -0.2669412E-02 (  66.58%)
   displ. norm   :     0.5090421 α      lambda       -0.4181782E-02
   maximum displ.:     0.2087102 α      in ANC's #21, #24, #9, ...

........................................................................
.............................. CYCLE   29 ..............................
........................................................................

 iter      E             dE          RMSdq      gap      omega  full diag
   1   -180.2803984 -0.180280E+03  0.922E-01    0.07       0.0  T
   2   -179.8738824  0.406516E+00  0.346E+00    0.07       1.0  T
   3   -180.2648050 -0.390923E+00  0.131E+00    0.15       1.0  T
   4   -180.2902345 -0.254295E-01  0.121E+00    0.14       1.0  T
   5   -180.1365693  0.153665E+00  0.201E+00    0.07       1.0  T
   6   -180.2725320 -0.135963E+00  0.130E+00    0.13       1.0  T
   7   -180.2580737  0.144583E-01  0.115E+00    0.10       1.0  T
   8   -180.2870904 -0.290167E-01  0.587E-01    0.05       1.0  T
   9   -180.2795305  0.755995E-02  0.783E-01    0.07       1.0  T
  10   -180.2922108 -0.126803E-01  0.260E-01    0.03       1.0  T
  11   -180.2853515  0.685929E-02  0.537E-01    0.01       1.0  T
  12   -180.2918753 -0.652385E-02  0.248E-01    0.01       1.0  T
  13   -180.2914937  0.381645E-03  0.303E-01    0.04       1.0  T
  14   -180.2936350 -0.214132E-02  0.114E-01    0.03       1.0  T
  15   -180.2938206 -0.185549E-03  0.790E-02    0.03       1.0  T
  16   -180.2938406 -0.200444E-04  0.708E-02    0.03       1.0  T
  17   -180.2939564 -0.115743E-03  0.298E-02    0.03       1.0  T
  18   -180.2939825 -0.261369E-04  0.673E-03    0.02       1.6  T
  19   -180.2939830 -0.498493E-06  0.322E-03    0.02       3.3  T
  20   -180.2939812  0.182817E-05  0.909E-03    0.02       1.2  T
  21   -180.2939745  0.663752E-05  0.182E-02    0.02       1.0  T
  22   -180.2939823 -0.782028E-05  0.551E-03    0.02       1.9  T
  23   -180.2939831 -0.789496E-06  0.546E-04    0.02      19.3  T
  24   -180.2939831  0.327285E-08  0.522E-04    0.02      20.2  T
     SCC iter.                  ...        0 min,  0.502 sec
     gradient                   ...        0 min,  0.048 sec
 * total energy  :  -178.5086256 Eh     change       -0.2801834E-02 Eh
   gradient norm :     0.0307233 Eh/α   predicted    -0.2632698E-02 (  -6.04%)
   displ. norm   :     0.5566300 α      lambda       -0.3796583E-02
   maximum displ.:     0.1881430 α      in ANC's #29, #9, #19, ...

........................................................................
.............................. CYCLE   30 ..............................
........................................................................

 iter      E             dE          RMSdq      gap      omega  full diag
   1   -180.2981462 -0.180298E+03  0.532E-01    0.02       0.0  T
   2   -180.0605153  0.237631E+00  0.206E+00    0.13       1.0  T
   3   -180.1436848 -0.831695E-01  0.208E+00    0.09       1.0  T
   4   -180.0642884  0.793964E-01  0.233E+00    0.10       1.0  T
   5   -180.1139008 -0.496124E-01  0.212E+00    0.10       1.0  T
   6   -180.2575520 -0.143651E+00  0.860E-01    0.03       1.0  T
   7   -180.2933772 -0.358252E-01  0.406E-01    0.01       1.0  T
   8   -180.2858488  0.752838E-02  0.601E-01    0.02       1.0  T
   9   -180.2944418 -0.859297E-02  0.362E-01    0.01       1.0  T
  10   -180.2995599 -0.511815E-02  0.345E-01    0.03       1.0  T
  11   -180.3004558 -0.895862E-03  0.195E-01    0.03       1.0  T
  12   -180.3006888 -0.233000E-03  0.582E-02    0.03       1.0  T
  13   -180.3006928 -0.400470E-05  0.496E-02    0.03       1.0  T
  14   -180.3006133  0.794979E-04  0.844E-02    0.03       1.0  T
  15   -180.3007167 -0.103341E-03  0.274E-02    0.03       1.0  T
  16   -180.3007079  0.880215E-05  0.335E-02    0.02       1.0  T
  17   -180.3006876  0.202455E-04  0.452E-02    0.02       1.0  T
  18   -180.3007264 -0.388181E-04  0.114E-02    0.02       1.0  T
  19   -180.3007199  0.657647E-05  0.174E-02    0.03       1.0  T
  20   -180.3007227 -0.288177E-05  0.139E-02    0.02       1.0  T
  21   -180.3007275 -0.477603E-05  0.314E-03    0.02       3.4  T
  22   -180.3007273  0.178649E-06  0.279E-03    0.02       3.8  T
  23   -180.3007277 -0.370630E-06  0.988E-04    0.02      10.7  T
  24   -180.3007277 -0.210434E-08  0.662E-04    0.02      15.9  T
     SCC iter.                  ...        0 min,  0.519 sec
     gradient                   ...        0 min,  0.047 sec
 * total energy  :  -178.5107662 Eh     change       -0.2140643E-02 Eh
   gradient norm :     0.0262871 Eh/α   predicted    -0.2486451E-02 (  16.15%)
   displ. norm   :     0.6050501 α      lambda       -0.4282617E-02
   maximum displ.:     0.2462281 α      in ANC's #21, #9, #24, ...

........................................................................
.............................. CYCLE   31 ..............................
........................................................................

 iter      E             dE          RMSdq      gap      omega  full diag
   1   -180.2752594 -0.180275E+03  0.895E-01    0.07       0.0  T
   2   -179.8990781  0.376181E+00  0.334E+00    0.08       1.0  T
   3   -180.2350763 -0.335998E+00  0.142E+00    0.17       1.0  T
   4   -180.2864594 -0.513831E-01  0.124E+00    0.15       1.0  T
   5   -180.2788900  0.756944E-02  0.503E-01    0.03       1.0  T
   6   -180.2477303  0.311597E-01  0.137E+00    0.15       1.0  T
   7   -180.2615888 -0.138585E-01  0.106E+00    0.10       1.0  T
   8   -180.2761546 -0.145658E-01  0.617E-01    0.06       1.0  T
   9   -180.2816093 -0.545467E-02  0.409E-01    0.05       1.0  T
  10   -180.2823802 -0.770897E-03  0.351E-01    0.04       1.0  T
  11   -180.2849232 -0.254302E-02  0.771E-02    0.02       1.0  T
  12   -180.2843807  0.542465E-03  0.136E-01    0.02       1.0  T
  13   -180.2833168  0.106389E-02  0.248E-01    0.04       1.0  T
  14   -180.2846816 -0.136480E-02  0.982E-02    0.03       1.0  T
  15   -180.2849397 -0.258023E-03  0.234E-02    0.03       1.0  T
  16   -180.2849133  0.263870E-04  0.399E-02    0.03       1.0  T
  17   -180.2849500 -0.366704E-04  0.148E-02    0.03       1.0  T
  18   -180.2849521 -0.212684E-05  0.128E-02    0.03       1.0  T
  19   -180.2849556 -0.352430E-05  0.420E-03    0.03       2.5  T
  20   -180.2849556  0.532080E-07  0.407E-03    0.03       2.6  T
  21   -180.2849558 -0.245072E-06  0.249E-03    0.03       4.2  T
  22   -180.2849549  0.940946E-06  0.652E-03    0.03       1.6  T
  23   -180.2849560 -0.110026E-05  0.102E-03    0.03      10.4  T
  24   -180.2849559  0.230970E-07  0.141E-03    0.03       7.5  T
  25   -180.2849560 -0.209562E-07  0.117E-03    0.03       9.0  T
  26   -180.2849560 -0.192796E-08  0.113E-03    0.03       9.3  T
  27   -180.2849560 -0.324515E-07  0.175E-04    0.03      60.1  T
  28   -180.2849560 -0.252470E-09  0.101E-04    0.03     104.3  T
     SCC iter.                  ...        0 min,  0.625 sec
     gradient                   ...        0 min,  0.048 sec
 * total energy  :  -178.5136136 Eh     change       -0.2847442E-02 Eh
   gradient norm :     0.0356494 Eh/α   predicted    -0.2925214E-02 (   2.73%)
   displ. norm   :     0.6187577 α      lambda       -0.4342032E-02
   maximum displ.:     0.2363379 α      in ANC's #19, #9, #8, ...

........................................................................
.............................. CYCLE   32 ..............................
........................................................................

 iter      E             dE          RMSdq      gap      omega  full diag
   1   -180.2847805 -0.180285E+03  0.612E-01    0.05       0.0  T
   2   -180.0092155  0.275565E+00  0.280E+00    0.10       1.0  T
   3   -180.2322483 -0.223033E+00  0.135E+00    0.14       1.0  T
   4   -180.2912485 -0.590002E-01  0.808E-01    0.08       1.0  T
   5   -180.2854748  0.577376E-02  0.114E+00    0.13       1.0  T
   6   -180.2852697  0.205067E-03  0.219E-01    0.03       1.0  T
   7   -180.2838016  0.146810E-02  0.369E-01    0.05       1.0  T
   8   -180.2864712 -0.266959E-02  0.171E-01    0.03       1.0  T
   9   -180.2867870 -0.315858E-03  0.112E-01    0.03       1.0  T
  10   -180.2823972  0.438979E-02  0.421E-01    0.01       1.0  T
  11   -180.2872263 -0.482909E-02  0.623E-02    0.03       1.0  T
  12   -180.2871397  0.866073E-04  0.104E-01    0.03       1.0  T
  13   -180.2874074 -0.267654E-03  0.203E-02    0.03       1.0  T
  14   -180.2874026  0.479603E-05  0.255E-02    0.03       1.0  T
  15   -180.2874056 -0.306295E-05  0.222E-02    0.03       1.0  T
  16   -180.2874120 -0.639181E-05  0.178E-02    0.03       1.0  T
  17   -180.2874191 -0.703950E-05  0.433E-03    0.03       2.4  T
  18   -180.2874191 -0.723991E-07  0.433E-03    0.03       2.4  T
  19   -180.2874184  0.762087E-06  0.683E-03    0.03       1.5  T
  20   -180.2874188 -0.396061E-06  0.604E-03    0.03       1.7  T
  21   -180.2874194 -0.617083E-06  0.329E-03    0.03       3.2  T
  22   -180.2874196 -0.240397E-06  0.381E-04    0.03      27.7  T
  23   -180.2874196  0.480262E-07  0.159E-03    0.03       6.6  T
  24   -180.2874195  0.635418E-07  0.224E-03    0.03       4.7  T
  25   -180.2874196 -0.112092E-06  0.151E-04    0.03      70.0  T
     SCC iter.                  ...        0 min,  0.527 sec
     gradient                   ...        0 min,  0.046 sec
 * total energy  :  -178.5172976 Eh     change       -0.3683926E-02 Eh
   gradient norm :     0.0370490 Eh/α   predicted    -0.3002215E-02 ( -18.51%)
   displ. norm   :     0.6687481 α      lambda       -0.5596238E-02
   maximum displ.:     0.3113793 α      in ANC's #19, #9, #8, ...

........................................................................
.............................. CYCLE   33 ..............................
........................................................................

 iter      E             dE          RMSdq      gap      omega  full diag
   1   -180.2891779 -0.180289E+03  0.561E-01    0.03       0.0  T
   2   -180.2494992  0.396787E-01  0.102E+00    0.09       1.0  T
   3   -180.0409088  0.208590E+00  0.260E+00    0.11       1.0  T
   4   -180.2189717 -0.178063E+00  0.142E+00    0.05       1.0  T
   5   -180.2384439 -0.194723E-01  0.133E+00    0.05       1.0  T
   6   -180.2694155 -0.309716E-01  0.835E-01    0.02       1.0  T
   7   -180.2838013 -0.143858E-01  0.457E-01    0.05       1.0  T
   8   -180.2900649 -0.626364E-02  0.719E-02    0.03       1.0  T
   9   -180.2890731  0.991881E-03  0.178E-01    0.04       1.0  T
  10   -180.2888078  0.265216E-03  0.215E-01    0.02       1.0  T
  11   -180.2892642 -0.456312E-03  0.154E-01    0.02       1.0  T
  12   -180.2900474 -0.783230E-03  0.742E-02    0.03       1.0  T
  13   -180.2900113  0.360939E-04  0.729E-02    0.03       1.0  T
  14   -180.2900841 -0.728035E-04  0.505E-02    0.03       1.0  T
  15   -180.2901575 -0.733727E-04  0.106E-02    0.03       1.0  T
  16   -180.2901617 -0.420030E-05  0.495E-03    0.03       2.1  T
  17   -180.2901610  0.647449E-06  0.623E-03    0.03       1.7  T
  18   -180.2901585  0.250995E-05  0.115E-02    0.03       1.0  T
  19   -180.2901611 -0.256178E-05  0.623E-03    0.03       1.7  T
  20   -180.2901613 -0.226362E-06  0.555E-03    0.03       1.9  T
  21   -180.2901619 -0.588169E-06  0.254E-03    0.03       4.1  T
  22   -180.2901620 -0.121063E-06  0.482E-04    0.03      21.9  T
  23   -180.2901618  0.200957E-06  0.291E-03    0.03       3.6  T
  24   -180.2901620 -0.204349E-06  0.412E-04    0.03      25.6  T
     SCC iter.                  ...        0 min,  0.512 sec
     gradient                   ...        0 min,  0.044 sec
 * total energy  :  -178.5218675 Eh     change       -0.4569880E-02 Eh
   gradient norm :     0.0332844 Eh/α   predicted    -0.4049529E-02 ( -11.39%)
   displ. norm   :     0.7247762 α      lambda       -0.5368800E-02
   maximum displ.:     0.3354475 α      in ANC's #19, #9, #8, ...

........................................................................
.............................. CYCLE   34 ..............................
........................................................................

 iter      E             dE          RMSdq      gap      omega  full diag
   1   -180.2877340 -0.180288E+03  0.700E-01    0.05       0.0  T
   2   -179.9847197  0.303014E+00  0.291E+00    0.10       1.0  T
   3   -180.2508366 -0.266117E+00  0.122E+00    0.13       1.0  T
   4   -180.2945376 -0.437011E-01  0.102E+00    0.11       1.0  T
   5   -180.2940022  0.535401E-03  0.112E+00    0.13       1.0  T
   6   -180.2766509  0.173513E-01  0.554E-01    0.06       1.0  T
   7   -180.2862335 -0.958262E-02  0.493E-01    0.01       1.0  T
   8   -180.2903569 -0.412340E-02  0.136E-01    0.03       1.0  T
   9   -180.2823521  0.800480E-02  0.596E-01    0.07       1.0  T
  10   -180.2914789 -0.912680E-02  0.537E-02    0.03       1.0  T
  11   -180.2913948  0.840653E-04  0.705E-02    0.03       1.0  T
  12   -180.2913039  0.909323E-04  0.114E-01    0.04       1.0  T
  13   -180.2914075 -0.103575E-03  0.795E-02    0.04       1.0  T
  14   -180.2915542 -0.146710E-03  0.122E-02    0.03       1.0  T
  15   -180.2915176  0.365935E-04  0.367E-02    0.03       1.0  T
  16   -180.2915420 -0.243905E-04  0.251E-02    0.03       1.0  T
  17   -180.2915378  0.417817E-05  0.280E-02    0.03       1.0  T
  18   -180.2915560 -0.181924E-04  0.959E-03    0.03       1.1  T
  19   -180.2915569 -0.918411E-06  0.933E-03    0.03       1.1  T
  20   -180.2915574 -0.523561E-06  0.654E-03    0.03       1.6  T
  21   -180.2915577 -0.254957E-06  0.556E-03    0.03       1.9  T
  22   -180.2915571  0.583365E-06  0.748E-03    0.03       1.4  T
  23   -180.2915582 -0.112332E-05  0.172E-03    0.03       6.1  T
  24   -180.2915582 -0.152139E-08  0.161E-03    0.03       6.5  T
  25   -180.2915583 -0.563830E-07  0.167E-04    0.03      63.3  T
  26   -180.2915583  0.856076E-08  0.616E-04    0.03      17.1  T
     SCC iter.                  ...        0 min,  0.564 sec
     gradient                   ...        0 min,  0.047 sec
 * total energy  :  -178.5263010 Eh     change       -0.4433520E-02 Eh
   gradient norm :     0.0328684 Eh/α   predicted    -0.4094531E-02 (  -7.65%)
   displ. norm   :     0.6369908 α      lambda       -0.6706403E-02
   maximum displ.:     0.2811806 α      in ANC's #19, #9, #8, ...

........................................................................
.............................. CYCLE   35 ..............................
........................................................................

 iter      E             dE          RMSdq      gap      omega  full diag
   1   -180.3079560 -0.180308E+03  0.577E-01    0.04       0.0  T
   2   -180.0442186  0.263737E+00  0.267E+00    0.11       1.0  T
   3   -180.2998176 -0.255599E+00  0.649E-01    0.07       1.0  T
   4   -180.2869800  0.128376E-01  0.813E-01    0.09       1.0  T
   5   -180.3060224 -0.190424E-01  0.470E-01    0.06       1.0  T
   6   -180.2978871  0.813527E-02  0.836E-01    0.09       1.0  T
   7   -180.3032991 -0.541195E-02  0.541E-01    0.07       1.0  T
   8   -180.3085434 -0.524432E-02  0.334E-01    0.05       1.0  T
   9   -180.3028215  0.572188E-02  0.487E-01    0.06       1.0  T
  10   -180.3074020 -0.458051E-02  0.342E-01    0.02       1.0  T
  11   -180.3093903 -0.198830E-02  0.174E-01    0.03       1.0  T
  12   -180.3100202 -0.629823E-03  0.119E-01    0.04       1.0  T
  13   -180.3101130 -0.928089E-04  0.845E-02    0.04       1.0  T
  14   -180.3101722 -0.592307E-04  0.816E-02    0.04       1.0  T
  15   -180.3102804 -0.108168E-03  0.423E-02    0.04       1.0  T
  16   -180.3103180 -0.376228E-04  0.134E-02    0.04       1.0  T
  17   -180.3103199 -0.189237E-05  0.854E-03    0.03       1.2  T
  18   -180.3103185  0.137700E-05  0.112E-02    0.03       1.0  T
  19   -180.3103219 -0.337357E-05  0.196E-03    0.03       5.4  T
  20   -180.3103213  0.597186E-06  0.584E-03    0.04       1.8  T
  21   -180.3103218 -0.551054E-06  0.250E-03    0.04       4.2  T
  22   -180.3103219 -0.593344E-07  0.194E-03    0.03       5.4  T
  23   -180.3103220 -0.905535E-07  0.512E-04    0.03      20.6  T
  24   -180.3103220  0.121304E-08  0.459E-04    0.03      23.0  T
     SCC iter.                  ...        0 min,  0.522 sec
     gradient                   ...        0 min,  0.046 sec
 * total energy  :  -178.5289855 Eh     change       -0.2684542E-02 Eh
   gradient norm :     0.0313293 Eh/α   predicted    -0.4713792E-02 (  75.59%)
   displ. norm   :     0.6877212 α      lambda       -0.6377564E-02
   maximum displ.:     0.3003827 α      in ANC's #21, #19, #9, ...

........................................................................
.............................. CYCLE   36 ..............................
........................................................................

 iter      E             dE          RMSdq      gap      omega  full diag
   1   -180.1249853 -0.180125E+03  0.227E+00    0.00       0.0  T
   2   -179.7426170  0.382368E+00  0.295E+00    0.07       1.0  T
   3   -180.0248414 -0.282224E+00  0.284E+00    0.01       1.0  T
   4   -180.1454108 -0.120569E+00  0.300E+00    0.17       1.0  T
   5   -180.0179915  0.127419E+00  0.334E+00    0.25       1.0  T
   6   -180.0205265 -0.253505E-02  0.334E+00    0.25       1.0  T
   7   -180.0613746 -0.408481E-01  0.258E+00    0.13       1.0  T
   8   -180.2060129 -0.144638E+00  0.177E+00    0.12       1.0  T
   9   -180.2680697 -0.620567E-01  0.148E+00    0.14       1.0  T
  10   -180.2802239 -0.121543E-01  0.134E+00    0.13       1.0  T
  11   -180.2835189 -0.329498E-02  0.127E+00    0.13       1.0  T
  12   -180.2267177  0.568012E-01  0.148E+00    0.04       1.0  T
  13   -180.2809675 -0.542498E-01  0.734E-01    0.01       1.0  T
  14   -180.2683635  0.126040E-01  0.103E+00    0.02       1.0  T
  15   -180.2840489 -0.156854E-01  0.800E-01    0.09       1.0  T
  16   -180.2268768  0.571721E-01  0.112E+00    0.03       1.0  T
  17   -180.2889723 -0.620955E-01  0.677E-01    0.08       1.0  T
  18   -180.2912956 -0.232322E-02  0.531E-01    0.07       1.0  T
  19   -180.2925621 -0.126656E-02  0.480E-01    0.06       1.0  T
  20   -180.2941088 -0.154672E-02  0.375E-01    0.06       1.0  T
  21   -180.2958781 -0.176922E-02  0.220E-01    0.05       1.0  T
  22   -180.2967182 -0.840149E-03  0.319E-02    0.04       1.0  T
  23   -180.2965021  0.216135E-03  0.101E-01    0.03       1.0  T
  24   -180.2967756 -0.273567E-03  0.132E-02    0.04       1.0  T
  25   -180.2967585  0.171594E-04  0.232E-02    0.04       1.0  T
  26   -180.2967707 -0.122050E-04  0.180E-02    0.04       1.0  T
  27   -180.2967324  0.382689E-04  0.424E-02    0.04       1.0  T
  28   -180.2967508 -0.183828E-04  0.377E-02    0.04       1.0  T
  29   -180.2967790 -0.281955E-04  0.952E-03    0.04       1.1  T
  30   -180.2967814 -0.242506E-05  0.241E-03    0.04       4.4  T
  31   -180.2967797  0.170594E-05  0.982E-03    0.04       1.1  T
  32   -180.2967814 -0.171213E-05  0.220E-03    0.04       4.8  T
  33   -180.2967816 -0.142249E-06  0.415E-04    0.04      25.4  T
  34   -180.2967816  0.122169E-07  0.639E-04    0.04      16.5  T
     SCC iter.                  ...        0 min,  0.712 sec
     gradient                   ...        0 min,  0.047 sec
 * total energy  :  -178.5316711 Eh     change       -0.2685631E-02 Eh
   gradient norm :     0.0339512 Eh/α   predicted    -0.4696946E-02 (  74.89%)
   displ. norm   :     0.3303732 α      lambda       -0.3943502E-02
   maximum displ.:     0.1277010 α      in ANC's #9, #8, #10, ...

........................................................................
.............................. CYCLE   37 ..............................
........................................................................

 iter      E             dE          RMSdq      gap      omega  full diag
   1   -180.2900145 -0.180290E+03  0.657E-01    0.07       0.0  T
   2   -178.9138225  0.137619E+01  0.737E+00    0.02       1.0  T
   3   -180.2675603 -0.135374E+01  0.772E-01    0.01       1.0  T
   4   -180.2479051  0.196552E-01  0.100E+00    0.09       1.0  T
   5   -180.2891362 -0.412311E-01  0.121E+00    0.15       1.0  T
   6   -180.2864495  0.268665E-02  0.114E+00    0.13       1.0  T
   7   -180.2780194  0.843013E-02  0.101E+00    0.12       1.0  T
   8   -180.2443239  0.336955E-01  0.131E+00    0.03       1.0  T
   9   -180.2446233 -0.299383E-03  0.126E+00    0.03       1.0  T
  10   -180.2894293 -0.448060E-01  0.395E-01    0.02       1.0  T
  11   -180.2933683 -0.393899E-02  0.250E-01    0.05       1.0  T
  12   -180.2927077  0.660619E-03  0.292E-01    0.05       1.0  T
  13   -180.2945306 -0.182292E-02  0.970E-02    0.04       1.0  T
  14   -180.2946257 -0.951606E-04  0.866E-02    0.04       1.0  T
  15   -180.2943203  0.305468E-03  0.134E-01    0.05       1.0  T
  16   -180.2946906 -0.370358E-03  0.392E-02    0.04       1.0  T
  17   -180.2946946 -0.394885E-05  0.343E-02    0.04       1.0  T
  18   -180.2947007 -0.609538E-05  0.227E-02    0.04       1.0  T
  19   -180.2947177 -0.170430E-04  0.143E-02    0.04       1.0  T
  20   -180.2947198 -0.206467E-05  0.141E-02    0.04       1.0  T
  21   -180.2947259 -0.612733E-05  0.567E-03    0.04       1.9  T
  22   -180.2947247  0.118044E-05  0.101E-02    0.04       1.0  T
  23   -180.2947256 -0.917892E-06  0.852E-03    0.04       1.2  T
  24   -180.2947267 -0.105649E-05  0.156E-03    0.04       6.8  T
  25   -180.2947268 -0.129388E-06  0.575E-04    0.04      18.3  T
  26   -180.2947268 -0.288571E-08  0.584E-04    0.04      18.1  T
     SCC iter.                  ...        0 min,  0.578 sec
     gradient                   ...        0 min,  0.047 sec
 * total energy  :  -178.5338000 Eh     change       -0.2128820E-02 Eh
   gradient norm :     0.0256043 Eh/α   predicted    -0.2186963E-02 (   2.73%)
   displ. norm   :     0.4695656 α      lambda       -0.2819349E-02
   maximum displ.:     0.2142661 α      in ANC's #9, #19, #8, ...

........................................................................
.............................. CYCLE   38 ..............................
........................................................................

 iter      E             dE          RMSdq      gap      omega  full diag
   1   -180.2641814 -0.180264E+03  0.875E-01    0.04       0.0  T
   2   -179.9655624  0.298619E+00  0.290E+00    0.15       1.0  T
   3   -180.2420554 -0.276493E+00  0.133E+00    0.08       1.0  T
   4   -180.1036146  0.138441E+00  0.273E+00    0.15       1.0  T
   5   -180.0636681  0.399464E-01  0.291E+00    0.18       1.0  T
   6   -180.1014555 -0.377874E-01  0.236E+00    0.10       1.0  T
   7   -180.2709055 -0.169450E+00  0.106E+00    0.11       1.0  T
   8   -180.2815064 -0.106009E-01  0.901E-01    0.10       1.0  T
   9   -180.2914151 -0.990870E-02  0.457E-01    0.06       1.0  T
  10   -180.2913531  0.619617E-04  0.456E-01    0.07       1.0  T
  11   -180.2854958  0.585733E-02  0.608E-01    0.03       1.0  T
  12   -180.2927170 -0.722121E-02  0.404E-01    0.06       1.0  T
  13   -180.2929977 -0.280711E-03  0.392E-01    0.06       1.0  T
  14   -180.2945008 -0.150306E-02  0.225E-01    0.05       1.0  T
  15   -180.2954952 -0.994413E-03  0.142E-01    0.05       1.0  T
  16   -180.2958099 -0.314768E-03  0.119E-01    0.05       1.0  T
  17   -180.2959160 -0.106082E-03  0.525E-02    0.05       1.0  T
  18   -180.2959950 -0.789882E-04  0.388E-02    0.05       1.0  T
  19   -180.2960122 -0.172085E-04  0.190E-02    0.04       1.0  T
  20   -180.2960221 -0.994048E-05  0.231E-02    0.04       1.0  T
  21   -180.2960315 -0.936915E-05  0.607E-03    0.04       1.7  T
  22   -180.2960329 -0.133677E-05  0.687E-03    0.04       1.5  T
  23   -180.2960324  0.496082E-06  0.760E-03    0.04       1.4  T
  24   -180.2960324 -0.437006E-07  0.813E-03    0.04       1.3  T
  25   -180.2960338 -0.139207E-05  0.766E-04    0.04      13.8  T
  26   -180.2960335  0.344286E-06  0.268E-03    0.04       3.9  T
  27   -180.2960336 -0.144910E-06  0.245E-03    0.04       4.3  T
  28   -180.2960338 -0.209834E-06  0.429E-04    0.04      24.6  T
  29   -180.2960338  0.196623E-07  0.629E-04    0.04      16.8  T
     SCC iter.                  ...        0 min,  0.613 sec
     gradient                   ...        0 min,  0.047 sec
 * total energy  :  -178.5358006 Eh     change       -0.2000584E-02 Eh
   gradient norm :     0.0250933 Eh/α   predicted    -0.1720494E-02 ( -14.00%)
   displ. norm   :     0.5944982 α      lambda       -0.3406909E-02
   maximum displ.:     0.2902759 α      in ANC's #9, #8, #10, ...

........................................................................
.............................. CYCLE   39 ..............................
........................................................................

 iter      E             dE          RMSdq      gap      omega  full diag
   1   -180.2807857 -0.180281E+03  0.769E-01    0.05       0.0  T
   2   -179.9275542  0.353232E+00  0.319E+00    0.14       1.0  T
   3   -180.2603324 -0.332778E+00  0.111E+00    0.08       1.0  T
   4   -180.2406080  0.197244E-01  0.165E+00    0.04       1.0  T
   5   -180.1949199  0.456881E-01  0.207E+00    0.07       1.0  T
   6   -180.2612011 -0.662813E-01  0.999E-01    0.01       1.0  T
   7   -180.2890208 -0.278197E-01  0.769E-01    0.09       1.0  T
   8   -180.3004322 -0.114114E-01  0.335E-01    0.06       1.0  T
   9   -180.1633716  0.137061E+00  0.199E+00    0.01       1.0  T
  10   -180.2942808 -0.130909E+00  0.351E-01    0.03       1.0  T
  11   -180.2989718 -0.469104E-02  0.432E-01    0.06       1.0  T
  12   -180.3001760 -0.120420E-02  0.309E-01    0.05       1.0  T
  13   -180.3005913 -0.415299E-03  0.269E-01    0.05       1.0  T
  14   -180.3009663 -0.375048E-03  0.266E-01    0.05       1.0  T
  15   -180.3016485 -0.682155E-03  0.232E-01    0.05       1.0  T
  16   -180.3024834 -0.834871E-03  0.146E-01    0.05       1.0  T
  17   -180.3029619 -0.478506E-03  0.931E-02    0.05       1.0  T
  18   -180.3031846 -0.222762E-03  0.632E-02    0.05       1.0  T
  19   -180.3032672 -0.825273E-04  0.322E-02    0.05       1.0  T
  20   -180.3032893 -0.221649E-04  0.208E-02    0.05       1.0  T
  21   -180.3032981 -0.880416E-05  0.696E-03    0.05       1.5  T
  22   -180.3033001 -0.192402E-05  0.316E-03    0.05       3.3  T
  23   -180.3033004 -0.334473E-06  0.142E-03    0.05       7.4  T
  24   -180.3033005 -0.634649E-07  0.938E-04    0.05      11.2  T
  25   -180.3033004  0.682781E-07  0.141E-03    0.05       7.5  T
  26   -180.3033004 -0.712907E-08  0.142E-03    0.05       7.4  T
  27   -180.3033005 -0.958869E-07  0.359E-04    0.05      29.3  T
     SCC iter.                  ...        0 min,  0.595 sec
     gradient                   ...        0 min,  0.050 sec
 * total energy  :  -178.5384361 Eh     change       -0.2635579E-02 Eh
   gradient norm :     0.0227356 Eh/α   predicted    -0.2305504E-02 ( -12.52%)
   displ. norm   :     0.6979799 α      lambda       -0.3864432E-02
   maximum displ.:     0.3428394 α      in ANC's #9, #8, #10, ...

........................................................................
.............................. CYCLE   40 ..............................
........................................................................

 iter      E             dE          RMSdq      gap      omega  full diag
   1   -180.2101927 -0.180210E+03  0.162E+00    0.01       0.0  T
   2   -180.1779517  0.322410E-01  0.207E+00    0.07       1.0  T
   3   -179.9275319  0.250420E+00  0.385E+00    0.23       1.0  T
   4   -180.0135448 -0.860129E-01  0.357E+00    0.20       1.0  T
   5   -180.0512542 -0.377094E-01  0.340E+00    0.16       1.0  T
   6   -180.0927103 -0.414561E-01  0.255E+00    0.07       1.0  T
   7   -180.2720541 -0.179344E+00  0.138E+00    0.12       1.0  T
   8   -180.2820965 -0.100424E-01  0.118E+00    0.12       1.0  T
   9   -180.2883417 -0.624528E-02  0.962E-01    0.10       1.0  T
  10   -180.2919846 -0.364288E-02  0.688E-01    0.08       1.0  T
  11   -180.2961787 -0.419404E-02  0.368E-01    0.05       1.0  T
  12   -180.2978690 -0.169030E-02  0.465E-01    0.07       1.0  T
  13   -180.2331698  0.646992E-01  0.133E+00    0.02       1.0  T
  14   -180.2950556 -0.618858E-01  0.607E-01    0.08       1.0  T
  15   -180.2994228 -0.436719E-02  0.413E-01    0.07       1.0  T
  16   -180.3024484 -0.302564E-02  0.209E-01    0.06       1.0  T
  17   -180.3029693 -0.520852E-03  0.967E-02    0.06       1.0  T
  18   -180.3026783  0.290956E-03  0.136E-01    0.05       1.0  T
  19   -180.3029430 -0.264688E-03  0.818E-02    0.05       1.0  T
  20   -180.3030695 -0.126523E-03  0.251E-02    0.05       1.0  T
  21   -180.3028744  0.195144E-03  0.912E-02    0.06       1.0  T
  22   -180.3028520  0.223870E-04  0.703E-02    0.05       1.0  T
  23   -180.3030379 -0.185972E-03  0.364E-02    0.05       1.0  T
  24   -180.3030561 -0.181517E-04  0.318E-02    0.05       1.0  T
  25   -180.3030898 -0.336961E-04  0.698E-03    0.05       1.5  T
  26   -180.3030874  0.242420E-05  0.124E-02    0.05       1.0  T
  27   -180.3030916 -0.424229E-05  0.509E-03    0.05       2.1  T
  28   -180.3030905  0.111263E-05  0.650E-03    0.05       1.6  T
  29   -180.3030923 -0.175831E-05  0.141E-03    0.05       7.5  T
  30   -180.3030920  0.246203E-06  0.249E-03    0.05       4.2  T
  31   -180.3030923 -0.317912E-06  0.224E-04    0.05      47.1  T
  32   -180.3030923 -0.837048E-09  0.236E-04    0.05      44.7  T
     SCC iter.                  ...        0 min,  0.763 sec
     gradient                   ...        0 min,  0.047 sec
 * total energy  :  -178.5417202 Eh     change       -0.3284030E-02 Eh
   gradient norm :     0.0190096 Eh/α   predicted    -0.2873549E-02 ( -12.50%)
   displ. norm   :     0.7589354 α      lambda       -0.4171820E-02
   maximum displ.:     0.3853062 α      in ANC's #9, #8, #10, ...

........................................................................
.............................. CYCLE   41 ..............................
........................................................................

 iter      E             dE          RMSdq      gap      omega  full diag
   1   -180.2861096 -0.180286E+03  0.731E-01    0.05       0.0  T
   2   -179.9183829  0.367727E+00  0.358E+00    0.12       1.0  T
   3   -180.2551012 -0.336718E+00  0.107E+00    0.08       1.0  T
   4   -180.2809490 -0.258478E-01  0.107E+00    0.01       1.0  T
   5   -180.2479001  0.330489E-01  0.183E+00    0.03       1.0  T
   6   -180.2048565  0.430437E-01  0.203E+00    0.02       1.0  T
   7   -180.1405198  0.643367E-01  0.223E+00    0.05       1.0  T
   8   -180.2870644 -0.146545E+00  0.747E-01    0.08       1.0  T
   9   -180.2876837 -0.619375E-03  0.610E-01    0.07       1.0  T
  10   -180.2882874 -0.603662E-03  0.592E-01    0.07       1.0  T
  11   -180.2890651 -0.777737E-03  0.517E-01    0.06       1.0  T
  12   -180.2881034  0.961784E-03  0.499E-01    0.05       1.0  T
  13   -180.2912113 -0.310795E-02  0.457E-01    0.06       1.0  T
  14   -180.2920242 -0.812937E-03  0.416E-01    0.06       1.0  T
  15   -180.2945326 -0.250835E-02  0.357E-01    0.06       1.0  T
  16   -180.2999109 -0.537830E-02  0.360E-02    0.06       1.0  T
  17   -180.2989384  0.972482E-03  0.168E-01    0.06       1.0  T
  18   -180.2997707 -0.832320E-03  0.675E-02    0.06       1.0  T
  19   -180.2974182  0.235248E-02  0.255E-01    0.05       1.0  T
  20   -180.2999160 -0.249771E-02  0.225E-02    0.06       1.0  T
  21   -180.2997697  0.146282E-03  0.683E-02    0.05       1.0  T
  22   -180.2999358 -0.166172E-03  0.546E-03    0.06       1.9  T
  23   -180.2999357  0.111866E-06  0.439E-03    0.06       2.4  T
  24   -180.2999340  0.173980E-05  0.799E-03    0.06       1.3  T
  25   -180.2999338  0.156047E-06  0.889E-03    0.06       1.2  T
  26   -180.2999345 -0.671588E-06  0.684E-03    0.06       1.5  T
  27   -180.2999336  0.898170E-06  0.868E-03    0.06       1.2  T
  28   -180.2999345 -0.853425E-06  0.712E-03    0.06       1.5  T
  29   -180.2999365 -0.199039E-05  0.936E-04    0.06      11.3  T
  30   -180.2999365 -0.269332E-07  0.548E-04    0.06      19.2  T
  31   -180.2999365 -0.510971E-08  0.370E-04    0.06      28.5  T
     SCC iter.                  ...        0 min,  0.696 sec
     gradient                   ...        0 min,  0.047 sec
 * total energy  :  -178.5453959 Eh     change       -0.3675697E-02 Eh
   gradient norm :     0.0188832 Eh/α   predicted    -0.3287367E-02 ( -10.56%)
   displ. norm   :     0.7661918 α      lambda       -0.4131123E-02
   maximum displ.:     0.3979262 α      in ANC's #9, #8, #10, ...

........................................................................
.............................. CYCLE   42 ..............................
........................................................................

 iter      E             dE          RMSdq      gap      omega  full diag
   1   -180.2911041 -0.180291E+03  0.643E-01    0.07       0.0  T
   2   -179.0122521  0.127885E+01  0.692E+00    0.01       1.0  T
   3   -180.2819420 -0.126969E+01  0.699E-01    0.08       1.0  T
   4   -180.1691372  0.112805E+00  0.179E+00    0.01       1.0  T
   5   -180.2872359 -0.118099E+00  0.770E-01    0.09       1.0  T
   6   -180.2957941 -0.855826E-02  0.943E-01    0.11       1.0  T
   7   -180.2930794  0.271473E-02  0.901E-01    0.10       1.0  T
   8   -180.2953584 -0.227895E-02  0.259E-01    0.06       1.0  T
   9   -180.2971991 -0.184072E-02  0.121E-01    0.06       1.0  T
  10   -180.2946504  0.254869E-02  0.340E-01    0.07       1.0  T
  11   -180.2975457 -0.289534E-02  0.767E-02    0.06       1.0  T
  12   -180.2973615  0.184216E-03  0.134E-01    0.06       1.0  T
  13   -180.2966865  0.675003E-03  0.153E-01    0.06       1.0  T
  14   -180.2975053 -0.818798E-03  0.578E-02    0.06       1.0  T
  15   -180.2973668  0.138491E-03  0.734E-02    0.06       1.0  T
  16   -180.2973956 -0.287471E-04  0.766E-02    0.06       1.0  T
  17   -180.2975400 -0.144412E-03  0.392E-02    0.06       1.0  T
  18   -180.2975470 -0.706748E-05  0.347E-02    0.06       1.0  T
  19   -180.2975960 -0.489758E-04  0.629E-03    0.06       1.7  T
  20   -180.2975952  0.841211E-06  0.726E-03    0.06       1.5  T
  21   -180.2975955 -0.375019E-06  0.548E-03    0.06       1.9  T
  22   -180.2975950  0.585541E-06  0.805E-03    0.06       1.3  T
  23   -180.2975963 -0.137041E-05  0.355E-03    0.06       3.0  T
  24   -180.2975966 -0.226427E-06  0.142E-03    0.06       7.4  T
  25   -180.2975965  0.517331E-07  0.181E-03    0.06       5.8  T
  26   -180.2975965  0.103680E-07  0.135E-03    0.06       7.8  T
  27   -180.2975965 -0.533513E-07  0.918E-04    0.06      11.5  T
  28   -180.2975965 -0.780602E-09  0.770E-04    0.06      13.7  T
     SCC iter.                  ...        0 min,  0.671 sec
     gradient                   ...        0 min,  0.047 sec
 * total energy  :  -178.5486682 Eh     change       -0.3272367E-02 Eh
   gradient norm :     0.0203835 Eh/α   predicted    -0.3278148E-02 (   0.18%)
   displ. norm   :     0.6532954 α      lambda       -0.3150163E-02
   maximum displ.:     0.3616229 α      in ANC's #9, #8, #10, ...
 * RMSD in coord.:     1.0646855 α      energy gain  -0.6710930E-01 Eh

generating ANC from exact Hessian ...
Using Lindh-Hessian (1995)
 Shifting diagonal of input Hessian by   2.159376082838152E-002
 Lowest  eigenvalues of input Hessian
    0.010000    0.018750    0.021005    0.021122    0.021218    0.000000
    0.000000    0.000000    0.000000    0.000000    0.000000    0.021644
    0.021695    0.021749    0.022098    0.022114    0.022308    0.022465
 Highest eigenvalues
    2.162770    2.233994    2.240992    2.261134    2.274270    2.305938
 

........................................................................
.............................. CYCLE   43 ..............................
........................................................................

 iter      E             dE          RMSdq      gap      omega  full diag
   1   -180.2961486 -0.180296E+03  0.414E-01    0.06       0.0  T
   2   -179.8641488  0.432000E+00  0.376E+00    0.11       1.0  T
   3   -180.2845090 -0.420360E+00  0.637E-01    0.08       1.0  T
   4   -179.7793419  0.505167E+00  0.396E+00    0.02       1.0  T
   5   -180.2839356 -0.504594E+00  0.474E-01    0.06       1.0  T
   6   -180.2919989 -0.806338E-02  0.538E-01    0.08       1.0  T
   7   -180.2917824  0.216534E-03  0.622E-01    0.08       1.0  T
   8   -180.2930049 -0.122244E-02  0.508E-01    0.08       1.0  T
   9   -180.2971137 -0.410889E-02  0.284E-01    0.07       1.0  T
  10   -180.2967814  0.332371E-03  0.283E-01    0.07       1.0  T
  11   -180.2985638 -0.178246E-02  0.534E-02    0.06       1.0  T
  12   -180.2984021  0.161763E-03  0.969E-02    0.06       1.0  T
  13   -180.2984787 -0.765982E-04  0.727E-02    0.06       1.0  T
  14   -180.2985974 -0.118764E-03  0.277E-02    0.06       1.0  T
  15   -180.2986078 -0.103504E-04  0.196E-02    0.06       1.0  T
  16   -180.2986070  0.811849E-06  0.139E-02    0.06       1.0  T
  17   -180.2986090 -0.205911E-05  0.156E-02    0.06       1.0  T
  18   -180.2986086  0.409836E-06  0.163E-02    0.06       1.0  T
  19   -180.2986130 -0.439903E-05  0.123E-02    0.06       1.0  T
  20   -180.2986154 -0.240870E-05  0.473E-03    0.06       2.2  T
  21   -180.2986157 -0.271257E-06  0.327E-03    0.06       3.2  T
  22   -180.2986157 -0.297159E-07  0.302E-03    0.06       3.5  T
  23   -180.2986158 -0.641112E-07  0.212E-03    0.06       5.0  T
  24   -180.2986159 -0.113306E-06  0.443E-04    0.06      23.8  T
  25   -180.2986159  0.238799E-08  0.519E-04    0.06      20.3  T
     SCC iter.                  ...        0 min,  0.596 sec
     gradient                   ...        0 min,  0.047 sec
 * total energy  :  -178.5512938 Eh     change       -0.2625592E-02 Eh
   gradient norm :     0.0195874 Eh/α   predicted     0.0000000E+00 (-100.00%)
   displ. norm   :     0.2361949 α      lambda       -0.2224156E-02
   maximum displ.:     0.1143409 α      in ANC's #8, #10, #12, ...

........................................................................
.............................. CYCLE   44 ..............................
........................................................................

 iter      E             dE          RMSdq      gap      omega  full diag
   1   -180.3024060 -0.180302E+03  0.342E-01    0.07       0.0  T
   2   -179.8691627  0.433243E+00  0.358E+00    0.02       1.0  T
   3   -180.2953661 -0.426203E+00  0.735E-01    0.09       1.0  T
   4   -180.3003278 -0.496164E-02  0.700E-01    0.10       1.0  T
   5   -180.3007451 -0.417308E-03  0.713E-01    0.10       1.0  T
   6   -180.2991028  0.164228E-02  0.417E-01    0.07       1.0  T
   7   -180.2911894  0.791342E-02  0.500E-01    0.05       1.0  T
   8   -180.3004659 -0.927653E-02  0.309E-01    0.07       1.0  T
   9   -180.3015075 -0.104160E-02  0.178E-01    0.06       1.0  T
  10   -180.3026152 -0.110774E-02  0.672E-02    0.06       1.0  T
  11   -180.3019911  0.624130E-03  0.140E-01    0.07       1.0  T
  12   -180.3026117 -0.620616E-03  0.819E-02    0.06       1.0  T
  13   -180.3027038 -0.920475E-04  0.526E-02    0.06       1.0  T
  14   -180.3027522 -0.484416E-04  0.393E-02    0.06       1.0  T
  15   -180.3028166 -0.643449E-04  0.538E-03    0.06       2.0  T
  16   -180.3028053  0.112175E-04  0.169E-02    0.06       1.0  T
  17   -180.3028112 -0.589476E-05  0.131E-02    0.06       1.0  T
  18   -180.3028164 -0.519756E-05  0.523E-03    0.06       2.0  T
  19   -180.3028171 -0.707746E-06  0.408E-03    0.06       2.6  T
  20   -180.3028173 -0.173357E-06  0.210E-03    0.06       5.0  T
  21   -180.3028173  0.125510E-09  0.188E-03    0.06       5.6  T
  22   -180.3028173  0.515776E-07  0.229E-03    0.06       4.6  T
  23   -180.3028175 -0.182471E-06  0.478E-04    0.06      22.1  T
  24   -180.3028174  0.758839E-07  0.134E-03    0.06       7.9  T
  25   -180.3028174 -0.677116E-07  0.476E-04    0.06      22.1  T
     SCC iter.                  ...        0 min,  0.558 sec
     gradient                   ...        0 min,  0.048 sec
 * total energy  :  -178.5527988 Eh     change       -0.1505019E-02 Eh
   gradient norm :     0.0147261 Eh/α   predicted    -0.1174123E-02 ( -21.99%)
   displ. norm   :     0.6155238 α      lambda       -0.4383354E-02
   maximum displ.:     0.3080035 α      in ANC's #8, #1, #10, ...

........................................................................
.............................. CYCLE   45 ..............................
........................................................................

 iter      E             dE          RMSdq      gap      omega  full diag
   1   -180.1084244 -0.180108E+03  0.294E+00    0.02       0.0  T
   2   -177.1502823  0.295814E+01  0.707E+00    0.01       1.0  T
   3   -177.9821639 -0.831882E+00  0.722E+00    0.09       1.0  T
   4   -178.0573392 -0.751752E-01  0.709E+00    0.09       1.0  T
   5   -177.9550345  0.102305E+00  0.723E+00    0.20       1.0  T
   6   -177.7212848  0.233750E+00  0.795E+00    0.20       1.0  T
   7   -179.0493618 -0.132808E+01  0.522E+00    0.06       1.0  T
   8   -179.1185016 -0.691398E-01  0.509E+00    0.06       1.0  T
   9   -178.2667531  0.851749E+00  0.671E+00    0.05       1.0  T
  10   -178.8474970 -0.580744E+00  0.571E+00    0.09       1.0  T
  11   -178.6473825  0.200115E+00  0.609E+00    0.05       1.0  T
  12   -179.5393192 -0.891937E+00  0.425E+00    0.19       1.0  T
  13   -179.9601215 -0.420802E+00  0.323E+00    0.10       1.0  T
  14   -179.9789823 -0.188607E-01  0.244E+00    0.13       1.0  T
  15   -180.1560152 -0.177033E+00  0.230E+00    0.01       1.0  T
  16   -179.8930390  0.262976E+00  0.360E+00    0.02       1.0  T
  17   -179.8586775  0.343615E-01  0.367E+00    0.02       1.0  T
  18   -179.8767225 -0.180450E-01  0.354E+00    0.02       1.0  T
  19   -180.2348399 -0.358117E+00  0.239E+00    0.02       1.0  T
  20   -179.9238042  0.311036E+00  0.322E+00    0.02       1.0  T
  21   -180.0027090 -0.789048E-01  0.289E+00    0.02       1.0  T
  22   -180.2483098 -0.245601E+00  0.135E+00    0.05       1.0  T
  23   -180.3709617 -0.122652E+00  0.975E-01    0.07       1.0  T
  24   -180.3708525  0.109195E-03  0.968E-01    0.06       1.0  T
  25   -180.2709525  0.999000E-01  0.183E+00    0.03       1.0  T
  26   -180.3448303 -0.738778E-01  0.110E+00    0.05       1.0  T
  27   -180.3466798 -0.184947E-02  0.993E-01    0.05       1.0  T
  28   -180.0909838  0.255696E+00  0.188E+00    0.11       1.0  T
  29   -180.1886351 -0.976513E-01  0.179E+00    0.07       1.0  T
  30   -180.1357951  0.528400E-01  0.177E+00    0.10       1.0  T
  31   -180.1876045 -0.518094E-01  0.173E+00    0.08       1.0  T
  32   -180.2731757 -0.855711E-01  0.145E+00    0.05       1.0  T
  33   -180.2244370  0.487387E-01  0.171E+00    0.07       1.0  T
  34   -180.3252273 -0.100790E+00  0.112E+00    0.03       1.0  T
  35   -180.2983789  0.268484E-01  0.128E+00    0.04       1.0  T
  36   -180.2762438  0.221351E-01  0.140E+00    0.03       1.0  T
  37   -180.2653289  0.109149E-01  0.141E+00    0.04       1.0  T
  38   -180.2473391  0.179898E-01  0.161E+00    0.02       1.0  T
  39   -180.2962380 -0.488989E-01  0.129E+00    0.03       1.0  T
  40   -180.3681202 -0.718822E-01  0.618E-01    0.05       1.0  T
  41   -180.3832114 -0.150912E-01  0.374E-01    0.05       1.0  T
  42   -180.3798656  0.334579E-02  0.393E-01    0.05       1.0  T
  43   -180.3842472 -0.438158E-02  0.275E-01    0.05       1.0  T
  44   -180.3817539  0.249331E-02  0.379E-01    0.05       1.0  T
  45   -180.3850780 -0.332410E-02  0.232E-01    0.06       1.0  T
  46   -180.3861879 -0.110992E-02  0.163E-01    0.06       1.0  T
  47   -180.3850330  0.115498E-02  0.232E-01    0.06       1.0  T
  48   -180.3866507 -0.161771E-02  0.129E-01    0.06       1.0  T
  49   -180.3871274 -0.476752E-03  0.759E-02    0.05       1.0  T
  50   -180.3871497 -0.222456E-04  0.646E-02    0.05       1.0  T
  51   -180.3859099  0.123976E-02  0.170E-01    0.04       1.0  T
  52   -180.3860693 -0.159371E-03  0.154E-01    0.05       1.0  T
  53   -180.3871713 -0.110199E-02  0.478E-02    0.05       1.0  T
  54   -180.3872431 -0.718450E-04  0.319E-02    0.05       1.0  T
  55   -180.3871693  0.738604E-04  0.500E-02    0.05       1.0  T
  56   -180.3870296  0.139648E-03  0.725E-02    0.05       1.0  T
  57   -180.3871544 -0.124749E-03  0.495E-02    0.05       1.0  T
  58   -180.3872432 -0.888222E-04  0.248E-02    0.05       1.0  T
  59   -180.3872648 -0.216481E-04  0.130E-02    0.05       1.0  T
  60   -180.3872620  0.284381E-05  0.140E-02    0.05       1.0  T
  61   -180.3872681 -0.611126E-05  0.104E-02    0.05       1.0  T
  62   -180.3872706 -0.255968E-05  0.380E-03    0.05       2.8  T
  63   -180.3872703  0.349559E-06  0.455E-03    0.05       2.3  T
  64   -180.3872706 -0.331826E-06  0.341E-03    0.05       3.1  T
  65   -180.3872708 -0.179457E-06  0.255E-03    0.05       4.1  T
  66   -180.3872709 -0.510352E-07  0.233E-03    0.05       4.5  T
  67   -180.3872711 -0.205574E-06  0.105E-03    0.05      10.0  T
  68   -180.3872710  0.375167E-07  0.137E-03    0.05       7.7  T
  69   -180.3872710  0.505177E-07  0.165E-03    0.05       6.4  T
  70   -180.3872711 -0.129113E-06  0.388E-04    0.05      27.2  T
  71   -180.3872711  0.229585E-07  0.808E-04    0.05      13.1  T
     SCC iter.                  ...        0 min,  1.649 sec
     gradient                   ...        0 min,  0.047 sec
 * total energy  :  -178.6396903 Eh     change       -0.8689149E-01 Eh
   gradient norm :     0.1066508 Eh/α   predicted    -0.3022063E-02 ( -96.52%)
   displ. norm   :     0.7404232 α      lambda       -0.6412594E-01
   maximum displ.:     0.5158501 α      in ANC's #2, #51, #24, ...

........................................................................
.............................. CYCLE   46 ..............................
........................................................................

 iter      E             dE          RMSdq      gap      omega  full diag
   1   -180.1625119 -0.180163E+03  0.230E+00    0.10       0.0  T
   2   -173.5330062  0.662951E+01  0.106E+01    0.05       1.0  T
   3   -179.9032216 -0.637022E+01  0.321E+00    0.02       1.0  T
   4   -180.0105241 -0.107303E+00  0.206E+00    0.25       1.0  T
   5   -180.2017044 -0.191180E+00  0.165E+00    0.07       1.0  T
   6   -180.0631905  0.138514E+00  0.191E+00    0.17       1.0  T
   7   -180.1104863 -0.472958E-01  0.148E+00    0.15       1.0  T
   8   -180.1450478 -0.345616E-01  0.231E+00    0.02       1.0  T
   9   -180.3154377 -0.170390E+00  0.157E+00    0.04       1.0  T
  10   -180.3683177 -0.528800E-01  0.129E+00    0.05       1.0  T
  11   -180.3703452 -0.202744E-02  0.130E+00    0.05       1.0  T
  12   -180.3483109  0.220343E-01  0.150E+00    0.03       1.0  T
  13   -180.3381954  0.101154E-01  0.180E+00    0.03       1.0  T
  14   -180.3363899  0.180553E-02  0.169E+00    0.03       1.0  T
  15   -180.3739751 -0.375852E-01  0.114E+00    0.03       1.0  T
  16   -180.3914568 -0.174818E-01  0.779E-01    0.02       1.0  T
  17   -180.3843691  0.708772E-02  0.813E-01    0.02       1.0  T
  18   -180.3930906 -0.872151E-02  0.511E-01    0.02       1.0  T
  19   -180.4019018 -0.881115E-02  0.396E-01    0.02       1.0  T
  20   -180.4100573 -0.815551E-02  0.183E-01    0.02       1.0  T
  21   -180.4101259 -0.685881E-04  0.172E-01    0.02       1.0  T
  22   -180.4103783 -0.252435E-03  0.137E-01    0.02       1.0  T
  23   -180.4105871 -0.208824E-03  0.123E-01    0.02       1.0  T
  24   -180.4105230  0.641151E-04  0.126E-01    0.02       1.0  T
  25   -180.4103356  0.187460E-03  0.134E-01    0.02       1.0  T
  26   -180.4109731 -0.637514E-03  0.769E-02    0.02       1.0  T
  27   -180.4112176 -0.244520E-03  0.400E-02    0.02       1.0  T
  28   -180.4112458 -0.282204E-04  0.306E-02    0.02       1.0  T
  29   -180.4112388  0.705582E-05  0.299E-02    0.02       1.0  T
  30   -180.4112095  0.292518E-04  0.384E-02    0.02       1.0  T
  31   -180.4112599 -0.503783E-04  0.220E-02    0.02       1.0  T
  32   -180.4112823 -0.224040E-04  0.781E-03    0.02       1.3  T
  33   -180.4112822  0.132322E-06  0.687E-03    0.02       1.5  T
  34   -180.4112821  0.552857E-07  0.575E-03    0.02       1.8  T
  35   -180.4112839 -0.180455E-05  0.241E-03    0.02       4.4  T
  36   -180.4112838  0.161840E-06  0.276E-03    0.02       3.8  T
  37   -180.4112842 -0.395260E-06  0.103E-03    0.02      10.2  T
  38   -180.4112841  0.127485E-07  0.996E-04    0.02      10.6  T
  39   -180.4112842 -0.278012E-07  0.685E-04    0.02      15.4  T
     SCC iter.                  ...        0 min,  0.874 sec
     gradient                   ...        0 min,  0.047 sec
 * total energy  :  -178.6778944 Eh     change       -0.3820403E-01 Eh
   gradient norm :     0.0577739 Eh/α   predicted    -0.4964086E-01 (  29.94%)
   displ. norm   :     0.5990259 α      lambda       -0.2403511E-01
   maximum displ.:     0.3303443 α      in ANC's #1, #73, #121, ...

........................................................................
.............................. CYCLE   47 ..............................
........................................................................

 iter      E             dE          RMSdq      gap      omega  full diag
   1   -180.1099302 -0.180110E+03  0.246E+00    0.23       0.0  T
   2   -172.2408450  0.786909E+01  0.107E+01    0.08       1.0  T
   3   -179.7971933 -0.755635E+01  0.366E+00    0.02       1.0  T
   4   -180.0484834 -0.251290E+00  0.166E+00    0.26       1.0  T
   5   -180.2209567 -0.172473E+00  0.171E+00    0.01       1.0  T
   6   -180.1164238  0.104533E+00  0.183E+00    0.11       1.0  T
   7   -180.3238322 -0.207408E+00  0.151E+00    0.02       1.0  T
   8   -180.2681708  0.556613E-01  0.151E+00    0.02       1.0  T
   9   -180.2643318  0.383908E-02  0.223E+00    0.02       1.0  T
  10   -180.2643350 -0.322620E-05  0.223E+00    0.02       1.0  T
  11   -180.2593256  0.500935E-02  0.229E+00    0.02       1.0  T
  12   -180.3382077 -0.788821E-01  0.161E+00    0.02       1.0  T
  13   -180.3139022  0.243055E-01  0.146E+00    0.02       1.0  T
  14   -180.3675319 -0.536297E-01  0.108E+00    0.02       1.0  T
  15   -180.3900414 -0.225094E-01  0.776E-01    0.02       1.0  T
  16   -180.2316920  0.158349E+00  0.178E+00    0.02       1.0  T
  17   -180.3855492 -0.153857E+00  0.696E-01    0.02       1.0  T
  18   -180.4118298 -0.262807E-01  0.324E-01    0.02       1.0  T
  19   -180.4171393 -0.530953E-02  0.220E-01    0.01       1.0  T
  20   -180.4105164  0.662292E-02  0.377E-01    0.01       1.0  T
  21   -180.4166435 -0.612705E-02  0.209E-01    0.01       1.0  T
  22   -180.4159013  0.742158E-03  0.217E-01    0.01       1.0  T
  23   -180.4175068 -0.160548E-02  0.150E-01    0.01       1.0  T
  24   -180.4184131 -0.906295E-03  0.627E-02    0.01       1.0  T
  25   -180.4173942  0.101891E-02  0.139E-01    0.01       1.0  T
  26   -180.4185468 -0.115264E-02  0.299E-02    0.01       1.0  T
  27   -180.4185735 -0.266369E-04  0.211E-02    0.01       1.0  T
  28   -180.4183750  0.198507E-03  0.572E-02    0.01       1.0  T
  29   -180.4185617 -0.186749E-03  0.239E-02    0.01       1.0  T
  30   -180.4185813 -0.196045E-04  0.118E-02    0.01       1.0  T
  31   -180.4185862 -0.493119E-05  0.716E-03    0.01       1.5  T
  32   -180.4185760  0.102206E-04  0.137E-02    0.01       1.0  T
  33   -180.4185858 -0.977844E-05  0.841E-03    0.01       1.3  T
  34   -180.4185898 -0.399279E-05  0.121E-03    0.01       8.7  T
  35   -180.4185898  0.353982E-07  0.125E-03    0.01       8.4  T
  36   -180.4185897  0.969024E-07  0.198E-03    0.01       5.3  T
  37   -180.4185897 -0.851938E-08  0.166E-03    0.01       6.4  T
  38   -180.4185898 -0.148556E-06  0.535E-04    0.01      19.7  T
  39   -180.4185898 -0.111197E-08  0.393E-04    0.01      26.8  T
     SCC iter.                  ...        0 min,  0.921 sec
     gradient                   ...        0 min,  0.050 sec
 * total energy  :  -178.6920811 Eh     change       -0.1418676E-01 Eh
   gradient norm :     0.0563993 Eh/α   predicted    -0.1632978E-01 (  15.11%)
   displ. norm   :     0.5962646 α      lambda       -0.1983780E-01
   maximum displ.:     0.1794788 α      in ANC's #13, #125, #59, ...

........................................................................
.............................. CYCLE   48 ..............................
........................................................................

 iter      E             dE          RMSdq      gap      omega  full diag
   1   -180.2172434 -0.180217E+03  0.187E+00    0.06       0.0  T
   2   -174.0314773  0.618577E+01  0.109E+01    0.10       1.0  T
   3   -180.1298783 -0.609840E+01  0.193E+00    0.03       1.0  T
   4   -180.0961178  0.337606E-01  0.227E+00    0.01       1.0  T
   5   -180.0594474  0.366703E-01  0.195E+00    0.21       1.0  T
   6   -180.2164429 -0.156995E+00  0.250E+00    0.02       1.0  T
   7   -180.2281640 -0.117211E-01  0.226E+00    0.02       1.0  T
   8   -180.2318892 -0.372520E-02  0.214E+00    0.02       1.0  T
   9   -180.4089726 -0.177083E+00  0.451E-01    0.02       1.0  T
  10   -180.3837518  0.252208E-01  0.814E-01    0.03       1.0  T
  11   -180.3446841  0.390677E-01  0.872E-01    0.07       1.0  T
  12   -180.4094078 -0.647238E-01  0.425E-01    0.01       1.0  T
  13   -180.3823534  0.270545E-01  0.880E-01    0.00       1.0  T
  14   -180.4160599 -0.337065E-01  0.234E-01    0.01       1.0  T
  15   -180.4158384  0.221436E-03  0.164E-01    0.02       1.0  T
  16   -180.4026034  0.132350E-01  0.497E-01    0.01       1.0  T
  17   -180.4179762 -0.153728E-01  0.929E-02    0.01       1.0  T
  18   -180.4166177  0.135847E-02  0.183E-01    0.01       1.0  T
  19   -180.4184218 -0.180404E-02  0.220E-02    0.01       1.0  T
  20   -180.4181537  0.268074E-03  0.623E-02    0.01       1.0  T
  21   -180.4184355 -0.281777E-03  0.127E-02    0.01       1.0  T
  22   -180.4184200  0.154501E-04  0.200E-02    0.01       1.0  T
  23   -180.4184069  0.131195E-04  0.242E-02    0.01       1.0  T
  24   -180.4184294 -0.224926E-04  0.166E-02    0.01       1.0  T
  25   -180.4184375 -0.809671E-05  0.100E-02    0.01       1.1  T
  26   -180.4184447 -0.718298E-05  0.318E-03    0.01       3.3  T
  27   -180.4184419  0.274781E-05  0.681E-03    0.01       1.5  T
  28   -180.4184383  0.366518E-05  0.100E-02    0.01       1.1  T
  29   -180.4184438 -0.547421E-05  0.476E-03    0.01       2.2  T
  30   -180.4184451 -0.132279E-05  0.152E-03    0.01       6.9  T
  31   -180.4184453 -0.176659E-06  0.278E-04    0.01      37.9  T
  32   -180.4184452  0.452339E-07  0.861E-04    0.01      12.2  T
     SCC iter.                  ...        0 min,  0.686 sec
     gradient                   ...        0 min,  0.048 sec
 * total energy  :  -178.6958529 Eh     change       -0.3771789E-02 Eh
   gradient norm :     0.0404471 Eh/α   predicted    -0.1344535E-01 ( 256.47%)
   displ. norm   :     0.3978689 α      lambda       -0.7090272E-02
   maximum displ.:     0.1892855 α      in ANC's #8, #10, #17, ...

........................................................................
.............................. CYCLE   49 ..............................
........................................................................

 iter      E             dE          RMSdq      gap      omega  full diag
   1   -180.2783305 -0.180278E+03  0.144E+00    0.02       0.0  T
   2   -179.8740081  0.404322E+00  0.339E+00    0.04       1.0  T
   3   -180.0816046 -0.207597E+00  0.244E+00    0.01       1.0  T
   4   -180.0723213  0.928334E-02  0.205E+00    0.24       1.0  T
   5   -179.9956259  0.766954E-01  0.280E+00    0.02       1.0  T
   6   -180.2148600 -0.219234E+00  0.165E+00    0.09       1.0  T
   7   -180.2190297 -0.416974E-02  0.152E+00    0.08       1.0  T
   8   -180.2507389 -0.317091E-01  0.163E+00    0.02       1.0  T
   9   -180.2444493  0.628952E-02  0.170E+00    0.02       1.0  T
  10   -180.2571210 -0.126717E-01  0.154E+00    0.02       1.0  T
  11   -180.3879411 -0.130820E+00  0.769E-01    0.02       1.0  T
  12   -180.4140092 -0.260681E-01  0.425E-01    0.01       1.0  T
  13   -180.4259779 -0.119687E-01  0.978E-02    0.01       1.0  T
  14   -180.4047593  0.212185E-01  0.534E-01    0.03       1.0  T
  15   -180.4266142 -0.218549E-01  0.508E-02    0.01       1.0  T
  16   -180.4260033  0.610852E-03  0.103E-01    0.01       1.0  T
  17   -180.4264888 -0.485513E-03  0.660E-02    0.01       1.0  T
  18   -180.4265987 -0.109890E-03  0.440E-02    0.01       1.0  T
  19   -180.4267093 -0.110597E-03  0.209E-02    0.01       1.0  T
  20   -180.4264041  0.305195E-03  0.677E-02    0.01       1.0  T
  21   -180.4267011 -0.296972E-03  0.244E-02    0.01       1.0  T
  22   -180.4267248 -0.236894E-04  0.157E-02    0.01       1.0  T
  23   -180.4267355 -0.107423E-04  0.103E-02    0.01       1.0  T
  24   -180.4267351  0.446371E-06  0.106E-02    0.01       1.0  T
  25   -180.4267423 -0.718827E-05  0.460E-03    0.01       2.3  T
  26   -180.4267438 -0.152216E-05  0.215E-04    0.01      49.0  T
  27   -180.4267436  0.146049E-06  0.147E-03    0.01       7.2  T
  28   -180.4267438 -0.137119E-06  0.405E-04    0.01      26.0  T
  29   -180.4267437  0.269096E-07  0.699E-04    0.01      15.1  T
     SCC iter.                  ...        0 min,  0.627 sec
     gradient                   ...        0 min,  0.045 sec
 * total energy  :  -178.7010689 Eh     change       -0.5215943E-02 Eh
   gradient norm :     0.0282477 Eh/α   predicted    -0.4106334E-02 ( -21.27%)
   displ. norm   :     0.5337865 α      lambda       -0.6029828E-02
   maximum displ.:     0.2801851 α      in ANC's #8, #10, #12, ...

........................................................................
.............................. CYCLE   50 ..............................
........................................................................

 iter      E             dE          RMSdq      gap      omega  full diag
   1   -180.2885149 -0.180289E+03  0.138E+00    0.03       0.0  T
   2   -179.7947793  0.493736E+00  0.353E+00    0.02       1.0  T
   3   -180.0016330 -0.206854E+00  0.233E+00    0.24       1.0  T
   4   -179.9436107  0.580223E-01  0.299E+00    0.02       1.0  T
   5   -180.1246761 -0.181065E+00  0.222E+00    0.16       1.0  T
   6   -180.1492963 -0.246202E-01  0.168E+00    0.16       1.0  T
   7   -180.2184355 -0.691392E-01  0.154E+00    0.08       1.0  T
   8   -180.2710618 -0.526263E-01  0.135E+00    0.05       1.0  T
   9   -180.2608338  0.102280E-01  0.164E+00    0.02       1.0  T
  10   -180.2814322 -0.205984E-01  0.142E+00    0.02       1.0  T
  11   -180.3196814 -0.382492E-01  0.124E+00    0.02       1.0  T
  12   -180.3926836 -0.730022E-01  0.751E-01    0.02       1.0  T
  13   -180.3880085  0.467513E-02  0.784E-01    0.02       1.0  T
  14   -180.3878667  0.141837E-03  0.732E-01    0.04       1.0  T
  15   -180.4340173 -0.461507E-01  0.112E-01    0.00       1.0  T
  16   -180.4332357  0.781603E-03  0.158E-01    0.01       1.0  T
  17   -180.4341689 -0.933178E-03  0.950E-02    0.01       1.0  T
  18   -180.4346345 -0.465636E-03  0.498E-02    0.01       1.0  T
  19   -180.4343179  0.316631E-03  0.780E-02    0.00       1.0  T
  20   -180.4338501  0.467840E-03  0.109E-01    0.00       1.0  T
  21   -180.4343850 -0.534945E-03  0.739E-02    0.00       1.0  T
  22   -180.4347667 -0.381669E-03  0.265E-02    0.01       1.0  T
  23   -180.4347948 -0.281217E-04  0.179E-02    0.01       1.0  T
  24   -180.4348134 -0.186343E-04  0.966E-03    0.01       1.1  T
  25   -180.4348212 -0.777274E-05  0.130E-03    0.01       8.1  T
  26   -180.4348166  0.463612E-05  0.777E-03    0.01       1.4  T
  27   -180.4348204 -0.386112E-05  0.333E-03    0.01       3.2  T
  28   -180.4348212 -0.711213E-06  0.173E-03    0.01       6.1  T
  29   -180.4348210  0.199856E-06  0.233E-03    0.01       4.5  T
  30   -180.4348213 -0.361525E-06  0.820E-04    0.01      12.9  T
  31   -180.4348214 -0.460024E-07  0.275E-04    0.01      38.3  T
     SCC iter.                  ...        0 min,  0.659 sec
     gradient                   ...        0 min,  0.046 sec
 * total energy  :  -178.7058745 Eh     change       -0.4805604E-02 Eh
   gradient norm :     0.0232375 Eh/α   predicted    -0.3873947E-02 ( -19.39%)
   displ. norm   :     0.6890587 α      lambda       -0.5872396E-02
   maximum displ.:     0.3637596 α      in ANC's #8, #10, #12, ...

........................................................................
.............................. CYCLE   51 ..............................
........................................................................

 iter      E             dE          RMSdq      gap      omega  full diag
   1   -180.3707841 -0.180371E+03  0.108E+00    0.03       0.0  T
   2   -179.8014780  0.569306E+00  0.348E+00    0.02       1.0  T
   3   -179.9862396 -0.184762E+00  0.266E+00    0.20       1.0  T
   4   -180.2171094 -0.230870E+00  0.161E+00    0.04       1.0  T
   5   -180.1247613  0.923481E-01  0.236E+00    0.02       1.0  T
   6   -180.4027570 -0.277996E+00  0.775E-01    0.01       1.0  T
   7   -180.3774094  0.253476E-01  0.915E-01    0.06       1.0  T
   8   -180.4208285 -0.434190E-01  0.537E-01    0.02       1.0  T
   9   -180.3988199  0.220085E-01  0.701E-01    0.02       1.0  T
  10   -180.3819090  0.169109E-01  0.829E-01    0.04       1.0  T
  11   -180.4364554 -0.545464E-01  0.219E-01    0.00       1.0  T
  12   -180.4132932  0.231621E-01  0.560E-01    0.02       1.0  T
  13   -180.4381230 -0.248297E-01  0.135E-01    0.01       1.0  T
  14   -180.4388503 -0.727341E-03  0.674E-02    0.01       1.0  T
  15   -180.4388563 -0.605446E-05  0.744E-02    0.01       1.0  T
  16   -180.4392881 -0.431797E-03  0.174E-02    0.01       1.0  T
  17   -180.4392843  0.380786E-05  0.179E-02    0.00       1.0  T
  18   -180.4393042 -0.198257E-04  0.741E-03    0.01       1.4  T
  19   -180.4392545  0.496789E-04  0.246E-02    0.00       1.0  T
  20   -180.4390963  0.158150E-03  0.521E-02    0.00       1.0  T
  21   -180.4392504 -0.154100E-03  0.268E-02    0.00       1.0  T
  22   -180.4393062 -0.557806E-04  0.415E-03    0.01       2.5  T
  23   -180.4393071 -0.936284E-06  0.192E-03    0.01       5.5  T
  24   -180.4393056  0.153639E-05  0.510E-03    0.01       2.1  T
  25   -180.4393074 -0.180986E-05  0.104E-03    0.01      10.1  T
  26   -180.4393074 -0.163524E-07  0.872E-04    0.01      12.1  T
  27   -180.4393070  0.407946E-06  0.246E-03    0.01       4.3  T
  28   -180.4393074 -0.364930E-06  0.112E-03    0.01       9.4  T
  29   -180.4393075 -0.755432E-07  0.618E-04    0.01      17.1  T
     SCC iter.                  ...        0 min,  0.598 sec
     gradient                   ...        0 min,  0.047 sec
 * total energy  :  -178.7108665 Eh     change       -0.4992013E-02 Eh
   gradient norm :     0.0242345 Eh/α   predicted    -0.4330309E-02 ( -13.26%)
   displ. norm   :     0.7398542 α      lambda       -0.6285024E-02
   maximum displ.:     0.3764830 α      in ANC's #8, #10, #12, ...

........................................................................
.............................. CYCLE   52 ..............................
........................................................................

 iter      E             dE          RMSdq      gap      omega  full diag
   1   -180.4253116 -0.180425E+03  0.763E-01    0.02       0.0  T
   2   -178.6113447  0.181397E+01  0.625E+00    0.28       1.0  T
   3   -180.2565249 -0.164518E+01  0.151E+00    0.02       1.0  T
   4   -180.0263610  0.230164E+00  0.276E+00    0.19       1.0  T
   5   -180.2196168 -0.193256E+00  0.158E+00    0.04       1.0  T
   6   -180.4285913 -0.208975E+00  0.470E-01    0.01       1.0  T
   7   -180.4412666 -0.126753E-01  0.163E-01    0.00       1.0  T
   8   -180.4065089  0.347577E-01  0.647E-01    0.02       1.0  T
   9   -180.4403349 -0.338260E-01  0.186E-01    0.01       1.0  T
  10   -180.4361153  0.421961E-02  0.256E-01    0.02       1.0  T
  11   -180.4362749 -0.159625E-03  0.274E-01    0.01       1.0  T
  12   -180.4423266 -0.605171E-02  0.354E-02    0.00       1.0  T
  13   -180.4421389  0.187756E-03  0.608E-02    0.00       1.0  T
  14   -180.4412050  0.933912E-03  0.123E-01    0.00       1.0  T
  15   -180.4421073 -0.902348E-03  0.545E-02    0.01       1.0  T
  16   -180.4416854  0.421915E-03  0.879E-02    0.00       1.0  T
  17   -180.4423653 -0.679911E-03  0.126E-02    0.00       1.0  T
  18   -180.4423078  0.574995E-04  0.282E-02    0.01       1.0  T
  19   -180.4423546 -0.467871E-04  0.162E-02    0.00       1.0  T
  20   -180.4423680 -0.134016E-04  0.100E-02    0.00       1.0  T
  21   -180.4423639  0.409962E-05  0.129E-02    0.00       1.0  T
  22   -180.4423762 -0.122717E-04  0.366E-03    0.00       2.9  T
  23   -180.4423766 -0.406385E-06  0.264E-03    0.00       4.0  T
  24   -180.4423766 -0.532106E-07  0.229E-03    0.00       4.6  T
  25   -180.4423768 -0.146052E-06  0.191E-03    0.00       5.5  T
  26   -180.4423771 -0.268301E-06  0.639E-04    0.00      16.5  T
  27   -180.4423770  0.569790E-07  0.104E-03    0.00      10.2  T
  28   -180.4423771 -0.881530E-07  0.258E-04    0.00      40.8  T
     SCC iter.                  ...        0 min,  0.569 sec
     gradient                   ...        0 min,  0.047 sec
 * total energy  :  -178.7166192 Eh     change       -0.5752767E-02 Eh
   gradient norm :     0.0273372 Eh/α   predicted    -0.4862666E-02 ( -15.47%)
   displ. norm   :     0.7976940 α      lambda       -0.8819361E-02
   maximum displ.:     0.3784366 α      in ANC's #8, #10, #2, ...

........................................................................
.............................. CYCLE   53 ..............................
........................................................................

 iter      E             dE          RMSdq      gap      omega  full diag
   1   -180.3193162 -0.180319E+03  0.127E+00    0.08       0.0  T
   2   -173.4000587  0.691926E+01  0.104E+01    0.43       1.0  T
   3   -179.8597760 -0.645972E+01  0.310E+00    0.01       1.0  T
   4   -180.3513396 -0.491564E+00  0.145E+00    0.03       1.0  T
   5   -180.3549957 -0.365610E-02  0.996E-01    0.06       1.0  T
   6   -180.4000923 -0.450966E-01  0.980E-01    0.02       1.0  T
   7   -180.3910072  0.908508E-02  0.966E-01    0.02       1.0  T
   8   -180.3589327  0.320745E-01  0.121E+00    0.01       1.0  T
   9   -180.4226780 -0.637453E-01  0.617E-01    0.01       1.0  T
  10   -180.4407814 -0.181034E-01  0.169E-01    0.01       1.0  T
  11   -180.4374653  0.331608E-02  0.337E-01    0.01       1.0  T
  12   -180.4418387 -0.437340E-02  0.191E-01    0.00       1.0  T
  13   -180.4354538  0.638492E-02  0.328E-01    0.01       1.0  T
  14   -180.4420327 -0.657890E-02  0.169E-01    0.00       1.0  T
  15   -180.4434535 -0.142082E-02  0.758E-02    0.00       1.0  T
  16   -180.4437005 -0.246959E-03  0.420E-02    0.00       1.0  T
  17   -180.4437737 -0.732218E-04  0.262E-02    0.01       1.0  T
  18   -180.4437462  0.274387E-04  0.356E-02    0.01       1.0  T
  19   -180.4437766 -0.303103E-04  0.255E-02    0.01       1.0  T
  20   -180.4438058 -0.292528E-04  0.168E-02    0.01       1.0  T
  21   -180.4438218 -0.159710E-04  0.676E-03    0.01       1.6  T
  22   -180.4438240 -0.226439E-05  0.345E-03    0.01       3.1  T
  23   -180.4438231  0.934798E-06  0.489E-03    0.01       2.2  T
  24   -180.4438242 -0.113424E-05  0.272E-03    0.01       3.9  T
  25   -180.4438247 -0.436628E-06  0.151E-03    0.01       7.0  T
  26   -180.4438248 -0.832265E-07  0.992E-04    0.01      10.6  T
  27   -180.4438248 -0.586816E-07  0.280E-04    0.01      37.7  T
     SCC iter.                  ...        0 min,  0.543 sec
     gradient                   ...        0 min,  0.045 sec
 * total energy  :  -178.7235520 Eh     change       -0.6932765E-02 Eh
   gradient norm :     0.0271944 Eh/α   predicted    -0.7215611E-02 (   4.08%)
   displ. norm   :     0.8277318 α      lambda       -0.7630336E-02
   maximum displ.:     0.4221147 α      in ANC's #8, #10, #12, ...

........................................................................
.............................. CYCLE   54 ..............................
........................................................................

 iter      E             dE          RMSdq      gap      omega  full diag
   1   -180.2510282 -0.180251E+03  0.141E+00    0.11       0.0  T
   2   -172.9042496  0.734678E+01  0.106E+01    0.22       1.0  T
   3   -178.6540308 -0.574978E+01  0.626E+00    0.19       1.0  T
   4   -180.1929073 -0.153888E+01  0.206E+00    0.03       1.0  T
   5   -180.3763129 -0.183406E+00  0.103E+00    0.02       1.0  T
   6   -180.4215049 -0.451920E-01  0.556E-01    0.01       1.0  T
   7   -180.2464466  0.175058E+00  0.128E+00    0.10       1.0  T
   8   -180.3719913 -0.125545E+00  0.105E+00    0.02       1.0  T
   9   -180.4054394 -0.334480E-01  0.785E-01    0.02       1.0  T
  10   -180.4336869 -0.282476E-01  0.294E-01    0.02       1.0  T
  11   -180.4410830 -0.739611E-02  0.219E-01    0.00       1.0  T
  12   -180.4376587  0.342435E-02  0.302E-01    0.01       1.0  T
  13   -180.4426178 -0.495907E-02  0.130E-01    0.01       1.0  T
  14   -180.4433459 -0.728109E-03  0.595E-02    0.00       1.0  T
  15   -180.4433833 -0.374792E-04  0.481E-02    0.01       1.0  T
  16   -180.4434056 -0.222111E-04  0.481E-02    0.01       1.0  T
  17   -180.4434150 -0.946369E-05  0.468E-02    0.01       1.0  T
  18   -180.4434172 -0.218035E-05  0.425E-02    0.01       1.0  T
  19   -180.4434972 -0.799617E-04  0.265E-02    0.01       1.0  T
  20   -180.4435225 -0.253512E-04  0.185E-02    0.01       1.0  T
  21   -180.4435406 -0.180885E-04  0.101E-02    0.01       1.0  T
  22   -180.4435466 -0.596599E-05  0.580E-03    0.01       1.8  T
  23   -180.4435466 -0.844261E-07  0.571E-03    0.01       1.8  T
  24   -180.4435480 -0.136290E-05  0.347E-03    0.01       3.0  T
  25   -180.4435489 -0.887301E-06  0.135E-03    0.01       7.8  T
  26   -180.4435489 -0.432359E-07  0.111E-03    0.01       9.5  T
  27   -180.4435490 -0.852658E-07  0.399E-04    0.01      26.4  T
  28   -180.4435490 -0.178537E-08  0.323E-04    0.01      32.7  T
     SCC iter.                  ...        0 min,  0.580 sec
     gradient                   ...        0 min,  0.048 sec
 * total energy  :  -178.7309277 Eh     change       -0.7375720E-02 Eh
   gradient norm :     0.0302516 Eh/α   predicted    -0.6429085E-02 ( -12.83%)
   displ. norm   :     0.8201312 α      lambda       -0.1137306E-01
   maximum displ.:     0.3453162 α      in ANC's #8, #10, #12, ...

........................................................................
.............................. CYCLE   55 ..............................
........................................................................

 iter      E             dE          RMSdq      gap      omega  full diag
   1   -180.1563836 -0.180156E+03  0.169E+00    0.20       0.0  T
   2   -167.2641791  0.128922E+02  0.121E+01    0.05       1.0  T
   3   -180.1800423 -0.129159E+02  0.216E+00    0.03       1.0  T
   4   -178.8119951  0.136805E+01  0.581E+00    0.10       1.0  T
   5   -180.3805859 -0.156859E+01  0.104E+00    0.02       1.0  T
   6   -180.1568257  0.223760E+00  0.213E+00    0.01       1.0  T
   7   -180.3137959 -0.156970E+00  0.109E+00    0.09       1.0  T
   8   -180.4256167 -0.111821E+00  0.598E-01    0.01       1.0  T
   9   -180.3969382  0.286785E-01  0.836E-01    0.02       1.0  T
  10   -180.4412939 -0.443557E-01  0.315E-01    0.01       1.0  T
  11   -180.4258826  0.154114E-01  0.449E-01    0.04       1.0  T
  12   -180.4454464 -0.195639E-01  0.147E-01    0.00       1.0  T
  13   -180.4455257 -0.792814E-04  0.147E-01    0.00       1.0  T
  14   -180.4467970 -0.127126E-02  0.677E-02    0.01       1.0  T
  15   -180.4460381  0.758886E-03  0.112E-01    0.01       1.0  T
  16   -180.4466476 -0.609529E-03  0.693E-02    0.01       1.0  T
  17   -180.4468655 -0.217930E-03  0.611E-02    0.01       1.0  T
  18   -180.4469736 -0.108105E-03  0.419E-02    0.01       1.0  T
  19   -180.4469981 -0.244663E-04  0.372E-02    0.01       1.0  T
  20   -180.4469782  0.198647E-04  0.382E-02    0.01       1.0  T
  21   -180.4470535 -0.752200E-04  0.223E-02    0.01       1.0  T
  22   -180.4470955 -0.420239E-04  0.711E-03    0.01       1.5  T
  23   -180.4470961 -0.630446E-06  0.652E-03    0.01       1.6  T
  24   -180.4470985 -0.242611E-05  0.244E-03    0.01       4.3  T
  25   -180.4470962  0.238334E-05  0.567E-03    0.01       1.9  T
  26   -180.4470982 -0.207803E-05  0.288E-03    0.01       3.7  T
  27   -180.4470989 -0.634911E-06  0.952E-04    0.01      11.1  T
  28   -180.4470989 -0.534660E-07  0.242E-04    0.01      43.6  T
     SCC iter.                  ...        0 min,  0.555 sec
     gradient                   ...        0 min,  0.046 sec
 * total energy  :  -178.7400859 Eh     change       -0.9158174E-02 Eh
   gradient norm :     0.0360222 Eh/α   predicted    -0.9511352E-02 (   3.86%)
   displ. norm   :     0.8070895 α      lambda       -0.8644660E-02
   maximum displ.:     0.4154250 α      in ANC's #8, #10, #12, ...

........................................................................
.............................. CYCLE   56 ..............................
........................................................................

 iter      E             dE          RMSdq      gap      omega  full diag
   1   -180.2433983 -0.180243E+03  0.139E+00    0.13       0.0  T
   2   -172.3829425  0.786046E+01  0.107E+01    0.15       1.0  T
   3   -178.5273190 -0.614438E+01  0.640E+00    0.30       1.0  T
   4   -180.1491072 -0.162179E+01  0.213E+00    0.02       1.0  T
   5   -180.2616061 -0.112499E+00  0.158E+00    0.02       1.0  T
   6   -180.2574767  0.412939E-02  0.144E+00    0.02       1.0  T
   7   -180.2112654  0.462113E-01  0.187E+00    0.01       1.0  T
   8   -180.3590345 -0.147769E+00  0.887E-01    0.07       1.0  T
   9   -180.4355952 -0.765607E-01  0.372E-01    0.03       1.0  T
  10   -180.4398406 -0.424534E-02  0.273E-01    0.02       1.0  T
  11   -180.4236402  0.162003E-01  0.561E-01    0.03       1.0  T
  12   -180.4398091 -0.161689E-01  0.273E-01    0.00       1.0  T
  13   -180.4451293 -0.532021E-02  0.116E-01    0.01       1.0  T
  14   -180.4444778  0.651549E-03  0.133E-01    0.02       1.0  T
  15   -180.4461063 -0.162848E-02  0.588E-02    0.01       1.0  T
  16   -180.4463513 -0.245032E-03  0.150E-02    0.01       1.0  T
  17   -180.4460073  0.344034E-03  0.615E-02    0.02       1.0  T
  18   -180.4461932 -0.185966E-03  0.449E-02    0.02       1.0  T
  19   -180.4462926 -0.994137E-04  0.286E-02    0.02       1.0  T
  20   -180.4463094 -0.167850E-04  0.241E-02    0.01       1.0  T
  21   -180.4463586 -0.491745E-04  0.909E-03    0.01       1.2  T
  22   -180.4463639 -0.527507E-05  0.710E-03    0.01       1.5  T
  23   -180.4463660 -0.210944E-05  0.402E-03    0.01       2.6  T
  24   -180.4463657  0.292174E-06  0.431E-03    0.01       2.4  T
  25   -180.4463672 -0.149850E-05  0.162E-03    0.01       6.5  T
  26   -180.4463674 -0.224529E-06  0.169E-04    0.01      62.3  T
  27   -180.4463674  0.103311E-07  0.386E-04    0.01      27.3  T
     SCC iter.                  ...        0 min,  0.545 sec
     gradient                   ...        0 min,  0.045 sec
 * total energy  :  -178.7465693 Eh     change       -0.6483452E-02 Eh
   gradient norm :     0.0418621 Eh/α   predicted    -0.7137873E-02 (  10.09%)
   displ. norm   :     0.5554781 α      lambda       -0.9665921E-02
   maximum displ.:     0.1583152 α      in ANC's #8, #59, #73, ...

........................................................................
.............................. CYCLE   57 ..............................
........................................................................

 iter      E             dE          RMSdq      gap      omega  full diag
   1   -180.4309061 -0.180431E+03  0.987E-01    0.00       0.0  T
   2   -178.6035698  0.182734E+01  0.629E+00    0.19       1.0  T
   3   -180.0965684 -0.149300E+01  0.181E+00    0.60       1.0  T
   4   -180.2378908 -0.141322E+00  0.150E+00    0.03       1.0  T
   5   -180.1641481  0.737428E-01  0.164E+00    0.28       1.0  T
   6   -180.1804992 -0.163511E-01  0.156E+00    0.24       1.0  T
   7   -180.3977717 -0.217272E+00  0.766E-01    0.05       1.0  T
   8   -180.4402269 -0.424552E-01  0.439E-01    0.04       1.0  T
   9   -180.3864538  0.537731E-01  0.903E-01    0.02       1.0  T
  10   -180.4314906 -0.450369E-01  0.496E-01    0.05       1.0  T
  11   -180.3970166  0.344741E-01  0.754E-01    0.06       1.0  T
  12   -180.4564518 -0.594353E-01  0.158E-01    0.02       1.0  T
  13   -180.3809884  0.754635E-01  0.896E-01    0.02       1.0  T
  14   -180.4450558 -0.640674E-01  0.349E-01    0.01       1.0  T
  15   -180.4492890 -0.423324E-02  0.286E-01    0.00       1.0  T
  16   -180.4431816  0.610742E-02  0.383E-01    0.03       1.0  T
  17   -180.4553594 -0.121778E-01  0.156E-01    0.02       1.0  T
  18   -180.4580638 -0.270440E-02  0.119E-02    0.01       1.0  T
  19   -180.4578189  0.244877E-03  0.491E-02    0.02       1.0  T
  20   -180.4580512 -0.232281E-03  0.158E-02    0.01       1.0  T
  21   -180.4579821  0.691059E-04  0.331E-02    0.01       1.0  T
  22   -180.4580396 -0.575377E-04  0.203E-02    0.01       1.0  T
  23   -180.4580737 -0.341315E-04  0.473E-03    0.01       2.2  T
  24   -180.4580720  0.172507E-05  0.660E-03    0.01       1.6  T
  25   -180.4580686  0.344789E-05  0.828E-03    0.01       1.3  T
  26   -180.4580750 -0.643155E-05  0.327E-03    0.01       3.2  T
  27   -180.4580761 -0.111310E-05  0.565E-04    0.01      18.7  T
  28   -180.4580760  0.108965E-06  0.112E-03    0.01       9.4  T
  29   -180.4580761 -0.797516E-07  0.689E-04    0.01      15.3  T
  30   -180.4580760  0.106948E-06  0.123E-03    0.01       8.5  T
  31   -180.4580761 -0.144970E-06  0.351E-04    0.01      30.0  T
     SCC iter.                  ...        0 min,  0.609 sec
     gradient                   ...        0 min,  0.047 sec
 * total energy  :  -178.7517190 Eh     change       -0.5149663E-02 Eh
   gradient norm :     0.0371325 Eh/α   predicted    -0.6324205E-02 (  22.81%)
   displ. norm   :     0.6902087 α      lambda       -0.7356739E-02
   maximum displ.:     0.3998625 α      in ANC's #8, #10, #12, ...

........................................................................
.............................. CYCLE   58 ..............................
........................................................................

 iter      E             dE          RMSdq      gap      omega  full diag
   1   -180.4361733 -0.180436E+03  0.811E-01    0.01       0.0  T
   2   -179.0410541  0.139512E+01  0.545E+00    0.06       1.0  T
   3   -180.1037537 -0.106270E+01  0.179E+00    0.62       1.0  T
   4   -180.3797120 -0.275958E+00  0.944E-01    0.01       1.0  T
   5   -180.3599881  0.197240E-01  0.989E-01    0.05       1.0  T
   6   -180.4342592 -0.742712E-01  0.590E-01    0.05       1.0  T
   7   -180.3206615  0.113598E+00  0.127E+00    0.02       1.0  T
   8   -180.2953567  0.253048E-01  0.126E+00    0.10       1.0  T
   9   -180.3357864 -0.404297E-01  0.111E+00    0.08       1.0  T
  10   -180.4440416 -0.108255E+00  0.461E-01    0.04       1.0  T
  11   -180.4275207  0.165209E-01  0.663E-01    0.02       1.0  T
  12   -180.4668455 -0.393248E-01  0.129E-01    0.01       1.0  T
  13   -180.4359754  0.308701E-01  0.567E-01    0.05       1.0  T
  14   -180.4556045 -0.196291E-01  0.351E-01    0.03       1.0  T
  15   -180.4674072 -0.118027E-01  0.725E-02    0.02       1.0  T
  16   -180.4669757  0.431480E-03  0.103E-01    0.01       1.0  T
  17   -180.4679108 -0.935163E-03  0.228E-02    0.01       1.0  T
  18   -180.4677845  0.126350E-03  0.419E-02    0.02       1.0  T
  19   -180.4679582 -0.173664E-03  0.714E-03    0.01       1.5  T
  20   -180.4679169  0.412960E-04  0.208E-02    0.01       1.0  T
  21   -180.4679582 -0.413218E-04  0.634E-03    0.01       1.7  T
  22   -180.4679574  0.825418E-06  0.637E-03    0.01       1.7  T
  23   -180.4679614 -0.400516E-05  0.135E-03    0.01       7.8  T
  24   -180.4679542  0.713392E-05  0.883E-03    0.01       1.2  T
  25   -180.4679591 -0.491442E-05  0.496E-03    0.01       2.1  T
  26   -180.4679615 -0.231298E-05  0.688E-04    0.01      15.3  T
  27   -180.4679612  0.218510E-06  0.163E-03    0.01       6.5  T
  28   -180.4679615 -0.219775E-06  0.557E-04    0.01      18.9  T
  29   -180.4679615 -0.915227E-08  0.496E-04    0.01      21.2  T
     SCC iter.                  ...        0 min,  0.598 sec
     gradient                   ...        0 min,  0.046 sec
 * total energy  :  -178.7571580 Eh     change       -0.5438961E-02 Eh
   gradient norm :     0.0317097 Eh/α   predicted    -0.5430695E-02 (  -0.15%)
   displ. norm   :     0.6010735 α      lambda       -0.7562888E-02
   maximum displ.:     0.2997673 α      in ANC's #8, #10, #37, ...

........................................................................
.............................. CYCLE   59 ..............................
........................................................................

 iter      E             dE          RMSdq      gap      omega  full diag
   1   -180.4235942 -0.180424E+03  0.939E-01    0.02       0.0  T
   2   -179.8071991  0.616395E+00  0.349E+00    0.02       1.0  T
   3   -180.1101578 -0.302959E+00  0.186E+00    0.76       1.0  T
   4   -180.2650540 -0.154896E+00  0.165E+00    0.04       1.0  T
   5   -180.3187696 -0.537155E-01  0.125E+00    0.12       1.0  T
   6   -180.4781302 -0.159361E+00  0.314E-01    0.00       1.0  T
   7   -180.3977063  0.804239E-01  0.971E-01    0.02       1.0  T
   8   -180.4285723 -0.308660E-01  0.773E-01    0.06       1.0  T
   9   -180.4138464  0.147259E-01  0.894E-01    0.02       1.0  T
  10   -180.4749381 -0.610917E-01  0.352E-01    0.04       1.0  T
  11   -180.4843705 -0.943240E-02  0.204E-01    0.00       1.0  T
  12   -180.4825723  0.179822E-02  0.252E-01    0.03       1.0  T
  13   -180.4809081  0.166415E-02  0.270E-01    0.03       1.0  T
  14   -180.4874227 -0.651457E-02  0.990E-02    0.02       1.0  T
  15   -180.4841811  0.324163E-02  0.202E-01    0.00       1.0  T
  16   -180.4882804 -0.409935E-02  0.149E-02    0.01       1.0  T
  17   -180.4879090  0.371456E-03  0.609E-02    0.02       1.0  T
  18   -180.4881721 -0.263142E-03  0.393E-02    0.02       1.0  T
  19   -180.4882682 -0.960729E-04  0.168E-02    0.01       1.0  T
  20   -180.4881941  0.741291E-04  0.334E-02    0.01       1.0  T
  21   -180.4882632 -0.691890E-04  0.192E-02    0.01       1.0  T
  22   -180.4882937 -0.304222E-04  0.478E-03    0.01       2.2  T
  23   -180.4882813  0.124147E-04  0.126E-02    0.01       1.0  T
  24   -180.4882936 -0.123567E-04  0.507E-03    0.01       2.1  T
  25   -180.4882961 -0.248363E-05  0.464E-04    0.01      22.7  T
  26   -180.4882961  0.103299E-08  0.442E-04    0.01      23.9  T
  27   -180.4882960  0.130426E-06  0.124E-03    0.01       8.5  T
  28   -180.4882959  0.237440E-07  0.132E-03    0.01       8.0  T
  29   -180.4882961 -0.172314E-06  0.715E-05    0.01     147.5  T
     SCC iter.                  ...        0 min,  0.601 sec
     gradient                   ...        0 min,  0.046 sec
 * total energy  :  -178.7630345 Eh     change       -0.5876549E-02 Eh
   gradient norm :     0.0312733 Eh/α   predicted    -0.5147649E-02 ( -12.40%)
   displ. norm   :     0.7367026 α      lambda       -0.7750163E-02
   maximum displ.:     0.3841685 α      in ANC's #8, #10, #12, ...

........................................................................
.............................. CYCLE   60 ..............................
........................................................................

 iter      E             dE          RMSdq      gap      omega  full diag
   1   -180.2993164 -0.180299E+03  0.142E+00    0.15       0.0  T
   2   -173.1346001  0.716472E+01  0.106E+01    0.06       1.0  T
   3   -178.5590219 -0.542442E+01  0.633E+00    0.27       1.0  T
   4   -180.2335948 -0.167457E+01  0.204E+00    0.03       1.0  T
   5   -180.1537542  0.798405E-01  0.199E+00    0.03       1.0  T
   6   -180.3727496 -0.218995E+00  0.131E+00    0.03       1.0  T
   7   -180.4055652 -0.328155E-01  0.931E-01    0.08       1.0  T
   8   -180.4783988 -0.728336E-01  0.568E-01    0.00       1.0  T
   9   -180.4868988 -0.850007E-02  0.439E-01    0.00       1.0  T
  10   -180.4984429 -0.115440E-01  0.180E-01    0.02       1.0  T
  11   -180.4989377 -0.494889E-03  0.146E-01    0.01       1.0  T
  12   -180.5003057 -0.136798E-02  0.523E-02    0.02       1.0  T
  13   -180.5003401 -0.344122E-04  0.425E-02    0.02       1.0  T
  14   -180.4999828  0.357344E-03  0.777E-02    0.02       1.0  T
  15   -180.5002491 -0.266352E-03  0.514E-02    0.02       1.0  T
  16   -180.5003581 -0.108928E-03  0.406E-02    0.02       1.0  T
  17   -180.5004575 -0.994660E-04  0.130E-02    0.02       1.0  T
  18   -180.5004668 -0.929736E-05  0.571E-03    0.02       1.8  T
  19   -180.5004596  0.728264E-05  0.104E-02    0.02       1.0  T
  20   -180.5004596 -0.621299E-08  0.106E-02    0.02       1.0  T
  21   -180.5004676 -0.805521E-05  0.254E-03    0.02       4.2  T
  22   -180.5004678 -0.170594E-06  0.172E-03    0.02       6.1  T
  23   -180.5004653  0.247081E-05  0.522E-03    0.02       2.0  T
  24   -180.5004678 -0.252468E-05  0.153E-03    0.02       6.9  T
  25   -180.5004676  0.232065E-06  0.205E-03    0.02       5.1  T
  26   -180.5004680 -0.373028E-06  0.296E-04    0.02      35.6  T
  27   -180.5004680  0.500097E-08  0.347E-04    0.02      30.4  T
     SCC iter.                  ...        0 min,  0.571 sec
     gradient                   ...        0 min,  0.048 sec
 * total energy  :  -178.7695950 Eh     change       -0.6560481E-02 Eh
   gradient norm :     0.0312136 Eh/α   predicted    -0.5978204E-02 (  -8.88%)
   displ. norm   :     0.6986925 α      lambda       -0.7126954E-02
   maximum displ.:     0.3434337 α      in ANC's #8, #10, #6, ...

........................................................................
.............................. CYCLE   61 ..............................
........................................................................

 iter      E             dE          RMSdq      gap      omega  full diag
   1   -180.3046094 -0.180305E+03  0.143E+00    0.18       0.0  T
   2   -173.2750835  0.702953E+01  0.106E+01    0.09       1.0  T
   3   -178.5448301 -0.526975E+01  0.633E+00    0.27       1.0  T
   4   -180.2373623 -0.169253E+01  0.203E+00    0.03       1.0  T
   5   -180.1150263  0.122336E+00  0.207E+00    0.03       1.0  T
   6   -180.4046242 -0.289598E+00  0.120E+00    0.02       1.0  T
   7   -180.4937494 -0.891253E-01  0.412E-01    0.04       1.0  T
   8   -180.4399851  0.537644E-01  0.927E-01    0.02       1.0  T
   9   -180.5031604 -0.631754E-01  0.296E-01    0.02       1.0  T
  10   -180.5031887 -0.282724E-04  0.249E-01    0.03       1.0  T
  11   -180.5081643 -0.497564E-02  0.956E-02    0.02       1.0  T
  12   -180.5081076  0.567179E-04  0.837E-02    0.02       1.0  T
  13   -180.5085578 -0.450213E-03  0.420E-02    0.02       1.0  T
  14   -180.5083652  0.192637E-03  0.573E-02    0.02       1.0  T
  15   -180.5087073 -0.342138E-03  0.109E-02    0.02       1.0  T
  16   -180.5086318  0.755149E-04  0.334E-02    0.02       1.0  T
  17   -180.5086336 -0.177454E-05  0.285E-02    0.02       1.0  T
  18   -180.5086851 -0.515001E-04  0.189E-02    0.02       1.0  T
  19   -180.5086938 -0.868811E-05  0.139E-02    0.02       1.0  T
  20   -180.5087036 -0.981896E-05  0.922E-03    0.02       1.1  T
  21   -180.5087052 -0.163307E-05  0.798E-03    0.02       1.3  T
  22   -180.5087090 -0.378275E-05  0.391E-03    0.02       2.7  T
  23   -180.5087096 -0.526425E-06  0.337E-03    0.02       3.1  T
  24   -180.5087100 -0.429514E-06  0.206E-03    0.02       5.1  T
  25   -180.5087103 -0.298117E-06  0.112E-03    0.02       9.4  T
  26   -180.5087103 -0.556889E-07  0.896E-04    0.02      11.8  T
  27   -180.5087104 -0.322241E-07  0.594E-04    0.02      17.8  T
     SCC iter.                  ...        0 min,  0.579 sec
     gradient                   ...        0 min,  0.046 sec
 * total energy  :  -178.7744966 Eh     change       -0.4901598E-02 Eh
   gradient norm :     0.0317922 Eh/α   predicted    -0.5303078E-02 (   8.19%)
   displ. norm   :     0.4704386 α      lambda       -0.4190482E-02
   maximum displ.:     0.2749806 α      in ANC's #8, #10, #6, ...

........................................................................
.............................. CYCLE   62 ..............................
........................................................................

 iter      E             dE          RMSdq      gap      omega  full diag
   1   -180.4186540 -0.180419E+03  0.986E-01    0.08       0.0  T
   2   -174.6004979  0.581816E+01  0.107E+01    0.16       1.0  T
   3   -180.2231904 -0.562269E+01  0.200E+00    0.03       1.0  T
   4   -180.2044128  0.187776E-01  0.183E+00    0.03       1.0  T
   5   -180.4967333 -0.292321E+00  0.540E-01    0.01       1.0  T
   6   -180.1743657  0.322368E+00  0.234E+00    0.02       1.0  T
   7   -180.5053302 -0.330965E+00  0.313E-01    0.03       1.0  T
   8   -180.5040299  0.130026E-02  0.387E-01    0.01       1.0  T
   9   -180.5072566 -0.322668E-02  0.303E-01    0.01       1.0  T
  10   -180.5114014 -0.414480E-02  0.156E-01    0.03       1.0  T
  11   -180.5119111 -0.509666E-03  0.130E-01    0.02       1.0  T
  12   -180.5126941 -0.782983E-03  0.669E-02    0.02       1.0  T
  13   -180.5128069 -0.112877E-03  0.626E-02    0.02       1.0  T
  14   -180.5128939 -0.869505E-04  0.530E-02    0.02       1.0  T
  15   -180.5129900 -0.961582E-04  0.345E-02    0.02       1.0  T
  16   -180.5130585 -0.684107E-04  0.266E-02    0.02       1.0  T
  17   -180.5130942 -0.357490E-04  0.133E-02    0.02       1.0  T
  18   -180.5131003 -0.604916E-05  0.971E-03    0.02       1.1  T
  19   -180.5131046 -0.430438E-05  0.465E-03    0.02       2.3  T
  20   -180.5131065 -0.192453E-05  0.700E-04    0.02      15.1  T
  21   -180.5131062  0.274706E-06  0.200E-03    0.02       5.3  T
  22   -180.5131064 -0.205048E-06  0.120E-03    0.02       8.8  T
  23   -180.5131065 -0.539783E-07  0.749E-04    0.02      14.1  T
  24   -180.5131065  0.128609E-07  0.954E-04    0.02      11.0  T
     SCC iter.                  ...        0 min,  0.514 sec
     gradient                   ...        0 min,  0.048 sec
 * total energy  :  -178.7777942 Eh     change       -0.3297625E-02 Eh
   gradient norm :     0.0274488 Eh/α   predicted    -0.2558952E-02 ( -22.40%)
   displ. norm   :     0.5868486 α      lambda       -0.4899332E-02
   maximum displ.:     0.3473343 α      in ANC's #8, #10, #6, ...

........................................................................
.............................. CYCLE   63 ..............................
........................................................................

 iter      E             dE          RMSdq      gap      omega  full diag
   1   -180.5058038 -0.180506E+03  0.384E-01    0.01       0.0  T
   2   -179.7856216  0.720182E+00  0.329E+00    0.02       1.0  T
   3   -180.2618746 -0.476253E+00  0.149E+00    0.39       1.0  T
   4   -180.3003577 -0.384831E-01  0.148E+00    0.02       1.0  T
   5   -180.5015694 -0.201212E+00  0.350E-01    0.04       1.0  T
   6   -180.5064352 -0.486579E-02  0.289E-01    0.04       1.0  T
   7   -180.5110772 -0.464205E-02  0.196E-01    0.02       1.0  T
   8   -180.5048593  0.621793E-02  0.300E-01    0.04       1.0  T
   9   -180.5120912 -0.723190E-02  0.142E-01    0.03       1.0  T
  10   -180.5139810 -0.188984E-02  0.461E-02    0.02       1.0  T
  11   -180.5139469  0.341312E-04  0.559E-02    0.02       1.0  T
  12   -180.5135119  0.435000E-03  0.830E-02    0.02       1.0  T
  13   -180.5124071  0.110479E-02  0.131E-01    0.03       1.0  T
  14   -180.5136257 -0.121859E-02  0.755E-02    0.03       1.0  T
  15   -180.5141375 -0.511772E-03  0.184E-02    0.02       1.0  T
  16   -180.5140909  0.465777E-04  0.282E-02    0.02       1.0  T
  17   -180.5141608 -0.699359E-04  0.580E-03    0.02       1.8  T
  18   -180.5141595  0.127527E-05  0.665E-03    0.02       1.6  T
  19   -180.5141550  0.456650E-05  0.960E-03    0.02       1.1  T
  20   -180.5141612 -0.621086E-05  0.532E-03    0.02       2.0  T
  21   -180.5141638 -0.259695E-05  0.162E-03    0.02       6.5  T
  22   -180.5141634  0.407072E-06  0.247E-03    0.02       4.3  T
  23   -180.5141640 -0.620375E-06  0.289E-04    0.02      36.5  T
  24   -180.5141640 -0.383918E-08  0.179E-04    0.02      59.0  T
     SCC iter.                  ...        0 min,  0.503 sec
     gradient                   ...        0 min,  0.047 sec
 * total energy  :  -178.7816001 Eh     change       -0.3805917E-02 Eh
   gradient norm :     0.0228891 Eh/α   predicted    -0.3293315E-02 ( -13.47%)
   displ. norm   :     0.6550651 α      lambda       -0.4174017E-02
   maximum displ.:     0.3667898 α      in ANC's #8, #10, #6, ...

........................................................................
.............................. CYCLE   64 ..............................
........................................................................

 iter      E             dE          RMSdq      gap      omega  full diag
   1   -180.4763232 -0.180476E+03  0.632E-01    0.01       0.0  T
   2   -180.1812096  0.295114E+00  0.177E+00    0.19       1.0  T
   3   -179.8539178  0.327292E+00  0.309E+00    0.02       1.0  T
   4   -180.3558341 -0.501916E+00  0.121E+00    0.13       1.0  T
   5   -180.2221861  0.133648E+00  0.174E+00    0.03       1.0  T
   6   -180.4380657 -0.215880E+00  0.824E-01    0.08       1.0  T
   7   -180.4594572 -0.213915E-01  0.744E-01    0.02       1.0  T
   8   -180.4203648  0.390924E-01  0.914E-01    0.09       1.0  T
   9   -180.4853881 -0.650233E-01  0.509E-01    0.06       1.0  T
  10   -180.5039893 -0.186012E-01  0.299E-01    0.01       1.0  T
  11   -180.5032631  0.726239E-03  0.324E-01    0.01       1.0  T
  12   -180.5083392 -0.507606E-02  0.251E-01    0.01       1.0  T
  13   -180.5125150 -0.417580E-02  0.111E-01    0.03       1.0  T
  14   -180.5133934 -0.878487E-03  0.631E-02    0.03       1.0  T
  15   -180.5135818 -0.188353E-03  0.485E-02    0.02       1.0  T
  16   -180.5137646 -0.182779E-03  0.199E-02    0.02       1.0  T
  17   -180.5132981  0.466454E-03  0.705E-02    0.02       1.0  T
  18   -180.5136200 -0.321847E-03  0.421E-02    0.02       1.0  T
  19   -180.5137846 -0.164644E-03  0.939E-03    0.02       1.1  T
  20   -180.5137922 -0.755036E-05  0.456E-03    0.02       2.3  T
  21   -180.5137890  0.319458E-05  0.730E-03    0.02       1.4  T
  22   -180.5137915 -0.256972E-05  0.504E-03    0.02       2.1  T
  23   -180.5137927 -0.120329E-05  0.335E-03    0.02       3.1  T
  24   -180.5137935 -0.720862E-06  0.196E-03    0.02       5.4  T
  25   -180.5137938 -0.362987E-06  0.623E-04    0.02      16.9  T
  26   -180.5137938  0.959295E-08  0.731E-04    0.02      14.4  T
     SCC iter.                  ...        0 min,  0.521 sec
     gradient                   ...        0 min,  0.049 sec
 * total energy  :  -178.7847969 Eh     change       -0.3196796E-02 Eh
   gradient norm :     0.0249689 Eh/α   predicted    -0.2982571E-02 (  -6.70%)
   displ. norm   :     0.7261304 α      lambda       -0.3947929E-02
   maximum displ.:     0.4514375 α      in ANC's #8, #10, #6, ...

........................................................................
.............................. CYCLE   65 ..............................
........................................................................

 iter      E             dE          RMSdq      gap      omega  full diag
   1   -180.4894109 -0.180489E+03  0.547E-01    0.05       0.0  T
   2   -176.7008760  0.378853E+01  0.655E+00    0.05       1.0  T
   3   -179.4423856 -0.274151E+01  0.443E+00    0.01       1.0  T
   4   -180.3055604 -0.863175E+00  0.147E+00    0.03       1.0  T
   5   -180.2719123  0.336481E-01  0.155E+00    0.03       1.0  T
   6   -180.3788411 -0.106929E+00  0.118E+00    0.03       1.0  T
   7   -180.4982336 -0.119393E+00  0.428E-01    0.05       1.0  T
   8   -180.4906163  0.761730E-02  0.499E-01    0.05       1.0  T
   9   -180.4989945 -0.837815E-02  0.405E-01    0.05       1.0  T
  10   -180.5088970 -0.990250E-02  0.255E-01    0.04       1.0  T
  11   -180.5125091 -0.361210E-02  0.200E-01    0.02       1.0  T
  12   -180.5140340 -0.152494E-02  0.142E-01    0.02       1.0  T
  13   -180.5149108 -0.876717E-03  0.835E-02    0.03       1.0  T
  14   -180.5153784 -0.467687E-03  0.368E-02    0.02       1.0  T
  15   -180.5154482 -0.697767E-04  0.300E-02    0.02       1.0  T
  16   -180.5154273  0.208797E-04  0.338E-02    0.02       1.0  T
  17   -180.5152420  0.185352E-03  0.548E-02    0.02       1.0  T
  18   -180.5153383 -0.963088E-04  0.433E-02    0.02       1.0  T
  19   -180.5154872 -0.148873E-03  0.148E-02    0.02       1.0  T
  20   -180.5155030 -0.158359E-04  0.743E-03    0.02       1.4  T
  21   -180.5154846  0.183616E-04  0.159E-02    0.02       1.0  T
  22   -180.5154972 -0.125683E-04  0.104E-02    0.02       1.0  T
  23   -180.5155041 -0.686505E-05  0.485E-03    0.02       2.2  T
  24   -180.5155062 -0.212470E-05  0.585E-04    0.02      18.0  T
  25   -180.5155060  0.183015E-06  0.161E-03    0.02       6.6  T
  26   -180.5155062 -0.139909E-06  0.854E-04    0.02      12.3  T
  27   -180.5155062 -0.662368E-07  0.125E-04    0.02      84.0  T
     SCC iter.                  ...        0 min,  0.550 sec
     gradient                   ...        0 min,  0.047 sec
 * total energy  :  -178.7877070 Eh     change       -0.2910056E-02 Eh
   gradient norm :     0.0228620 Eh/α   predicted    -0.3014751E-02 (   3.60%)
   displ. norm   :     0.6182170 α      lambda       -0.3670496E-02
   maximum displ.:     0.3514564 α      in ANC's #8, #10, #6, ...

........................................................................
.............................. CYCLE   66 ..............................
........................................................................

 iter      E             dE          RMSdq      gap      omega  full diag
   1   -180.4774068 -0.180477E+03  0.714E-01    0.01       0.0  T
   2   -180.1841718  0.293235E+00  0.176E+00    0.59       1.0  T
   3   -178.5557579  0.162841E+01  0.451E+00    0.02       1.0  T
   4   -180.2814158 -0.172566E+01  0.146E+00    0.28       1.0  T
   5   -180.4086712 -0.127255E+00  0.980E-01    0.10       1.0  T
   6   -180.5028527 -0.941815E-01  0.521E-01    0.01       1.0  T
   7   -180.5079060 -0.505324E-02  0.377E-01    0.02       1.0  T
   8   -180.4671316  0.407744E-01  0.771E-01    0.02       1.0  T
   9   -180.5093654 -0.422338E-01  0.313E-01    0.04       1.0  T
  10   -180.3141401  0.195225E+00  0.170E+00    0.03       1.0  T
  11   -180.4693457 -0.155206E+00  0.669E-01    0.07       1.0  T
  12   -180.5106494 -0.413037E-01  0.345E-01    0.01       1.0  T
  13   -180.5155942 -0.494481E-02  0.226E-01    0.02       1.0  T
  14   -180.5190407 -0.344644E-02  0.509E-02    0.02       1.0  T
  15   -180.5185076  0.533030E-03  0.913E-02    0.02       1.0  T
  16   -180.5189840 -0.476399E-03  0.612E-02    0.02       1.0  T
  17   -180.5190529 -0.688342E-04  0.463E-02    0.02       1.0  T
  18   -180.5192094 -0.156567E-03  0.157E-02    0.02       1.0  T
  19   -180.5192168 -0.738308E-05  0.151E-02    0.02       1.0  T
  20   -180.5192182 -0.137988E-05  0.141E-02    0.02       1.0  T
  21   -180.5192166  0.155124E-05  0.147E-02    0.02       1.0  T
  22   -180.5192317 -0.150839E-04  0.759E-03    0.02       1.4  T
  23   -180.5192341 -0.238956E-05  0.410E-03    0.02       2.6  T
  24   -180.5192350 -0.844688E-06  0.306E-03    0.02       3.4  T
  25   -180.5192356 -0.607775E-06  0.129E-03    0.02       8.2  T
  26   -180.5192357 -0.101211E-06  0.369E-04    0.02      28.6  T
  27   -180.5192356  0.205899E-07  0.648E-04    0.02      16.3  T
     SCC iter.                  ...        0 min,  0.575 sec
     gradient                   ...        0 min,  0.048 sec
 * total energy  :  -178.7901232 Eh     change       -0.2416176E-02 Eh
   gradient norm :     0.0236245 Eh/α   predicted    -0.2536666E-02 (   4.99%)
   displ. norm   :     0.6343435 α      lambda       -0.3055327E-02
   maximum displ.:     0.4076196 α      in ANC's #8, #10, #6, ...
 * RMSD in coord.:     1.1999481 α      energy gain  -0.2414549E+00 Eh

generating ANC from exact Hessian ...
Using Lindh-Hessian (1995)
 Shifting diagonal of input Hessian by   1.046790360895009E-002
 Lowest  eigenvalues of input Hessian
    0.010000    0.010163    0.000000    0.000000    0.000000    0.000000
    0.000000    0.000000    0.010593    0.010654    0.010814    0.010949
    0.011063    0.011201    0.011374    0.011488    0.011783    0.012062
 Highest eigenvalues
    2.039238    2.137120    2.194196    2.232664    2.233920    2.272022
 

........................................................................
.............................. CYCLE   67 ..............................
........................................................................

 iter      E             dE          RMSdq      gap      omega  full diag
   1   -180.4750591 -0.180475E+03  0.716E-01    0.07       0.0  T
   2   -175.4618123  0.501325E+01  0.906E+00    0.12       1.0  T
   3   -180.3078200 -0.484601E+01  0.145E+00    0.02       1.0  T
   4   -180.3664851 -0.586652E-01  0.143E+00    0.03       1.0  T
   5   -180.3748210 -0.833582E-02  0.125E+00    0.03       1.0  T
   6   -180.4736751 -0.988541E-01  0.769E-01    0.02       1.0  T
   7   -180.5157259 -0.420508E-01  0.368E-01    0.03       1.0  T
   8   -180.5147052  0.102069E-02  0.334E-01    0.04       1.0  T
   9   -180.5145379  0.167222E-03  0.308E-01    0.04       1.0  T
  10   -180.5231587 -0.862080E-02  0.112E-01    0.02       1.0  T
  11   -180.5242404 -0.108163E-02  0.379E-02    0.02       1.0  T
  12   -180.5229906  0.124982E-02  0.122E-01    0.03       1.0  T
  13   -180.5239482 -0.957604E-03  0.655E-02    0.03       1.0  T
  14   -180.5241451 -0.196923E-03  0.509E-02    0.02       1.0  T
  15   -180.5243794 -0.234336E-03  0.532E-03    0.02       2.0  T
  16   -180.5243782  0.122488E-05  0.572E-03    0.02       1.8  T
  17   -180.5243119  0.663227E-04  0.270E-02    0.02       1.0  T
  18   -180.5243804 -0.685586E-04  0.189E-03    0.02       5.6  T
  19   -180.5243781  0.228844E-05  0.550E-03    0.02       1.9  T
  20   -180.5243787 -0.586131E-06  0.442E-03    0.02       2.4  T
  21   -180.5243800 -0.124307E-05  0.327E-03    0.02       3.2  T
  22   -180.5243801 -0.140308E-06  0.235E-03    0.02       4.5  T
  23   -180.5243802 -0.716192E-07  0.214E-03    0.02       4.9  T
  24   -180.5243806 -0.422764E-06  0.638E-04    0.02      16.5  T
  25   -180.5243806 -0.418860E-07  0.167E-04    0.02      63.3  T
     SCC iter.                  ...        0 min,  0.540 sec
     gradient                   ...        0 min,  0.047 sec
 * total energy  :  -178.7923842 Eh     change       -0.2261018E-02 Eh
   gradient norm :     0.0164337 Eh/α   predicted     0.0000000E+00 (-100.00%)
   displ. norm   :     0.2619276 α      lambda       -0.1540602E-02
   maximum displ.:     0.1164106 α      in ANC's #6, #4, #1, ...

........................................................................
.............................. CYCLE   68 ..............................
........................................................................

 iter      E             dE          RMSdq      gap      omega  full diag
   1   -180.4848304 -0.180485E+03  0.801E-01    0.03       0.0  T
   2   -175.8737045  0.461113E+01  0.861E+00    0.08       1.0  T
   3   -180.2444403 -0.437074E+01  0.157E+00    0.35       1.0  T
   4   -180.2558381 -0.113978E-01  0.184E+00    0.03       1.0  T
   5   -180.3822834 -0.126445E+00  0.124E+00    0.01       1.0  T
   6   -180.5131348 -0.130851E+00  0.529E-01    0.01       1.0  T
   7   -180.5199849 -0.685006E-02  0.344E-01    0.03       1.0  T
   8   -180.5063599  0.136250E-01  0.538E-01    0.01       1.0  T
   9   -180.5170857 -0.107258E-01  0.317E-01    0.01       1.0  T
  10   -180.5254147 -0.832907E-02  0.155E-01    0.02       1.0  T
  11   -180.5240684  0.134633E-02  0.218E-01    0.03       1.0  T
  12   -180.5239843  0.840954E-04  0.217E-01    0.02       1.0  T
  13   -180.5264171 -0.243276E-02  0.845E-02    0.03       1.0  T
  14   -180.5268030 -0.385881E-03  0.594E-02    0.02       1.0  T
  15   -180.5268907 -0.877847E-04  0.491E-02    0.02       1.0  T
  16   -180.5269348 -0.440474E-04  0.445E-02    0.02       1.0  T
  17   -180.5270420 -0.107190E-03  0.133E-02    0.02       1.0  T
  18   -180.5270469 -0.494378E-05  0.920E-03    0.02       1.1  T
  19   -180.5270529 -0.598565E-05  0.512E-03    0.02       2.1  T
  20   -180.5270516  0.134228E-05  0.635E-03    0.02       1.7  T
  21   -180.5270530 -0.142968E-05  0.432E-03    0.02       2.4  T
  22   -180.5270545 -0.154716E-05  0.186E-03    0.02       5.7  T
  23   -180.5270547 -0.140750E-06  0.205E-03    0.02       5.2  T
  24   -180.5270549 -0.207081E-06  0.811E-04    0.02      13.0  T
  25   -180.5270547  0.179637E-06  0.187E-03    0.02       5.6  T
  26   -180.5270549 -0.177943E-06  0.783E-04    0.02      13.5  T
     SCC iter.                  ...        0 min,  0.520 sec
     gradient                   ...        0 min,  0.045 sec
 * total energy  :  -178.7936182 Eh     change       -0.1234040E-02 Eh
   gradient norm :     0.0111132 Eh/α   predicted    -0.8231554E-03 ( -33.30%)
   displ. norm   :     0.6564009 α      lambda       -0.2928197E-02
   maximum displ.:     0.3266062 α      in ANC's #6, #4, #1, ...

........................................................................
.............................. CYCLE   69 ..............................
........................................................................

 iter      E             dE          RMSdq      gap      omega  full diag
   1   -180.4226813 -0.180423E+03  0.113E+00    0.07       0.0  T
   2   -174.7883647  0.563432E+01  0.107E+01    0.08       1.0  T
   3   -180.2209088 -0.543254E+01  0.208E+00    0.03       1.0  T
   4   -180.2555287 -0.346199E-01  0.174E+00    0.03       1.0  T
   5   -180.5171862 -0.261658E+00  0.441E-01    0.04       1.0  T
   6   -180.3337549  0.183431E+00  0.152E+00    0.03       1.0  T
   7   -180.5307625 -0.197008E+00  0.169E-01    0.02       1.0  T
   8   -180.4778669  0.528956E-01  0.787E-01    0.02       1.0  T
   9   -180.4387036  0.391633E-01  0.121E+00    0.01       1.0  T
  10   -180.5253910 -0.866874E-01  0.271E-01    0.04       1.0  T
  11   -180.5283995 -0.300856E-02  0.174E-01    0.03       1.0  T
  12   -180.5313361 -0.293653E-02  0.980E-02    0.02       1.0  T
  13   -180.5313840 -0.479384E-04  0.763E-02    0.02       1.0  T
  14   -180.5318093 -0.425330E-03  0.332E-02    0.02       1.0  T
  15   -180.5314862  0.323142E-03  0.800E-02    0.02       1.0  T
  16   -180.5318569 -0.370691E-03  0.244E-02    0.02       1.0  T
  17   -180.5318863 -0.294415E-04  0.105E-02    0.02       1.0  T
  18   -180.5318719  0.143751E-04  0.154E-02    0.02       1.0  T
  19   -180.5318874 -0.154286E-04  0.788E-03    0.02       1.3  T
  20   -180.5318843  0.305269E-05  0.111E-02    0.02       1.0  T
  21   -180.5318843  0.492860E-07  0.113E-02    0.02       1.0  T
  22   -180.5318894 -0.516224E-05  0.685E-03    0.02       1.5  T
  23   -180.5318915 -0.207842E-05  0.417E-03    0.02       2.5  T
  24   -180.5318925 -0.103300E-05  0.163E-03    0.02       6.5  T
  25   -180.5318927 -0.133348E-06  0.986E-04    0.02      10.7  T
  26   -180.5318927 -0.768066E-07  0.399E-04    0.02      26.4  T
     SCC iter.                  ...        0 min,  0.571 sec
     gradient                   ...        0 min,  0.049 sec
 * total energy  :  -178.7954970 Eh     change       -0.1878808E-02 Eh
   gradient norm :     0.0140682 Eh/α   predicted    -0.2094931E-02 (  11.50%)
   displ. norm   :     0.6043840 α      lambda       -0.2199330E-02
   maximum displ.:     0.2951802 α      in ANC's #6, #4, #1, ...

........................................................................
.............................. CYCLE   70 ..............................
........................................................................

 iter      E             dE          RMSdq      gap      omega  full diag
   1   -180.2313634 -0.180231E+03  0.224E+00    0.02       0.0  T
   2   -175.3329488  0.489841E+01  0.110E+01    0.44       1.0  T
   3   -180.0159388 -0.468299E+01  0.252E+00    0.70       1.0  T
   4   -180.4796888 -0.463750E+00  0.131E+00    0.05       1.0  T
   5   -180.3455227  0.134166E+00  0.131E+00    0.15       1.0  T
   6   -180.4589483 -0.113426E+00  0.136E+00    0.02       1.0  T
   7   -180.4729177 -0.139693E-01  0.116E+00    0.02       1.0  T
   8   -180.3711615  0.101756E+00  0.152E+00    0.03       1.0  T
   9   -180.4922288 -0.121067E+00  0.846E-01    0.01       1.0  T
  10   -180.4993154 -0.708661E-02  0.664E-01    0.01       1.0  T
  11   -180.5246402 -0.253248E-01  0.337E-01    0.03       1.0  T
  12   -180.5257208 -0.108060E-02  0.272E-01    0.01       1.0  T
  13   -180.5064753  0.192455E-01  0.587E-01    0.05       1.0  T
  14   -180.5257808 -0.193056E-01  0.344E-01    0.02       1.0  T
  15   -180.5240652  0.171562E-02  0.375E-01    0.02       1.0  T
  16   -180.5299076 -0.584237E-02  0.218E-01    0.03       1.0  T
  17   -180.5326534 -0.274577E-02  0.606E-02    0.02       1.0  T
  18   -180.5313880  0.126540E-02  0.163E-01    0.02       1.0  T
  19   -180.5310600  0.327977E-03  0.169E-01    0.03       1.0  T
  20   -180.5328084 -0.174847E-02  0.550E-02    0.02       1.0  T
  21   -180.5329896 -0.181110E-03  0.150E-02    0.02       1.0  T
  22   -180.5329981 -0.849413E-05  0.136E-02    0.02       1.0  T
  23   -180.5330073 -0.920074E-05  0.628E-03    0.02       1.7  T
  24   -180.5330100 -0.273311E-05  0.239E-03    0.02       4.4  T
  25   -180.5330100 -0.241131E-07  0.186E-03    0.02       5.7  T
  26   -180.5330079  0.214264E-05  0.636E-03    0.02       1.7  T
  27   -180.5330087 -0.809377E-06  0.525E-03    0.02       2.0  T
  28   -180.5330101 -0.139835E-05  0.209E-03    0.02       5.0  T
  29   -180.5330102 -0.138386E-06  0.152E-03    0.02       6.9  T
  30   -180.5330104 -0.138797E-06  0.122E-04    0.02      86.7  T
  31   -180.5330104 -0.662510E-10  0.884E-05    0.02     119.3  T
     SCC iter.                  ...        0 min,  0.654 sec
     gradient                   ...        0 min,  0.047 sec
 * total energy  :  -178.7968113 Eh     change       -0.1314244E-02 Eh
   gradient norm :     0.0175866 Eh/α   predicted    -0.1501351E-02 (  14.24%)
   displ. norm   :     0.5678600 α      lambda       -0.1980498E-02
   maximum displ.:     0.2698210 α      in ANC's #6, #4, #1, ...

........................................................................
.............................. CYCLE   71 ..............................
........................................................................

 iter      E             dE          RMSdq      gap      omega  full diag
   1   -180.5296707 -0.180530E+03  0.345E-01    0.03       0.0  T
   2   -178.9386307  0.159104E+01  0.425E+00    0.03       1.0  T
   3   -180.0623932 -0.112376E+01  0.276E+00    0.02       1.0  T
   4   -180.5190858 -0.456693E+00  0.403E-01    0.02       1.0  T
   5   -180.3817776  0.137308E+00  0.118E+00    0.02       1.0  T
   6   -180.4252191 -0.434415E-01  0.107E+00    0.03       1.0  T
   7   -180.4518514 -0.266324E-01  0.933E-01    0.02       1.0  T
   8   -180.5285800 -0.767286E-01  0.254E-01    0.03       1.0  T
   9   -180.5281895  0.390572E-03  0.242E-01    0.04       1.0  T
  10   -180.5298184 -0.162892E-02  0.188E-01    0.03       1.0  T
  11   -180.5331371 -0.331868E-02  0.812E-02    0.02       1.0  T
  12   -180.5327623  0.374788E-03  0.932E-02    0.02       1.0  T
  13   -180.5325856  0.176658E-03  0.954E-02    0.02       1.0  T
  14   -180.5331049 -0.519300E-03  0.525E-02    0.02       1.0  T
  15   -180.5333143 -0.209345E-03  0.309E-02    0.02       1.0  T
  16   -180.5332635  0.507735E-04  0.383E-02    0.02       1.0  T
  17   -180.5333738 -0.110267E-03  0.135E-02    0.02       1.0  T
  18   -180.5333835 -0.975275E-05  0.542E-03    0.02       1.9  T
  19   -180.5333751  0.838956E-05  0.106E-02    0.02       1.0  T
  20   -180.5333848 -0.968829E-05  0.316E-03    0.02       3.3  T
  21   -180.5333853 -0.485630E-06  0.210E-03    0.02       5.0  T
  22   -180.5333855 -0.160907E-06  0.124E-03    0.02       8.5  T
  23   -180.5333853  0.157215E-06  0.198E-03    0.02       5.3  T
  24   -180.5333856 -0.284363E-06  0.700E-04    0.02      15.1  T
  25   -180.5333855  0.304181E-07  0.897E-04    0.02      11.8  T
     SCC iter.                  ...        0 min,  0.545 sec
     gradient                   ...        0 min,  0.048 sec
 * total energy  :  -178.7981562 Eh     change       -0.1344878E-02 Eh
   gradient norm :     0.0140288 Eh/α   predicted    -0.1309570E-02 (  -2.63%)
   displ. norm   :     0.5843561 α      lambda       -0.2006694E-02
   maximum displ.:     0.2855284 α      in ANC's #4, #6, #1, ...

........................................................................
.............................. CYCLE   72 ..............................
........................................................................

 iter      E             dE          RMSdq      gap      omega  full diag
   1   -180.5226442 -0.180523E+03  0.421E-01    0.01       0.0  T
   2   -180.3168620  0.205782E+00  0.163E+00    0.05       1.0  T
   3   -180.3554418 -0.385798E-01  0.129E+00    0.18       1.0  T
   4   -180.4307615 -0.753197E-01  0.116E+00    0.01       1.0  T
   5   -180.4040299  0.267316E-01  0.122E+00    0.03       1.0  T
   6   -180.5112428 -0.107213E+00  0.479E-01    0.01       1.0  T
   7   -180.4763792  0.348636E-01  0.727E-01    0.08       1.0  T
   8   -180.5292711 -0.528920E-01  0.228E-01    0.02       1.0  T
   9   -180.5311056 -0.183442E-02  0.128E-01    0.03       1.0  T
  10   -180.5291318  0.197380E-02  0.227E-01    0.03       1.0  T
  11   -180.5304682 -0.133649E-02  0.173E-01    0.03       1.0  T
  12   -180.5321080 -0.163976E-02  0.849E-02    0.03       1.0  T
  13   -180.5317848  0.323249E-03  0.976E-02    0.02       1.0  T
  14   -180.5324148 -0.630004E-03  0.494E-02    0.03       1.0  T
  15   -180.5326216 -0.206861E-03  0.112E-02    0.02       1.0  T
  16   -180.5326108  0.108185E-04  0.157E-02    0.02       1.0  T
  17   -180.5326218 -0.109709E-04  0.918E-03    0.02       1.1  T
  18   -180.5326231 -0.129546E-05  0.834E-03    0.02       1.3  T
  19   -180.5326145  0.860233E-05  0.124E-02    0.02       1.0  T
  20   -180.5326285 -0.140147E-04  0.317E-03    0.02       3.3  T
  21   -180.5326196  0.889858E-05  0.103E-02    0.02       1.0  T
  22   -180.5326292 -0.962271E-05  0.401E-04    0.02      26.3  T
  23   -180.5326292  0.562707E-07  0.873E-04    0.02      12.1  T
  24   -180.5326292 -0.552392E-07  0.372E-04    0.02      28.3  T
     SCC iter.                  ...        0 min,  0.514 sec
     gradient                   ...        0 min,  0.049 sec
 * total energy  :  -178.7996218 Eh     change       -0.1465683E-02 Eh
   gradient norm :     0.0120052 Eh/α   predicted    -0.1345951E-02 (  -8.17%)
   displ. norm   :     0.6508852 α      lambda       -0.1849003E-02
   maximum displ.:     0.3228261 α      in ANC's #4, #6, #1, ...

........................................................................
.............................. CYCLE   73 ..............................
........................................................................

 iter      E             dE          RMSdq      gap      omega  full diag
   1   -180.5267729 -0.180527E+03  0.408E-01    0.02       0.0  T
   2   -180.2877712  0.239002E+00  0.170E+00    0.03       1.0  T
   3   -180.2885702 -0.798986E-03  0.148E+00    0.45       1.0  T
   4   -180.3378302 -0.492599E-01  0.143E+00    0.03       1.0  T
   5   -180.4720453 -0.134215E+00  0.775E-01    0.08       1.0  T
   6   -180.5234668 -0.514216E-01  0.359E-01    0.03       1.0  T
   7   -180.5234681 -0.130125E-05  0.400E-01    0.02       1.0  T
   8   -180.5082121  0.152560E-01  0.564E-01    0.01       1.0  T
   9   -180.5272458 -0.190337E-01  0.303E-01    0.02       1.0  T
  10   -180.5153401  0.119057E-01  0.532E-01    0.03       1.0  T
  11   -180.5291028 -0.137627E-01  0.213E-01    0.04       1.0  T
  12   -180.5330289 -0.392618E-02  0.897E-02    0.03       1.0  T
  13   -180.5337122 -0.683267E-03  0.339E-02    0.02       1.0  T
  14   -180.5331199  0.592349E-03  0.960E-02    0.02       1.0  T
  15   -180.5337477 -0.627835E-03  0.209E-02    0.02       1.0  T
  16   -180.5335992  0.148503E-03  0.488E-02    0.03       1.0  T
  17   -180.5337863 -0.187124E-03  0.112E-02    0.02       1.0  T
  18   -180.5337885 -0.216373E-05  0.818E-03    0.02       1.3  T
  19   -180.5337894 -0.951900E-06  0.878E-03    0.02       1.2  T
  20   -180.5337912 -0.180712E-05  0.699E-03    0.02       1.5  T
  21   -180.5337903  0.912135E-06  0.783E-03    0.02       1.3  T
  22   -180.5337940 -0.367568E-05  0.229E-03    0.02       4.6  T
  23   -180.5337943 -0.319421E-06  0.370E-04    0.02      28.5  T
  24   -180.5337943 -0.448276E-08  0.357E-04    0.02      29.5  T
     SCC iter.                  ...        0 min,  0.509 sec
     gradient                   ...        0 min,  0.049 sec
 * total energy  :  -178.8010730 Eh     change       -0.1451198E-02 Eh
   gradient norm :     0.0133016 Eh/α   predicted    -0.1316171E-02 (  -9.30%)
   displ. norm   :     0.7194087 α      lambda       -0.1709949E-02
   maximum displ.:     0.3641978 α      in ANC's #4, #6, #1, ...

........................................................................
.............................. CYCLE   74 ..............................
........................................................................

 iter      E             dE          RMSdq      gap      omega  full diag
   1   -180.5190261 -0.180519E+03  0.468E-01    0.01       0.0  T
   2   -180.2577506  0.261275E+00  0.158E+00    0.73       1.0  T
   3   -180.2270376  0.307130E-01  0.185E+00    0.03       1.0  T
   4   -180.4423753 -0.215338E+00  0.946E-01    0.10       1.0  T
   5   -180.5303567 -0.879814E-01  0.263E-01    0.02       1.0  T
   6   -180.3676386  0.162718E+00  0.159E+00    0.01       1.0  T
   7   -180.4883351 -0.120696E+00  0.724E-01    0.01       1.0  T
   8   -180.5123316 -0.239965E-01  0.464E-01    0.05       1.0  T
   9   -180.5297665 -0.174349E-01  0.220E-01    0.03       1.0  T
  10   -180.5319841 -0.221759E-02  0.167E-01    0.02       1.0  T
  11   -180.5332105 -0.122643E-02  0.110E-01    0.03       1.0  T
  12   -180.5327589  0.451632E-03  0.135E-01    0.03       1.0  T
  13   -180.5337423 -0.983402E-03  0.876E-02    0.02       1.0  T
  14   -180.5341076 -0.365387E-03  0.446E-02    0.02       1.0  T
  15   -180.5341305 -0.228132E-04  0.422E-02    0.02       1.0  T
  16   -180.5342747 -0.144192E-03  0.162E-02    0.02       1.0  T
  17   -180.5342979 -0.232873E-04  0.457E-03    0.02       2.3  T
  18   -180.5342980 -0.622986E-07  0.346E-03    0.02       3.0  T
  19   -180.5342965  0.147227E-05  0.523E-03    0.02       2.0  T
  20   -180.5342982 -0.171234E-05  0.385E-03    0.02       2.7  T
  21   -180.5342976  0.644626E-06  0.396E-03    0.02       2.7  T
  22   -180.5342980 -0.363076E-06  0.361E-03    0.02       2.9  T
  23   -180.5342990 -0.101968E-05  0.200E-03    0.02       5.3  T
  24   -180.5342992 -0.251238E-06  0.444E-04    0.02      23.7  T
  25   -180.5342992  0.108288E-07  0.520E-04    0.02      20.3  T
     SCC iter.                  ...        0 min,  0.536 sec
     gradient                   ...        0 min,  0.049 sec
 * total energy  :  -178.8025450 Eh     change       -0.1471982E-02 Eh
   gradient norm :     0.0128232 Eh/α   predicted    -0.1297465E-02 ( -11.86%)
   displ. norm   :     0.7700543 α      lambda       -0.1862113E-02
   maximum displ.:     0.4074669 α      in ANC's #4, #6, #1, ...

........................................................................
.............................. CYCLE   75 ..............................
........................................................................

 iter      E             dE          RMSdq      gap      omega  full diag
   1   -180.5079661 -0.180508E+03  0.550E-01    0.01       0.0  T
   2   -180.2223462  0.285620E+00  0.169E+00    0.67       1.0  T
   3   -180.3565728 -0.134227E+00  0.132E+00    0.14       1.0  T
   4   -180.5014824 -0.144910E+00  0.582E-01    0.03       1.0  T
   5   -180.4240195  0.774629E-01  0.117E+00    0.05       1.0  T
   6   -180.5166735 -0.926540E-01  0.468E-01    0.03       1.0  T
   7   -180.4363404  0.803330E-01  0.106E+00    0.03       1.0  T
   8   -180.4884377 -0.520973E-01  0.651E-01    0.07       1.0  T
   9   -180.5324292 -0.439915E-01  0.211E-01    0.02       1.0  T
  10   -180.5247402  0.768906E-02  0.360E-01    0.01       1.0  T
  11   -180.5334954 -0.875520E-02  0.146E-01    0.02       1.0  T
  12   -180.5246396  0.885578E-02  0.351E-01    0.04       1.0  T
  13   -180.5324311 -0.779147E-02  0.178E-01    0.03       1.0  T
  14   -180.5354656 -0.303458E-02  0.956E-03    0.02       1.1  T
  15   -180.5349818  0.483851E-03  0.691E-02    0.02       1.0  T
  16   -180.5351755 -0.193751E-03  0.571E-02    0.02       1.0  T
  17   -180.5354623 -0.286770E-03  0.110E-02    0.02       1.0  T
  18   -180.5354588  0.351309E-05  0.109E-02    0.02       1.0  T
  19   -180.5354412  0.176463E-04  0.185E-02    0.02       1.0  T
  20   -180.5354493 -0.817918E-05  0.157E-02    0.02       1.0  T
  21   -180.5354671 -0.177721E-04  0.581E-03    0.02       1.8  T
  22   -180.5354686 -0.149158E-05  0.414E-03    0.02       2.5  T
  23   -180.5354680  0.582967E-06  0.463E-03    0.02       2.3  T
  24   -180.5354698 -0.174403E-05  0.225E-03    0.02       4.7  T
  25   -180.5354702 -0.449731E-06  0.391E-04    0.02      26.9  T
  26   -180.5354702 -0.664841E-08  0.263E-04    0.02      40.0  T
     SCC iter.                  ...        0 min,  0.542 sec
     gradient                   ...        0 min,  0.049 sec
 * total energy  :  -178.8040946 Eh     change       -0.1549615E-02 Eh
   gradient norm :     0.0114308 Eh/α   predicted    -0.1483164E-02 (  -4.29%)
   displ. norm   :     0.7736257 α      lambda       -0.1786626E-02
   maximum displ.:     0.4173376 α      in ANC's #4, #6, #1, ...

........................................................................
.............................. CYCLE   76 ..............................
........................................................................

 iter      E             dE          RMSdq      gap      omega  full diag
   1   -180.5236694 -0.180524E+03  0.460E-01    0.01       0.0  T
   2   -180.2568452  0.266824E+00  0.158E+00    0.54       1.0  T
   3   -180.4933196 -0.236474E+00  0.628E-01    0.03       1.0  T
   4   -180.2960647  0.197255E+00  0.189E+00    0.01       1.0  T
   5   -180.5114275 -0.215363E+00  0.526E-01    0.04       1.0  T
   6   -180.4408523  0.705752E-01  0.105E+00    0.03       1.0  T
   7   -180.4384737  0.237860E-02  0.965E-01    0.10       1.0  T
   8   -180.4852164 -0.467427E-01  0.696E-01    0.07       1.0  T
   9   -180.5308940 -0.456777E-01  0.305E-01    0.01       1.0  T
  10   -180.5365677 -0.567365E-02  0.154E-01    0.02       1.0  T
  11   -180.5362994  0.268285E-03  0.137E-01    0.03       1.0  T
  12   -180.5305266  0.577283E-02  0.282E-01    0.04       1.0  T
  13   -180.5378831 -0.735652E-02  0.650E-02    0.02       1.0  T
  14   -180.5376980  0.185089E-03  0.671E-02    0.02       1.0  T
  15   -180.5381121 -0.414088E-03  0.241E-02    0.02       1.0  T
  16   -180.5381140 -0.183958E-05  0.208E-02    0.02       1.0  T
  17   -180.5381577 -0.437975E-04  0.457E-03    0.02       2.3  T
  18   -180.5381414  0.163147E-04  0.137E-02    0.02       1.0  T
  19   -180.5381576 -0.161597E-04  0.494E-03    0.02       2.1  T
  20   -180.5381595 -0.185586E-05  0.972E-04    0.02      10.8  T
  21   -180.5381571  0.233664E-05  0.498E-03    0.02       2.1  T
  22   -180.5381591 -0.194251E-05  0.216E-03    0.02       4.9  T
  23   -180.5381595 -0.422514E-06  0.667E-04    0.02      15.8  T
  24   -180.5381595 -0.317958E-07  0.408E-04    0.02      25.9  T
     SCC iter.                  ...        0 min,  0.529 sec
     gradient                   ...        0 min,  0.048 sec
 * total energy  :  -178.8054922 Eh     change       -0.1397529E-02 Eh
   gradient norm :     0.0113365 Eh/α   predicted    -0.1427948E-02 (   2.18%)
   displ. norm   :     0.7813669 α      lambda       -0.1610958E-02
   maximum displ.:     0.4264461 α      in ANC's #4, #1, #6, ...

........................................................................
.............................. CYCLE   77 ..............................
........................................................................

 iter      E             dE          RMSdq      gap      omega  full diag
   1   -180.5206371 -0.180521E+03  0.502E-01    0.01       0.0  T
   2   -180.2665164  0.254121E+00  0.158E+00    0.18       1.0  T
   3   -179.8965187  0.369998E+00  0.323E+00    0.02       1.0  T
   4   -180.4044511 -0.507932E+00  0.113E+00    0.12       1.0  T
   5   -180.4119427 -0.749164E-02  0.122E+00    0.03       1.0  T
   6   -180.4668669 -0.549242E-01  0.959E-01    0.01       1.0  T
   7   -180.5076243 -0.407574E-01  0.538E-01    0.06       1.0  T
   8   -180.5214040 -0.137798E-01  0.464E-01    0.01       1.0  T
   9   -180.5307658 -0.936172E-02  0.266E-01    0.04       1.0  T
  10   -180.5377650 -0.699921E-02  0.878E-02    0.02       1.0  T
  11   -180.5313931  0.637190E-02  0.275E-01    0.04       1.0  T
  12   -180.5365398 -0.514668E-02  0.138E-01    0.03       1.0  T
  13   -180.5371302 -0.590477E-03  0.114E-01    0.02       1.0  T
  14   -180.5370822  0.480592E-04  0.117E-01    0.02       1.0  T
  15   -180.5380594 -0.977223E-03  0.536E-02    0.02       1.0  T
  16   -180.5382825 -0.223148E-03  0.232E-02    0.02       1.0  T
  17   -180.5383126 -0.300555E-04  0.111E-02    0.02       1.0  T
  18   -180.5382671  0.454550E-04  0.250E-02    0.02       1.0  T
  19   -180.5382904 -0.232527E-04  0.196E-02    0.02       1.0  T
  20   -180.5383248 -0.343952E-04  0.148E-03    0.02       7.1  T
  21   -180.5383230  0.182480E-05  0.463E-03    0.02       2.3  T
  22   -180.5383249 -0.194191E-05  0.982E-04    0.02      10.7  T
  23   -180.5383249  0.375166E-07  0.115E-03    0.02       9.2  T
  24   -180.5383250 -0.837484E-07  0.734E-04    0.02      14.4  T
  25   -180.5383250 -0.298173E-07  0.461E-04    0.02      22.8  T
     SCC iter.                  ...        0 min,  0.519 sec
     gradient                   ...        0 min,  0.049 sec
 * total energy  :  -178.8068880 Eh     change       -0.1395858E-02 Eh
   gradient norm :     0.0108212 Eh/α   predicted    -0.1297256E-02 (  -7.06%)
   displ. norm   :     0.7877940 α      lambda       -0.1560878E-02
   maximum displ.:     0.4411077 α      in ANC's #4, #1, #7, ...

........................................................................
.............................. CYCLE   78 ..............................
........................................................................

 iter      E             dE          RMSdq      gap      omega  full diag
   1   -180.5034134 -0.180503E+03  0.665E-01    0.01       0.0  T
   2   -180.2046549  0.298759E+00  0.204E+00    0.03       1.0  T
   3   -180.2856665 -0.810116E-01  0.152E+00    0.45       1.0  T
   4   -180.2317524  0.539141E-01  0.221E+00    0.01       1.0  T
   5   -180.4358672 -0.204115E+00  0.984E-01    0.10       1.0  T
   6   -180.5191054 -0.832382E-01  0.424E-01    0.05       1.0  T
   7   -180.3795547  0.139551E+00  0.130E+00    0.03       1.0  T
   8   -180.4606936 -0.811388E-01  0.900E-01    0.07       1.0  T
   9   -180.5320264 -0.713329E-01  0.291E-01    0.01       1.0  T
  10   -180.5178051  0.142213E-01  0.468E-01    0.01       1.0  T
  11   -180.5359128 -0.181077E-01  0.149E-01    0.03       1.0  T
  12   -180.5231176  0.127952E-01  0.383E-01    0.05       1.0  T
  13   -180.5335856 -0.104680E-01  0.230E-01    0.03       1.0  T
  14   -180.5380766 -0.449098E-02  0.683E-02    0.02       1.0  T
  15   -180.5382869 -0.210243E-03  0.369E-02    0.02       1.0  T
  16   -180.5382997 -0.127961E-04  0.368E-02    0.02       1.0  T
  17   -180.5384198 -0.120137E-03  0.791E-03    0.02       1.3  T
  18   -180.5383735  0.462609E-04  0.251E-02    0.02       1.0  T
  19   -180.5383646  0.890369E-05  0.263E-02    0.02       1.0  T
  20   -180.5384254 -0.607798E-04  0.201E-03    0.02       5.3  T
  21   -180.5384238  0.156393E-05  0.467E-03    0.02       2.3  T
  22   -180.5384206  0.326564E-05  0.786E-03    0.02       1.3  T
  23   -180.5384238 -0.318024E-05  0.450E-03    0.02       2.3  T
  24   -180.5384253 -0.151013E-05  0.234E-03    0.02       4.5  T
  25   -180.5384258 -0.512678E-06  0.392E-04    0.02      26.9  T
  26   -180.5384257  0.848752E-07  0.103E-03    0.02      10.3  T
  27   -180.5384258 -0.817560E-07  0.409E-04    0.02      25.8  T
     SCC iter.                  ...        0 min,  0.547 sec
     gradient                   ...        0 min,  0.048 sec
 * total energy  :  -178.8082823 Eh     change       -0.1394326E-02 Eh
   gradient norm :     0.0104183 Eh/α   predicted    -0.1264796E-02 (  -9.29%)
   displ. norm   :     0.8006809 α      lambda       -0.1618588E-02
   maximum displ.:     0.4607103 α      in ANC's #4, #7, #1, ...

........................................................................
.............................. CYCLE   79 ..............................
........................................................................

 iter      E             dE          RMSdq      gap      omega  full diag
   1   -180.5344605 -0.180534E+03  0.405E-01    0.03       0.0  T
   2   -176.9385281  0.359593E+01  0.647E+00    0.05       1.0  T
   3   -180.4009640 -0.346244E+01  0.109E+00    0.13       1.0  T
   4   -180.2733555  0.127608E+00  0.202E+00    0.02       1.0  T
   5   -180.5053791 -0.232024E+00  0.694E-01    0.01       1.0  T
   6   -180.5251198 -0.197407E-01  0.485E-01    0.03       1.0  T
   7   -180.5071178  0.180020E-01  0.712E-01    0.01       1.0  T
   8   -180.5335921 -0.264743E-01  0.350E-01    0.03       1.0  T
   9   -180.5326258  0.966251E-03  0.408E-01    0.02       1.0  T
  10   -180.5233503  0.927550E-02  0.521E-01    0.01       1.0  T
  11   -180.5315997 -0.824941E-02  0.383E-01    0.01       1.0  T
  12   -180.5361122 -0.451243E-02  0.280E-01    0.01       1.0  T
  13   -180.5410442 -0.493201E-02  0.494E-02    0.02       1.0  T
  14   -180.5397524  0.129177E-02  0.154E-01    0.03       1.0  T
  15   -180.5406086 -0.856211E-03  0.103E-01    0.03       1.0  T
  16   -180.5410232 -0.414607E-03  0.620E-02    0.02       1.0  T
  17   -180.5412159 -0.192651E-03  0.340E-02    0.02       1.0  T
  18   -180.5412892 -0.733607E-04  0.127E-02    0.02       1.0  T
  19   -180.5412963 -0.710670E-05  0.112E-02    0.02       1.0  T
  20   -180.5413036 -0.728306E-05  0.398E-03    0.02       2.7  T
  21   -180.5412982  0.544755E-05  0.103E-02    0.02       1.0  T
  22   -180.5413050 -0.688257E-05  0.127E-03    0.02       8.3  T
  23   -180.5413051 -0.384861E-07  0.767E-04    0.02      13.7  T
  24   -180.5413049  0.164696E-06  0.173E-03    0.02       6.1  T
  25   -180.5413051 -0.192292E-06  0.373E-04    0.02      28.2  T
     SCC iter.                  ...        0 min,  0.543 sec
     gradient                   ...        0 min,  0.049 sec
 * total energy  :  -178.8096614 Eh     change       -0.1379080E-02 Eh
   gradient norm :     0.0112932 Eh/α   predicted    -0.1328125E-02 (  -3.69%)
   displ. norm   :     0.8152000 α      lambda       -0.1591033E-02
   maximum displ.:     0.4635026 α      in ANC's #4, #7, #1, ...

........................................................................
.............................. CYCLE   80 ..............................
........................................................................

 iter      E             dE          RMSdq      gap      omega  full diag
   1   -180.4298128 -0.180430E+03  0.113E+00    0.03       0.0  T
   2   -180.1055343  0.324279E+00  0.221E+00    0.32       1.0  T
   3   -178.9036731  0.120186E+01  0.559E+00    0.07       1.0  T
   4   -180.2844271 -0.138075E+01  0.160E+00    0.36       1.0  T
   5   -180.3294485 -0.450215E-01  0.143E+00    0.16       1.0  T
   6   -180.3545171 -0.250686E-01  0.135E+00    0.13       1.0  T
   7   -180.4850287 -0.130512E+00  0.733E-01    0.07       1.0  T
   8   -180.2834388  0.201590E+00  0.168E+00    0.03       1.0  T
   9   -180.2728258  0.106130E-01  0.177E+00    0.03       1.0  T
  10   -180.5395774 -0.266752E+00  0.236E-01    0.02       1.0  T
  11   -180.4256360  0.113941E+00  0.111E+00    0.08       1.0  T
  12   -180.5312511 -0.105615E+00  0.339E-01    0.04       1.0  T
  13   -180.5432109 -0.119598E-01  0.542E-02    0.02       1.0  T
  14   -180.4998781  0.433327E-01  0.672E-01    0.06       1.0  T
  15   -180.5370846 -0.372065E-01  0.260E-01    0.03       1.0  T
  16   -180.5422910 -0.520640E-02  0.104E-01    0.03       1.0  T
  17   -180.5425743 -0.283288E-03  0.893E-02    0.03       1.0  T
  18   -180.5426047 -0.303897E-04  0.896E-02    0.03       1.0  T
  19   -180.5433394 -0.734736E-03  0.844E-03    0.02       1.2  T
  20   -180.5432678  0.715760E-04  0.280E-02    0.02       1.0  T
  21   -180.5433284 -0.606167E-04  0.131E-02    0.02       1.0  T
  22   -180.5433229  0.557435E-05  0.156E-02    0.02       1.0  T
  23   -180.5433335 -0.106110E-04  0.115E-02    0.02       1.0  T
  24   -180.5433430 -0.950473E-05  0.529E-03    0.02       2.0  T
  25   -180.5433443 -0.135766E-05  0.382E-03    0.02       2.8  T
  26   -180.5433432  0.111174E-05  0.511E-03    0.02       2.1  T
  27   -180.5433456 -0.237967E-05  0.295E-04    0.02      35.7  T
  28   -180.5433456  0.123066E-07  0.417E-04    0.02      25.3  T
  29   -180.5433456 -0.238759E-08  0.381E-04    0.02      27.7  T
     SCC iter.                  ...        0 min,  0.610 sec
     gradient                   ...        0 min,  0.048 sec
 * total energy  :  -178.8110067 Eh     change       -0.1345320E-02 Eh
   gradient norm :     0.0119749 Eh/α   predicted    -0.1324182E-02 (  -1.57%)
   displ. norm   :     0.8200298 α      lambda       -0.1494139E-02
   maximum displ.:     0.4710681 α      in ANC's #4, #7, #1, ...

........................................................................
.............................. CYCLE   81 ..............................
........................................................................

 iter      E             dE          RMSdq      gap      omega  full diag
   1   -180.5375056 -0.180538E+03  0.369E-01    0.02       0.0  T
   2   -180.2556317  0.281874E+00  0.175E+00    0.03       1.0  T
   3   -180.2999610 -0.443293E-01  0.147E+00    0.36       1.0  T
   4   -180.3290558 -0.290948E-01  0.149E+00    0.03       1.0  T
   5   -180.3944675 -0.654117E-01  0.147E+00    0.01       1.0  T
   6   -180.3888638  0.560373E-02  0.118E+00    0.14       1.0  T
   7   -180.4473842 -0.585204E-01  0.916E-01    0.09       1.0  T
   8   -180.5311963 -0.838121E-01  0.429E-01    0.02       1.0  T
   9   -180.5309829  0.213397E-03  0.427E-01    0.02       1.0  T
  10   -180.5302051  0.777750E-03  0.377E-01    0.04       1.0  T
  11   -180.5392902 -0.908508E-02  0.195E-01    0.03       1.0  T
  12   -180.5416840 -0.239383E-02  0.575E-02    0.02       1.0  T
  13   -180.5420049 -0.320862E-03  0.280E-02    0.02       1.0  T
  14   -180.5418058  0.199128E-03  0.604E-02    0.02       1.0  T
  15   -180.5419379 -0.132127E-03  0.404E-02    0.02       1.0  T
  16   -180.5419910 -0.530885E-04  0.285E-02    0.02       1.0  T
  17   -180.5420564 -0.654033E-04  0.894E-03    0.02       1.2  T
  18   -180.5420617 -0.530909E-05  0.148E-03    0.02       7.1  T
  19   -180.5420516  0.100923E-04  0.111E-02    0.02       1.0  T
  20   -180.5420605 -0.891210E-05  0.445E-03    0.02       2.4  T
  21   -180.5420603  0.199881E-06  0.448E-03    0.02       2.4  T
  22   -180.5420615 -0.120034E-05  0.215E-03    0.02       4.9  T
  23   -180.5420618 -0.255441E-06  0.507E-04    0.02      20.8  T
  24   -180.5420618  0.979063E-08  0.657E-04    0.02      16.0  T
     SCC iter.                  ...        0 min,  0.482 sec
     gradient                   ...        0 min,  0.047 sec
 * total energy  :  -178.8123479 Eh     change       -0.1341177E-02 Eh
   gradient norm :     0.0111224 Eh/α   predicted    -0.1249445E-02 (  -6.84%)
   displ. norm   :     0.7994396 α      lambda       -0.1560503E-02
   maximum displ.:     0.4528237 α      in ANC's #4, #7, #1, ...

........................................................................
.............................. CYCLE   82 ..............................
........................................................................

 iter      E             dE          RMSdq      gap      omega  full diag
   1   -180.5413374 -0.180541E+03  0.396E-01    0.01       0.0  T
   2   -180.3431718  0.198166E+00  0.137E+00    0.16       1.0  T
   3   -179.0699784  0.127319E+01  0.412E+00    0.03       1.0  T
   4   -180.4753731 -0.140539E+01  0.819E-01    0.08       1.0  T
   5   -180.5019391 -0.265660E-01  0.800E-01    0.03       1.0  T
   6   -180.4424995  0.594396E-01  0.111E+00    0.03       1.0  T
   7   -180.5247504 -0.822509E-01  0.585E-01    0.01       1.0  T
   8   -180.5207021  0.404832E-02  0.617E-01    0.01       1.0  T
   9   -180.5441527 -0.234507E-01  0.267E-01    0.02       1.0  T
  10   -180.5465176 -0.236484E-02  0.160E-01    0.03       1.0  T
  11   -180.5475452 -0.102759E-02  0.114E-01    0.03       1.0  T
  12   -180.5472554  0.289788E-03  0.147E-01    0.02       1.0  T
  13   -180.5484599 -0.120449E-02  0.472E-02    0.02       1.0  T
  14   -180.5486422 -0.182320E-03  0.247E-02    0.02       1.0  T
  15   -180.5486489 -0.673947E-05  0.267E-02    0.02       1.0  T
  16   -180.5485894  0.595623E-04  0.326E-02    0.02       1.0  T
  17   -180.5486677 -0.783433E-04  0.205E-02    0.02       1.0  T
  18   -180.5486991 -0.313872E-04  0.263E-03    0.02       4.0  T
  19   -180.5486982  0.932070E-06  0.439E-03    0.02       2.4  T
  20   -180.5486991 -0.885361E-06  0.243E-03    0.02       4.3  T
  21   -180.5486983  0.795973E-06  0.378E-03    0.02       2.8  T
  22   -180.5486993 -0.101354E-05  0.214E-03    0.02       4.9  T
  23   -180.5486993  0.126670E-07  0.226E-03    0.02       4.7  T
  24   -180.5486995 -0.271464E-06  0.106E-03    0.02      10.0  T
  25   -180.5486996 -0.506909E-07  0.499E-04    0.02      21.1  T
  26   -180.5486996 -0.419124E-08  0.418E-04    0.02      25.2  T
     SCC iter.                  ...        0 min,  0.541 sec
     gradient                   ...        0 min,  0.049 sec
 * total energy  :  -178.8136896 Eh     change       -0.1341667E-02 Eh
   gradient norm :     0.0105521 Eh/α   predicted    -0.1278922E-02 (  -4.68%)
   displ. norm   :     0.8448378 α      lambda       -0.1460048E-02
   maximum displ.:     0.4750627 α      in ANC's #4, #7, #1, ...

........................................................................
.............................. CYCLE   83 ..............................
........................................................................

 iter      E             dE          RMSdq      gap      omega  full diag
   1   -180.5264483 -0.180526E+03  0.598E-01    0.02       0.0  T
   2   -178.9979125  0.152854E+01  0.426E+00    0.03       1.0  T
   3   -180.2619733 -0.126406E+01  0.160E+00    0.59       1.0  T
   4   -180.5181565 -0.256183E+00  0.604E-01    0.04       1.0  T
   5   -180.4997571  0.183994E-01  0.663E-01    0.04       1.0  T
   6   -180.4523254  0.474317E-01  0.105E+00    0.03       1.0  T
   7   -180.5061758 -0.538503E-01  0.701E-01    0.01       1.0  T
   8   -180.3823588  0.123817E+00  0.161E+00    0.01       1.0  T
   9   -180.5076566 -0.125298E+00  0.610E-01    0.06       1.0  T
  10   -180.5141145 -0.645788E-02  0.545E-01    0.06       1.0  T
  11   -180.5381914 -0.240769E-01  0.267E-01    0.04       1.0  T
  12   -180.5434365 -0.524515E-02  0.165E-01    0.01       1.0  T
  13   -180.5433990  0.375826E-04  0.189E-01    0.02       1.0  T
  14   -180.5442463 -0.847378E-03  0.151E-01    0.03       1.0  T
  15   -180.5456940 -0.144765E-02  0.514E-02    0.02       1.0  T
  16   -180.5457974 -0.103419E-03  0.289E-02    0.02       1.0  T
  17   -180.5457809  0.164752E-04  0.344E-02    0.02       1.0  T
  18   -180.5458675 -0.866003E-04  0.127E-02    0.02       1.0  T
  19   -180.5458487  0.188350E-04  0.219E-02    0.02       1.0  T
  20   -180.5458567 -0.798892E-05  0.199E-02    0.02       1.0  T
  21   -180.5458813 -0.245693E-04  0.382E-03    0.02       2.8  T
  22   -180.5458809  0.399189E-06  0.429E-03    0.02       2.5  T
  23   -180.5458817 -0.858761E-06  0.286E-03    0.02       3.7  T
  24   -180.5458824 -0.667188E-06  0.128E-03    0.02       8.2  T
  25   -180.5458823  0.896962E-07  0.181E-03    0.02       5.8  T
  26   -180.5458825 -0.172691E-06  0.856E-04    0.02      12.3  T
  27   -180.5458824  0.487243E-07  0.118E-03    0.02       9.0  T
  28   -180.5458825 -0.784888E-07  0.576E-04    0.02      18.3  T
     SCC iter.                  ...        0 min,  0.580 sec
     gradient                   ...        0 min,  0.048 sec
 * total energy  :  -178.8149651 Eh     change       -0.1275519E-02 Eh
   gradient norm :     0.0109463 Eh/α   predicted    -0.1251081E-02 (  -1.92%)
   displ. norm   :     0.8151849 α      lambda       -0.1366629E-02
   maximum displ.:     0.4485494 α      in ANC's #4, #7, #1, ...

........................................................................
.............................. CYCLE   84 ..............................
........................................................................

 iter      E             dE          RMSdq      gap      omega  full diag
   1   -180.5265975 -0.180527E+03  0.595E-01    0.03       0.0  T
   2   -176.9187065  0.360789E+01  0.666E+00    0.06       1.0  T
   3   -180.2877459 -0.336904E+01  0.150E+00    0.34       1.0  T
   4   -180.3985621 -0.110816E+00  0.139E+00    0.03       1.0  T
   5   -180.4797119 -0.811498E-01  0.841E-01    0.02       1.0  T
   6   -180.4677446  0.119673E-01  0.985E-01    0.02       1.0  T
   7   -180.5269324 -0.591878E-01  0.522E-01    0.04       1.0  T
   8   -180.5262511  0.681322E-03  0.469E-01    0.05       1.0  T
   9   -180.5364581 -0.102070E-01  0.378E-01    0.03       1.0  T
  10   -180.5395998 -0.314168E-02  0.306E-01    0.01       1.0  T
  11   -180.5427384 -0.313866E-02  0.259E-01    0.02       1.0  T
  12   -180.5470969 -0.435848E-02  0.214E-02    0.02       1.0  T
  13   -180.5467544  0.342548E-03  0.660E-02    0.02       1.0  T
  14   -180.5469013 -0.146991E-03  0.508E-02    0.02       1.0  T
  15   -180.5470426 -0.141280E-03  0.320E-02    0.02       1.0  T
  16   -180.5470216  0.210308E-04  0.320E-02    0.02       1.0  T
  17   -180.5469343  0.873478E-04  0.517E-02    0.02       1.0  T
  18   -180.5470904 -0.156105E-03  0.182E-02    0.02       1.0  T
  19   -180.5471084 -0.180721E-04  0.885E-03    0.02       1.2  T
  20   -180.5471120 -0.355554E-05  0.546E-03    0.02       1.9  T
  21   -180.5471103  0.171334E-05  0.653E-03    0.02       1.6  T
  22   -180.5471094  0.894897E-06  0.757E-03    0.02       1.4  T
  23   -180.5471127 -0.328693E-05  0.404E-03    0.02       2.6  T
  24   -180.5471138 -0.117959E-05  0.138E-03    0.02       7.7  T
  25   -180.5471139 -0.569641E-07  0.104E-03    0.02      10.2  T
  26   -180.5471140 -0.568002E-07  0.382E-04    0.02      27.6  T
  27   -180.5471139  0.681797E-08  0.445E-04    0.02      23.7  T
     SCC iter.                  ...        0 min,  0.605 sec
     gradient                   ...        0 min,  0.048 sec
 * total energy  :  -178.8161774 Eh     change       -0.1212279E-02 Eh
   gradient norm :     0.0102993 Eh/α   predicted    -0.1137404E-02 (  -6.18%)
   displ. norm   :     0.8170964 α      lambda       -0.1329230E-02
   maximum displ.:     0.4277280 α      in ANC's #4, #7, #5, ...

........................................................................
.............................. CYCLE   85 ..............................
........................................................................

 iter      E             dE          RMSdq      gap      omega  full diag
   1   -180.5307263 -0.180531E+03  0.570E-01    0.04       0.0  T
   2   -176.8718479  0.365888E+01  0.674E+00    0.06       1.0  T
   3   -180.3302305 -0.345838E+01  0.138E+00    0.19       1.0  T
   4   -180.2784166  0.518139E-01  0.182E+00    0.03       1.0  T
   5   -180.4236768 -0.145260E+00  0.122E+00    0.02       1.0  T
   6   -180.3877096  0.359672E-01  0.138E+00    0.03       1.0  T
   7   -180.5441522 -0.156443E+00  0.302E-01    0.01       1.0  T
   8   -180.5432231  0.929096E-03  0.310E-01    0.01       1.0  T
   9   -180.5118924  0.313307E-01  0.777E-01    0.01       1.0  T
  10   -180.5514052 -0.395128E-01  0.475E-02    0.02       1.0  T
  11   -180.5468038  0.460141E-02  0.261E-01    0.03       1.0  T
  12   -180.5505761 -0.377228E-02  0.106E-01    0.03       1.0  T
  13   -180.5512091 -0.633032E-03  0.697E-02    0.02       1.0  T
  14   -180.5514996 -0.290443E-03  0.182E-02    0.02       1.0  T
  15   -180.5513780  0.121593E-03  0.431E-02    0.02       1.0  T
  16   -180.5511285  0.249430E-03  0.726E-02    0.02       1.0  T
  17   -180.5514472 -0.318615E-03  0.325E-02    0.02       1.0  T
  18   -180.5515141 -0.669736E-04  0.945E-03    0.02       1.1  T
  19   -180.5515107  0.339877E-05  0.111E-02    0.02       1.0  T
  20   -180.5515089  0.181961E-05  0.122E-02    0.02       1.0  T
  21   -180.5515071  0.183378E-05  0.140E-02    0.02       1.0  T
  22   -180.5515097 -0.265261E-05  0.127E-02    0.02       1.0  T
  23   -180.5515175 -0.779960E-05  0.637E-03    0.02       1.7  T
  24   -180.5515187 -0.114821E-05  0.455E-03    0.02       2.3  T
  25   -180.5515196 -0.899948E-06  0.266E-03    0.02       4.0  T
  26   -180.5515201 -0.521841E-06  0.325E-04    0.02      32.4  T
  27   -180.5515201 -0.108631E-08  0.340E-04    0.02      31.0  T
     SCC iter.                  ...        0 min,  0.588 sec
     gradient                   ...        0 min,  0.047 sec
 * total energy  :  -178.8173601 Eh     change       -0.1182701E-02 Eh
   gradient norm :     0.0116359 Eh/α   predicted    -0.1108342E-02 (  -6.29%)
   displ. norm   :     0.8335916 α      lambda       -0.1365807E-02
   maximum displ.:     0.4353564 α      in ANC's #7, #4, #5, ...

........................................................................
.............................. CYCLE   86 ..............................
........................................................................

 iter      E             dE          RMSdq      gap      omega  full diag
   1   -180.5128985 -0.180513E+03  0.696E-01    0.04       0.0  T
   2   -176.0039661  0.450893E+01  0.843E+00    0.08       1.0  T
   3   -180.3450724 -0.434111E+01  0.132E+00    0.16       1.0  T
   4   -180.2494450  0.956274E-01  0.199E+00    0.03       1.0  T
   5   -180.3173092 -0.678641E-01  0.165E+00    0.03       1.0  T
   6   -180.3748002 -0.574910E-01  0.146E+00    0.03       1.0  T
   7   -180.5341001 -0.159300E+00  0.418E-01    0.03       1.0  T
   8   -180.5121979  0.219021E-01  0.688E-01    0.01       1.0  T
   9   -180.5346872 -0.224892E-01  0.398E-01    0.03       1.0  T
  10   -180.5451243 -0.104372E-01  0.451E-02    0.02       1.0  T
  11   -180.5433858  0.173852E-02  0.163E-01    0.03       1.0  T
  12   -180.5447082 -0.132239E-02  0.799E-02    0.03       1.0  T
  13   -180.5447698 -0.616053E-04  0.669E-02    0.02       1.0  T
  14   -180.5449991 -0.229300E-03  0.536E-02    0.02       1.0  T
  15   -180.5452442 -0.245076E-03  0.129E-02    0.02       1.0  T
  16   -180.5452445 -0.290942E-06  0.119E-02    0.02       1.0  T
  17   -180.5452275  0.170037E-04  0.167E-02    0.02       1.0  T
  18   -180.5452539 -0.264605E-04  0.204E-03    0.02       5.2  T
  19   -180.5452520  0.189793E-05  0.569E-03    0.02       1.9  T
  20   -180.5452508  0.126995E-05  0.735E-03    0.02       1.4  T
  21   -180.5452531 -0.230306E-05  0.434E-03    0.02       2.4  T
  22   -180.5452541 -0.105215E-05  0.138E-03    0.02       7.6  T
  23   -180.5452540  0.121520E-06  0.186E-03    0.02       5.7  T
  24   -180.5452542 -0.187548E-06  0.631E-04    0.02      16.7  T
  25   -180.5452542 -0.196935E-07  0.466E-04    0.02      22.6  T
     SCC iter.                  ...        0 min,  0.506 sec
     gradient                   ...        0 min,  0.049 sec
 * total energy  :  -178.8185365 Eh     change       -0.1176398E-02 Eh
   gradient norm :     0.0120381 Eh/α   predicted    -0.1157443E-02 (  -1.61%)
   displ. norm   :     0.7852058 α      lambda       -0.1453767E-02
   maximum displ.:     0.4081972 α      in ANC's #7, #4, #5, ...

........................................................................
.............................. CYCLE   87 ..............................
........................................................................

 iter      E             dE          RMSdq      gap      omega  full diag
   1   -180.4489601 -0.180449E+03  0.123E+00    0.03       0.0  T
   2   -175.5871097  0.486185E+01  0.106E+01    0.18       1.0  T
   3   -180.2980672 -0.471096E+01  0.157E+00    0.20       1.0  T
   4   -180.0148687  0.283198E+00  0.288E+00    0.03       1.0  T
   5   -180.4695549 -0.454686E+00  0.127E+00    0.02       1.0  T
   6   -180.3547617  0.114793E+00  0.162E+00    0.03       1.0  T
   7   -180.5042783 -0.149517E+00  0.736E-01    0.07       1.0  T
   8   -180.5426692 -0.383909E-01  0.482E-01    0.03       1.0  T
   9   -180.3318024  0.210867E+00  0.191E+00    0.03       1.0  T
  10   -180.5425410 -0.210739E+00  0.487E-01    0.03       1.0  T
  11   -180.5466769 -0.413591E-02  0.417E-01    0.02       1.0  T
  12   -180.5540057 -0.732879E-02  0.207E-01    0.03       1.0  T
  13   -180.5549265 -0.920829E-03  0.145E-01    0.03       1.0  T
  14   -180.5558180 -0.891519E-03  0.104E-01    0.03       1.0  T
  15   -180.5566205 -0.802472E-03  0.341E-02    0.02       1.0  T
  16   -180.5566793 -0.588015E-04  0.176E-02    0.02       1.0  T
  17   -180.5566177  0.616168E-04  0.343E-02    0.02       1.0  T
  18   -180.5566603 -0.425860E-04  0.218E-02    0.02       1.0  T
  19   -180.5566901 -0.298183E-04  0.117E-02    0.02       1.0  T
  20   -180.5566984 -0.833210E-05  0.290E-03    0.02       3.6  T
  21   -180.5566930  0.541263E-05  0.971E-03    0.02       1.1  T
  22   -180.5566973 -0.426367E-05  0.437E-03    0.02       2.4  T
  23   -180.5566987 -0.141389E-05  0.179E-03    0.02       5.9  T
  24   -180.5566976  0.110895E-05  0.407E-03    0.02       2.6  T
  25   -180.5566988 -0.123644E-05  0.898E-04    0.02      11.7  T
  26   -180.5566988 -0.126590E-07  0.746E-04    0.02      14.1  T
  27   -180.5566989 -0.418414E-07  0.160E-04    0.02      65.9  T
     SCC iter.                  ...        0 min,  0.534 sec
     gradient                   ...        0 min,  0.048 sec
 * total energy  :  -178.8196609 Eh     change       -0.1124425E-02 Eh
   gradient norm :     0.0132133 Eh/α   predicted    -0.1175046E-02 (   4.50%)
   displ. norm   :     0.8171100 α      lambda       -0.1345571E-02
   maximum displ.:     0.4256795 α      in ANC's #7, #4, #5, ...

........................................................................
.............................. CYCLE   88 ..............................
........................................................................

 iter      E             dE          RMSdq      gap      omega  full diag
   1   -180.5192052 -0.180519E+03  0.717E-01    0.02       0.0  T
   2   -177.3416207  0.317758E+01  0.640E+00    0.06       1.0  T
   3   -180.2469996 -0.290538E+01  0.169E+00    0.64       1.0  T
   4   -180.4982093 -0.251210E+00  0.918E-01    0.01       1.0  T
   5   -180.4706456  0.275637E-01  0.903E-01    0.03       1.0  T
   6   -180.4330248  0.376208E-01  0.121E+00    0.03       1.0  T
   7   -180.5240629 -0.910381E-01  0.625E-01    0.01       1.0  T
   8   -180.5135543  0.105086E-01  0.737E-01    0.03       1.0  T
   9   -180.5299598 -0.164055E-01  0.485E-01    0.04       1.0  T
  10   -180.5342390 -0.427920E-02  0.481E-01    0.02       1.0  T
  11   -180.5395117 -0.527268E-02  0.344E-01    0.01       1.0  T
  12   -180.5480279 -0.851625E-02  0.944E-02    0.02       1.0  T
  13   -180.5470469  0.980951E-03  0.140E-01    0.03       1.0  T
  14   -180.5485571 -0.151017E-02  0.246E-02    0.02       1.0  T
  15   -180.5485614 -0.430354E-05  0.216E-02    0.02       1.0  T
  16   -180.5485575  0.391303E-05  0.218E-02    0.02       1.0  T
  17   -180.5485863 -0.287856E-04  0.658E-03    0.02       1.6  T
  18   -180.5485836  0.267300E-05  0.941E-03    0.02       1.1  T
  19   -180.5485728  0.108366E-04  0.141E-02    0.02       1.0  T
  20   -180.5485799 -0.706609E-05  0.106E-02    0.02       1.0  T
  21   -180.5485875 -0.766398E-05  0.532E-03    0.02       2.0  T
  22   -180.5485891 -0.160307E-05  0.251E-03    0.02       4.2  T
  23   -180.5485895 -0.426315E-06  0.196E-03    0.02       5.4  T
  24   -180.5485895  0.789485E-07  0.230E-03    0.02       4.6  T
  25   -180.5485894  0.701102E-07  0.242E-03    0.02       4.4  T
  26   -180.5485898 -0.418867E-06  0.260E-04    0.02      40.6  T
  27   -180.5485898  0.121800E-07  0.427E-04    0.02      24.7  T
     SCC iter.                  ...        0 min,  0.544 sec
     gradient                   ...        0 min,  0.048 sec
 * total energy  :  -178.8207935 Eh     change       -0.1132600E-02 Eh
   gradient norm :     0.0124325 Eh/α   predicted    -0.1121986E-02 (  -0.94%)
   displ. norm   :     0.7399945 α      lambda       -0.1327294E-02
   maximum displ.:     0.3765268 α      in ANC's #7, #5, #4, ...

........................................................................
.............................. CYCLE   89 ..............................
........................................................................

 iter      E             dE          RMSdq      gap      omega  full diag
   1   -180.4239033 -0.180424E+03  0.144E+00    0.01       0.0  T
   2   -176.0713955  0.435251E+01  0.966E+00    0.01       1.0  T
   3   -180.1601838 -0.408879E+01  0.208E+00    1.01       1.0  T
   4   -180.2372795 -0.770957E-01  0.226E+00    0.03       1.0  T
   5   -180.3454006 -0.108121E+00  0.143E+00    0.15       1.0  T
   6   -180.4428975 -0.974969E-01  0.102E+00    0.09       1.0  T
   7   -180.4417849  0.111251E-02  0.134E+00    0.03       1.0  T
   8   -180.3816138  0.601712E-01  0.154E+00    0.03       1.0  T
   9   -180.5042482 -0.122634E+00  0.853E-01    0.01       1.0  T
  10   -180.5197569 -0.155087E-01  0.673E-01    0.02       1.0  T
  11   -180.5296087 -0.985183E-02  0.525E-01    0.03       1.0  T
  12   -180.5323183 -0.270960E-02  0.493E-01    0.02       1.0  T
  13   -180.5464852 -0.141669E-01  0.119E-01    0.03       1.0  T
  14   -180.5458268  0.658406E-03  0.146E-01    0.03       1.0  T
  15   -180.5468865 -0.105964E-02  0.115E-01    0.03       1.0  T
  16   -180.5476369 -0.750449E-03  0.543E-02    0.03       1.0  T
  17   -180.5477535 -0.116553E-03  0.436E-02    0.02       1.0  T
  18   -180.5476586  0.948811E-04  0.601E-02    0.02       1.0  T
  19   -180.5478045 -0.145926E-03  0.302E-02    0.02       1.0  T
  20   -180.5478819 -0.774088E-04  0.835E-03    0.02       1.3  T
  21   -180.5478793  0.259677E-05  0.124E-02    0.02       1.0  T
  22   -180.5478875 -0.817182E-05  0.531E-03    0.02       2.0  T
  23   -180.5478889 -0.143448E-05  0.260E-03    0.02       4.0  T
  24   -180.5478892 -0.287996E-06  0.103E-03    0.02      10.2  T
  25   -180.5478874  0.183311E-05  0.558E-03    0.02       1.9  T
  26   -180.5478893 -0.188869E-05  0.577E-04    0.02      18.3  T
  27   -180.5478891  0.128727E-06  0.146E-03    0.02       7.2  T
  28   -180.5478893 -0.152516E-06  0.350E-04    0.02      30.1  T
  29   -180.5478893  0.190174E-07  0.696E-04    0.02      15.1  T
     SCC iter.                  ...        0 min,  0.582 sec
     gradient                   ...        0 min,  0.046 sec
 * total energy  :  -178.8218249 Eh     change       -0.1031386E-02 Eh
   gradient norm :     0.0157718 Eh/α   predicted    -0.1027057E-02 (  -0.42%)
   displ. norm   :     0.7812190 α      lambda       -0.1256876E-02
   maximum displ.:     0.4269376 α      in ANC's #7, #4, #5, ...

........................................................................
.............................. CYCLE   90 ..............................
........................................................................

 iter      E             dE          RMSdq      gap      omega  full diag
   1   -180.3644088 -0.180364E+03  0.175E+00    0.02       0.0  T
   2   -175.8961490  0.446826E+01  0.108E+01    0.30       1.0  T
   3   -180.1198737 -0.422372E+01  0.224E+00    1.03       1.0  T
   4   -180.2531352 -0.133261E+00  0.232E+00    0.03       1.0  T
   5   -180.2887953 -0.356601E-01  0.160E+00    0.27       1.0  T
   6   -180.3461711 -0.573757E-01  0.136E+00    0.17       1.0  T
   7   -180.4935289 -0.147358E+00  0.103E+00    0.01       1.0  T
   8   -180.4265732  0.669557E-01  0.142E+00    0.02       1.0  T
   9   -180.4724744 -0.459011E-01  0.112E+00    0.02       1.0  T
  10   -180.5280761 -0.556017E-01  0.544E-01    0.03       1.0  T
  11   -180.3174694  0.210607E+00  0.199E+00    0.03       1.0  T
  12   -180.5267406 -0.209271E+00  0.561E-01    0.03       1.0  T
  13   -180.5345984 -0.785772E-02  0.431E-01    0.02       1.0  T
  14   -180.5365894 -0.199105E-02  0.329E-01    0.04       1.0  T
  15   -180.5415543 -0.496486E-02  0.259E-01    0.03       1.0  T
  16   -180.5450388 -0.348456E-02  0.135E-01    0.03       1.0  T
  17   -180.5456757 -0.636898E-03  0.998E-02    0.03       1.0  T
  18   -180.5457992 -0.123466E-03  0.934E-02    0.02       1.0  T
  19   -180.5462703 -0.471164E-03  0.384E-02    0.02       1.0  T
  20   -180.5463264 -0.560503E-04  0.234E-02    0.02       1.0  T
  21   -180.5463598 -0.333890E-04  0.618E-03    0.02       1.7  T
  22   -180.5463504  0.938447E-05  0.122E-02    0.02       1.0  T
  23   -180.5463576 -0.723409E-05  0.802E-03    0.02       1.3  T
  24   -180.5463601 -0.249639E-05  0.409E-03    0.02       2.6  T
  25   -180.5463572  0.297226E-05  0.829E-03    0.02       1.3  T
  26   -180.5463607 -0.348881E-05  0.400E-03    0.02       2.6  T
  27   -180.5463611 -0.438968E-06  0.316E-03    0.02       3.3  T
  28   -180.5463617 -0.571240E-06  0.875E-04    0.02      12.1  T
  29   -180.5463617 -0.323933E-07  0.471E-04    0.02      22.4  T
     SCC iter.                  ...        0 min,  0.589 sec
     gradient                   ...        0 min,  0.047 sec
 * total energy  :  -178.8228446 Eh     change       -0.1019697E-02 Eh
   gradient norm :     0.0128099 Eh/α   predicted    -0.1011980E-02 (  -0.76%)
   displ. norm   :     0.6868005 α      lambda       -0.1250383E-02
   maximum displ.:     0.3259640 α      in ANC's #7, #3, #5, ...

........................................................................
.............................. CYCLE   91 ..............................
........................................................................

 iter      E             dE          RMSdq      gap      omega  full diag
   1   -180.3407821 -0.180341E+03  0.191E+00    0.02       0.0  T
   2   -175.8615378  0.447924E+01  0.108E+01    0.35       1.0  T
   3   -180.0783501 -0.421681E+01  0.244E+00    0.86       1.0  T
   4   -180.4846822 -0.406332E+00  0.152E+00    0.01       1.0  T
   5   -180.2934955  0.191187E+00  0.158E+00    0.28       1.0  T
   6   -180.3872928 -0.937973E-01  0.127E+00    0.13       1.0  T
   7   -180.4181618 -0.308689E-01  0.162E+00    0.02       1.0  T
   8   -180.3574062  0.607556E-01  0.173E+00    0.02       1.0  T
   9   -180.4398282 -0.824221E-01  0.139E+00    0.02       1.0  T
  10   -180.5286074 -0.887791E-01  0.689E-01    0.02       1.0  T
  11   -180.5360560 -0.744865E-02  0.497E-01    0.01       1.0  T
  12   -180.4348808  0.101175E+00  0.141E+00    0.01       1.0  T
  13   -180.5319497 -0.970689E-01  0.548E-01    0.04       1.0  T
  14   -180.5518877 -0.199380E-01  0.123E-01    0.03       1.0  T
  15   -180.5456808  0.620696E-02  0.312E-01    0.03       1.0  T
  16   -180.5528590 -0.717818E-02  0.700E-02    0.03       1.0  T
  17   -180.5532655 -0.406509E-03  0.216E-02    0.02       1.0  T
  18   -180.5527589  0.506544E-03  0.957E-02    0.02       1.0  T
  19   -180.5530108 -0.251860E-03  0.716E-02    0.02       1.0  T
  20   -180.5531353 -0.124535E-03  0.522E-02    0.02       1.0  T
  21   -180.5532046 -0.693130E-04  0.420E-02    0.02       1.0  T
  22   -180.5532980 -0.933699E-04  0.139E-02    0.02       1.0  T
  23   -180.5532912  0.677880E-05  0.161E-02    0.02       1.0  T
  24   -180.5533088 -0.175380E-04  0.357E-03    0.02       3.0  T
  25   -180.5533070  0.172398E-05  0.630E-03    0.02       1.7  T
  26   -180.5533077 -0.651962E-06  0.639E-03    0.02       1.7  T
  27   -180.5533100 -0.227203E-05  0.166E-03    0.02       6.4  T
  28   -180.5533100  0.122205E-07  0.180E-03    0.02       5.9  T
  29   -180.5533099  0.930057E-07  0.189E-03    0.02       5.6  T
  30   -180.5533102 -0.330363E-06  0.852E-04    0.02      12.4  T
  31   -180.5533102 -0.312464E-07  0.352E-04    0.02      29.9  T
     SCC iter.                  ...        0 min,  0.660 sec
     gradient                   ...        0 min,  0.049 sec
 * total energy  :  -178.8238627 Eh     change       -0.1018134E-02 Eh
   gradient norm :     0.0121602 Eh/α   predicted    -0.9200942E-03 (  -9.63%)
   displ. norm   :     0.7702092 α      lambda       -0.1273048E-02
   maximum displ.:     0.4060682 α      in ANC's #7, #3, #5, ...

........................................................................
.............................. CYCLE   92 ..............................
........................................................................

 iter      E             dE          RMSdq      gap      omega  full diag
   1   -180.3676494 -0.180368E+03  0.178E+00    0.02       0.0  T
   2   -176.0618316  0.430582E+01  0.108E+01    0.26       1.0  T
   3   -180.1004968 -0.403867E+01  0.236E+00    0.94       1.0  T
   4   -180.2984417 -0.197945E+00  0.224E+00    0.02       1.0  T
   5   -180.2855157  0.129260E-01  0.165E+00    0.30       1.0  T
   6   -180.3432064 -0.576907E-01  0.141E+00    0.18       1.0  T
   7   -180.5074085 -0.164202E+00  0.958E-01    0.03       1.0  T
   8   -180.4205390  0.868694E-01  0.150E+00    0.02       1.0  T
   9   -180.4826871 -0.621481E-01  0.113E+00    0.01       1.0  T
  10   -180.5283628 -0.456756E-01  0.605E-01    0.04       1.0  T
  11   -180.4124261  0.115937E+00  0.156E+00    0.02       1.0  T
  12   -180.5316307 -0.119205E+00  0.601E-01    0.03       1.0  T
  13   -180.5481259 -0.164952E-01  0.293E-01    0.03       1.0  T
  14   -180.5472561  0.869774E-03  0.272E-01    0.04       1.0  T
  15   -180.5533492 -0.609310E-02  0.106E-01    0.03       1.0  T
  16   -180.5540923 -0.743060E-03  0.315E-02    0.02       1.0  T
  17   -180.5537675  0.324800E-03  0.757E-02    0.02       1.0  T
  18   -180.5539354 -0.167925E-03  0.430E-02    0.02       1.0  T
  19   -180.5536103  0.325065E-03  0.912E-02    0.02       1.0  T
  20   -180.5541136 -0.503236E-03  0.128E-02    0.02       1.0  T
  21   -180.5541078  0.579467E-05  0.188E-02    0.02       1.0  T
  22   -180.5540847  0.230944E-04  0.247E-02    0.02       1.0  T
  23   -180.5541187 -0.340192E-04  0.127E-02    0.02       1.0  T
  24   -180.5541267 -0.796106E-05  0.467E-03    0.02       2.3  T
  25   -180.5541221  0.456945E-05  0.956E-03    0.02       1.1  T
  26   -180.5541285 -0.639525E-05  0.972E-04    0.02      10.8  T
  27   -180.5541283  0.177377E-06  0.181E-03    0.02       5.8  T
  28   -180.5541283 -0.360252E-07  0.172E-03    0.02       6.1  T
  29   -180.5541285 -0.177444E-06  0.697E-04    0.02      15.1  T
  30   -180.5541283  0.216991E-06  0.203E-03    0.02       5.2  T
  31   -180.5541285 -0.234638E-06  0.434E-04    0.02      24.3  T
     SCC iter.                  ...        0 min,  0.616 sec
     gradient                   ...        0 min,  0.048 sec
 * total energy  :  -178.8249424 Eh     change       -0.1079662E-02 Eh
   gradient norm :     0.0106432 Eh/α   predicted    -0.1014126E-02 (  -6.07%)
   displ. norm   :     0.7066263 α      lambda       -0.1293665E-02
   maximum displ.:     0.3234385 α      in ANC's #7, #3, #4, ...
 * RMSD in coord.:     1.7086523 α      energy gain  -0.3481923E-01 Eh

generating ANC from exact Hessian ...
Using Lindh-Hessian (1995)
 Shifting diagonal of input Hessian by   1.377929232100397E-002
 Lowest  eigenvalues of input Hessian
    0.010000    0.013292    0.013376    0.000000    0.000000    0.000000
    0.000000    0.000000    0.000000    0.013926    0.013996    0.014125
    0.014217    0.014487    0.014524    0.014780    0.014833    0.014994
 Highest eigenvalues
    2.063504    2.164909    2.220870    2.240834    2.241768    2.272463
 

........................................................................
.............................. CYCLE   93 ..............................
........................................................................

 iter      E             dE          RMSdq      gap      omega  full diag
   1   -180.3944114 -0.180394E+03  0.167E+00    0.02       0.0  T
   2   -176.2128649  0.418155E+01  0.935E+00    0.08       1.0  T
   3   -180.0765319 -0.386367E+01  0.243E+00    0.77       1.0  T
   4   -180.4047608 -0.328229E+00  0.145E+00    0.11       1.0  T
   5   -180.3057290  0.990318E-01  0.212E+00    0.02       1.0  T
   6   -180.3930620 -0.873331E-01  0.128E+00    0.12       1.0  T
   7   -180.4486647 -0.556026E-01  0.140E+00    0.02       1.0  T
   8   -180.5221129 -0.734483E-01  0.846E-01    0.02       1.0  T
   9   -180.5064891  0.156238E-01  0.880E-01    0.01       1.0  T
  10   -180.5217379 -0.152488E-01  0.703E-01    0.01       1.0  T
  11   -180.5247136 -0.297566E-02  0.745E-01    0.01       1.0  T
  12   -180.5586373 -0.339237E-01  0.842E-02    0.03       1.0  T
  13   -180.5531188  0.551845E-02  0.297E-01    0.02       1.0  T
  14   -180.5578548 -0.473596E-02  0.115E-01    0.03       1.0  T
  15   -180.5560836  0.177121E-02  0.225E-01    0.03       1.0  T
  16   -180.5585852 -0.250161E-02  0.906E-02    0.03       1.0  T
  17   -180.5591492 -0.564035E-03  0.169E-02    0.02       1.0  T
  18   -180.5590679  0.813227E-04  0.365E-02    0.02       1.0  T
  19   -180.5591127 -0.448531E-04  0.256E-02    0.02       1.0  T
  20   -180.5591553 -0.425890E-04  0.120E-02    0.02       1.0  T
  21   -180.5591610 -0.566405E-05  0.111E-02    0.02       1.0  T
  22   -180.5591424  0.186205E-04  0.210E-02    0.02       1.0  T
  23   -180.5591674 -0.249737E-04  0.449E-03    0.02       2.3  T
  24   -180.5591684 -0.104573E-05  0.241E-03    0.02       4.4  T
  25   -180.5591635  0.492814E-05  0.920E-03    0.02       1.1  T
  26   -180.5591665 -0.306942E-05  0.588E-03    0.02       1.8  T
  27   -180.5591686 -0.201769E-05  0.124E-03    0.02       8.5  T
  28   -180.5591687 -0.162464E-06  0.228E-04    0.02      46.2  T
  29   -180.5591686  0.804431E-07  0.122E-03    0.02       8.6  T
  30   -180.5591687 -0.804467E-07  0.314E-04    0.02      33.6  T
     SCC iter.                  ...        0 min,  0.700 sec
     gradient                   ...        0 min,  0.050 sec
 * total energy  :  -178.8259218 Eh     change       -0.9793699E-03 Eh
   gradient norm :     0.0102065 Eh/α   predicted     0.0000000E+00 (-100.00%)
   displ. norm   :     0.1110582 α      lambda       -0.3879823E-03
   maximum displ.:     0.0585149 α      in ANC's #9, #1, #6, ...

........................................................................
.............................. CYCLE   94 ..............................
........................................................................

 iter      E             dE          RMSdq      gap      omega  full diag
   1   -180.5475292 -0.180548E+03  0.436E-01    0.03       0.0  T
   2   -178.8117198  0.173581E+01  0.472E+00    0.03       1.0  T
   3   -180.2957488 -0.148403E+01  0.157E+00    0.31       1.0  T
   4   -180.3474443 -0.516956E-01  0.163E+00    0.02       1.0  T
   5   -180.5178302 -0.170386E+00  0.696E-01    0.05       1.0  T
   6   -180.5381912 -0.203610E-01  0.517E-01    0.01       1.0  T
   7   -180.5483134 -0.101223E-01  0.407E-01    0.02       1.0  T
   8   -180.5499719 -0.165846E-02  0.331E-01    0.03       1.0  T
   9   -180.5551478 -0.517590E-02  0.179E-01    0.03       1.0  T
  10   -180.5582972 -0.314938E-02  0.326E-02    0.02       1.0  T
  11   -180.5579275  0.369630E-03  0.810E-02    0.02       1.0  T
  12   -180.5580432 -0.115686E-03  0.668E-02    0.02       1.0  T
  13   -180.5582113 -0.168054E-03  0.517E-02    0.02       1.0  T
  14   -180.5583638 -0.152552E-03  0.120E-02    0.02       1.0  T
  15   -180.5583661 -0.223779E-05  0.105E-02    0.02       1.0  T
  16   -180.5583659  0.178039E-06  0.107E-02    0.02       1.0  T
  17   -180.5583741 -0.822245E-05  0.504E-03    0.02       2.1  T
  18   -180.5583727  0.139724E-05  0.579E-03    0.02       1.8  T
  19   -180.5583732 -0.480220E-06  0.482E-03    0.02       2.2  T
  20   -180.5583749 -0.169914E-05  0.338E-03    0.02       3.1  T
  21   -180.5583746  0.251293E-06  0.343E-03    0.02       3.1  T
  22   -180.5583749 -0.212699E-06  0.336E-03    0.02       3.1  T
  23   -180.5583755 -0.659914E-06  0.694E-04    0.02      15.2  T
  24   -180.5583755 -0.192065E-07  0.514E-04    0.02      20.5  T
     SCC iter.                  ...        0 min,  0.486 sec
     gradient                   ...        0 min,  0.049 sec
 * total energy  :  -178.8261831 Eh     change       -0.2613117E-03 Eh
   gradient norm :     0.0062657 Eh/α   predicted    -0.1964631E-03 ( -24.82%)
   displ. norm   :     0.3642579 α      lambda       -0.9394078E-03
   maximum displ.:     0.2037591 α      in ANC's #9, #1, #6, ...

........................................................................
.............................. CYCLE   95 ..............................
........................................................................

 iter      E             dE          RMSdq      gap      omega  full diag
   1   -180.5077621 -0.180508E+03  0.891E-01    0.01       0.0  T
   2   -177.8732477  0.263451E+01  0.696E+00    0.02       1.0  T
   3   -180.2029447 -0.232970E+01  0.187E+00    0.91       1.0  T
   4   -180.3276151 -0.124670E+00  0.148E+00    0.21       1.0  T
   5   -180.3998082 -0.721931E-01  0.130E+00    0.02       1.0  T
   6   -180.3826505  0.171577E-01  0.126E+00    0.15       1.0  T
   7   -180.5098393 -0.127189E+00  0.671E-01    0.07       1.0  T
   8   -180.5360727 -0.262334E-01  0.511E-01    0.04       1.0  T
   9   -180.4745563  0.615164E-01  0.106E+00    0.03       1.0  T
  10   -180.4473164  0.272399E-01  0.135E+00    0.01       1.0  T
  11   -180.4625619 -0.152455E-01  0.119E+00    0.02       1.0  T
  12   -180.5293123 -0.667505E-01  0.579E-01    0.01       1.0  T
  13   -180.5484789 -0.191666E-01  0.270E-01    0.04       1.0  T
  14   -180.5511023 -0.262338E-02  0.212E-01    0.04       1.0  T
  15   -180.5342092  0.168931E-01  0.471E-01    0.05       1.0  T
  16   -180.5485592 -0.143500E-01  0.301E-01    0.04       1.0  T
  17   -180.5547799 -0.622069E-02  0.832E-02    0.02       1.0  T
  18   -180.5552033 -0.423328E-03  0.496E-02    0.02       1.0  T
  19   -180.5554092 -0.205921E-03  0.202E-02    0.02       1.0  T
  20   -180.5553939  0.152410E-04  0.255E-02    0.02       1.0  T
  21   -180.5554103 -0.163233E-04  0.176E-02    0.02       1.0  T
  22   -180.5554314 -0.210913E-04  0.134E-02    0.02       1.0  T
  23   -180.5554325 -0.112475E-05  0.100E-02    0.02       1.1  T
  24   -180.5554361 -0.365746E-05  0.736E-03    0.02       1.4  T
  25   -180.5554402 -0.409742E-05  0.444E-03    0.02       2.4  T
  26   -180.5554407 -0.500058E-06  0.325E-03    0.02       3.2  T
  27   -180.5554410 -0.281760E-06  0.190E-03    0.02       5.5  T
  28   -180.5554413 -0.281457E-06  0.529E-04    0.02      19.9  T
  29   -180.5554412  0.102827E-06  0.120E-03    0.02       8.8  T
  30   -180.5554413 -0.118146E-06  0.358E-04    0.02      29.5  T
     SCC iter.                  ...        0 min,  0.623 sec
     gradient                   ...        0 min,  0.046 sec
 * total energy  :  -178.8262801 Eh     change       -0.9699911E-04 Eh
   gradient norm :     0.0130460 Eh/α   predicted    -0.5320279E-03 ( 448.49%)
   displ. norm   :     0.1774245 α      lambda       -0.9138420E-03
   maximum displ.:     0.0921211 α      in ANC's #1, #9, #6, ...

........................................................................
.............................. CYCLE   96 ..............................
........................................................................

 iter      E             dE          RMSdq      gap      omega  full diag
   1   -180.4546196 -0.180455E+03  0.134E+00    0.01       0.0  T
   2   -176.1682098  0.428641E+01  0.898E+00    0.14       1.0  T
   3   -180.1511988 -0.398299E+01  0.215E+00    0.95       1.0  T
   4   -180.2329706 -0.817719E-01  0.228E+00    0.02       1.0  T
   5   -180.3314185 -0.984479E-01  0.152E+00    0.17       1.0  T
   6   -180.4417383 -0.110320E+00  0.108E+00    0.09       1.0  T
   7   -180.4921901 -0.504519E-01  0.109E+00    0.01       1.0  T
   8   -180.4470442  0.451459E-01  0.129E+00    0.02       1.0  T
   9   -180.5310650 -0.840208E-01  0.627E-01    0.03       1.0  T
  10   -180.4382866  0.927784E-01  0.142E+00    0.01       1.0  T
  11   -180.5259112 -0.876247E-01  0.645E-01    0.04       1.0  T
  12   -180.5350782 -0.916697E-02  0.582E-01    0.02       1.0  T
  13   -180.5403749 -0.529666E-02  0.469E-01    0.03       1.0  T
  14   -180.5510076 -0.106327E-01  0.220E-01    0.03       1.0  T
  15   -180.5546648 -0.365722E-02  0.971E-02    0.03       1.0  T
  16   -180.5550631 -0.398334E-03  0.655E-02    0.03       1.0  T
  17   -180.5551308 -0.677051E-04  0.672E-02    0.02       1.0  T
  18   -180.5552906 -0.159728E-03  0.370E-02    0.02       1.0  T
  19   -180.5552868  0.378647E-05  0.368E-02    0.02       1.0  T
  20   -180.5554000 -0.113213E-03  0.195E-02    0.02       1.0  T
  21   -180.5554147 -0.146785E-04  0.900E-03    0.02       1.2  T
  22   -180.5554124  0.227340E-05  0.111E-02    0.02       1.0  T
  23   -180.5554169 -0.454113E-05  0.759E-03    0.02       1.4  T
  24   -180.5554191 -0.215626E-05  0.436E-03    0.02       2.4  T
  25   -180.5554190  0.111749E-06  0.484E-03    0.02       2.2  T
  26   -180.5554203 -0.133768E-05  0.161E-03    0.02       6.5  T
  27   -180.5554203  0.119513E-08  0.200E-03    0.02       5.3  T
  28   -180.5554205 -0.148155E-06  0.123E-03    0.02       8.6  T
  29   -180.5554205 -0.485585E-07  0.793E-04    0.02      13.3  T
  30   -180.5554205  0.183206E-08  0.853E-04    0.02      12.4  T
     SCC iter.                  ...        0 min,  0.626 sec
     gradient                   ...        0 min,  0.049 sec
 * total energy  :  -178.8267641 Eh     change       -0.4840427E-03 Eh
   gradient norm :     0.0095865 Eh/α   predicted    -0.4713065E-03 (  -2.63%)
   displ. norm   :     0.1809768 α      lambda       -0.5101980E-03
   maximum displ.:     0.1063862 α      in ANC's #9, #4, #6, ...

........................................................................
.............................. CYCLE   97 ..............................
........................................................................

 iter      E             dE          RMSdq      gap      omega  full diag
   1   -180.5350155 -0.180535E+03  0.540E-01    0.04       0.0  T
   2   -176.7249380  0.381008E+01  0.714E+00    0.09       1.0  T
   3   -180.4378946 -0.371296E+01  0.109E+00    0.09       1.0  T
   4   -180.2560042  0.181890E+00  0.197E+00    0.02       1.0  T
   5   -180.5170124 -0.261008E+00  0.680E-01    0.05       1.0  T
   6   -180.5469484 -0.299360E-01  0.304E-01    0.01       1.0  T
   7   -180.5345184  0.124299E-01  0.594E-01    0.01       1.0  T
   8   -180.5533382 -0.188198E-01  0.160E-01    0.03       1.0  T
   9   -180.5540913 -0.753114E-03  0.191E-01    0.02       1.0  T
  10   -180.5548102 -0.718815E-03  0.126E-01    0.02       1.0  T
  11   -180.5559020 -0.109188E-02  0.564E-02    0.02       1.0  T
  12   -180.5560011 -0.990183E-04  0.508E-02    0.02       1.0  T
  13   -180.5558656  0.135462E-03  0.642E-02    0.03       1.0  T
  14   -180.5559947 -0.129096E-03  0.411E-02    0.03       1.0  T
  15   -180.5561357 -0.141006E-03  0.174E-02    0.02       1.0  T
  16   -180.5561204  0.153119E-04  0.244E-02    0.02       1.0  T
  17   -180.5561507 -0.302971E-04  0.976E-03    0.02       1.1  T
  18   -180.5561574 -0.671368E-05  0.239E-03    0.02       4.4  T
  19   -180.5561571  0.331252E-06  0.335E-03    0.02       3.1  T
  20   -180.5561577 -0.643379E-06  0.111E-03    0.02       9.5  T
  21   -180.5561575  0.209810E-06  0.219E-03    0.02       4.8  T
  22   -180.5561577 -0.221183E-06  0.108E-03    0.02       9.7  T
  23   -180.5561578 -0.659530E-07  0.299E-04    0.02      35.3  T
  24   -180.5561578 -0.510542E-08  0.199E-04    0.02      53.0  T
     SCC iter.                  ...        0 min,  0.501 sec
     gradient                   ...        0 min,  0.049 sec
 * total energy  :  -178.8270779 Eh     change       -0.3137698E-03 Eh
   gradient norm :     0.0058949 Eh/α   predicted    -0.2634535E-03 ( -16.04%)
   displ. norm   :     0.4119573 α      lambda       -0.6031055E-03
   maximum displ.:     0.2616223 α      in ANC's #9, #6, #4, ...

........................................................................
.............................. CYCLE   98 ..............................
........................................................................

 iter      E             dE          RMSdq      gap      omega  full diag
   1   -180.5456991 -0.180546E+03  0.389E-01    0.03       0.0  T
   2   -178.8906534  0.165505E+01  0.461E+00    0.03       1.0  T
   3   -180.3010378 -0.141038E+01  0.154E+00    0.27       1.0  T
   4   -180.3452129 -0.441751E-01  0.163E+00    0.02       1.0  T
   5   -180.5168062 -0.171593E+00  0.752E-01    0.02       1.0  T
   6   -180.4670065  0.497997E-01  0.105E+00    0.02       1.0  T
   7   -180.5151724 -0.481659E-01  0.802E-01    0.02       1.0  T
   8   -180.5389173 -0.237449E-01  0.463E-01    0.04       1.0  T
   9   -180.5506843 -0.117670E-01  0.195E-01    0.03       1.0  T
  10   -180.5494009  0.128333E-02  0.290E-01    0.02       1.0  T
  11   -180.5543477 -0.494674E-02  0.427E-02    0.02       1.0  T
  12   -180.5539017  0.445986E-03  0.866E-02    0.03       1.0  T
  13   -180.5542997 -0.398016E-03  0.562E-02    0.03       1.0  T
  14   -180.5545266 -0.226883E-03  0.159E-02    0.02       1.0  T
  15   -180.5544990  0.276021E-04  0.247E-02    0.02       1.0  T
  16   -180.5545173 -0.182780E-04  0.208E-02    0.02       1.0  T
  17   -180.5545415 -0.242439E-04  0.940E-03    0.02       1.1  T
  18   -180.5545434 -0.192705E-05  0.888E-03    0.02       1.2  T
  19   -180.5545447 -0.121728E-05  0.630E-03    0.02       1.7  T
  20   -180.5545483 -0.359264E-05  0.186E-03    0.02       5.7  T
  21   -180.5545486 -0.301661E-06  0.417E-04    0.02      25.3  T
  22   -180.5545484  0.199194E-06  0.149E-03    0.02       7.1  T
  23   -180.5545483  0.194645E-07  0.194E-03    0.02       5.4  T
  24   -180.5545486 -0.228199E-06  0.212E-04    0.02      49.8  T
     SCC iter.                  ...        0 min,  0.530 sec
     gradient                   ...        0 min,  0.048 sec
 * total energy  :  -178.8275708 Eh     change       -0.4928946E-03 Eh
   gradient norm :     0.0073121 Eh/α   predicted    -0.3527282E-03 ( -28.44%)
   displ. norm   :     0.6677025 α      lambda       -0.8414013E-03
   maximum displ.:     0.4198815 α      in ANC's #9, #6, #4, ...

........................................................................
.............................. CYCLE   99 ..............................
........................................................................

 iter      E             dE          RMSdq      gap      omega  full diag
   1   -180.5461948 -0.180546E+03  0.324E-01    0.01       0.0  T
   2   -180.2818425  0.264352E+00  0.158E+00    0.46       1.0  T
   3   -180.1190118  0.162831E+00  0.232E+00    0.02       1.0  T
   4   -180.4811492 -0.362137E+00  0.977E-01    0.02       1.0  T
   5   -180.4717456  0.940356E-02  0.913E-01    0.02       1.0  T
   6   -180.4422569  0.294888E-01  0.102E+00    0.02       1.0  T
   7   -180.4726897 -0.304328E-01  0.932E-01    0.06       1.0  T
   8   -180.4809069 -0.821717E-02  0.901E-01    0.05       1.0  T
   9   -180.5312322 -0.503253E-01  0.477E-01    0.04       1.0  T
  10   -180.5416682 -0.104360E-01  0.388E-01    0.01       1.0  T
  11   -180.5495178 -0.784957E-02  0.166E-01    0.02       1.0  T
  12   -180.5487018  0.815946E-03  0.170E-01    0.03       1.0  T
  13   -180.5493223 -0.620425E-03  0.172E-01    0.03       1.0  T
  14   -180.5515790 -0.225674E-02  0.329E-02    0.03       1.0  T
  15   -180.5516586 -0.795841E-04  0.118E-02    0.02       1.0  T
  16   -180.5516654 -0.680377E-05  0.799E-03    0.02       1.3  T
  17   -180.5516546  0.108395E-04  0.120E-02    0.02       1.0  T
  18   -180.5516591 -0.451638E-05  0.118E-02    0.02       1.0  T
  19   -180.5516667 -0.759798E-05  0.517E-03    0.02       2.0  T
  20   -180.5516688 -0.209561E-05  0.307E-03    0.02       3.4  T
  21   -180.5516693 -0.552747E-06  0.676E-04    0.02      15.6  T
  22   -180.5516690  0.359838E-06  0.199E-03    0.02       5.3  T
  23   -180.5516693 -0.304261E-06  0.123E-03    0.02       8.6  T
  24   -180.5516693 -0.600103E-07  0.655E-04    0.02      16.1  T
     SCC iter.                  ...        0 min,  0.548 sec
     gradient                   ...        0 min,  0.050 sec
 * total energy  :  -178.8282476 Eh     change       -0.6767691E-03 Eh
   gradient norm :     0.0098038 Eh/α   predicted    -0.6082598E-03 ( -10.12%)
   displ. norm   :     0.6267748 α      lambda       -0.7419774E-03
   maximum displ.:     0.3913761 α      in ANC's #9, #6, #4, ...

........................................................................
.............................. CYCLE  100 ..............................
........................................................................

 iter      E             dE          RMSdq      gap      omega  full diag
   1   -180.5275351 -0.180528E+03  0.605E-01    0.03       0.0  T
   2   -176.8517478  0.367579E+01  0.701E+00    0.10       1.0  T
   3   -180.2753113 -0.342356E+01  0.160E+00    0.31       1.0  T
   4   -180.2586939  0.166174E-01  0.199E+00    0.02       1.0  T
   5   -180.4956822 -0.236988E+00  0.864E-01    0.03       1.0  T
   6   -180.4142094  0.814728E-01  0.135E+00    0.02       1.0  T
   7   -180.5436183 -0.129409E+00  0.327E-01    0.03       1.0  T
   8   -180.5400844  0.353398E-02  0.423E-01    0.02       1.0  T
   9   -180.5484034 -0.831900E-02  0.186E-01    0.02       1.0  T
  10   -180.5436740  0.472940E-02  0.347E-01    0.02       1.0  T
  11   -180.5491631 -0.548912E-02  0.146E-01    0.03       1.0  T
  12   -180.5504103 -0.124725E-02  0.969E-02    0.03       1.0  T
  13   -180.5505290 -0.118642E-03  0.105E-01    0.02       1.0  T
  14   -180.5509275 -0.398526E-03  0.681E-02    0.02       1.0  T
  15   -180.5508516  0.758692E-04  0.756E-02    0.02       1.0  T
  16   -180.5511056 -0.253922E-03  0.364E-02    0.02       1.0  T
  17   -180.5512016 -0.960466E-04  0.149E-02    0.02       1.0  T
  18   -180.5512083 -0.667903E-05  0.976E-03    0.02       1.1  T
  19   -180.5512137 -0.539050E-05  0.597E-03    0.02       1.8  T
  20   -180.5512154 -0.175491E-05  0.345E-03    0.02       3.1  T
  21   -180.5512158 -0.340596E-06  0.314E-03    0.02       3.4  T
  22   -180.5512161 -0.292732E-06  0.239E-03    0.02       4.4  T
  23   -180.5512163 -0.269100E-06  0.137E-03    0.02       7.7  T
  24   -180.5512164 -0.858417E-07  0.107E-03    0.02       9.9  T
  25   -180.5512164  0.923808E-08  0.960E-04    0.02      11.0  T
  26   -180.5512165 -0.587149E-07  0.344E-04    0.02      30.6  T
     SCC iter.                  ...        0 min,  0.552 sec
     gradient                   ...        0 min,  0.046 sec
 * total energy  :  -178.8288431 Eh     change       -0.5955602E-03 Eh
   gradient norm :     0.0096259 Eh/α   predicted    -0.5167306E-03 ( -13.24%)
   displ. norm   :     0.6396087 α      lambda       -0.7782668E-03
   maximum displ.:     0.3842323 α      in ANC's #9, #6, #4, ...

........................................................................
.............................. CYCLE  101 ..............................
........................................................................

 iter      E             dE          RMSdq      gap      omega  full diag
   1   -180.5361980 -0.180536E+03  0.496E-01    0.01       0.0  T
   2   -180.2508373  0.285361E+00  0.171E+00    0.44       1.0  T
   3   -178.8360127  0.141482E+01  0.465E+00    0.03       1.0  T
   4   -180.5133785 -0.167737E+01  0.780E-01    0.04       1.0  T
   5   -180.4996916  0.136868E-01  0.862E-01    0.02       1.0  T
   6   -180.4437034  0.559882E-01  0.121E+00    0.02       1.0  T
   7   -180.3971136  0.465898E-01  0.142E+00    0.02       1.0  T
   8   -180.5473998 -0.150286E+00  0.275E-01    0.03       1.0  T
   9   -180.2681025  0.279297E+00  0.228E+00    0.03       1.0  T
  10   -180.5304849 -0.262382E+00  0.477E-01    0.05       1.0  T
  11   -180.5423339 -0.118491E-01  0.334E-01    0.04       1.0  T
  12   -180.5515915 -0.925754E-02  0.124E-01    0.03       1.0  T
  13   -180.5527231 -0.113165E-02  0.356E-02    0.03       1.0  T
  14   -180.5528135 -0.903816E-04  0.259E-02    0.02       1.0  T
  15   -180.5527001  0.113427E-03  0.471E-02    0.02       1.0  T
  16   -180.5528395 -0.139479E-03  0.993E-03    0.02       1.1  T
  17   -180.5527802  0.593641E-04  0.271E-02    0.02       1.0  T
  18   -180.5528388 -0.586464E-04  0.107E-02    0.02       1.0  T
  19   -180.5528395 -0.664852E-06  0.101E-02    0.02       1.0  T
  20   -180.5528486 -0.913353E-05  0.210E-03    0.02       5.0  T
  21   -180.5528489 -0.259723E-06  0.167E-03    0.02       6.3  T
  22   -180.5528479  0.937248E-06  0.411E-03    0.02       2.6  T
  23   -180.5528490 -0.105269E-05  0.607E-04    0.02      17.4  T
  24   -180.5528485  0.449538E-06  0.278E-03    0.02       3.8  T
  25   -180.5528489 -0.394893E-06  0.114E-03    0.02       9.3  T
  26   -180.5528490 -0.714605E-07  0.235E-04    0.02      44.9  T
  27   -180.5528490  0.288936E-07  0.736E-04    0.02      14.3  T
     SCC iter.                  ...        0 min,  0.564 sec
     gradient                   ...        0 min,  0.050 sec
 * total energy  :  -178.8294689 Eh     change       -0.6257732E-03 Eh
   gradient norm :     0.0080496 Eh/α   predicted    -0.5483289E-03 ( -12.38%)
   displ. norm   :     0.6565144 α      lambda       -0.8159474E-03
   maximum displ.:     0.3880400 α      in ANC's #9, #6, #4, ...

........................................................................
.............................. CYCLE  102 ..............................
........................................................................

 iter      E             dE          RMSdq      gap      omega  full diag
   1   -180.4440150 -0.180444E+03  0.141E+00    0.01       0.0  T
   2   -176.2799173  0.416410E+01  0.955E+00    0.06       1.0  T
   3   -180.1531791 -0.387326E+01  0.212E+00    0.93       1.0  T
   4   -180.2233979 -0.702188E-01  0.239E+00    0.02       1.0  T
   5   -180.3321573 -0.108759E+00  0.151E+00    0.16       1.0  T
   6   -180.4413367 -0.109179E+00  0.110E+00    0.09       1.0  T
   7   -180.4763526 -0.350159E-01  0.122E+00    0.01       1.0  T
   8   -180.4357303  0.406223E-01  0.138E+00    0.02       1.0  T
   9   -180.5266074 -0.908771E-01  0.728E-01    0.02       1.0  T
  10   -180.2550758  0.271532E+00  0.234E+00    0.03       1.0  T
  11   -180.5258621 -0.270786E+00  0.690E-01    0.03       1.0  T
  12   -180.5432311 -0.173690E-01  0.431E-01    0.01       1.0  T
  13   -180.5493022 -0.607108E-02  0.307E-01    0.02       1.0  T
  14   -180.5517491 -0.244687E-02  0.211E-01    0.03       1.0  T
  15   -180.5544081 -0.265899E-02  0.679E-02    0.03       1.0  T
  16   -180.5547285 -0.320407E-03  0.367E-02    0.03       1.0  T
  17   -180.5547019  0.265851E-04  0.453E-02    0.02       1.0  T
  18   -180.5548435 -0.141556E-03  0.672E-03    0.02       1.6  T
  19   -180.5547635  0.799827E-04  0.304E-02    0.02       1.0  T
  20   -180.5548030 -0.395763E-04  0.216E-02    0.02       1.0  T
  21   -180.5548440 -0.409768E-04  0.461E-03    0.02       2.3  T
  22   -180.5548457 -0.163894E-05  0.192E-03    0.02       5.5  T
  23   -180.5548459 -0.258570E-06  0.680E-04    0.02      15.5  T
  24   -180.5548451  0.787529E-06  0.377E-03    0.02       2.8  T
  25   -180.5548459 -0.797792E-06  0.676E-04    0.02      15.6  T
     SCC iter.                  ...        0 min,  0.526 sec
     gradient                   ...        0 min,  0.048 sec
 * total energy  :  -178.8301314 Eh     change       -0.6624743E-03 Eh
   gradient norm :     0.0070909 Eh/α   predicted    -0.5838173E-03 ( -11.87%)
   displ. norm   :     0.6782003 α      lambda       -0.7341023E-03
   maximum displ.:     0.3799451 α      in ANC's #9, #6, #4, ...

........................................................................
.............................. CYCLE  103 ..............................
........................................................................

 iter      E             dE          RMSdq      gap      omega  full diag
   1   -180.4446592 -0.180445E+03  0.140E+00    0.02       0.0  T
   2   -176.2177593  0.422690E+01  0.909E+00    0.10       1.0  T
   3   -180.1276843 -0.390992E+01  0.222E+00    0.91       1.0  T
   4   -180.2659919 -0.138308E+00  0.227E+00    0.02       1.0  T
   5   -180.3030913 -0.370995E-01  0.162E+00    0.20       1.0  T
   6   -180.3945340 -0.914427E-01  0.127E+00    0.12       1.0  T
   7   -180.4938542 -0.993202E-01  0.112E+00    0.01       1.0  T
   8   -180.4196853  0.741689E-01  0.147E+00    0.02       1.0  T
   9   -180.5112744 -0.915890E-01  0.895E-01    0.01       1.0  T
  10   -180.3022684  0.209006E+00  0.215E+00    0.03       1.0  T
  11   -180.5154717 -0.213203E+00  0.725E-01    0.05       1.0  T
  12   -180.5422133 -0.267416E-01  0.479E-01    0.02       1.0  T
  13   -180.5489103 -0.669700E-02  0.327E-01    0.03       1.0  T
  14   -180.5514559 -0.254562E-02  0.198E-01    0.03       1.0  T
  15   -180.5545019 -0.304595E-02  0.918E-02    0.03       1.0  T
  16   -180.5549645 -0.462669E-03  0.673E-02    0.03       1.0  T
  17   -180.5552380 -0.273479E-03  0.263E-02    0.02       1.0  T
  18   -180.5552584 -0.204111E-04  0.231E-02    0.02       1.0  T
  19   -180.5551620  0.963989E-04  0.428E-02    0.02       1.0  T
  20   -180.5552096 -0.476117E-04  0.305E-02    0.02       1.0  T
  21   -180.5552879 -0.782266E-04  0.123E-02    0.02       1.0  T
  22   -180.5553016 -0.137219E-04  0.139E-03    0.02       7.6  T
  23   -180.5553014  0.208311E-06  0.210E-03    0.02       5.0  T
  24   -180.5553003  0.110701E-05  0.427E-03    0.02       2.5  T
  25   -180.5553011 -0.866110E-06  0.269E-03    0.02       3.9  T
  26   -180.5553017 -0.517328E-06  0.548E-04    0.02      19.2  T
  27   -180.5553015  0.145074E-06  0.175E-03    0.02       6.0  T
  28   -180.5553016 -0.788216E-07  0.116E-03    0.02       9.1  T
  29   -180.5553017 -0.783279E-07  0.450E-04    0.02      23.4  T
     SCC iter.                  ...        0 min,  0.578 sec
     gradient                   ...        0 min,  0.049 sec
 * total energy  :  -178.8307142 Eh     change       -0.5828528E-03 Eh
   gradient norm :     0.0074142 Eh/α   predicted    -0.5358806E-03 (  -8.06%)
   displ. norm   :     0.6757451 α      lambda       -0.6888448E-03
   maximum displ.:     0.3527692 α      in ANC's #9, #6, #4, ...

........................................................................
.............................. CYCLE  104 ..............................
........................................................................

 iter      E             dE          RMSdq      gap      omega  full diag
   1   -180.4664271 -0.180466E+03  0.126E+00    0.02       0.0  T
   2   -179.9644113  0.502016E+00  0.292E+00    0.02       1.0  T
   3   -180.1790636 -0.214652E+00  0.213E+00    0.62       1.0  T
   4   -180.2027067 -0.236431E-01  0.218E+00    0.02       1.0  T
   5   -180.2854181 -0.827114E-01  0.169E+00    0.28       1.0  T
   6   -180.4387724 -0.153354E+00  0.115E+00    0.09       1.0  T
   7   -180.4348189  0.395343E-02  0.139E+00    0.02       1.0  T
   8   -180.5080908 -0.732719E-01  0.930E-01    0.01       1.0  T
   9   -180.5167199 -0.862905E-02  0.835E-01    0.01       1.0  T
  10   -180.5250104 -0.829053E-02  0.694E-01    0.04       1.0  T
  11   -180.5556742 -0.306638E-01  0.137E-01    0.03       1.0  T
  12   -180.5561076 -0.433367E-03  0.132E-01    0.02       1.0  T
  13   -180.5506508  0.545679E-02  0.302E-01    0.01       1.0  T
  14   -180.5552207 -0.456993E-02  0.174E-01    0.03       1.0  T
  15   -180.5570672 -0.184649E-02  0.325E-02    0.02       1.0  T
  16   -180.5571447 -0.775222E-04  0.116E-02    0.02       1.0  T
  17   -180.5569833  0.161405E-03  0.521E-02    0.02       1.0  T
  18   -180.5571104 -0.127052E-03  0.283E-02    0.02       1.0  T
  19   -180.5570871  0.232280E-04  0.344E-02    0.02       1.0  T
  20   -180.5571441 -0.569475E-04  0.145E-02    0.02       1.0  T
  21   -180.5571539 -0.983015E-05  0.540E-03    0.02       2.0  T
  22   -180.5571434  0.105292E-04  0.142E-02    0.02       1.0  T
  23   -180.5571546 -0.111770E-04  0.551E-03    0.02       1.9  T
  24   -180.5571563 -0.176914E-05  0.771E-04    0.02      13.7  T
  25   -180.5571563  0.661599E-07  0.111E-03    0.02       9.5  T
  26   -180.5571563 -0.483250E-07  0.871E-04    0.02      12.1  T
  27   -180.5571563 -0.759701E-08  0.862E-04    0.02      12.2  T
     SCC iter.                  ...        0 min,  0.610 sec
     gradient                   ...        0 min,  0.048 sec
 * total energy  :  -178.8312207 Eh     change       -0.5065130E-03 Eh
   gradient norm :     0.0080692 Eh/α   predicted    -0.5017024E-03 (  -0.95%)
   displ. norm   :     0.7140943 α      lambda       -0.6009928E-03
   maximum displ.:     0.3844521 α      in ANC's #9, #6, #4, ...

........................................................................
.............................. CYCLE  105 ..............................
........................................................................

 iter      E             dE          RMSdq      gap      omega  full diag
   1   -180.4760406 -0.180476E+03  0.113E+00    0.01       0.0  T
   2   -176.2555355  0.422051E+01  0.874E+00    0.13       1.0  T
   3   -180.1564486 -0.390091E+01  0.207E+00    0.91       1.0  T
   4   -180.2368304 -0.803818E-01  0.231E+00    0.02       1.0  T
   5   -180.3384550 -0.101625E+00  0.148E+00    0.14       1.0  T
   6   -180.4788108 -0.140356E+00  0.961E-01    0.06       1.0  T
   7   -180.4442921  0.345187E-01  0.135E+00    0.02       1.0  T
   8   -180.4233694  0.209227E-01  0.141E+00    0.02       1.0  T
   9   -180.5218361 -0.984667E-01  0.686E-01    0.01       1.0  T
  10   -180.5220104 -0.174259E-03  0.660E-01    0.03       1.0  T
  11   -180.5400045 -0.179942E-01  0.420E-01    0.02       1.0  T
  12   -180.5501428 -0.101383E-01  0.449E-02    0.02       1.0  T
  13   -180.5443112  0.583163E-02  0.322E-01    0.02       1.0  T
  14   -180.5491185 -0.480729E-02  0.110E-01    0.03       1.0  T
  15   -180.5497399 -0.621392E-03  0.102E-01    0.02       1.0  T
  16   -180.5500757 -0.335797E-03  0.669E-02    0.02       1.0  T
  17   -180.5503159 -0.240157E-03  0.686E-03    0.02       1.5  T
  18   -180.5502708  0.450810E-04  0.237E-02    0.02       1.0  T
  19   -180.5502930 -0.222363E-04  0.157E-02    0.02       1.0  T
  20   -180.5503165 -0.234694E-04  0.476E-03    0.02       2.2  T
  21   -180.5503173 -0.820572E-06  0.487E-03    0.02       2.2  T
  22   -180.5503169  0.427479E-06  0.556E-03    0.02       1.9  T
  23   -180.5503186 -0.169389E-05  0.149E-03    0.02       7.1  T
  24   -180.5503186 -0.441486E-07  0.122E-03    0.02       8.7  T
  25   -180.5503184  0.189945E-06  0.222E-03    0.02       4.7  T
  26   -180.5503187 -0.239742E-06  0.697E-04    0.02      15.1  T
  27   -180.5503187 -0.216102E-07  0.516E-04    0.02      20.4  T
     SCC iter.                  ...        0 min,  0.566 sec
     gradient                   ...        0 min,  0.046 sec
 * total energy  :  -178.8316594 Eh     change       -0.4386962E-03 Eh
   gradient norm :     0.0092893 Eh/α   predicted    -0.4537346E-03 (   3.43%)
   displ. norm   :     0.5598864 α      lambda       -0.9827112E-03
   maximum displ.:     0.2843049 α      in ANC's #6, #2, #4, ...

........................................................................
.............................. CYCLE  106 ..............................
........................................................................

 iter      E             dE          RMSdq      gap      omega  full diag
   1   -180.5207949 -0.180521E+03  0.846E-01    0.02       0.0  T
   2   -176.0653886  0.445541E+01  0.883E+00    0.12       1.0  T
   3   -180.2474931 -0.418210E+01  0.176E+00    0.43       1.0  T
   4   -180.2392547  0.823841E-02  0.230E+00    0.02       1.0  T
   5   -180.4769011 -0.237646E+00  0.120E+00    0.01       1.0  T
   6   -180.3708962  0.106005E+00  0.169E+00    0.02       1.0  T
   7   -180.5177318 -0.146836E+00  0.694E-01    0.07       1.0  T
   8   -180.4339192  0.838126E-01  0.153E+00    0.02       1.0  T
   9   -180.5228878 -0.889686E-01  0.727E-01    0.05       1.0  T
  10   -180.5423391 -0.194513E-01  0.637E-01    0.01       1.0  T
  11   -180.5641931 -0.218540E-01  0.151E-01    0.01       1.0  T
  12   -180.5608938  0.329924E-02  0.292E-01    0.02       1.0  T
  13   -180.5658069 -0.491304E-02  0.592E-02    0.02       1.0  T
  14   -180.5652530  0.553887E-03  0.118E-01    0.02       1.0  T
  15   -180.5659842 -0.731229E-03  0.401E-02    0.02       1.0  T
  16   -180.5659662  0.179782E-04  0.326E-02    0.02       1.0  T
  17   -180.5660677 -0.101456E-03  0.105E-02    0.02       1.0  T
  18   -180.5660769 -0.924755E-05  0.598E-03    0.02       1.8  T
  19   -180.5660753  0.159805E-05  0.807E-03    0.02       1.3  T
  20   -180.5660768 -0.147784E-05  0.441E-03    0.02       2.4  T
  21   -180.5660739  0.294888E-05  0.756E-03    0.02       1.4  T
  22   -180.5660780 -0.416224E-05  0.699E-04    0.02      15.1  T
  23   -180.5660779  0.167815E-06  0.175E-03    0.02       6.0  T
  24   -180.5660779 -0.466671E-07  0.137E-03    0.02       7.7  T
  25   -180.5660779 -0.203840E-07  0.114E-03    0.02       9.2  T
  26   -180.5660780 -0.848937E-07  0.728E-04    0.02      14.5  T
  27   -180.5660780 -0.282398E-07  0.145E-04    0.02      72.8  T
     SCC iter.                  ...        0 min,  0.586 sec
     gradient                   ...        0 min,  0.049 sec
 * total energy  :  -178.8318233 Eh     change       -0.1639081E-03 Eh
   gradient norm :     0.0143502 Eh/α   predicted    -0.6453834E-03 ( 293.75%)
   displ. norm   :     0.3966931 α      lambda       -0.8580734E-03
   maximum displ.:     0.2133901 α      in ANC's #9, #6, #4, ...

........................................................................
.............................. CYCLE  107 ..............................
........................................................................

 iter      E             dE          RMSdq      gap      omega  full diag
   1   -180.5431334 -0.180543E+03  0.363E-01    0.01       0.0  T
   2   -180.2286954  0.314438E+00  0.175E+00    0.75       1.0  T
   3   -180.3948212 -0.166126E+00  0.125E+00    0.13       1.0  T
   4   -180.5244639 -0.129643E+00  0.691E-01    0.03       1.0  T
   5   -180.5243927  0.712055E-04  0.617E-01    0.04       1.0  T
   6   -180.5001901  0.242026E-01  0.831E-01    0.02       1.0  T
   7   -180.5061868 -0.599667E-02  0.751E-01    0.02       1.0  T
   8   -180.5559167 -0.497299E-01  0.275E-02    0.02       1.0  T
   9   -180.5543835  0.153322E-02  0.129E-01    0.02       1.0  T
  10   -180.5550699 -0.686441E-03  0.969E-02    0.03       1.0  T
  11   -180.5528038  0.226611E-02  0.189E-01    0.03       1.0  T
  12   -180.5552459 -0.244206E-02  0.909E-02    0.03       1.0  T
  13   -180.5556283 -0.382391E-03  0.656E-02    0.02       1.0  T
  14   -180.5559187 -0.290476E-03  0.230E-02    0.02       1.0  T
  15   -180.5559638 -0.450369E-04  0.765E-03    0.02       1.4  T
  16   -180.5559680 -0.422407E-05  0.420E-03    0.02       2.5  T
  17   -180.5559691 -0.116004E-05  0.222E-03    0.02       4.7  T
  18   -180.5559671  0.201703E-05  0.558E-03    0.02       1.9  T
  19   -180.5559693 -0.213422E-05  0.201E-03    0.02       5.3  T
  20   -180.5559696 -0.304337E-06  0.904E-04    0.02      11.7  T
  21   -180.5559696 -0.220484E-08  0.722E-04    0.02      14.6  T
     SCC iter.                  ...        0 min,  0.452 sec
     gradient                   ...        0 min,  0.048 sec
 * total energy  :  -178.8323970 Eh     change       -0.5737209E-03 Eh
   gradient norm :     0.0083984 Eh/α   predicted    -0.4965544E-03 ( -13.45%)
   displ. norm   :     0.5185424 α      lambda       -0.4315007E-03
   maximum displ.:     0.2434462 α      in ANC's #6, #9, #4, ...

........................................................................
.............................. CYCLE  108 ..............................
........................................................................

 iter      E             dE          RMSdq      gap      omega  full diag
   1   -180.5385337 -0.180539E+03  0.441E-01    0.01       0.0  T
   2   -180.2802625  0.258271E+00  0.166E+00    0.18       1.0  T
   3   -178.4367677  0.184349E+01  0.521E+00    0.02       1.0  T
   4   -180.4649024 -0.202813E+01  0.120E+00    0.01       1.0  T
   5   -180.4906671 -0.257647E-01  0.964E-01    0.02       1.0  T
   6   -180.4331843  0.574828E-01  0.131E+00    0.02       1.0  T
   7   -180.4072339  0.259504E-01  0.143E+00    0.02       1.0  T
   8   -180.4727086 -0.654747E-01  0.116E+00    0.02       1.0  T
   9   -180.5470444 -0.743358E-01  0.207E-01    0.02       1.0  T
  10   -180.5328245  0.142199E-01  0.558E-01    0.02       1.0  T
  11   -180.5425312 -0.970667E-02  0.302E-01    0.04       1.0  T
  12   -180.5446890 -0.215781E-02  0.262E-01    0.04       1.0  T
  13   -180.5509662 -0.627721E-02  0.560E-02    0.02       1.0  T
  14   -180.5507847  0.181518E-03  0.831E-02    0.02       1.0  T
  15   -180.5510901 -0.305385E-03  0.435E-02    0.02       1.0  T
  16   -180.5509601  0.130004E-03  0.713E-02    0.02       1.0  T
  17   -180.5512291 -0.269070E-03  0.154E-02    0.02       1.0  T
  18   -180.5512193  0.984361E-05  0.185E-02    0.02       1.0  T
  19   -180.5512458 -0.265312E-04  0.403E-03    0.02       2.6  T
  20   -180.5512450  0.876064E-06  0.476E-03    0.02       2.2  T
  21   -180.5512470 -0.200941E-05  0.105E-03    0.02      10.0  T
  22   -180.5512467  0.310265E-06  0.236E-03    0.02       4.5  T
  23   -180.5512452  0.145341E-05  0.565E-03    0.02       1.9  T
  24   -180.5512465 -0.130806E-05  0.295E-03    0.02       3.6  T
  25   -180.5512470 -0.516682E-06  0.229E-04    0.02      46.1  T
  26   -180.5512470  0.218165E-08  0.170E-04    0.02      61.9  T
     SCC iter.                  ...        0 min,  0.543 sec
     gradient                   ...        0 min,  0.047 sec
 * total energy  :  -178.8327472 Eh     change       -0.3501695E-03 Eh
   gradient norm :     0.0086695 Eh/α   predicted    -0.2737657E-03 ( -21.82%)
   displ. norm   :     0.4886212 α      lambda       -0.6012967E-03
   maximum displ.:     0.2343567 α      in ANC's #6, #4, #5, ...

........................................................................
.............................. CYCLE  109 ..............................
........................................................................

 iter      E             dE          RMSdq      gap      omega  full diag
   1   -180.5489504 -0.180549E+03  0.253E-01    0.01       0.0  T
   2   -180.2658318  0.283119E+00  0.164E+00    0.42       1.0  T
   3   -180.3449900 -0.791582E-01  0.170E+00    0.02       1.0  T
   4   -180.5335700 -0.188580E+00  0.570E-01    0.02       1.0  T
   5   -180.4438142  0.897558E-01  0.107E+00    0.02       1.0  T
   6   -180.4672576 -0.234434E-01  0.109E+00    0.02       1.0  T
   7   -180.5044994 -0.372418E-01  0.872E-01    0.02       1.0  T
   8   -180.5492745 -0.447751E-01  0.227E-01    0.03       1.0  T
   9   -180.5363215  0.129530E-01  0.528E-01    0.01       1.0  T
  10   -180.5437370 -0.741558E-02  0.382E-01    0.02       1.0  T
  11   -180.5511119 -0.737483E-02  0.136E-01    0.01       1.0  T
  12   -180.5492329  0.187900E-02  0.214E-01    0.01       1.0  T
  13   -180.5507468 -0.151388E-02  0.178E-01    0.02       1.0  T
  14   -180.5516924 -0.945645E-03  0.116E-01    0.02       1.0  T
  15   -180.5525120 -0.819644E-03  0.267E-02    0.02       1.0  T
  16   -180.5525006  0.114786E-04  0.230E-02    0.02       1.0  T
  17   -180.5525453 -0.447808E-04  0.112E-02    0.02       1.0  T
  18   -180.5525529 -0.760324E-05  0.287E-03    0.02       3.7  T
  19   -180.5525530 -0.808457E-07  0.253E-03    0.02       4.2  T
  20   -180.5525535 -0.507288E-06  0.108E-03    0.02       9.7  T
  21   -180.5525529  0.614844E-06  0.313E-03    0.02       3.4  T
  22   -180.5525532 -0.324016E-06  0.235E-03    0.02       4.5  T
  23   -180.5525535 -0.299790E-06  0.764E-04    0.02      13.8  T
  24   -180.5525536 -0.165760E-07  0.842E-04    0.02      12.5  T
     SCC iter.                  ...        0 min,  0.517 sec
     gradient                   ...        0 min,  0.050 sec
 * total energy  :  -178.8331623 Eh     change       -0.4150900E-03 Eh
   gradient norm :     0.0082636 Eh/α   predicted    -0.3724303E-03 ( -10.28%)
   displ. norm   :     0.6803269 α      lambda       -0.5682000E-03
   maximum displ.:     0.3390215 α      in ANC's #6, #4, #5, ...

........................................................................
.............................. CYCLE  110 ..............................
........................................................................

 iter      E             dE          RMSdq      gap      omega  full diag
   1   -180.4962608 -0.180496E+03  0.936E-01    0.01       0.0  T
   2   -176.3781228  0.411814E+01  0.833E+00    0.10       1.0  T
   3   -180.1797714 -0.380165E+01  0.195E+00    0.77       1.0  T
   4   -180.2320317 -0.522603E-01  0.231E+00    0.02       1.0  T
   5   -180.4070021 -0.174970E+00  0.124E+00    0.08       1.0  T
   6   -180.4636697 -0.566676E-01  0.124E+00    0.01       1.0  T
   7   -180.4747298 -0.110601E-01  0.112E+00    0.01       1.0  T
   8   -180.5392939 -0.645641E-01  0.353E-01    0.01       1.0  T
   9   -180.4110812  0.128213E+00  0.159E+00    0.02       1.0  T
  10   -180.5452480 -0.134167E+00  0.278E-01    0.03       1.0  T
  11   -180.5476606 -0.241266E-02  0.204E-01    0.01       1.0  T
  12   -180.5466913  0.969374E-03  0.268E-01    0.02       1.0  T
  13   -180.5500093 -0.331800E-02  0.818E-02    0.03       1.0  T
  14   -180.5501123 -0.103008E-03  0.773E-02    0.02       1.0  T
  15   -180.5494127  0.699549E-03  0.141E-01    0.02       1.0  T
  16   -180.5501319 -0.719165E-03  0.870E-02    0.02       1.0  T
  17   -180.5505865 -0.454639E-03  0.149E-02    0.02       1.0  T
  18   -180.5505985 -0.120025E-04  0.905E-03    0.02       1.2  T
  19   -180.5505032  0.953144E-04  0.423E-02    0.02       1.0  T
  20   -180.5505900 -0.868097E-04  0.169E-02    0.02       1.0  T
  21   -180.5505998 -0.983205E-05  0.974E-03    0.02       1.1  T
  22   -180.5506035 -0.366939E-05  0.748E-03    0.02       1.4  T
  23   -180.5506064 -0.284019E-05  0.174E-03    0.02       6.1  T
  24   -180.5506063  0.923271E-08  0.179E-03    0.02       5.9  T
  25   -180.5506066 -0.217188E-06  0.487E-04    0.02      21.7  T
  26   -180.5506065  0.800101E-07  0.978E-04    0.02      10.8  T
     SCC iter.                  ...        0 min,  0.557 sec
     gradient                   ...        0 min,  0.050 sec
 * total energy  :  -178.8336132 Eh     change       -0.4508839E-03 Eh
   gradient norm :     0.0098563 Eh/α   predicted    -0.4156015E-03 (  -7.83%)
   displ. norm   :     0.5589599 α      lambda       -0.6736442E-03
   maximum displ.:     0.2795882 α      in ANC's #6, #4, #2, ...

........................................................................
.............................. CYCLE  111 ..............................
........................................................................

 iter      E             dE          RMSdq      gap      omega  full diag
   1   -180.4858855 -0.180486E+03  0.105E+00    0.01       0.0  T
   2   -176.1126210  0.437326E+01  0.913E+00    0.10       1.0  T
   3   -180.1886917 -0.407607E+01  0.194E+00    0.66       1.0  T
   4   -180.2138453 -0.251536E-01  0.244E+00    0.02       1.0  T
   5   -180.4388461 -0.225001E+00  0.122E+00    0.04       1.0  T
   6   -180.3787332  0.601129E-01  0.168E+00    0.02       1.0  T
   7   -180.5061973 -0.127464E+00  0.879E-01    0.04       1.0  T
   8   -180.5197743 -0.135769E-01  0.789E-01    0.02       1.0  T
   9   -180.1979570  0.321817E+00  0.254E+00    0.02       1.0  T
  10   -180.5560902 -0.358133E+00  0.785E-02    0.03       1.0  T
  11   -180.5463695  0.972069E-02  0.374E-01    0.01       1.0  T
  12   -180.5556740 -0.930455E-02  0.109E-01    0.02       1.0  T
  13   -180.5520806  0.359344E-02  0.258E-01    0.03       1.0  T
  14   -180.5517057  0.374929E-03  0.288E-01    0.02       1.0  T
  15   -180.5557076 -0.400191E-02  0.118E-01    0.02       1.0  T
  16   -180.5563678 -0.660283E-03  0.600E-02    0.02       1.0  T
  17   -180.5564203 -0.524457E-04  0.588E-02    0.02       1.0  T
  18   -180.5565447 -0.124419E-03  0.388E-02    0.02       1.0  T
  19   -180.5566268 -0.821105E-04  0.966E-03    0.02       1.1  T
  20   -180.5566093  0.174815E-04  0.212E-02    0.02       1.0  T
  21   -180.5566356 -0.262392E-04  0.430E-03    0.02       2.4  T
  22   -180.5566360 -0.424492E-06  0.292E-03    0.02       3.6  T
  23   -180.5566348  0.125165E-05  0.510E-03    0.02       2.1  T
  24   -180.5566364 -0.160528E-05  0.996E-04    0.02      10.6  T
  25   -180.5566363  0.123190E-07  0.113E-03    0.02       9.3  T
  26   -180.5566363  0.672887E-07  0.152E-03    0.02       6.9  T
  27   -180.5566363 -0.649185E-07  0.120E-03    0.02       8.7  T
  28   -180.5566364 -0.722062E-07  0.472E-04    0.02      22.4  T
  29   -180.5566364 -0.118427E-07  0.237E-04    0.02      44.4  T
     SCC iter.                  ...        0 min,  0.628 sec
     gradient                   ...        0 min,  0.049 sec
 * total energy  :  -178.8341214 Eh     change       -0.5082488E-03 Eh
   gradient norm :     0.0089501 Eh/α   predicted    -0.4420622E-03 ( -13.02%)
   displ. norm   :     0.7552399 α      lambda       -0.6314283E-03
   maximum displ.:     0.3757627 α      in ANC's #6, #4, #2, ...

........................................................................
.............................. CYCLE  112 ..............................
........................................................................

 iter      E             dE          RMSdq      gap      omega  full diag
   1   -180.4027922 -0.180403E+03  0.158E+00    0.02       0.0  T
   2   -176.6164357  0.378636E+01  0.103E+01    0.14       1.0  T
   3   -180.0675633 -0.345113E+01  0.239E+00    0.78       1.0  T
   4   -180.1997936 -0.132230E+00  0.260E+00    0.02       1.0  T
   5   -180.2723420 -0.725483E-01  0.173E+00    0.19       1.0  T
   6   -180.3867364 -0.114394E+00  0.135E+00    0.11       1.0  T
   7   -180.4421723 -0.554359E-01  0.148E+00    0.02       1.0  T
   8   -180.3864643  0.557080E-01  0.168E+00    0.02       1.0  T
   9   -180.4968759 -0.110412E+00  0.101E+00    0.02       1.0  T
  10   -180.2751706  0.221705E+00  0.224E+00    0.02       1.0  T
  11   -180.5138885 -0.238718E+00  0.812E-01    0.02       1.0  T
  12   -180.5428102 -0.289217E-01  0.472E-01    0.02       1.0  T
  13   -180.5545532 -0.117430E-01  0.907E-02    0.03       1.0  T
  14   -180.5541023  0.450889E-03  0.128E-01    0.03       1.0  T
  15   -180.5536276  0.474715E-03  0.140E-01    0.03       1.0  T
  16   -180.5532819  0.345683E-03  0.191E-01    0.02       1.0  T
  17   -180.5552956 -0.201372E-02  0.336E-02    0.02       1.0  T
  18   -180.5552877  0.790177E-05  0.384E-02    0.02       1.0  T
  19   -180.5548809  0.406819E-03  0.860E-02    0.02       1.0  T
  20   -180.5551839 -0.303025E-03  0.506E-02    0.02       1.0  T
  21   -180.5554088 -0.224839E-03  0.760E-03    0.02       1.4  T
  22   -180.5554105 -0.168496E-05  0.407E-03    0.02       2.6  T
  23   -180.5554102  0.225219E-06  0.535E-03    0.02       2.0  T
  24   -180.5554087  0.149012E-05  0.722E-03    0.02       1.5  T
  25   -180.5554093 -0.559511E-06  0.673E-03    0.02       1.6  T
  26   -180.5554118 -0.249672E-05  0.141E-03    0.02       7.4  T
  27   -180.5554117  0.133890E-06  0.187E-03    0.02       5.6  T
  28   -180.5554119 -0.189105E-06  0.923E-04    0.02      11.4  T
  29   -180.5554119 -0.144932E-07  0.602E-04    0.02      17.5  T
     SCC iter.                  ...        0 min,  0.624 sec
     gradient                   ...        0 min,  0.049 sec
 * total energy  :  -178.8346864 Eh     change       -0.5649925E-03 Eh
   gradient norm :     0.0086393 Eh/α   predicted    -0.4957927E-03 ( -12.25%)
   displ. norm   :     0.6599009 α      lambda       -0.8983877E-03
   maximum displ.:     0.3076904 α      in ANC's #6, #4, #2, ...

........................................................................
.............................. CYCLE  113 ..............................
........................................................................

 iter      E             dE          RMSdq      gap      omega  full diag
   1   -180.3243952 -0.180324E+03  0.199E+00    0.02       0.0  T
   2   -176.4952430  0.382915E+01  0.108E+01    0.40       1.0  T
   3   -179.9923644 -0.349712E+01  0.269E+00    0.49       1.0  T
   4   -180.1961468 -0.203782E+00  0.275E+00    0.02       1.0  T
   5   -180.2338728 -0.377260E-01  0.189E+00    0.31       1.0  T
   6   -180.2998601 -0.659874E-01  0.165E+00    0.18       1.0  T
   7   -180.4565912 -0.156731E+00  0.124E+00    0.05       1.0  T
   8   -180.3485982  0.107993E+00  0.192E+00    0.02       1.0  T
   9   -180.4698280 -0.121230E+00  0.131E+00    0.01       1.0  T
  10   -180.5413458 -0.715178E-01  0.552E-01    0.03       1.0  T
  11   -179.9320582  0.609288E+00  0.336E+00    0.02       1.0  T
  12   -180.4502335 -0.518175E+00  0.142E+00    0.02       1.0  T
  13   -180.5339346 -0.837011E-01  0.705E-01    0.02       1.0  T
  14   -180.5470837 -0.131491E-01  0.551E-01    0.02       1.0  T
  15   -180.5603199 -0.132362E-01  0.288E-01    0.02       1.0  T
  16   -180.5642569 -0.393698E-02  0.115E-01    0.02       1.0  T
  17   -180.5642513  0.553947E-05  0.124E-01    0.02       1.0  T
  18   -180.5641032  0.148174E-03  0.120E-01    0.02       1.0  T
  19   -180.5649532 -0.850034E-03  0.530E-02    0.02       1.0  T
  20   -180.5639535  0.999684E-03  0.139E-01    0.02       1.0  T
  21   -180.5651329 -0.117943E-02  0.361E-02    0.02       1.0  T
  22   -180.5650641  0.688272E-04  0.504E-02    0.02       1.0  T
  23   -180.5651132 -0.491234E-04  0.413E-02    0.02       1.0  T
  24   -180.5652242 -0.110977E-03  0.413E-03    0.02       2.6  T
  25   -180.5651987  0.255257E-04  0.184E-02    0.02       1.0  T
  26   -180.5652094 -0.107582E-04  0.151E-02    0.02       1.0  T
  27   -180.5652249 -0.154995E-04  0.264E-03    0.02       4.0  T
  28   -180.5652236  0.135453E-05  0.565E-03    0.02       1.9  T
  29   -180.5652236  0.303194E-07  0.561E-03    0.02       1.9  T
  30   -180.5652245 -0.900043E-06  0.390E-03    0.02       2.7  T
  31   -180.5652249 -0.415102E-06  0.300E-03    0.02       3.5  T
  32   -180.5652252 -0.366060E-06  0.208E-03    0.02       5.1  T
  33   -180.5652255 -0.281687E-06  0.875E-04    0.02      12.0  T
  34   -180.5652255  0.496502E-08  0.928E-04    0.02      11.4  T
     SCC iter.                  ...        0 min,  0.732 sec
     gradient                   ...        0 min,  0.049 sec
 * total energy  :  -178.8353249 Eh     change       -0.6384599E-03 Eh
   gradient norm :     0.0099567 Eh/α   predicted    -0.6448062E-03 (   0.99%)
   displ. norm   :     0.8257381 α      lambda       -0.8431521E-03
   maximum displ.:     0.3980165 α      in ANC's #6, #4, #5, ...

........................................................................
.............................. CYCLE  114 ..............................
........................................................................

 iter      E             dE          RMSdq      gap      omega  full diag
   1   -180.3459518 -0.180346E+03  0.183E+00    0.01       0.0  T
   2   -176.6046510  0.374130E+01  0.108E+01    0.34       1.0  T
   3   -180.0064369 -0.340179E+01  0.257E+00    0.59       1.0  T
   4   -180.1845365 -0.178100E+00  0.275E+00    0.02       1.0  T
   5   -180.2361436 -0.516071E-01  0.185E+00    0.26       1.0  T
   6   -180.3246042 -0.884606E-01  0.155E+00    0.14       1.0  T
   7   -180.4540249 -0.129421E+00  0.144E+00    0.01       1.0  T
   8   -180.3387228  0.115302E+00  0.193E+00    0.02       1.0  T
   9   -180.4634553 -0.124733E+00  0.131E+00    0.01       1.0  T
  10   -180.3840019  0.794534E-01  0.172E+00    0.01       1.0  T
  11   -180.5160493 -0.132047E+00  0.833E-01    0.02       1.0  T
  12   -180.5246836 -0.863431E-02  0.771E-01    0.01       1.0  T
  13   -180.5547149 -0.300313E-01  0.231E-01    0.03       1.0  T
  14   -180.5498547  0.486021E-02  0.405E-01    0.02       1.0  T
  15   -180.5561153 -0.626055E-02  0.204E-01    0.03       1.0  T
  16   -180.5584056 -0.229032E-02  0.159E-01    0.02       1.0  T
  17   -180.5585530 -0.147388E-03  0.137E-01    0.02       1.0  T
  18   -180.5595701 -0.101708E-02  0.564E-02    0.02       1.0  T
  19   -180.5593653  0.204775E-03  0.861E-02    0.02       1.0  T
  20   -180.5593882 -0.228784E-04  0.785E-02    0.02       1.0  T
  21   -180.5598805 -0.492340E-03  0.107E-02    0.02       1.0  T
  22   -180.5598830 -0.247139E-05  0.102E-02    0.02       1.0  T
  23   -180.5598671  0.159306E-04  0.191E-02    0.02       1.0  T
  24   -180.5598887 -0.216492E-04  0.424E-03    0.02       2.5  T
  25   -180.5598897 -0.103826E-05  0.304E-03    0.02       3.5  T
  26   -180.5598885  0.127581E-05  0.563E-03    0.02       1.9  T
  27   -180.5598903 -0.180399E-05  0.759E-04    0.02      13.9  T
  28   -180.5598899  0.394133E-06  0.245E-03    0.02       4.3  T
  29   -180.5598903 -0.386727E-06  0.790E-04    0.02      13.3  T
  30   -180.5598902  0.270509E-07  0.929E-04    0.02      11.3  T
     SCC iter.                  ...        0 min,  0.654 sec
     gradient                   ...        0 min,  0.051 sec
 * total energy  :  -178.8361039 Eh     change       -0.7790475E-03 Eh
   gradient norm :     0.0106178 Eh/α   predicted    -0.7090333E-03 (  -8.99%)
   displ. norm   :     0.6686296 α      lambda       -0.1197109E-02
   maximum displ.:     0.2713638 α      in ANC's #6, #4, #5, ...

........................................................................
.............................. CYCLE  115 ..............................
........................................................................

 iter      E             dE          RMSdq      gap      omega  full diag
   1   -180.3193285 -0.180319E+03  0.192E+00    0.01       0.0  T
   2   -176.5100817  0.380925E+01  0.109E+01    0.44       1.0  T
   3   -179.9875165 -0.347743E+01  0.261E+00    0.53       1.0  T
   4   -180.1724823 -0.184966E+00  0.283E+00    0.02       1.0  T
   5   -180.2218344 -0.493521E-01  0.187E+00    0.29       1.0  T
   6   -180.3042480 -0.824136E-01  0.159E+00    0.16       1.0  T
   7   -180.4564545 -0.152206E+00  0.140E+00    0.02       1.0  T
   8   -180.2875533  0.168901E+00  0.212E+00    0.02       1.0  T
   9   -180.4260931 -0.138540E+00  0.151E+00    0.02       1.0  T
  10   -180.1886745  0.237419E+00  0.247E+00    0.01       1.0  T
  11   -180.5162425 -0.327568E+00  0.753E-01    0.03       1.0  T
  12   -180.2599829  0.256260E+00  0.221E+00    0.01       1.0  T
  13   -180.5522886 -0.292306E+00  0.324E-01    0.02       1.0  T
  14   -180.5577040 -0.541540E-02  0.110E-01    0.02       1.0  T
  15   -180.5487766  0.892746E-02  0.316E-01    0.04       1.0  T
  16   -180.5554198 -0.664326E-02  0.219E-01    0.02       1.0  T
  17   -180.5557932 -0.373413E-03  0.202E-01    0.02       1.0  T
  18   -180.5585938 -0.280062E-02  0.371E-02    0.02       1.0  T
  19   -180.5583659  0.227958E-03  0.677E-02    0.02       1.0  T
  20   -180.5563685  0.199734E-02  0.175E-01    0.02       1.0  T
  21   -180.5584720 -0.210347E-02  0.525E-02    0.02       1.0  T
  22   -180.5585407 -0.687089E-04  0.496E-02    0.02       1.0  T
  23   -180.5586685 -0.127757E-03  0.265E-02    0.02       1.0  T
  24   -180.5587186 -0.501307E-04  0.140E-02    0.02       1.0  T
  25   -180.5586953  0.232716E-04  0.243E-02    0.02       1.0  T
  26   -180.5587142 -0.188321E-04  0.160E-02    0.02       1.0  T
  27   -180.5587330 -0.188650E-04  0.891E-04    0.02      11.8  T
  28   -180.5587328  0.220503E-06  0.194E-03    0.02       5.4  T
  29   -180.5587330 -0.229916E-06  0.913E-04    0.02      11.5  T
  30   -180.5587331 -0.184986E-07  0.759E-04    0.02      13.9  T
     SCC iter.                  ...        0 min,  0.651 sec
     gradient                   ...        0 min,  0.051 sec
 * total energy  :  -178.8370302 Eh     change       -0.9262983E-03 Eh
   gradient norm :     0.0138857 Eh/α   predicted    -0.8661519E-03 (  -6.49%)
   displ. norm   :     0.6730102 α      lambda       -0.1172791E-02
   maximum displ.:     0.2721319 α      in ANC's #6, #4, #5, ...

........................................................................
.............................. CYCLE  116 ..............................
........................................................................

 iter      E             dE          RMSdq      gap      omega  full diag
   1   -180.2860911 -0.180286E+03  0.200E+00    0.01       0.0  T
   2   -176.4098403  0.387625E+01  0.109E+01    0.39       1.0  T
   3   -179.9638357 -0.355400E+01  0.263E+00    0.44       1.0  T
   4   -180.1572401 -0.193404E+00  0.291E+00    0.02       1.0  T
   5   -180.2104913 -0.532512E-01  0.188E+00    0.31       1.0  T
   6   -180.2959881 -0.854968E-01  0.160E+00    0.16       1.0  T
   7   -180.4465976 -0.150610E+00  0.142E+00    0.02       1.0  T
   8   -180.2682010  0.178397E+00  0.220E+00    0.02       1.0  T
   9   -180.4130540 -0.144853E+00  0.157E+00    0.02       1.0  T
  10   -180.2617884  0.151266E+00  0.215E+00    0.01       1.0  T
  11   -180.4966835 -0.234895E+00  0.919E-01    0.03       1.0  T
  12   -180.3564642  0.140219E+00  0.177E+00    0.01       1.0  T
  13   -180.5553151 -0.198851E+00  0.830E-02    0.02       1.0  T
  14   -180.5474859  0.782920E-02  0.356E-01    0.02       1.0  T
  15   -180.5424414  0.504454E-02  0.398E-01    0.03       1.0  T
  16   -180.5507356 -0.829424E-02  0.224E-01    0.03       1.0  T
  17   -180.5482484  0.248723E-02  0.329E-01    0.01       1.0  T
  18   -180.5553695 -0.712108E-02  0.791E-02    0.02       1.0  T
  19   -180.5559817 -0.612204E-03  0.186E-02    0.02       1.0  T
  20   -180.5529313  0.305038E-02  0.198E-01    0.01       1.0  T
  21   -180.5553246 -0.239328E-02  0.873E-02    0.02       1.0  T
  22   -180.5556634 -0.338772E-03  0.652E-02    0.02       1.0  T
  23   -180.5557880 -0.124629E-03  0.535E-02    0.02       1.0  T
  24   -180.5559708 -0.182803E-03  0.232E-02    0.02       1.0  T
  25   -180.5559919 -0.211201E-04  0.162E-02    0.02       1.0  T
  26   -180.5559820  0.990967E-05  0.204E-02    0.02       1.0  T
  27   -180.5560096 -0.275871E-04  0.465E-03    0.02       2.3  T
  28   -180.5560109 -0.129173E-05  0.108E-03    0.02       9.8  T
  29   -180.5560110 -0.862306E-07  0.320E-04    0.02      32.9  T
  30   -180.5560108  0.134596E-06  0.123E-03    0.02       8.6  T
  31   -180.5560106  0.239266E-06  0.220E-03    0.02       4.8  T
  32   -180.5560109 -0.261522E-06  0.122E-03    0.02       8.6  T
  33   -180.5560110 -0.109791E-06  0.251E-04    0.02      41.9  T
     SCC iter.                  ...        0 min,  0.732 sec
     gradient                   ...        0 min,  0.049 sec
 * total energy  :  -178.8380661 Eh     change       -0.1035901E-02 Eh
   gradient norm :     0.0171356 Eh/α   predicted    -0.8520009E-03 ( -17.75%)
   displ. norm   :     0.6564954 α      lambda       -0.2100584E-02
   maximum displ.:     0.2222016 α      in ANC's #12, #5, #9, ...

........................................................................
.............................. CYCLE  117 ..............................
........................................................................

 iter      E             dE          RMSdq      gap      omega  full diag
   1   -180.2708651 -0.180271E+03  0.207E+00    0.01       0.0  T
   2   -176.4207798  0.385009E+01  0.110E+01    0.26       1.0  T
   3   -179.9386893 -0.351791E+01  0.265E+00    0.27       1.0  T
   4   -180.1989743 -0.260285E+00  0.284E+00    0.02       1.0  T
   5   -180.2111790 -0.122047E-01  0.188E+00    0.42       1.0  T
   6   -180.2705701 -0.593911E-01  0.167E+00    0.22       1.0  T
   7   -180.4192696 -0.148699E+00  0.130E+00    0.07       1.0  T
   8   -180.2147911  0.204478E+00  0.243E+00    0.02       1.0  T
   9   -180.2749502 -0.601591E-01  0.197E+00    0.01       1.0  T
  10   -180.2539976  0.209526E-01  0.231E+00    0.02       1.0  T
  11   -180.4654300 -0.211432E+00  0.127E+00    0.02       1.0  T
  12   -180.4462888  0.191411E-01  0.141E+00    0.01       1.0  T
  13   -180.5064356 -0.601468E-01  0.900E-01    0.02       1.0  T
  14   -180.5110266 -0.459094E-02  0.927E-01    0.01       1.0  T
  15   -180.5276692 -0.166427E-01  0.766E-01    0.01       1.0  T
  16   -180.4976272  0.300420E-01  0.807E-01    0.06       1.0  T
  17   -180.4980881 -0.460920E-03  0.982E-01    0.01       1.0  T
  18   -180.5559945 -0.579064E-01  0.368E-01    0.02       1.0  T
  19   -180.5445342  0.114603E-01  0.520E-01    0.01       1.0  T
  20   -180.5613885 -0.168543E-01  0.247E-01    0.02       1.0  T
  21   -180.5641467 -0.275817E-02  0.118E-01    0.01       1.0  T
  22   -180.5647971 -0.650392E-03  0.591E-02    0.02       1.0  T
  23   -180.5647188  0.782639E-04  0.789E-02    0.02       1.0  T
  24   -180.5651090 -0.390217E-03  0.217E-02    0.02       1.0  T
  25   -180.5649796  0.129419E-03  0.501E-02    0.02       1.0  T
  26   -180.5650174 -0.377670E-04  0.445E-02    0.02       1.0  T
  27   -180.5651224 -0.105018E-03  0.224E-02    0.02       1.0  T
  28   -180.5651523 -0.299547E-04  0.388E-03    0.02       2.7  T
  29   -180.5651505  0.181502E-05  0.576E-03    0.02       1.8  T
  30   -180.5651483  0.223884E-05  0.797E-03    0.02       1.3  T
  31   -180.5651489 -0.590873E-06  0.750E-03    0.02       1.4  T
  32   -180.5651527 -0.380842E-05  0.347E-03    0.02       3.0  T
  33   -180.5651537 -0.102298E-05  0.491E-04    0.02      21.5  T
  34   -180.5651537 -0.633705E-08  0.464E-04    0.02      22.7  T
  35   -180.5651536  0.835576E-07  0.110E-03    0.02       9.6  T
  36   -180.5651537 -0.893418E-07  0.238E-04    0.02      44.3  T
     SCC iter.                  ...        0 min,  0.829 sec
     gradient                   ...        0 min,  0.048 sec
 * total energy  :  -178.8395175 Eh     change       -0.1451377E-02 Eh
   gradient norm :     0.0215161 Eh/α   predicted    -0.1502960E-02 (   3.55%)
   displ. norm   :     0.7087417 α      lambda       -0.2020372E-02
   maximum displ.:     0.3018696 α      in ANC's #6, #4, #5, ...

........................................................................
.............................. CYCLE  118 ..............................
........................................................................

 iter      E             dE          RMSdq      gap      omega  full diag
   1   -180.2966944 -0.180297E+03  0.193E+00    0.01       0.0  T
   2   -176.4829488  0.381375E+01  0.108E+01    0.14       1.0  T
   3   -179.9609905 -0.347804E+01  0.255E+00    0.33       1.0  T
   4   -180.1416830 -0.180693E+00  0.298E+00    0.02       1.0  T
   5   -180.2195581 -0.778750E-01  0.185E+00    0.36       1.0  T
   6   -180.2908482 -0.712902E-01  0.160E+00    0.18       1.0  T
   7   -180.4415667 -0.150718E+00  0.133E+00    0.04       1.0  T
   8   -180.2356604  0.205906E+00  0.237E+00    0.02       1.0  T
   9   -180.4900746 -0.254414E+00  0.114E+00    0.02       1.0  T
  10   -180.1953409  0.294734E+00  0.227E+00    0.01       1.0  T
  11   -180.4685199 -0.273179E+00  0.114E+00    0.03       1.0  T
  12   -180.4075169  0.610030E-01  0.155E+00    0.01       1.0  T
  13   -180.5514090 -0.143892E+00  0.417E-01    0.03       1.0  T
  14   -180.5629005 -0.114915E-01  0.152E-01    0.02       1.0  T
  15   -180.5565012  0.639928E-02  0.309E-01    0.03       1.0  T
  16   -180.5516897  0.481146E-02  0.373E-01    0.03       1.0  T
  17   -180.5401562  0.115335E-01  0.590E-01    0.01       1.0  T
  18   -180.5586839 -0.185277E-01  0.244E-01    0.01       1.0  T
  19   -180.5600663 -0.138238E-02  0.217E-01    0.01       1.0  T
  20   -180.5642423 -0.417601E-02  0.759E-02    0.02       1.0  T
  21   -180.5646492 -0.406903E-03  0.360E-02    0.02       1.0  T
  22   -180.5642660  0.383190E-03  0.781E-02    0.02       1.0  T
  23   -180.5635729  0.693097E-03  0.120E-01    0.02       1.0  T
  24   -180.5644691 -0.896202E-03  0.584E-02    0.02       1.0  T
  25   -180.5645749 -0.105790E-03  0.476E-02    0.02       1.0  T
  26   -180.5646888 -0.113930E-03  0.315E-02    0.02       1.0  T
  27   -180.5647548 -0.659159E-04  0.154E-02    0.02       1.0  T
  28   -180.5647708 -0.160452E-04  0.353E-03    0.02       3.0  T
  29   -180.5647712 -0.348559E-06  0.151E-03    0.02       7.0  T
  30   -180.5647708  0.368134E-06  0.307E-03    0.02       3.4  T
  31   -180.5647713 -0.477086E-06  0.103E-03    0.02      10.2  T
  32   -180.5647705  0.778345E-06  0.309E-03    0.02       3.4  T
  33   -180.5647710 -0.505200E-06  0.183E-03    0.02       5.8  T
  34   -180.5647713 -0.338008E-06  0.305E-04    0.02      34.6  T
  35   -180.5647713 -0.340728E-08  0.305E-04    0.02      34.6  T
     SCC iter.                  ...        0 min,  0.752 sec
     gradient                   ...        0 min,  0.048 sec
 * total energy  :  -178.8412824 Eh     change       -0.1764873E-02 Eh
   gradient norm :     0.0193048 Eh/α   predicted    -0.1517626E-02 ( -14.01%)
   displ. norm   :     0.5489372 α      lambda       -0.3061576E-02
   maximum displ.:     0.1627464 α      in ANC's #12, #6, #42, ...

........................................................................
.............................. CYCLE  119 ..............................
........................................................................

 iter      E             dE          RMSdq      gap      omega  full diag
   1   -180.3607786 -0.180361E+03  0.176E+00    0.01       0.0  T
   2   -176.5296286  0.383115E+01  0.102E+01    0.09       1.0  T
   3   -180.0287150 -0.349909E+01  0.239E+00    0.45       1.0  T
   4   -180.2940191 -0.265304E+00  0.247E+00    0.02       1.0  T
   5   -180.2534214  0.405977E-01  0.177E+00    0.38       1.0  T
   6   -180.3381449 -0.847235E-01  0.150E+00    0.15       1.0  T
   7   -180.4613882 -0.123243E+00  0.129E+00    0.04       1.0  T
   8   -180.3402793  0.121109E+00  0.173E+00    0.01       1.0  T
   9   -180.2891771  0.511022E-01  0.223E+00    0.02       1.0  T
  10   -180.5731932 -0.284016E+00  0.322E-01    0.01       1.0  T
  11   -180.4815584  0.916348E-01  0.114E+00    0.03       1.0  T
  12   -180.5725599 -0.910015E-01  0.263E-01    0.01       1.0  T
  13   -180.5702394  0.232042E-02  0.326E-01    0.02       1.0  T
  14   -180.5732836 -0.304414E-02  0.230E-01    0.02       1.0  T
  15   -180.5762814 -0.299782E-02  0.794E-02    0.03       1.0  T
  16   -180.5478112  0.284702E-01  0.629E-01    0.01       1.0  T
  17   -180.5671215 -0.193103E-01  0.354E-01    0.03       1.0  T
  18   -180.5763896 -0.926811E-02  0.934E-02    0.02       1.0  T
  19   -180.5766368 -0.247145E-03  0.667E-02    0.02       1.0  T
  20   -180.5768998 -0.262977E-03  0.314E-02    0.02       1.0  T
  21   -180.5766941  0.205616E-03  0.547E-02    0.02       1.0  T
  22   -180.5763174  0.376787E-03  0.865E-02    0.02       1.0  T
  23   -180.5769008 -0.583470E-03  0.269E-02    0.02       1.0  T
  24   -180.5769670 -0.661970E-04  0.307E-03    0.02       3.4  T
  25   -180.5769486  0.184712E-04  0.177E-02    0.02       1.0  T
  26   -180.5769420  0.658080E-05  0.200E-02    0.02       1.0  T
  27   -180.5769643 -0.223648E-04  0.578E-03    0.02       1.8  T
  28   -180.5769545  0.981142E-05  0.124E-02    0.02       1.0  T
  29   -180.5769638 -0.930450E-05  0.670E-03    0.02       1.6  T
  30   -180.5769674 -0.359100E-05  0.229E-03    0.02       4.6  T
  31   -180.5769666  0.847023E-06  0.391E-03    0.02       2.7  T
  32   -180.5769677 -0.116295E-05  0.862E-04    0.02      12.2  T
  33   -180.5769677  0.294512E-07  0.115E-03    0.02       9.2  T
  34   -180.5769678 -0.787561E-07  0.430E-04    0.02      24.5  T
  35   -180.5769678 -0.144882E-07  0.279E-05    0.02     378.1  T
     SCC iter.                  ...        0 min,  0.739 sec
     gradient                   ...        0 min,  0.047 sec
 * total energy  :  -178.8429687 Eh     change       -0.1686353E-02 Eh
   gradient norm :     0.0200590 Eh/α   predicted    -0.1992060E-02 (  18.13%)
   displ. norm   :     0.7392791 α      lambda       -0.2275659E-02
   maximum displ.:     0.2831070 α      in ANC's #6, #12, #5, ...

........................................................................
.............................. CYCLE  120 ..............................
........................................................................

 iter      E             dE          RMSdq      gap      omega  full diag
   1   -180.3663328 -0.180366E+03  0.174E+00    0.01       0.0  T
   2   -176.8243938  0.354194E+01  0.961E+00    0.05       1.0  T
   3   -180.0300154 -0.320562E+01  0.241E+00    0.48       1.0  T
   4   -180.3987288 -0.368713E+00  0.191E+00    0.01       1.0  T
   5   -180.2576096  0.141119E+00  0.171E+00    0.34       1.0  T
   6   -180.4422798 -0.184670E+00  0.132E+00    0.05       1.0  T
   7   -180.4684653 -0.261855E-01  0.116E+00    0.02       1.0  T
   8   -180.5640041 -0.955388E-01  0.217E-01    0.02       1.0  T
   9   -180.4908358  0.731683E-01  0.901E-01    0.06       1.0  T
  10   -180.3685050  0.122331E+00  0.166E+00    0.01       1.0  T
  11   -180.5265495 -0.158044E+00  0.795E-01    0.02       1.0  T
  12   -180.5260758  0.473615E-03  0.700E-01    0.04       1.0  T
  13   -180.5501462 -0.240704E-01  0.503E-01    0.01       1.0  T
  14   -180.5636431 -0.134969E-01  0.227E-01    0.01       1.0  T
  15   -180.5517273  0.119158E-01  0.397E-01    0.04       1.0  T
  16   -180.5590906 -0.736336E-02  0.318E-01    0.03       1.0  T
  17   -180.5677286 -0.863797E-02  0.780E-02    0.02       1.0  T
  18   -180.5637712  0.395742E-02  0.228E-01    0.01       1.0  T
  19   -180.5678364 -0.406521E-02  0.656E-02    0.02       1.0  T
  20   -180.5669995  0.836870E-03  0.129E-01    0.03       1.0  T
  21   -180.5680600 -0.106052E-02  0.282E-02    0.02       1.0  T
  22   -180.5679355  0.124529E-03  0.480E-02    0.02       1.0  T
  23   -180.5680912 -0.155760E-03  0.259E-02    0.02       1.0  T
  24   -180.5681250 -0.337333E-04  0.139E-02    0.02       1.0  T
  25   -180.5681189  0.604091E-05  0.163E-02    0.02       1.0  T
  26   -180.5681254 -0.646374E-05  0.130E-02    0.02       1.0  T
  27   -180.5681379 -0.124968E-04  0.305E-03    0.02       3.5  T
  28   -180.5681371  0.805924E-06  0.460E-03    0.03       2.3  T
  29   -180.5681379 -0.825555E-06  0.301E-03    0.03       3.5  T
  30   -180.5681386 -0.651811E-06  0.979E-04    0.03      10.8  T
  31   -180.5681384  0.169795E-06  0.179E-03    0.03       5.9  T
  32   -180.5681386 -0.230252E-06  0.693E-04    0.02      15.2  T
     SCC iter.                  ...        0 min,  0.706 sec
     gradient                   ...        0 min,  0.051 sec
 * total energy  :  -178.8445912 Eh     change       -0.1622472E-02 Eh
   gradient norm :     0.0216899 Eh/α   predicted    -0.1759687E-02 (   8.46%)
   displ. norm   :     0.4526341 α      lambda       -0.1810975E-02
   maximum displ.:     0.1905543 α      in ANC's #12, #6, #3, ...
 * RMSD in coord.:     1.3892898 α      energy gain  -0.1964882E-01 Eh

generating ANC from exact Hessian ...
Using Lindh-Hessian (1995)
 Shifting diagonal of input Hessian by   1.053873805382276E-002
 Lowest  eigenvalues of input Hessian
    0.010000    0.010221    0.000000    0.000000    0.000000    0.000000
    0.000000    0.000000    0.010687    0.010745    0.010855    0.011013
    0.011160    0.011309    0.011365    0.011558    0.011751    0.011927
 Highest eigenvalues
    2.073477    2.167987    2.218307    2.237036    2.245093    2.272203
 

........................................................................
.............................. CYCLE  121 ..............................
........................................................................

 iter      E             dE          RMSdq      gap      omega  full diag
   1   -180.5054602 -0.180505E+03  0.986E-01    0.02       0.0  T
   2   -176.4151249  0.409034E+01  0.917E+00    0.09       1.0  T
   3   -180.2426379 -0.382751E+01  0.171E+00    0.35       1.0  T
   4   -180.2231126  0.195253E-01  0.249E+00    0.02       1.0  T
   5   -180.5407739 -0.317661E+00  0.658E-01    0.03       1.0  T
   6   -180.3094767  0.231297E+00  0.178E+00    0.01       1.0  T
   7   -180.4513708 -0.141894E+00  0.123E+00    0.04       1.0  T
   8   -180.4622632 -0.108924E-01  0.121E+00    0.03       1.0  T
   9   -180.4837991 -0.215359E-01  0.112E+00    0.02       1.0  T
  10   -180.4990135 -0.152144E-01  0.965E-01    0.02       1.0  T
  11   -180.5620741 -0.630606E-01  0.122E-01    0.03       1.0  T
  12   -180.5505652  0.115089E-01  0.433E-01    0.01       1.0  T
  13   -180.5625072 -0.119420E-01  0.704E-02    0.03       1.0  T
  14   -180.5440704  0.184368E-01  0.454E-01    0.04       1.0  T
  15   -180.5609079 -0.168375E-01  0.178E-01    0.03       1.0  T
  16   -180.5615571 -0.649192E-03  0.141E-01    0.02       1.0  T
  17   -180.5615774 -0.202778E-04  0.135E-01    0.02       1.0  T
  18   -180.5626310 -0.105359E-02  0.618E-02    0.03       1.0  T
  19   -180.5625954  0.355510E-04  0.673E-02    0.03       1.0  T
  20   -180.5628468 -0.251353E-03  0.241E-02    0.03       1.0  T
  21   -180.5628445  0.230073E-05  0.178E-02    0.03       1.0  T
  22   -180.5628411  0.343166E-05  0.188E-02    0.03       1.0  T
  23   -180.5628545 -0.133909E-04  0.153E-02    0.03       1.0  T
  24   -180.5628687 -0.142680E-04  0.119E-02    0.03       1.0  T
  25   -180.5628756 -0.689987E-05  0.374E-03    0.03       2.8  T
  26   -180.5628761 -0.521147E-06  0.156E-03    0.03       6.8  T
  27   -180.5628762 -0.639021E-07  0.969E-04    0.03      10.9  T
  28   -180.5628763 -0.481991E-07  0.668E-04    0.03      15.8  T
     SCC iter.                  ...        0 min,  0.596 sec
     gradient                   ...        0 min,  0.049 sec
 * total energy  :  -178.8459349 Eh     change       -0.1343713E-02 Eh
   gradient norm :     0.0204649 Eh/α   predicted     0.0000000E+00 (-100.00%)
   displ. norm   :     0.1688548 α      lambda       -0.1119394E-02
   maximum displ.:     0.0773525 α      in ANC's #7, #18, #2, ...

........................................................................
.............................. CYCLE  122 ..............................
........................................................................

 iter      E             dE          RMSdq      gap      omega  full diag
   1   -180.5393629 -0.180539E+03  0.542E-01    0.06       0.0  T
   2   -177.3102148  0.322915E+01  0.591E+00    0.01       1.0  T
   3   -180.3312676 -0.302105E+01  0.167E+00    0.01       1.0  T
   4   -180.0902591  0.241008E+00  0.277E+00    0.02       1.0  T
   5   -180.3767032 -0.286444E+00  0.168E+00    0.02       1.0  T
   6   -180.4932739 -0.116571E+00  0.963E-01    0.02       1.0  T
   7   -180.5021831 -0.890919E-02  0.793E-01    0.07       1.0  T
   8   -180.5630581 -0.608750E-01  0.361E-01    0.02       1.0  T
   9   -180.5708669 -0.780875E-02  0.946E-02    0.03       1.0  T
  10   -180.5713226 -0.455681E-03  0.497E-02    0.03       1.0  T
  11   -180.5697400  0.158260E-02  0.130E-01    0.04       1.0  T
  12   -180.5710632 -0.132328E-02  0.853E-02    0.03       1.0  T
  13   -180.5712088 -0.145593E-03  0.651E-02    0.02       1.0  T
  14   -180.5715273 -0.318492E-03  0.260E-02    0.03       1.0  T
  15   -180.5714989  0.283948E-04  0.259E-02    0.03       1.0  T
  16   -180.5715310 -0.320470E-04  0.250E-02    0.03       1.0  T
  17   -180.5715694 -0.384488E-04  0.629E-03    0.03       1.7  T
  18   -180.5715626  0.680770E-05  0.125E-02    0.03       1.0  T
  19   -180.5715725 -0.992651E-05  0.775E-04    0.03      13.6  T
  20   -180.5715720  0.586473E-06  0.285E-03    0.03       3.7  T
  21   -180.5715718  0.128752E-06  0.333E-03    0.03       3.2  T
  22   -180.5715723 -0.494968E-06  0.189E-03    0.03       5.6  T
  23   -180.5715725 -0.202577E-06  0.692E-04    0.03      15.2  T
  24   -180.5715725  0.363186E-07  0.110E-03    0.03       9.6  T
  25   -180.5715726 -0.775770E-07  0.413E-04    0.03      25.5  T
     SCC iter.                  ...        0 min,  0.542 sec
     gradient                   ...        0 min,  0.049 sec
 * total energy  :  -178.8466879 Eh     change       -0.7530143E-03 Eh
   gradient norm :     0.0126152 Eh/α   predicted    -0.5756731E-03 ( -23.55%)
   displ. norm   :     0.3836478 α      lambda       -0.1762918E-02
   maximum displ.:     0.1602659 α      in ANC's #7, #2, #13, ...

........................................................................
.............................. CYCLE  123 ..............................
........................................................................

 iter      E             dE          RMSdq      gap      omega  full diag
   1   -180.5378019 -0.180538E+03  0.871E-01    0.03       0.0  T
   2   -176.4565886  0.408121E+01  0.895E+00    0.07       1.0  T
   3   -180.3253764 -0.386879E+01  0.157E+00    0.17       1.0  T
   4   -180.4451740 -0.119798E+00  0.118E+00    0.00       1.0  T
   5   -180.4601593 -0.149853E-01  0.139E+00    0.03       1.0  T
   6   -180.5680984 -0.107939E+00  0.578E-01    0.02       1.0  T
   7   -180.4729934  0.951050E-01  0.126E+00    0.01       1.0  T
   8   -180.4862199 -0.132265E-01  0.127E+00    0.01       1.0  T
   9   -180.5552852 -0.690653E-01  0.566E-01    0.04       1.0  T
  10   -180.5834864 -0.282013E-01  0.108E-01    0.02       1.0  T
  11   -180.5762464  0.724006E-02  0.377E-01    0.03       1.0  T
  12   -180.5748290  0.141740E-02  0.360E-01    0.03       1.0  T
  13   -180.5831506 -0.832164E-02  0.126E-01    0.04       1.0  T
  14   -180.5835154 -0.364757E-03  0.102E-01    0.04       1.0  T
  15   -180.5844958 -0.980455E-03  0.549E-02    0.03       1.0  T
  16   -180.5843859  0.109945E-03  0.714E-02    0.03       1.0  T
  17   -180.5843632  0.226760E-04  0.703E-02    0.03       1.0  T
  18   -180.5845749 -0.211663E-03  0.265E-02    0.03       1.0  T
  19   -180.5846036 -0.286797E-04  0.240E-02    0.03       1.0  T
  20   -180.5845632  0.403252E-04  0.309E-02    0.03       1.0  T
  21   -180.5846475 -0.842201E-04  0.190E-03    0.03       5.5  T
  22   -180.5846274  0.200827E-04  0.180E-02    0.03       1.0  T
  23   -180.5846420 -0.146734E-04  0.810E-03    0.03       1.3  T
  24   -180.5846467 -0.466471E-05  0.324E-03    0.03       3.3  T
  25   -180.5846472 -0.498993E-06  0.209E-03    0.03       5.1  T
  26   -180.5846475 -0.329664E-06  0.106E-03    0.03       9.9  T
  27   -180.5846476 -0.348632E-07  0.848E-04    0.03      12.4  T
  28   -180.5846476 -0.748508E-07  0.127E-04    0.03      82.8  T
     SCC iter.                  ...        0 min,  0.603 sec
     gradient                   ...        0 min,  0.049 sec
 * total energy  :  -178.8461871 Eh     change        0.5008624E-03 Eh
   gradient norm :     0.0289872 Eh/α   predicted    -0.1011225E-02 (-301.90%)
   displ. norm   :     0.3493076 α      lambda       -0.3556852E-02
   maximum displ.:     0.1593976 α      in ANC's #7, #38, #13, ...

........................................................................
.............................. CYCLE  124 ..............................
........................................................................

 iter      E             dE          RMSdq      gap      omega  full diag
   1   -180.5753547 -0.180575E+03  0.488E-01    0.01       0.0  T
   2   -180.2687708  0.306584E+00  0.171E+00    0.53       1.0  T
   3   -180.0455415  0.223229E+00  0.304E+00    0.02       1.0  T
   4   -180.2737003 -0.228159E+00  0.229E+00    0.02       1.0  T
   5   -180.4343579 -0.160658E+00  0.159E+00    0.02       1.0  T
   6   -180.3688230  0.655349E-01  0.170E+00    0.01       1.0  T
   7   -180.4705170 -0.101694E+00  0.106E+00    0.10       1.0  T
   8   -180.5154962 -0.449791E-01  0.863E-01    0.07       1.0  T
   9   -180.5204881 -0.499198E-02  0.102E+00    0.00       1.0  T
  10   -180.5779634 -0.574753E-01  0.339E-01    0.05       1.0  T
  11   -180.5800134 -0.205002E-02  0.402E-01    0.02       1.0  T
  12   -180.5842296 -0.421620E-02  0.275E-01    0.02       1.0  T
  13   -180.5856582 -0.142855E-02  0.203E-01    0.02       1.0  T
  14   -180.5894070 -0.374881E-02  0.793E-02    0.03       1.0  T
  15   -180.5889408  0.466217E-03  0.108E-01    0.04       1.0  T
  16   -180.5899986 -0.105780E-02  0.139E-02    0.03       1.0  T
  17   -180.5887828  0.121574E-02  0.130E-01    0.02       1.0  T
  18   -180.5899312 -0.114839E-02  0.343E-02    0.03       1.0  T
  19   -180.5899485 -0.172545E-04  0.273E-02    0.03       1.0  T
  20   -180.5900077 -0.592810E-04  0.135E-02    0.03       1.0  T
  21   -180.5899919  0.158228E-04  0.172E-02    0.03       1.0  T
  22   -180.5900100 -0.180372E-04  0.973E-03    0.03       1.1  T
  23   -180.5900195 -0.950546E-05  0.992E-04    0.03      10.6  T
  24   -180.5900183  0.120886E-05  0.401E-03    0.03       2.6  T
  25   -180.5900193 -0.107167E-05  0.158E-03    0.03       6.7  T
  26   -180.5900195 -0.153856E-06  0.673E-04    0.03      15.7  T
  27   -180.5900195 -0.167283E-07  0.463E-04    0.03      22.8  T
     SCC iter.                  ...        0 min,  0.614 sec
     gradient                   ...        0 min,  0.048 sec
 * total energy  :  -178.8476296 Eh     change       -0.1442517E-02 Eh
   gradient norm :     0.0250001 Eh/α   predicted    -0.1995426E-02 (  38.33%)
   displ. norm   :     0.2742368 α      lambda       -0.2606812E-02
   maximum displ.:     0.1290498 α      in ANC's #27, #25, #18, ...

........................................................................
.............................. CYCLE  125 ..............................
........................................................................

 iter      E             dE          RMSdq      gap      omega  full diag
   1   -180.5230870 -0.180523E+03  0.755E-01    0.07       0.0  T
   2   -176.4360485  0.408704E+01  0.798E+00    0.09       1.0  T
   3   -177.3273364 -0.891288E+00  0.675E+00    0.03       1.0  T
   4   -180.3220791 -0.299474E+01  0.173E+00    0.01       1.0  T
   5   -180.2974986  0.245805E-01  0.191E+00    0.01       1.0  T
   6   -180.4143004 -0.116802E+00  0.143E+00    0.01       1.0  T
   7   -180.5153481 -0.101048E+00  0.788E-01    0.03       1.0  T
   8   -180.3964988  0.118849E+00  0.144E+00    0.01       1.0  T
   9   -180.5134592 -0.116960E+00  0.711E-01    0.06       1.0  T
  10   -180.5311089 -0.176497E-01  0.692E-01    0.01       1.0  T
  11   -180.5600900 -0.289810E-01  0.451E-01    0.01       1.0  T
  12   -180.5690964 -0.900640E-02  0.489E-01    0.02       1.0  T
  13   -180.5676502  0.144616E-02  0.550E-01    0.01       1.0  T
  14   -180.5727545 -0.510426E-02  0.464E-01    0.02       1.0  T
  15   -180.5585602  0.141943E-01  0.631E-01    0.01       1.0  T
  16   -180.5747993 -0.162391E-01  0.223E-01    0.03       1.0  T
  17   -180.5760401 -0.124080E-02  0.111E-01    0.03       1.0  T
  18   -180.5753805  0.659521E-03  0.153E-01    0.03       1.0  T
  19   -180.5755413 -0.160789E-03  0.138E-01    0.03       1.0  T
  20   -180.5766947 -0.115336E-02  0.737E-02    0.03       1.0  T
  21   -180.5768437 -0.148995E-03  0.531E-02    0.03       1.0  T
  22   -180.5769373 -0.935760E-04  0.389E-02    0.03       1.0  T
  23   -180.5770210 -0.837506E-04  0.266E-02    0.03       1.0  T
  24   -180.5770723 -0.513353E-04  0.103E-02    0.03       1.0  T
  25   -180.5770665  0.588923E-05  0.168E-02    0.03       1.0  T
  26   -180.5770765 -0.100738E-04  0.476E-03    0.03       2.2  T
  27   -180.5770782 -0.167380E-05  0.373E-03    0.03       2.8  T
  28   -180.5770789 -0.664896E-06  0.112E-03    0.03       9.4  T
  29   -180.5770788  0.440570E-07  0.104E-03    0.03      10.1  T
  30   -180.5770788  0.487307E-07  0.120E-03    0.03       8.8  T
  31   -180.5770789 -0.910232E-07  0.605E-04    0.03      17.4  T
  32   -180.5770789 -0.273580E-07  0.426E-04    0.03      24.7  T
     SCC iter.                  ...        0 min,  0.672 sec
     gradient                   ...        0 min,  0.048 sec
 * total energy  :  -178.8485539 Eh     change       -0.9242610E-03 Eh
   gradient norm :     0.0148964 Eh/α   predicted    -0.1401438E-02 (  51.63%)
   displ. norm   :     0.3356255 α      lambda       -0.1645196E-02
   maximum displ.:     0.1556861 α      in ANC's #7, #2, #9, ...

........................................................................
.............................. CYCLE  126 ..............................
........................................................................

 iter      E             dE          RMSdq      gap      omega  full diag
   1   -180.4492804 -0.180449E+03  0.136E+00    0.01       0.0  T
   2   -177.3236572  0.312562E+01  0.877E+00    0.09       1.0  T
   3   -180.1295457 -0.280589E+01  0.223E+00    0.76       1.0  T
   4   -180.4271158 -0.297570E+00  0.164E+00    0.03       1.0  T
   5   -180.3220366  0.105079E+00  0.155E+00    0.21       1.0  T
   6   -180.4454218 -0.123385E+00  0.130E+00    0.06       1.0  T
   7   -180.4247118  0.207100E-01  0.159E+00    0.01       1.0  T
   8   -180.5150702 -0.903584E-01  0.850E-01    0.05       1.0  T
   9   -179.6062355  0.908835E+00  0.376E+00    0.02       1.0  T
  10   -180.2902739 -0.684038E+00  0.208E+00    0.01       1.0  T
  11   -180.5434541 -0.253180E+00  0.690E-01    0.03       1.0  T
  12   -180.5695945 -0.261404E-01  0.308E-01    0.04       1.0  T
  13   -180.5739042 -0.430971E-02  0.175E-01    0.04       1.0  T
  14   -180.5669745  0.692976E-02  0.329E-01    0.04       1.0  T
  15   -180.5731842 -0.620972E-02  0.250E-01    0.03       1.0  T
  16   -180.5685847  0.459950E-02  0.319E-01    0.04       1.0  T
  17   -180.5761422 -0.755756E-02  0.887E-02    0.04       1.0  T
  18   -180.5765299 -0.387638E-03  0.582E-02    0.03       1.0  T
  19   -180.5765877 -0.578044E-04  0.518E-02    0.03       1.0  T
  20   -180.5765971 -0.942610E-05  0.509E-02    0.03       1.0  T
  21   -180.5765864  0.107461E-04  0.602E-02    0.03       1.0  T
  22   -180.5766766 -0.902082E-04  0.421E-02    0.03       1.0  T
  23   -180.5766165  0.600417E-04  0.509E-02    0.03       1.0  T
  24   -180.5767068 -0.902351E-04  0.390E-02    0.03       1.0  T
  25   -180.5767309 -0.241822E-04  0.354E-02    0.03       1.0  T
  26   -180.5768132 -0.822485E-04  0.184E-02    0.03       1.0  T
  27   -180.5768006  0.125749E-04  0.224E-02    0.03       1.0  T
  28   -180.5768207 -0.200487E-04  0.164E-02    0.03       1.0  T
  29   -180.5768373 -0.165891E-04  0.963E-03    0.03       1.1  T
  30   -180.5768444 -0.718228E-05  0.446E-03    0.03       2.4  T
  31   -180.5768450 -0.576596E-06  0.388E-03    0.03       2.7  T
  32   -180.5768461 -0.112685E-05  0.152E-03    0.03       6.9  T
  33   -180.5768463 -0.170885E-06  0.394E-04    0.03      26.8  T
  34   -180.5768462  0.131621E-06  0.138E-03    0.03       7.6  T
  35   -180.5768463 -0.136279E-06  0.275E-04    0.03      38.4  T
     SCC iter.                  ...        0 min,  0.756 sec
     gradient                   ...        0 min,  0.049 sec
 * total energy  :  -178.8505786 Eh     change       -0.2024697E-02 Eh
   gradient norm :     0.0325376 Eh/α   predicted    -0.9152601E-03 ( -54.80%)
   displ. norm   :     0.7465854 α      lambda       -0.2072570E-01
   maximum displ.:     0.3175318 α      in ANC's #29, #13, #12, ...

........................................................................
.............................. CYCLE  127 ..............................
........................................................................

 iter      E             dE          RMSdq      gap      omega  full diag
   1   -177.1919655 -0.177192E+03  0.664E+00    0.05       0.0  T
   2   -127.6692103  0.495228E+02  0.173E+01    0.14       1.0  T
   3   -175.3073158 -0.476381E+02  0.919E+00    0.05       1.0  T
   4   -178.1267463 -0.281943E+01  0.731E+00    0.05       1.0  T
   5   -180.0392197 -0.191247E+01  0.407E+00    0.03       1.0  T
   6   -180.1257673 -0.865477E-01  0.324E+00    0.90       1.0  T
   7   -180.2538547 -0.128087E+00  0.277E+00    0.13       1.0  T
   8   -179.9761690  0.277686E+00  0.351E+00    0.02       1.0  T
   9   -180.3223352 -0.346166E+00  0.238E+00    0.02       1.0  T
  10   -179.9976064  0.324729E+00  0.310E+00    0.02       1.0  T
  11   -180.2613483 -0.263742E+00  0.174E+00    0.22       1.0  T
  12   -180.2739995 -0.126513E-01  0.165E+00    0.21       1.0  T
  13   -180.3588465 -0.848470E-01  0.131E+00    0.10       1.0  T
  14   -180.2833678  0.754787E-01  0.252E+00    0.02       1.0  T
  15   -180.3316470 -0.482792E-01  0.142E+00    0.18       1.0  T
  16   -180.3611557 -0.295087E-01  0.138E+00    0.12       1.0  T
  17   -180.5224654 -0.161310E+00  0.928E-01    0.01       1.0  T
  18   -180.4006332  0.121832E+00  0.153E+00    0.02       1.0  T
  19   -180.5271845 -0.126551E+00  0.941E-01    0.01       1.0  T
  20   -180.5391822 -0.119977E-01  0.732E-01    0.02       1.0  T
  21   -180.2279561  0.311226E+00  0.239E+00    0.01       1.0  T
  22   -180.3154914 -0.875353E-01  0.206E+00    0.01       1.0  T
  23   -180.3888958 -0.734044E-01  0.176E+00    0.01       1.0  T
  24   -180.4551534 -0.662575E-01  0.142E+00    0.01       1.0  T
  25   -180.5161697 -0.610163E-01  0.901E-01    0.01       1.0  T
  26   -180.5471821 -0.310125E-01  0.475E-01    0.03       1.0  T
  27   -180.5634441 -0.162619E-01  0.789E-02    0.02       1.0  T
  28   -180.5597863  0.365777E-02  0.258E-01    0.02       1.0  T
  29   -180.5582864  0.149996E-02  0.306E-01    0.03       1.0  T
  30   -180.5635211 -0.523470E-02  0.657E-02    0.03       1.0  T
  31   -180.5636941 -0.172989E-03  0.503E-02    0.02       1.0  T
  32   -180.5630284  0.665624E-03  0.105E-01    0.03       1.0  T
  33   -180.5635600 -0.531546E-03  0.699E-02    0.03       1.0  T
  34   -180.5636030 -0.430100E-04  0.685E-02    0.02       1.0  T
  35   -180.5638354 -0.232403E-03  0.270E-02    0.02       1.0  T
  36   -180.5637504  0.849651E-04  0.448E-02    0.02       1.0  T
  37   -180.5638072 -0.568113E-04  0.350E-02    0.02       1.0  T
  38   -180.5636964  0.110799E-03  0.548E-02    0.03       1.0  T
  39   -180.5637522 -0.557560E-04  0.455E-02    0.03       1.0  T
  40   -180.5638565 -0.104265E-03  0.193E-02    0.02       1.0  T
  41   -180.5638778 -0.213418E-04  0.440E-03    0.02       2.4  T
  42   -180.5638776  0.218704E-06  0.467E-03    0.02       2.3  T
  43   -180.5638722  0.536232E-05  0.109E-02    0.02       1.0  T
  44   -180.5638761 -0.391143E-05  0.674E-03    0.02       1.6  T
  45   -180.5638763 -0.125371E-06  0.692E-03    0.02       1.5  T
  46   -180.5638790 -0.272613E-05  0.118E-03    0.02       8.9  T
  47   -180.5638790 -0.216562E-07  0.802E-04    0.02      13.1  T
  48   -180.5638790 -0.409525E-07  0.467E-04    0.02      22.6  T
     SCC iter.                  ...        0 min,  1.044 sec
     gradient                   ...        0 min,  0.050 sec
 * total energy  :  -178.8374568 Eh     change        0.1312180E-01 Eh
   gradient norm :     0.0525280 Eh/α   predicted    -0.1613902E-01 (-222.99%)
   displ. norm   :     0.3882348 α      lambda       -0.1790312E-01
   maximum displ.:     0.1937695 α      in ANC's #29, #13, #17, ...

........................................................................
.............................. CYCLE  128 ..............................
........................................................................

 iter      E             dE          RMSdq      gap      omega  full diag
   1   -180.4376416 -0.180438E+03  0.139E+00    0.03       0.0  T
   2   -176.8274127  0.361023E+01  0.117E+01    0.44       1.0  T
   3   -180.2551328 -0.342772E+01  0.275E+00    0.02       1.0  T
   4   -180.2945842 -0.394513E-01  0.162E+00    0.27       1.0  T
   5   -180.3043619 -0.977775E-02  0.231E+00    0.01       1.0  T
   6   -180.3685964 -0.642345E-01  0.192E+00    0.01       1.0  T
   7   -179.9258362  0.442760E+00  0.340E+00    0.02       1.0  T
   8   -180.5540205 -0.628184E+00  0.682E-01    0.04       1.0  T
   9   -180.5531634  0.857099E-03  0.723E-01    0.02       1.0  T
  10   -180.5620726 -0.890923E-02  0.554E-01    0.01       1.0  T
  11   -180.5662872 -0.421454E-02  0.361E-01    0.05       1.0  T
  12   -180.5387740  0.275132E-01  0.784E-01    0.01       1.0  T
  13   -180.5684148 -0.296408E-01  0.373E-01    0.01       1.0  T
  14   -180.5786546 -0.102398E-01  0.130E-01    0.03       1.0  T
  15   -180.5726845  0.597009E-02  0.305E-01    0.01       1.0  T
  16   -180.5776963 -0.501176E-02  0.188E-01    0.02       1.0  T
  17   -180.5795443 -0.184807E-02  0.662E-02    0.03       1.0  T
  18   -180.5795004  0.439805E-04  0.720E-02    0.03       1.0  T
  19   -180.5797193 -0.218966E-03  0.382E-02    0.03       1.0  T
  20   -180.5798045 -0.851990E-04  0.470E-03    0.03       2.2  T
  21   -180.5797875  0.170076E-04  0.135E-02    0.03       1.0  T
  22   -180.5798049 -0.173523E-04  0.385E-03    0.03       2.7  T
  23   -180.5797888  0.160806E-04  0.154E-02    0.03       1.0  T
  24   -180.5797973 -0.848060E-05  0.125E-02    0.03       1.0  T
  25   -180.5798046 -0.732950E-05  0.498E-03    0.03       2.1  T
  26   -180.5798053 -0.742177E-06  0.305E-03    0.03       3.5  T
  27   -180.5798059 -0.604036E-06  0.104E-03    0.03      10.2  T
  28   -180.5798060 -0.604360E-07  0.248E-04    0.03      42.6  T
  29   -180.5798060  0.143726E-07  0.443E-04    0.03      23.8  T
     SCC iter.                  ...        0 min,  0.618 sec
     gradient                   ...        0 min,  0.046 sec
 * total energy  :  -178.8520236 Eh     change       -0.1456689E-01 Eh
   gradient norm :     0.0327554 Eh/α   predicted    -0.1030080E-01 ( -29.29%)
   displ. norm   :     0.5967226 α      lambda       -0.1648551E-01
   maximum displ.:     0.2306677 α      in ANC's #12, #29, #13, ...

........................................................................
.............................. CYCLE  129 ..............................
........................................................................

 iter      E             dE          RMSdq      gap      omega  full diag
   1   -180.3344392 -0.180334E+03  0.204E+00    0.02       0.0  T
   2   -177.0288442  0.330559E+01  0.117E+01    0.49       1.0  T
   3   -180.1199761 -0.309113E+01  0.249E+00    0.56       1.0  T
   4   -180.2332110 -0.113235E+00  0.263E+00    0.01       1.0  T
   5   -180.2855902 -0.523792E-01  0.170E+00    0.44       1.0  T
   6   -180.3247845 -0.391944E-01  0.210E+00    0.01       1.0  T
   7   -180.5145114 -0.189727E+00  0.109E+00    0.01       1.0  T
   8   -179.6947762  0.819735E+00  0.410E+00    0.01       1.0  T
   9   -180.5360385 -0.841262E+00  0.707E-01    0.06       1.0  T
  10   -180.4868106  0.492279E-01  0.108E+00    0.00       1.0  T
  11   -180.5128004 -0.259898E-01  0.834E-01    0.05       1.0  T
  12   -180.5351550 -0.223546E-01  0.785E-01    0.05       1.0  T
  13   -180.4793691  0.557859E-01  0.104E+00    0.00       1.0  T
  14   -180.5436857 -0.643166E-01  0.701E-01    0.02       1.0  T
  15   -180.5759808 -0.322950E-01  0.624E-02    0.03       1.0  T
  16   -180.5754667  0.514055E-03  0.967E-02    0.04       1.0  T
  17   -180.5759317 -0.464959E-03  0.621E-02    0.04       1.0  T
  18   -180.5735482  0.238349E-02  0.205E-01    0.03       1.0  T
  19   -180.5748240 -0.127584E-02  0.149E-01    0.03       1.0  T
  20   -180.5759266 -0.110260E-02  0.529E-02    0.04       1.0  T
  21   -180.5755828  0.343809E-03  0.939E-02    0.04       1.0  T
  22   -180.5761433 -0.560500E-03  0.236E-02    0.03       1.0  T
  23   -180.5761019  0.414724E-04  0.340E-02    0.03       1.0  T
  24   -180.5761297 -0.278547E-04  0.310E-02    0.03       1.0  T
  25   -180.5761671 -0.373904E-04  0.234E-02    0.03       1.0  T
  26   -180.5761770 -0.993375E-05  0.193E-02    0.03       1.0  T
  27   -180.5761587  0.183303E-04  0.266E-02    0.03       1.0  T
  28   -180.5761986 -0.398872E-04  0.205E-03    0.03       5.1  T
  29   -180.5761970  0.157985E-05  0.507E-03    0.03       2.1  T
  30   -180.5761984 -0.137906E-05  0.223E-03    0.03       4.7  T
  31   -180.5761988 -0.388832E-06  0.997E-04    0.03      10.6  T
  32   -180.5761978  0.949517E-06  0.416E-03    0.03       2.5  T
  33   -180.5761988 -0.101308E-05  0.726E-04    0.03      14.5  T
  34   -180.5761988 -0.447616E-08  0.591E-04    0.03      17.8  T
     SCC iter.                  ...        0 min,  0.740 sec
     gradient                   ...        0 min,  0.049 sec
 * total energy  :  -178.8513525 Eh     change        0.6711283E-03 Eh
   gradient norm :     0.0189630 Eh/α   predicted    -0.1117782E-01 (*******%)
   displ. norm   :     0.3844596 α      lambda       -0.2833494E-02
   maximum displ.:     0.1357969 α      in ANC's #7, #13, #2, ...

........................................................................
.............................. CYCLE  130 ..............................
........................................................................

 iter      E             dE          RMSdq      gap      omega  full diag
   1   -180.5356024 -0.180536E+03  0.880E-01    0.03       0.0  T
   2   -176.6005825  0.393502E+01  0.861E+00    0.15       1.0  T
   3   -180.3051685 -0.370459E+01  0.159E+00    0.29       1.0  T
   4   -180.2882342  0.169343E-01  0.184E+00    0.01       1.0  T
   5   -180.4512433 -0.163009E+00  0.126E+00    0.07       1.0  T
   6   -180.4267074  0.245358E-01  0.115E+00    0.14       1.0  T
   7   -180.5722192 -0.145512E+00  0.372E-01    0.03       1.0  T
   8   -180.5637878  0.843137E-02  0.490E-01    0.02       1.0  T
   9   -180.5743990 -0.106112E-01  0.190E-01    0.03       1.0  T
  10   -180.5711576  0.324135E-02  0.314E-01    0.04       1.0  T
  11   -180.5740163 -0.285864E-02  0.230E-01    0.03       1.0  T
  12   -180.5709205  0.309578E-02  0.305E-01    0.02       1.0  T
  13   -180.5692643  0.165615E-02  0.273E-01    0.02       1.0  T
  14   -180.5746879 -0.542357E-02  0.112E-01    0.04       1.0  T
  15   -180.5753644 -0.676462E-03  0.910E-02    0.04       1.0  T
  16   -180.5753950 -0.306683E-04  0.926E-02    0.04       1.0  T
  17   -180.5756192 -0.224216E-03  0.700E-02    0.03       1.0  T
  18   -180.5759384 -0.319144E-03  0.531E-03    0.03       2.0  T
  19   -180.5758401  0.983227E-04  0.318E-02    0.04       1.0  T
  20   -180.5759073 -0.672590E-04  0.183E-02    0.03       1.0  T
  21   -180.5759190 -0.116456E-04  0.159E-02    0.03       1.0  T
  22   -180.5759326 -0.135952E-04  0.111E-02    0.03       1.0  T
  23   -180.5759222  0.104095E-04  0.175E-02    0.03       1.0  T
  24   -180.5759380 -0.158177E-04  0.503E-03    0.03       2.1  T
  25   -180.5759392 -0.121788E-05  0.164E-03    0.03       6.4  T
  26   -180.5759394 -0.238218E-06  0.407E-04    0.03      25.9  T
  27   -180.5759393  0.129069E-06  0.153E-03    0.03       6.9  T
  28   -180.5759394 -0.570630E-07  0.937E-04    0.03      11.2  T
     SCC iter.                  ...        0 min,  0.605 sec
     gradient                   ...        0 min,  0.048 sec
 * total energy  :  -178.8530383 Eh     change       -0.1685779E-02 Eh
   gradient norm :     0.0201965 Eh/α   predicted    -0.1626158E-02 (  -3.54%)
   displ. norm   :     0.4902370 α      lambda       -0.3011822E-02
   maximum displ.:     0.1879826 α      in ANC's #7, #14, #2, ...

........................................................................
.............................. CYCLE  131 ..............................
........................................................................

 iter      E             dE          RMSdq      gap      omega  full diag
   1   -180.3798904 -0.180380E+03  0.171E+00    0.01       0.0  T
   2   -178.7949891  0.158490E+01  0.733E+00    0.12       1.0  T
   3   -180.1607873 -0.136580E+01  0.227E+00    0.93       1.0  T
   4   -179.6101043  0.550683E+00  0.427E+00    0.01       1.0  T
   5   -180.3045614 -0.694457E+00  0.171E+00    0.46       1.0  T
   6   -180.4394416 -0.134880E+00  0.134E+00    0.06       1.0  T
   7   -180.4487076 -0.926598E-02  0.136E+00    0.04       1.0  T
   8   -180.4492415 -0.533938E-03  0.135E+00    0.01       1.0  T
   9   -180.3983189  0.509226E-01  0.133E+00    0.12       1.0  T
  10   -180.5200335 -0.121715E+00  0.100E+00    0.01       1.0  T
  11   -180.5482184 -0.281849E-01  0.694E-01    0.03       1.0  T
  12   -180.5590995 -0.108810E-01  0.462E-01    0.06       1.0  T
  13   -180.5580647  0.103480E-02  0.580E-01    0.02       1.0  T
  14   -180.5761020 -0.180373E-01  0.197E-01    0.04       1.0  T
  15   -180.5716150  0.448699E-02  0.326E-01    0.02       1.0  T
  16   -180.5695685  0.204650E-02  0.350E-01    0.04       1.0  T
  17   -180.5788205 -0.925203E-02  0.727E-02    0.03       1.0  T
  18   -180.5780169  0.803659E-03  0.117E-01    0.03       1.0  T
  19   -180.5788995 -0.882638E-03  0.621E-02    0.04       1.0  T
  20   -180.5786114  0.288137E-03  0.871E-02    0.04       1.0  T
  21   -180.5778373  0.774004E-03  0.133E-01    0.03       1.0  T
  22   -180.5788883 -0.105090E-02  0.556E-02    0.03       1.0  T
  23   -180.5790031 -0.114816E-03  0.396E-02    0.03       1.0  T
  24   -180.5791306 -0.127537E-03  0.113E-03    0.03       9.4  T
  25   -180.5791094  0.212551E-04  0.153E-02    0.04       1.0  T
  26   -180.5791239 -0.145334E-04  0.104E-02    0.03       1.0  T
  27   -180.5791305 -0.661058E-05  0.163E-03    0.03       6.5  T
  28   -180.5791304  0.791578E-07  0.154E-03    0.03       6.9  T
  29   -180.5791294  0.978805E-06  0.417E-03    0.03       2.5  T
  30   -180.5791306 -0.116709E-05  0.753E-04    0.03      14.0  T
  31   -180.5791304  0.175491E-06  0.174E-03    0.03       6.0  T
  32   -180.5791306 -0.210534E-06  0.446E-04    0.03      23.6  T
  33   -180.5791306  0.884356E-07  0.124E-03    0.03       8.5  T
  34   -180.5791306 -0.650996E-07  0.760E-04    0.03      13.9  T
     SCC iter.                  ...        0 min,  0.760 sec
     gradient                   ...        0 min,  0.050 sec
 * total energy  :  -178.8561055 Eh     change       -0.3067177E-02 Eh
   gradient norm :     0.0292170 Eh/α   predicted    -0.1867825E-02 ( -39.10%)
   displ. norm   :     0.4093637 α      lambda       -0.7238016E-02
   maximum displ.:     0.1354702 α      in ANC's #29, #13, #22, ...

........................................................................
.............................. CYCLE  132 ..............................
........................................................................

 iter      E             dE          RMSdq      gap      omega  full diag
   1   -179.6147454 -0.179615E+03  0.366E+00    0.01       0.0  T
   2   -175.3756012  0.423914E+01  0.749E+00    0.22       1.0  T
   3   -178.2134518 -0.283785E+01  0.700E+00    0.17       1.0  T
   4   -180.0750015 -0.186155E+01  0.313E+00    0.42       1.0  T
   5   -180.2867054 -0.211704E+00  0.233E+00    0.58       1.0  T
   6   -180.3404850 -0.537797E-01  0.192E+00    0.15       1.0  T
   7   -180.0300085  0.310477E+00  0.321E+00    0.02       1.0  T
   8   -180.4082099 -0.378201E+00  0.176E+00    0.03       1.0  T
   9   -180.1400568  0.268153E+00  0.278E+00    0.02       1.0  T
  10   -180.5498193 -0.409763E+00  0.918E-01    0.03       1.0  T
  11   -180.3867132  0.163106E+00  0.138E+00    0.14       1.0  T
  12   -180.4464894 -0.597762E-01  0.123E+00    0.08       1.0  T
  13   -180.5123435 -0.658542E-01  0.119E+00    0.01       1.0  T
  14   -180.4812167  0.311268E-01  0.111E+00    0.06       1.0  T
  15   -180.4727325  0.848423E-02  0.136E+00    0.01       1.0  T
  16   -180.5512923 -0.785598E-01  0.630E-01    0.06       1.0  T
  17   -180.5800479 -0.287556E-01  0.379E-01    0.02       1.0  T
  18   -180.5179581  0.620899E-01  0.106E+00    0.03       1.0  T
  19   -180.5786165 -0.606584E-01  0.333E-01    0.05       1.0  T
  20   -180.5865540 -0.793755E-02  0.178E-01    0.04       1.0  T
  21   -180.5878601 -0.130614E-02  0.140E-01    0.02       1.0  T
  22   -180.5883818 -0.521671E-03  0.121E-01    0.03       1.0  T
  23   -180.5883597  0.220699E-04  0.139E-01    0.03       1.0  T
  24   -180.5894862 -0.112643E-02  0.456E-02    0.03       1.0  T
  25   -180.5895851 -0.989446E-04  0.221E-02    0.03       1.0  T
  26   -180.5895383  0.468697E-04  0.331E-02    0.03       1.0  T
  27   -180.5892133  0.324925E-03  0.741E-02    0.03       1.0  T
  28   -180.5895505 -0.337144E-03  0.296E-02    0.03       1.0  T
  29   -180.5895791 -0.286608E-04  0.232E-02    0.03       1.0  T
  30   -180.5896124 -0.332849E-04  0.489E-03    0.03       2.2  T
  31   -180.5896131 -0.716517E-06  0.327E-03    0.03       3.2  T
  32   -180.5896137 -0.598352E-06  0.100E-03    0.03      10.5  T
  33   -180.5896117  0.203347E-05  0.558E-03    0.03       1.9  T
  34   -180.5896133 -0.155078E-05  0.279E-03    0.03       3.8  T
  35   -180.5896136 -0.355969E-06  0.150E-03    0.03       7.0  T
  36   -180.5896137 -0.925616E-07  0.115E-03    0.03       9.2  T
  37   -180.5896138 -0.584545E-07  0.917E-04    0.03      11.5  T
  38   -180.5896138 -0.490046E-07  0.226E-04    0.03      46.5  T
     SCC iter.                  ...        0 min,  0.819 sec
     gradient                   ...        0 min,  0.051 sec
 * total energy  :  -178.8611143 Eh     change       -0.5008811E-02 Eh
   gradient norm :     0.0344586 Eh/α   predicted    -0.4225471E-02 ( -15.64%)
   displ. norm   :     0.2482903 α      lambda       -0.4501980E-02
   maximum displ.:     0.0860359 α      in ANC's #17, #29, #14, ...

........................................................................
.............................. CYCLE  133 ..............................
........................................................................

 iter      E             dE          RMSdq      gap      omega  full diag
   1   -180.4670585 -0.180467E+03  0.112E+00    0.09       0.0  T
   2   -176.3246687  0.414239E+01  0.107E+01    0.08       1.0  T
   3   -180.1414657 -0.381680E+01  0.254E+00    0.02       1.0  T
   4   -180.2896256 -0.148160E+00  0.244E+00    0.02       1.0  T
   5   -180.3485227 -0.588972E-01  0.200E+00    0.01       1.0  T
   6   -180.3991243 -0.506015E-01  0.166E+00    0.01       1.0  T
   7   -180.4471172 -0.479929E-01  0.149E+00    0.03       1.0  T
   8   -180.4492478 -0.213060E-02  0.130E+00    0.09       1.0  T
   9   -180.5208940 -0.716462E-01  0.109E+00    0.03       1.0  T
  10   -180.5730970 -0.522031E-01  0.479E-01    0.06       1.0  T
  11   -180.5899535 -0.168565E-01  0.175E-01    0.03       1.0  T
  12   -180.5807504  0.920309E-02  0.340E-01    0.06       1.0  T
  13   -180.5698002  0.109502E-01  0.569E-01    0.01       1.0  T
  14   -180.5851536 -0.153534E-01  0.333E-01    0.02       1.0  T
  15   -180.5920135 -0.685982E-02  0.310E-02    0.04       1.0  T
  16   -180.5915163  0.497161E-03  0.939E-02    0.03       1.0  T
  17   -180.5915694 -0.531085E-04  0.766E-02    0.04       1.0  T
  18   -180.5917212 -0.151755E-03  0.785E-02    0.04       1.0  T
  19   -180.5919673 -0.246183E-03  0.330E-02    0.03       1.0  T
  20   -180.5920360 -0.686351E-04  0.218E-02    0.03       1.0  T
  21   -180.5920444 -0.843039E-05  0.239E-02    0.04       1.0  T
  22   -180.5920748 -0.303812E-04  0.823E-03    0.03       1.3  T
  23   -180.5920722  0.262672E-05  0.142E-02    0.03       1.0  T
  24   -180.5920818 -0.960874E-05  0.420E-03    0.03       2.5  T
  25   -180.5920820 -0.273781E-06  0.253E-03    0.03       4.2  T
  26   -180.5920822 -0.161106E-06  0.227E-03    0.03       4.6  T
  27   -180.5920822  0.358199E-07  0.215E-03    0.03       4.9  T
  28   -180.5920825 -0.299150E-06  0.223E-04    0.03      47.2  T
  29   -180.5920824  0.326069E-07  0.826E-04    0.03      12.8  T
     SCC iter.                  ...        0 min,  0.621 sec
     gradient                   ...        0 min,  0.050 sec
 * total energy  :  -178.8642601 Eh     change       -0.3145787E-02 Eh
   gradient norm :     0.0232443 Eh/α   predicted    -0.2389765E-02 ( -24.03%)
   displ. norm   :     0.2151057 α      lambda       -0.1783978E-02
   maximum displ.:     0.0653490 α      in ANC's #6, #2, #14, ...

........................................................................
.............................. CYCLE  134 ..............................
........................................................................

 iter      E             dE          RMSdq      gap      omega  full diag
   1   -180.5916415 -0.180592E+03  0.347E-01    0.04       0.0  T
   2   -178.3908740  0.220077E+01  0.568E+00    0.01       1.0  T
   3   -180.5270544 -0.213618E+01  0.828E-01    0.08       1.0  T
   4   -180.1250437  0.402011E+00  0.284E+00    0.02       1.0  T
   5   -180.4647716 -0.339728E+00  0.116E+00    0.01       1.0  T
   6   -180.5894371 -0.124665E+00  0.300E-01    0.04       1.0  T
   7   -180.5790489  0.103882E-01  0.519E-01    0.02       1.0  T
   8   -180.5890351 -0.998616E-02  0.312E-01    0.04       1.0  T
   9   -180.5901859 -0.115081E-02  0.292E-01    0.03       1.0  T
  10   -180.5903101 -0.124159E-03  0.260E-01    0.02       1.0  T
  11   -180.5912458 -0.935689E-03  0.239E-01    0.03       1.0  T
  12   -180.5924162 -0.117047E-02  0.207E-01    0.03       1.0  T
  13   -180.5925906 -0.174373E-03  0.189E-01    0.03       1.0  T
  14   -180.5945450 -0.195437E-02  0.798E-02    0.03       1.0  T
  15   -180.5949175 -0.372545E-03  0.510E-02    0.03       1.0  T
  16   -180.5949990 -0.814691E-04  0.339E-02    0.04       1.0  T
  17   -180.5948354  0.163588E-03  0.581E-02    0.04       1.0  T
  18   -180.5949957 -0.160308E-03  0.324E-02    0.04       1.0  T
  19   -180.5950615 -0.657590E-04  0.590E-03    0.03       1.8  T
  20   -180.5950620 -0.575771E-06  0.496E-03    0.03       2.1  T
  21   -180.5950593  0.279055E-05  0.831E-03    0.03       1.3  T
  22   -180.5950607 -0.147105E-05  0.656E-03    0.03       1.6  T
  23   -180.5950634 -0.268207E-05  0.952E-04    0.03      11.1  T
  24   -180.5950635 -0.643383E-07  0.408E-04    0.03      25.8  T
  25   -180.5950634  0.339184E-07  0.868E-04    0.03      12.1  T
     SCC iter.                  ...        0 min,  0.562 sec
     gradient                   ...        0 min,  0.049 sec
 * total energy  :  -178.8655657 Eh     change       -0.1305647E-02 Eh
   gradient norm :     0.0179678 Eh/α   predicted    -0.9332624E-03 ( -28.52%)
   displ. norm   :     0.5413740 α      lambda       -0.3505606E-02
   maximum displ.:     0.1584664 α      in ANC's #2, #23, #7, ...

........................................................................
.............................. CYCLE  135 ..............................
........................................................................

 iter      E             dE          RMSdq      gap      omega  full diag
   1   -180.5818177 -0.180582E+03  0.819E-01    0.04       0.0  T
   2   -177.0263173  0.355550E+01  0.728E+00    0.07       1.0  T
   3   -180.3616053 -0.333529E+01  0.154E+00    0.25       1.0  T
   4   -180.0425038  0.319102E+00  0.310E+00    0.02       1.0  T
   5   -180.4445200 -0.402016E+00  0.125E+00    0.01       1.0  T
   6   -180.4826161 -0.380961E-01  0.117E+00    0.06       1.0  T
   7   -180.5168783 -0.342622E-01  0.112E+00    0.01       1.0  T
   8   -180.5554085 -0.385302E-01  0.640E-01    0.08       1.0  T
   9   -180.5905779 -0.351695E-01  0.250E-01    0.05       1.0  T
  10   -180.5639692  0.266088E-01  0.622E-01    0.01       1.0  T
  11   -180.5821562 -0.181870E-01  0.448E-01    0.02       1.0  T
  12   -180.5808730  0.128319E-02  0.458E-01    0.02       1.0  T
  13   -180.5783346  0.253839E-02  0.447E-01    0.01       1.0  T
  14   -180.5947682 -0.164336E-01  0.151E-01    0.03       1.0  T
  15   -180.5959024 -0.113428E-02  0.907E-02    0.04       1.0  T
  16   -180.5951958  0.706613E-03  0.143E-01    0.03       1.0  T
  17   -180.5962372 -0.104139E-02  0.368E-02    0.04       1.0  T
  18   -180.5961399  0.973197E-04  0.438E-02    0.03       1.0  T
  19   -180.5954071  0.732830E-03  0.107E-01    0.04       1.0  T
  20   -180.5958652 -0.458155E-03  0.868E-02    0.04       1.0  T
  21   -180.5960835 -0.218292E-03  0.584E-02    0.04       1.0  T
  22   -180.5962094 -0.125911E-03  0.380E-02    0.04       1.0  T
  23   -180.5962909 -0.814828E-04  0.284E-02    0.03       1.0  T
  24   -180.5963330 -0.420877E-04  0.130E-02    0.03       1.0  T
  25   -180.5963379 -0.487014E-05  0.951E-03    0.03       1.1  T
  26   -180.5963440 -0.612982E-05  0.263E-03    0.04       4.0  T
  27   -180.5963442 -0.218279E-06  0.159E-03    0.04       6.6  T
  28   -180.5963443 -0.878587E-07  0.131E-03    0.04       8.0  T
  29   -180.5963444 -0.585633E-07  0.587E-04    0.04      18.0  T
  30   -180.5963444 -0.170341E-07  0.362E-04    0.04      29.1  T
     SCC iter.                  ...        0 min,  0.642 sec
     gradient                   ...        0 min,  0.050 sec
 * total energy  :  -178.8670090 Eh     change       -0.1443283E-02 Eh
   gradient norm :     0.0182371 Eh/α   predicted    -0.2266515E-02 (  57.04%)
   displ. norm   :     0.2107795 α      lambda       -0.1340066E-02
   maximum displ.:     0.0771480 α      in ANC's #2, #6, #23, ...

........................................................................
.............................. CYCLE  136 ..............................
........................................................................

 iter      E             dE          RMSdq      gap      omega  full diag
   1   -180.4730208 -0.180473E+03  0.154E+00    0.01       0.0  T
   2   -177.2359572  0.323706E+01  0.113E+01    0.41       1.0  T
   3   -180.2326260 -0.299667E+01  0.207E+00    0.89       1.0  T
   4   -180.2760605 -0.434345E-01  0.251E+00    0.01       1.0  T
   5   -180.3642098 -0.881494E-01  0.153E+00    0.20       1.0  T
   6   -180.4557813 -0.915714E-01  0.166E+00    0.01       1.0  T
   7   -180.5611828 -0.105402E+00  0.914E-01    0.03       1.0  T
   8   -180.5657636 -0.458080E-02  0.807E-01    0.03       1.0  T
   9   -180.5603149  0.544863E-02  0.782E-01    0.01       1.0  T
  10   -180.5576236  0.269131E-02  0.702E-01    0.06       1.0  T
  11   -180.5752109 -0.175873E-01  0.641E-01    0.03       1.0  T
  12   -180.5976663 -0.224554E-01  0.121E-01    0.03       1.0  T
  13   -180.5949544  0.271187E-02  0.222E-01    0.04       1.0  T
  14   -180.5979631 -0.300873E-02  0.115E-01    0.04       1.0  T
  15   -180.5956327  0.233039E-02  0.246E-01    0.04       1.0  T
  16   -180.5976643 -0.203162E-02  0.140E-01    0.04       1.0  T
  17   -180.5978053 -0.140955E-03  0.125E-01    0.04       1.0  T
  18   -180.5987401 -0.934758E-03  0.379E-02    0.04       1.0  T
  19   -180.5986501  0.899806E-04  0.537E-02    0.04       1.0  T
  20   -180.5987276 -0.775091E-04  0.429E-02    0.04       1.0  T
  21   -180.5987854 -0.577678E-04  0.273E-02    0.04       1.0  T
  22   -180.5988178 -0.324134E-04  0.122E-02    0.04       1.0  T
  23   -180.5988228 -0.501363E-05  0.715E-03    0.04       1.5  T
  24   -180.5988257 -0.288044E-05  0.189E-03    0.04       5.6  T
  25   -180.5988257 -0.747484E-07  0.210E-03    0.04       5.0  T
  26   -180.5988254  0.348985E-06  0.333E-03    0.04       3.2  T
  27   -180.5988253  0.127842E-06  0.370E-03    0.04       2.8  T
  28   -180.5988260 -0.712235E-06  0.172E-04    0.04      61.1  T
  29   -180.5988260  0.123192E-07  0.429E-04    0.04      24.5  T
     SCC iter.                  ...        0 min,  0.638 sec
     gradient                   ...        0 min,  0.050 sec
 * total energy  :  -178.8676540 Eh     change       -0.6449717E-03 Eh
   gradient norm :     0.0190862 Eh/α   predicted    -0.6998032E-03 (   8.50%)
   displ. norm   :     0.3034658 α      lambda       -0.1352347E-02
   maximum displ.:     0.1010925 α      in ANC's #2, #29, #13, ...

........................................................................
.............................. CYCLE  137 ..............................
........................................................................

 iter      E             dE          RMSdq      gap      omega  full diag
   1   -180.5556275 -0.180556E+03  0.809E-01    0.02       0.0  T
   2   -177.3910446  0.316458E+01  0.738E+00    0.05       1.0  T
   3   -180.2823472 -0.289130E+01  0.178E+00    0.77       1.0  T
   4   -180.4494592 -0.167112E+00  0.156E+00    0.03       1.0  T
   5   -180.4907119 -0.412527E-01  0.116E+00    0.06       1.0  T
   6   -180.4697706  0.209412E-01  0.119E+00    0.01       1.0  T
   7   -180.4961960 -0.264254E-01  0.107E+00    0.07       1.0  T
   8   -180.5741191 -0.779231E-01  0.391E-01    0.06       1.0  T
   9   -180.5853598 -0.112407E-01  0.257E-01    0.03       1.0  T
  10   -180.5873325 -0.197276E-02  0.213E-01    0.04       1.0  T
  11   -180.5879438 -0.611248E-03  0.158E-01    0.03       1.0  T
  12   -180.5867549  0.118888E-02  0.198E-01    0.04       1.0  T
  13   -180.5897782 -0.302329E-02  0.252E-02    0.03       1.0  T
  14   -180.5894284  0.349785E-03  0.719E-02    0.03       1.0  T
  15   -180.5897069 -0.278543E-03  0.370E-02    0.04       1.0  T
  16   -180.5897333 -0.263827E-04  0.316E-02    0.04       1.0  T
  17   -180.5897989 -0.655685E-04  0.170E-02    0.04       1.0  T
  18   -180.5897977  0.118478E-05  0.216E-02    0.04       1.0  T
  19   -180.5897707  0.270180E-04  0.296E-02    0.04       1.0  T
  20   -180.5898236 -0.529590E-04  0.158E-03    0.03       6.7  T
  21   -180.5898173  0.638975E-05  0.878E-03    0.03       1.2  T
  22   -180.5898231 -0.583950E-05  0.271E-03    0.04       3.9  T
  23   -180.5898233 -0.185315E-06  0.246E-03    0.04       4.3  T
  24   -180.5898236 -0.356849E-06  0.115E-03    0.03       9.1  T
  25   -180.5898236 -0.370213E-08  0.114E-03    0.03       9.3  T
  26   -180.5898237 -0.574270E-07  0.577E-04    0.03      18.3  T
  27   -180.5898237 -0.600318E-08  0.507E-04    0.03      20.8  T
     SCC iter.                  ...        0 min,  0.570 sec
     gradient                   ...        0 min,  0.048 sec
 * total energy  :  -178.8676106 Eh     change        0.4336133E-04 Eh
   gradient norm :     0.0254620 Eh/α   predicted    -0.7384490E-03 (*******%)
   displ. norm   :     0.1482270 α      lambda       -0.1417533E-02
   maximum displ.:     0.0411778 α      in ANC's #15, #33, #18, ...

........................................................................
.............................. CYCLE  138 ..............................
........................................................................

 iter      E             dE          RMSdq      gap      omega  full diag
   1   -180.5953603 -0.180595E+03  0.339E-01    0.05       0.0  T
   2   -178.2759351  0.231943E+01  0.665E+00    0.08       1.0  T
   3   -180.3331342 -0.205720E+01  0.194E+00    0.01       1.0  T
   4   -180.5323717 -0.199237E+00  0.113E+00    0.01       1.0  T
   5   -180.5782431 -0.458713E-01  0.508E-01    0.06       1.0  T
   6   -180.5833444 -0.510137E-02  0.509E-01    0.01       1.0  T
   7   -180.5842906 -0.946216E-03  0.497E-01    0.01       1.0  T
   8   -180.5972663 -0.129756E-01  0.246E-01    0.02       1.0  T
   9   -180.6007640 -0.349772E-02  0.135E-01    0.04       1.0  T
  10   -180.5994663  0.129775E-02  0.173E-01    0.05       1.0  T
  11   -180.6019023 -0.243603E-02  0.928E-02    0.04       1.0  T
  12   -180.6022769 -0.374647E-03  0.423E-02    0.04       1.0  T
  13   -180.6021044  0.172495E-03  0.574E-02    0.04       1.0  T
  14   -180.6023640 -0.259516E-03  0.268E-02    0.04       1.0  T
  15   -180.6024049 -0.409173E-04  0.690E-03    0.03       1.5  T
  16   -180.6024001  0.480960E-05  0.126E-02    0.04       1.0  T
  17   -180.6023957  0.439998E-05  0.143E-02    0.03       1.0  T
  18   -180.6023969 -0.121077E-05  0.115E-02    0.03       1.0  T
  19   -180.6024018 -0.491930E-05  0.854E-03    0.03       1.2  T
  20   -180.6024086 -0.678988E-05  0.175E-03    0.04       6.0  T
  21   -180.6024085  0.974456E-07  0.200E-03    0.04       5.3  T
  22   -180.6024088 -0.298057E-06  0.109E-03    0.04       9.7  T
  23   -180.6024088 -0.303150E-07  0.740E-04    0.04      14.2  T
  24   -180.6024088 -0.107903E-07  0.484E-04    0.04      21.8  T
     SCC iter.                  ...        0 min,  0.485 sec
     gradient                   ...        0 min,  0.049 sec
 * total energy  :  -178.8682341 Eh     change       -0.6235243E-03 Eh
   gradient norm :     0.0170895 Eh/α   predicted    -0.7243419E-03 (  16.17%)
   displ. norm   :     0.2380584 α      lambda       -0.1085671E-02
   maximum displ.:     0.0758789 α      in ANC's #2, #32, #23, ...

........................................................................
.............................. CYCLE  139 ..............................
........................................................................

 iter      E             dE          RMSdq      gap      omega  full diag
   1   -180.4876762 -0.180488E+03  0.144E+00    0.01       0.0  T
   2   -177.2184794  0.326920E+01  0.113E+01    0.38       1.0  T
   3   -180.2701725 -0.305169E+01  0.192E+00    0.56       1.0  T
   4   -180.2495938  0.205787E-01  0.258E+00    0.01       1.0  T
   5   -180.4886254 -0.239032E+00  0.111E+00    0.10       1.0  T
   6   -180.3513134  0.137312E+00  0.203E+00    0.01       1.0  T
   7   -180.5110753 -0.159762E+00  0.125E+00    0.01       1.0  T
   8   -180.5413009 -0.302256E-01  0.742E-01    0.09       1.0  T
   9   -180.5216489  0.196520E-01  0.110E+00    0.02       1.0  T
  10   -180.5747629 -0.531140E-01  0.565E-01    0.05       1.0  T
  11   -180.5885291 -0.137662E-01  0.327E-01    0.02       1.0  T
  12   -180.5905179 -0.198875E-02  0.322E-01    0.03       1.0  T
  13   -180.5844910  0.602688E-02  0.454E-01    0.04       1.0  T
  14   -180.5913849 -0.689391E-02  0.265E-01    0.03       1.0  T
  15   -180.5954912 -0.410632E-02  0.696E-02    0.04       1.0  T
  16   -180.5955317 -0.405083E-04  0.867E-02    0.04       1.0  T
  17   -180.5957484 -0.216676E-03  0.561E-02    0.04       1.0  T
  18   -180.5959178 -0.169429E-03  0.200E-02    0.04       1.0  T
  19   -180.5959393 -0.214422E-04  0.173E-02    0.04       1.0  T
  20   -180.5959517 -0.124483E-04  0.102E-02    0.04       1.0  T
  21   -180.5959567 -0.494839E-05  0.392E-03    0.04       2.7  T
  22   -180.5959497  0.698909E-05  0.126E-02    0.04       1.0  T
  23   -180.5959554 -0.573970E-05  0.720E-03    0.04       1.5  T
  24   -180.5959580 -0.252105E-05  0.166E-03    0.04       6.4  T
  25   -180.5959580 -0.374467E-07  0.159E-03    0.04       6.6  T
  26   -180.5959576  0.413894E-06  0.294E-03    0.04       3.6  T
  27   -180.5959581 -0.526794E-06  0.627E-04    0.04      16.8  T
  28   -180.5959581 -0.213817E-07  0.701E-05    0.04     150.4  T
     SCC iter.                  ...        0 min,  0.645 sec
     gradient                   ...        0 min,  0.050 sec
 * total energy  :  -178.8680444 Eh     change        0.1896849E-03 Eh
   gradient norm :     0.0237085 Eh/α   predicted    -0.5735962E-03 (-402.39%)
   displ. norm   :     0.1510046 α      lambda       -0.1452078E-02
   maximum displ.:     0.0557789 α      in ANC's #2, #13, #6, ...

........................................................................
.............................. CYCLE  140 ..............................
........................................................................

 iter      E             dE          RMSdq      gap      omega  full diag
   1   -180.5562956 -0.180556E+03  0.802E-01    0.01       0.0  T
   2   -178.6655618  0.189073E+01  0.655E+00    0.19       1.0  T
   3   -180.2770252 -0.161146E+01  0.183E+00    0.87       1.0  T
   4   -180.4500313 -0.173006E+00  0.158E+00    0.03       1.0  T
   5   -180.4158626  0.341687E-01  0.137E+00    0.13       1.0  T
   6   -180.4872525 -0.713900E-01  0.122E+00    0.06       1.0  T
   7   -180.5944926 -0.107240E+00  0.180E-01    0.03       1.0  T
   8   -180.5956364 -0.114377E-02  0.143E-01    0.04       1.0  T
   9   -180.5916837  0.395264E-02  0.278E-01    0.02       1.0  T
  10   -180.5941202 -0.243644E-02  0.235E-01    0.04       1.0  T
  11   -180.5926856  0.143462E-02  0.258E-01    0.05       1.0  T
  12   -180.5968897 -0.420415E-02  0.104E-01    0.03       1.0  T
  13   -180.5974087 -0.518964E-03  0.441E-02    0.03       1.0  T
  14   -180.5973935  0.151367E-04  0.450E-02    0.04       1.0  T
  15   -180.5975128 -0.119213E-03  0.117E-02    0.04       1.0  T
  16   -180.5974987  0.140458E-04  0.193E-02    0.04       1.0  T
  17   -180.5974988 -0.736930E-07  0.176E-02    0.03       1.0  T
  18   -180.5975195 -0.207450E-04  0.634E-03    0.04       1.7  T
  19   -180.5975216 -0.211843E-05  0.448E-03    0.04       2.4  T
  20   -180.5975229 -0.120486E-05  0.630E-04    0.04      16.7  T
  21   -180.5975214  0.141790E-05  0.480E-03    0.04       2.2  T
  22   -180.5975227 -0.128515E-05  0.138E-03    0.04       7.6  T
  23   -180.5975228 -0.524900E-07  0.122E-03    0.04       8.7  T
  24   -180.5975228 -0.584533E-07  0.835E-04    0.04      12.6  T
  25   -180.5975229 -0.315819E-07  0.428E-04    0.04      24.6  T
     SCC iter.                  ...        0 min,  0.505 sec
     gradient                   ...        0 min,  0.049 sec
 * total energy  :  -178.8687148 Eh     change       -0.6703323E-03 Eh
   gradient norm :     0.0095370 Eh/α   predicted    -0.7425968E-03 (  10.78%)
   displ. norm   :     0.1968169 α      lambda       -0.4864641E-03
   maximum displ.:     0.0853170 α      in ANC's #2, #15, #6, ...

........................................................................
.............................. CYCLE  141 ..............................
........................................................................

 iter      E             dE          RMSdq      gap      omega  full diag
   1   -180.5986034 -0.180599E+03  0.205E-01    0.04       0.0  T
   2   -179.3417941  0.125681E+01  0.510E+00    0.04       1.0  T
   3   -180.4817542 -0.113996E+01  0.121E+00    0.01       1.0  T
   4   -180.5156959 -0.339417E-01  0.979E-01    0.08       1.0  T
   5   -180.5773595 -0.616636E-01  0.475E-01    0.06       1.0  T
   6   -180.5943304 -0.169709E-01  0.299E-01    0.04       1.0  T
   7   -180.5967551 -0.242470E-02  0.181E-01    0.05       1.0  T
   8   -180.5992811 -0.252596E-02  0.106E-01    0.03       1.0  T
   9   -180.5991850  0.961001E-04  0.101E-01    0.03       1.0  T
  10   -180.5999915 -0.806515E-03  0.242E-02    0.03       1.0  T
  11   -180.6000077 -0.161817E-04  0.187E-02    0.04       1.0  T
  12   -180.6000214 -0.136744E-04  0.993E-03    0.04       1.1  T
  13   -180.6000072  0.141456E-04  0.149E-02    0.03       1.0  T
  14   -180.6000217 -0.144815E-04  0.985E-03    0.04       1.1  T
  15   -180.6000297 -0.797077E-05  0.341E-03    0.04       3.1  T
  16   -180.6000297 -0.531279E-07  0.320E-03    0.04       3.3  T
  17   -180.6000303 -0.616283E-06  0.108E-03    0.04       9.8  T
  18   -180.6000302  0.935869E-07  0.140E-03    0.04       7.5  T
  19   -180.6000301  0.180305E-06  0.246E-03    0.04       4.3  T
  20   -180.6000304 -0.305587E-06  0.635E-04    0.04      16.6  T
  21   -180.6000304 -0.950678E-08  0.466E-04    0.04      22.6  T
     SCC iter.                  ...        0 min,  0.456 sec
     gradient                   ...        0 min,  0.048 sec
 * total energy  :  -178.8688928 Eh     change       -0.1780137E-03 Eh
   gradient norm :     0.0075867 Eh/α   predicted    -0.2526546E-03 (  41.93%)
   displ. norm   :     0.3278270 α      lambda       -0.4710665E-03
   maximum displ.:     0.1713405 α      in ANC's #2, #6, #5, ...

........................................................................
.............................. CYCLE  142 ..............................
........................................................................

 iter      E             dE          RMSdq      gap      omega  full diag
   1   -180.5854222 -0.180585E+03  0.424E-01    0.05       0.0  T
   2   -176.6937243  0.389170E+01  0.783E+00    0.07       1.0  T
   3   -180.4436144 -0.374989E+01  0.128E+00    0.01       1.0  T
   4   -180.4706495 -0.270351E-01  0.135E+00    0.05       1.0  T
   5   -180.4542062  0.164433E-01  0.165E+00    0.02       1.0  T
   6   -180.5029781 -0.487719E-01  0.133E+00    0.01       1.0  T
   7   -180.5511178 -0.481398E-01  0.690E-01    0.01       1.0  T
   8   -180.4755297  0.755881E-01  0.131E+00    0.02       1.0  T
   9   -180.4479547  0.275750E-01  0.136E+00    0.01       1.0  T
  10   -180.4447234  0.323127E-02  0.142E+00    0.01       1.0  T
  11   -180.5189758 -0.742523E-01  0.103E+00    0.01       1.0  T
  12   -180.5948377 -0.758620E-01  0.174E-01    0.04       1.0  T
  13   -180.5968412 -0.200350E-02  0.142E-01    0.03       1.0  T
  14   -180.5967051  0.136134E-03  0.167E-01    0.03       1.0  T
  15   -180.5925794  0.412572E-02  0.365E-01    0.03       1.0  T
  16   -180.5906841  0.189530E-02  0.417E-01    0.03       1.0  T
  17   -180.5949438 -0.425966E-02  0.239E-01    0.03       1.0  T
  18   -180.5975143 -0.257059E-02  0.834E-02    0.03       1.0  T
  19   -180.5977703 -0.255954E-03  0.558E-02    0.03       1.0  T
  20   -180.5978111 -0.408122E-04  0.508E-02    0.03       1.0  T
  21   -180.5978620 -0.508793E-04  0.432E-02    0.03       1.0  T
  22   -180.5979379 -0.759145E-04  0.296E-02    0.03       1.0  T
  23   -180.5979514 -0.134604E-04  0.260E-02    0.03       1.0  T
  24   -180.5979831 -0.317025E-04  0.164E-02    0.04       1.0  T
  25   -180.5979760  0.702896E-05  0.193E-02    0.04       1.0  T
  26   -180.5979937 -0.176270E-04  0.116E-02    0.04       1.0  T
  27   -180.5979936  0.836829E-07  0.118E-02    0.04       1.0  T
  28   -180.5979971 -0.350273E-05  0.982E-03    0.04       1.1  T
  29   -180.5979979 -0.770906E-06  0.955E-03    0.04       1.1  T
  30   -180.5980022 -0.432233E-05  0.574E-03    0.04       1.8  T
  31   -180.5980036 -0.137693E-05  0.376E-03    0.04       2.8  T
  32   -180.5980041 -0.592837E-06  0.247E-03    0.04       4.3  T
  33   -180.5980045 -0.335377E-06  0.101E-03    0.04      10.4  T
  34   -180.5980045 -0.438447E-07  0.662E-04    0.04      15.9  T
  35   -180.5980045 -0.191598E-07  0.312E-04    0.04      33.8  T
     SCC iter.                  ...        0 min,  0.749 sec
     gradient                   ...        0 min,  0.047 sec
 * total energy  :  -178.8692209 Eh     change       -0.3280681E-03 Eh
   gradient norm :     0.0071650 Eh/α   predicted    -0.2608508E-03 ( -20.49%)
   displ. norm   :     0.5221413 α      lambda       -0.8609640E-03
   maximum displ.:     0.2823229 α      in ANC's #2, #6, #5, ...

........................................................................
.............................. CYCLE  143 ..............................
........................................................................

 iter      E             dE          RMSdq      gap      omega  full diag
   1   -180.5910932 -0.180591E+03  0.435E-01    0.04       0.0  T
   2   -179.2269956  0.136410E+01  0.464E+00    0.01       1.0  T
   3   -180.3921840 -0.116519E+01  0.143E+00    0.20       1.0  T
   4   -180.1948817  0.197302E+00  0.264E+00    0.02       1.0  T
   5   -180.4516430 -0.256761E+00  0.131E+00    0.01       1.0  T
   6   -180.4861528 -0.345099E-01  0.110E+00    0.08       1.0  T
   7   -180.5592579 -0.731051E-01  0.609E-01    0.07       1.0  T
   8   -180.5863125 -0.270545E-01  0.315E-01    0.05       1.0  T
   9   -180.5871063 -0.793842E-03  0.367E-01    0.03       1.0  T
  10   -180.5843316  0.277471E-02  0.436E-01    0.03       1.0  T
  11   -180.5811374  0.319419E-02  0.499E-01    0.03       1.0  T
  12   -180.5833375 -0.220014E-02  0.456E-01    0.03       1.0  T
  13   -180.5892418 -0.590429E-02  0.313E-01    0.03       1.0  T
  14   -180.5922471 -0.300523E-02  0.210E-01    0.03       1.0  T
  15   -180.5945945 -0.234739E-02  0.397E-02    0.04       1.0  T
  16   -180.5941424  0.452043E-03  0.977E-02    0.04       1.0  T
  17   -180.5946247 -0.482284E-03  0.283E-02    0.04       1.0  T
  18   -180.5946395 -0.148015E-04  0.207E-02    0.04       1.0  T
  19   -180.5946618 -0.223400E-04  0.172E-02    0.04       1.0  T
  20   -180.5946635 -0.171141E-05  0.132E-02    0.04       1.0  T
  21   -180.5946772 -0.136271E-04  0.542E-03    0.04       1.9  T
  22   -180.5946775 -0.287022E-06  0.526E-03    0.04       2.0  T
  23   -180.5946767  0.774902E-06  0.526E-03    0.04       2.0  T
  24   -180.5946774 -0.744151E-06  0.397E-03    0.04       2.7  T
  25   -180.5946783 -0.905896E-06  0.281E-03    0.04       3.7  T
  26   -180.5946788 -0.453712E-06  0.182E-03    0.04       5.8  T
  27   -180.5946790 -0.169904E-06  0.742E-04    0.04      14.2  T
  28   -180.5946790 -0.295627E-07  0.575E-04    0.04      18.3  T
     SCC iter.                  ...        0 min,  0.610 sec
     gradient                   ...        0 min,  0.049 sec
 * total energy  :  -178.8696138 Eh     change       -0.3929392E-03 Eh
   gradient norm :     0.0096905 Eh/α   predicted    -0.5478510E-03 (  39.42%)
   displ. norm   :     0.3827355 α      lambda       -0.5283981E-03
   maximum displ.:     0.2228611 α      in ANC's #2, #6, #5, ...

........................................................................
.............................. CYCLE  144 ..............................
........................................................................

 iter      E             dE          RMSdq      gap      omega  full diag
   1   -180.5807819 -0.180581E+03  0.410E-01    0.05       0.0  T
   2   -177.3157028  0.326508E+01  0.704E+00    0.02       1.0  T
   3   -180.2955500 -0.297985E+01  0.202E+00    0.01       1.0  T
   4   -180.1470239  0.148526E+00  0.289E+00    0.02       1.0  T
   5   -180.5531772 -0.406153E+00  0.832E-01    0.03       1.0  T
   6   -180.5383820  0.147953E-01  0.991E-01    0.01       1.0  T
   7   -180.5543342 -0.159522E-01  0.739E-01    0.01       1.0  T
   8   -180.5821282 -0.277941E-01  0.432E-01    0.02       1.0  T
   9   -180.5919004 -0.977213E-02  0.132E-01    0.03       1.0  T
  10   -180.5919128 -0.124267E-04  0.125E-01    0.04       1.0  T
  11   -180.5930213 -0.110854E-02  0.579E-02    0.04       1.0  T
  12   -180.5931588 -0.137521E-03  0.385E-02    0.04       1.0  T
  13   -180.5930766  0.822063E-04  0.533E-02    0.03       1.0  T
  14   -180.5930849 -0.824246E-05  0.454E-02    0.04       1.0  T
  15   -180.5932686 -0.183736E-03  0.151E-02    0.04       1.0  T
  16   -180.5932702 -0.156248E-05  0.167E-02    0.04       1.0  T
  17   -180.5932509  0.192476E-04  0.199E-02    0.04       1.0  T
  18   -180.5932802 -0.292503E-04  0.827E-03    0.04       1.3  T
  19   -180.5932846 -0.436982E-05  0.403E-03    0.04       2.6  T
  20   -180.5932853 -0.737880E-06  0.257E-03    0.04       4.1  T
  21   -180.5932851  0.181394E-06  0.344E-03    0.04       3.1  T
  22   -180.5932853 -0.216332E-06  0.213E-03    0.04       5.0  T
  23   -180.5932853 -0.137703E-07  0.203E-03    0.04       5.2  T
  24   -180.5932857 -0.370796E-06  0.603E-04    0.04      17.5  T
  25   -180.5932857  0.735031E-08  0.558E-04    0.04      18.9  T
     SCC iter.                  ...        0 min,  0.504 sec
     gradient                   ...        0 min,  0.047 sec
 * total energy  :  -178.8699969 Eh     change       -0.3831336E-03 Eh
   gradient norm :     0.0092387 Eh/α   predicted    -0.3029038E-03 ( -20.94%)
   displ. norm   :     0.4919089 α      lambda       -0.6755493E-03
   maximum displ.:     0.2986946 α      in ANC's #2, #5, #8, ...

........................................................................
.............................. CYCLE  145 ..............................
........................................................................

 iter      E             dE          RMSdq      gap      omega  full diag
   1   -180.5772552 -0.180577E+03  0.521E-01    0.06       0.0  T
   2   -176.6067962  0.397046E+01  0.784E+00    0.07       1.0  T
   3   -180.0691109 -0.346231E+01  0.279E+00    0.01       1.0  T
   4   -180.4369835 -0.367873E+00  0.154E+00    0.02       1.0  T
   5   -180.5675601 -0.130577E+00  0.696E-01    0.04       1.0  T
   6   -180.4362021  0.131358E+00  0.165E+00    0.02       1.0  T
   7   -180.4083446  0.278575E-01  0.180E+00    0.02       1.0  T
   8   -180.5510672 -0.142723E+00  0.867E-01    0.01       1.0  T
   9   -180.5820947 -0.310275E-01  0.544E-01    0.03       1.0  T
  10   -180.5812787  0.816069E-03  0.495E-01    0.02       1.0  T
  11   -180.5920336 -0.107550E-01  0.280E-01    0.04       1.0  T
  12   -180.5926608 -0.627107E-03  0.258E-01    0.04       1.0  T
  13   -180.5813638  0.112969E-01  0.432E-01    0.02       1.0  T
  14   -180.5866295 -0.526569E-02  0.338E-01    0.02       1.0  T
  15   -180.5933180 -0.668846E-02  0.192E-01    0.03       1.0  T
  16   -180.5953020 -0.198403E-02  0.131E-01    0.03       1.0  T
  17   -180.5954865 -0.184499E-03  0.114E-01    0.03       1.0  T
  18   -180.5956427 -0.156168E-03  0.867E-02    0.03       1.0  T
  19   -180.5957901 -0.147464E-03  0.696E-02    0.03       1.0  T
  20   -180.5960985 -0.308320E-03  0.342E-02    0.04       1.0  T
  21   -180.5960771  0.213882E-04  0.311E-02    0.04       1.0  T
  22   -180.5960864 -0.929777E-05  0.298E-02    0.04       1.0  T
  23   -180.5961450 -0.586300E-04  0.157E-02    0.04       1.0  T
  24   -180.5961577 -0.127358E-04  0.660E-03    0.04       1.6  T
  25   -180.5961596 -0.186294E-05  0.345E-03    0.04       3.1  T
  26   -180.5961600 -0.440138E-06  0.313E-03    0.04       3.4  T
  27   -180.5961607 -0.661204E-06  0.921E-04    0.04      11.4  T
  28   -180.5961605  0.206251E-06  0.194E-03    0.04       5.4  T
  29   -180.5961607 -0.202019E-06  0.112E-03    0.04       9.4  T
  30   -180.5961607 -0.175130E-07  0.706E-04    0.04      14.9  T
     SCC iter.                  ...        0 min,  0.637 sec
     gradient                   ...        0 min,  0.052 sec
 * total energy  :  -178.8704523 Eh     change       -0.4553261E-03 Eh
   gradient norm :     0.0087953 Eh/α   predicted    -0.4195110E-03 (  -7.87%)
   displ. norm   :     0.5886796 α      lambda       -0.5781910E-03
   maximum displ.:     0.3570749 α      in ANC's #2, #5, #8, ...

........................................................................
.............................. CYCLE  146 ..............................
........................................................................

 iter      E             dE          RMSdq      gap      omega  full diag
   1   -180.5723930 -0.180572E+03  0.569E-01    0.07       0.0  T
   2   -177.1090887  0.346330E+01  0.665E+00    0.05       1.0  T
   3   -179.9889633 -0.287987E+01  0.328E+00    0.03       1.0  T
   4   -180.3868115 -0.397848E+00  0.160E+00    0.01       1.0  T
   5   -180.5196490 -0.132837E+00  0.108E+00    0.04       1.0  T
   6   -180.5559044 -0.362554E-01  0.644E-01    0.08       1.0  T
   7   -180.5800168 -0.241124E-01  0.418E-01    0.02       1.0  T
   8   -180.5926616 -0.126448E-01  0.156E-01    0.05       1.0  T
   9   -180.5940449 -0.138332E-02  0.861E-02    0.03       1.0  T
  10   -180.5934752  0.569760E-03  0.118E-01    0.03       1.0  T
  11   -180.5912374  0.223779E-02  0.192E-01    0.03       1.0  T
  12   -180.5935934 -0.235603E-02  0.118E-01    0.03       1.0  T
  13   -180.5940446 -0.451221E-03  0.899E-02    0.03       1.0  T
  14   -180.5943702 -0.325592E-03  0.942E-02    0.04       1.0  T
  15   -180.5944625 -0.922626E-04  0.830E-02    0.04       1.0  T
  16   -180.5947273 -0.264764E-03  0.400E-02    0.04       1.0  T
  17   -180.5947618 -0.345583E-04  0.268E-02    0.04       1.0  T
  18   -180.5947430  0.188488E-04  0.341E-02    0.04       1.0  T
  19   -180.5948087 -0.656816E-04  0.158E-02    0.04       1.0  T
  20   -180.5948243 -0.156213E-04  0.112E-02    0.04       1.0  T
  21   -180.5948280 -0.370533E-05  0.755E-03    0.04       1.4  T
  22   -180.5948331 -0.510227E-05  0.153E-03    0.04       6.9  T
  23   -180.5948331 -0.485649E-07  0.104E-03    0.04      10.1  T
  24   -180.5948327  0.404959E-06  0.263E-03    0.04       4.0  T
  25   -180.5948331 -0.337583E-06  0.142E-03    0.04       7.4  T
  26   -180.5948332 -0.107355E-06  0.686E-04    0.04      15.4  T
  27   -180.5948332 -0.279348E-07  0.194E-04    0.04      54.3  T
     SCC iter.                  ...        0 min,  0.551 sec
     gradient                   ...        0 min,  0.046 sec
 * total energy  :  -178.8709551 Eh     change       -0.5028049E-03 Eh
   gradient norm :     0.0087354 Eh/α   predicted    -0.3892870E-03 ( -22.58%)
   displ. norm   :     0.6444224 α      lambda       -0.7814721E-03
   maximum displ.:     0.4019290 α      in ANC's #2, #4, #5, ...

........................................................................
.............................. CYCLE  147 ..............................
........................................................................

 iter      E             dE          RMSdq      gap      omega  full diag
   1   -180.5709274 -0.180571E+03  0.640E-01    0.06       0.0  T
   2   -176.8671082  0.370382E+01  0.754E+00    0.09       1.0  T
   3   -180.4295601 -0.356245E+01  0.135E+00    0.01       1.0  T
   4   -180.5273431 -0.977830E-01  0.847E-01    0.08       1.0  T
   5   -180.5029809  0.243622E-01  0.118E+00    0.01       1.0  T
   6   -180.5534349 -0.504540E-01  0.694E-01    0.06       1.0  T
   7   -180.5261675  0.272674E-01  0.105E+00    0.00       1.0  T
   8   -180.5658732 -0.397057E-01  0.688E-01    0.02       1.0  T
   9   -180.5939738 -0.281006E-01  0.167E-01    0.04       1.0  T
  10   -180.5920180  0.195581E-02  0.202E-01    0.05       1.0  T
  11   -180.5948787 -0.286070E-02  0.120E-01    0.04       1.0  T
  12   -180.5869217  0.795704E-02  0.306E-01    0.02       1.0  T
  13   -180.5881961 -0.127447E-02  0.324E-01    0.02       1.0  T
  14   -180.5898117 -0.161560E-02  0.284E-01    0.02       1.0  T
  15   -180.5923323 -0.252052E-02  0.218E-01    0.03       1.0  T
  16   -180.5952314 -0.289914E-02  0.740E-02    0.03       1.0  T
  17   -180.5954751 -0.243720E-03  0.529E-02    0.03       1.0  T
  18   -180.5955733 -0.981953E-04  0.335E-02    0.04       1.0  T
  19   -180.5955800 -0.672515E-05  0.386E-02    0.04       1.0  T
  20   -180.5956275 -0.474572E-04  0.210E-02    0.04       1.0  T
  21   -180.5956457 -0.181908E-04  0.158E-02    0.04       1.0  T
  22   -180.5956650 -0.193187E-04  0.506E-03    0.04       2.1  T
  23   -180.5956669 -0.194836E-05  0.229E-03    0.04       4.6  T
  24   -180.5956674 -0.437819E-06  0.703E-04    0.04      15.0  T
  25   -180.5956670  0.350956E-06  0.230E-03    0.04       4.6  T
  26   -180.5956673 -0.251354E-06  0.139E-03    0.04       7.6  T
  27   -180.5956673 -0.557644E-07  0.108E-03    0.04       9.8  T
  28   -180.5956674 -0.602298E-07  0.653E-04    0.04      16.2  T
     SCC iter.                  ...        0 min,  0.569 sec
     gradient                   ...        0 min,  0.050 sec
 * total energy  :  -178.8716133 Eh     change       -0.6581923E-03 Eh
   gradient norm :     0.0082157 Eh/α   predicted    -0.5530074E-03 ( -15.98%)
   displ. norm   :     0.6987666 α      lambda       -0.7774176E-03
   maximum displ.:     0.4222428 α      in ANC's #2, #4, #5, ...

........................................................................
.............................. CYCLE  148 ..............................
........................................................................

 iter      E             dE          RMSdq      gap      omega  full diag
   1   -180.5813732 -0.180581E+03  0.493E-01    0.06       0.0  T
   2   -176.9619003  0.361947E+01  0.740E+00    0.09       1.0  T
   3   -180.1238206 -0.316192E+01  0.287E+00    0.02       1.0  T
   4   -180.4443876 -0.320567E+00  0.142E+00    0.01       1.0  T
   5   -180.4983661 -0.539785E-01  0.965E-01    0.10       1.0  T
   6   -180.5572640 -0.588979E-01  0.661E-01    0.01       1.0  T
   7   -180.5876389 -0.303750E-01  0.283E-01    0.05       1.0  T
   8   -180.5900620 -0.242302E-02  0.195E-01    0.05       1.0  T
   9   -180.5909633 -0.901305E-03  0.170E-01    0.05       1.0  T
  10   -180.5916195 -0.656213E-03  0.156E-01    0.03       1.0  T
  11   -180.5852381  0.638138E-02  0.334E-01    0.02       1.0  T
  12   -180.5865547 -0.131660E-02  0.311E-01    0.02       1.0  T
  13   -180.5873054 -0.750703E-03  0.290E-01    0.02       1.0  T
  14   -180.5889842 -0.167882E-02  0.247E-01    0.03       1.0  T
  15   -180.5932371 -0.425287E-02  0.693E-02    0.03       1.0  T
  16   -180.5932626 -0.254705E-04  0.780E-02    0.04       1.0  T
  17   -180.5931840  0.786075E-04  0.806E-02    0.04       1.0  T
  18   -180.5935735 -0.389579E-03  0.346E-02    0.04       1.0  T
  19   -180.5936326 -0.590540E-04  0.192E-02    0.04       1.0  T
  20   -180.5936443 -0.116896E-04  0.127E-02    0.04       1.0  T
  21   -180.5936597 -0.154509E-04  0.186E-03    0.04       5.7  T
  22   -180.5936596  0.136826E-06  0.278E-03    0.04       3.8  T
  23   -180.5936595  0.653170E-07  0.234E-03    0.04       4.5  T
  24   -180.5936599 -0.384349E-06  0.111E-03    0.04       9.5  T
  25   -180.5936599  0.236243E-07  0.117E-03    0.04       9.0  T
  26   -180.5936600 -0.121978E-06  0.342E-04    0.04      30.8  T
  27   -180.5936600  0.137485E-07  0.610E-04    0.04      17.3  T
     SCC iter.                  ...        0 min,  0.543 sec
     gradient                   ...        0 min,  0.047 sec
 * total energy  :  -178.8722921 Eh     change       -0.6788387E-03 Eh
   gradient norm :     0.0089121 Eh/α   predicted    -0.5785126E-03 ( -14.78%)
   displ. norm   :     0.6956553 α      lambda       -0.8887782E-03
   maximum displ.:     0.4143927 α      in ANC's #2, #4, #5, ...

........................................................................
.............................. CYCLE  149 ..............................
........................................................................

 iter      E             dE          RMSdq      gap      omega  full diag
   1   -180.5856197 -0.180586E+03  0.510E-01    0.03       0.0  T
   2   -177.7359184  0.284970E+01  0.670E+00    0.06       1.0  T
   3   -180.3616321 -0.262571E+01  0.153E+00    0.30       1.0  T
   4   -180.3595718  0.206033E-02  0.186E+00    0.01       1.0  T
   5   -180.5485122 -0.188940E+00  0.736E-01    0.07       1.0  T
   6   -180.5364334  0.120787E-01  0.102E+00    0.01       1.0  T
   7   -180.5698727 -0.334393E-01  0.601E-01    0.06       1.0  T
   8   -180.5783818 -0.850913E-02  0.523E-01    0.05       1.0  T
   9   -180.5919273 -0.135455E-01  0.281E-01    0.04       1.0  T
  10   -180.5963510 -0.442371E-02  0.438E-02    0.04       1.0  T
  11   -180.5954851  0.865924E-03  0.111E-01    0.03       1.0  T
  12   -180.5954370  0.480977E-04  0.137E-01    0.04       1.0  T
  13   -180.5952693  0.167652E-03  0.125E-01    0.04       1.0  T
  14   -180.5964006 -0.113128E-02  0.233E-02    0.04       1.0  T
  15   -180.5962159  0.184745E-03  0.666E-02    0.04       1.0  T
  16   -180.5964257 -0.209811E-03  0.212E-02    0.04       1.0  T
  17   -180.5964375 -0.118399E-04  0.124E-02    0.04       1.0  T
  18   -180.5964331  0.444512E-05  0.180E-02    0.04       1.0  T
  19   -180.5964429 -0.982227E-05  0.113E-02    0.04       1.0  T
  20   -180.5964368  0.606808E-05  0.164E-02    0.04       1.0  T
  21   -180.5964486 -0.118145E-04  0.695E-03    0.04       1.5  T
  22   -180.5964506 -0.197252E-05  0.331E-03    0.04       3.2  T
  23   -180.5964509 -0.328983E-06  0.177E-03    0.04       5.9  T
  24   -180.5964512 -0.233561E-06  0.115E-03    0.04       9.1  T
  25   -180.5964512 -0.662056E-07  0.269E-04    0.04      39.1  T
  26   -180.5964512  0.933653E-10  0.203E-04    0.04      52.0  T
     SCC iter.                  ...        0 min,  0.531 sec
     gradient                   ...        0 min,  0.048 sec
 * total energy  :  -178.8730407 Eh     change       -0.7485835E-03 Eh
   gradient norm :     0.0093156 Eh/α   predicted    -0.6594532E-03 ( -11.91%)
   displ. norm   :     0.7699150 α      lambda       -0.9590504E-03
   maximum displ.:     0.4481462 α      in ANC's #2, #4, #5, ...

........................................................................
.............................. CYCLE  150 ..............................
........................................................................

 iter      E             dE          RMSdq      gap      omega  full diag
   1   -180.5826672 -0.180583E+03  0.472E-01    0.04       0.0  T
   2   -177.2966965  0.328597E+01  0.714E+00    0.09       1.0  T
   3   -180.4086936 -0.311200E+01  0.135E+00    0.17       1.0  T
   4   -180.3578097  0.508839E-01  0.180E+00    0.01       1.0  T
   5   -180.5786815 -0.220872E+00  0.422E-01    0.04       1.0  T
   6   -180.5766799  0.200166E-02  0.432E-01    0.02       1.0  T
   7   -180.5827082 -0.602828E-02  0.379E-01    0.04       1.0  T
   8   -180.5732957  0.941245E-02  0.472E-01    0.06       1.0  T
   9   -180.5817546 -0.845884E-02  0.343E-01    0.05       1.0  T
  10   -180.5878445 -0.608993E-02  0.202E-01    0.03       1.0  T
  11   -180.5894389 -0.159442E-02  0.138E-01    0.03       1.0  T
  12   -180.5893361  0.102808E-03  0.182E-01    0.03       1.0  T
  13   -180.5885820  0.754085E-03  0.217E-01    0.03       1.0  T
  14   -180.5902705 -0.168844E-02  0.123E-01    0.04       1.0  T
  15   -180.5909029 -0.632448E-03  0.425E-02    0.03       1.0  T
  16   -180.5908388  0.640741E-04  0.479E-02    0.04       1.0  T
  17   -180.5910041 -0.165302E-03  0.238E-02    0.04       1.0  T
  18   -180.5910306 -0.264304E-04  0.141E-02    0.04       1.0  T
  19   -180.5910215  0.909201E-05  0.177E-02    0.04       1.0  T
  20   -180.5910396 -0.180966E-04  0.894E-03    0.04       1.2  T
  21   -180.5910434 -0.379060E-05  0.469E-03    0.04       2.2  T
  22   -180.5910435 -0.167150E-06  0.387E-03    0.04       2.7  T
  23   -180.5910445 -0.954320E-06  0.267E-03    0.04       3.9  T
  24   -180.5910448 -0.287754E-06  0.124E-03    0.04       8.5  T
  25   -180.5910448 -0.740790E-07  0.605E-04    0.04      17.4  T
  26   -180.5910449 -0.155555E-07  0.213E-04    0.04      49.5  T
     SCC iter.                  ...        0 min,  0.543 sec
     gradient                   ...        0 min,  0.047 sec
 * total energy  :  -178.8738705 Eh     change       -0.8297926E-03 Eh
   gradient norm :     0.0099028 Eh/α   predicted    -0.7637801E-03 (  -7.96%)
   displ. norm   :     0.6644287 α      lambda       -0.1150716E-02
   maximum displ.:     0.3756172 α      in ANC's #4, #2, #5, ...
 * RMSD in coord.:     0.7825446 α      energy gain  -0.2927925E-01 Eh

generating ANC from exact Hessian ...
Using Lindh-Hessian (1995)
 Shifting diagonal of input Hessian by   1.039340693956224E-002
 Lowest  eigenvalues of input Hessian
    0.010000    0.000000    0.000000    0.000000    0.000000    0.000000
    0.000000    0.010517    0.010614    0.010720    0.010926    0.011091
    0.011216    0.011353    0.011460    0.011760    0.011821    0.011900
 Highest eigenvalues
    2.051648    2.155510    2.216163    2.230731    2.247617    2.256781
 

........................................................................
.............................. CYCLE  151 ..............................
........................................................................

 iter      E             dE          RMSdq      gap      omega  full diag
   1   -180.5827720 -0.180583E+03  0.443E-01    0.02       0.0  T
   2   -180.3183627  0.264409E+00  0.163E+00    0.71       1.0  T
   3   -180.3389976 -0.206349E-01  0.195E+00    0.01       1.0  T
   4   -180.5270018 -0.188004E+00  0.861E-01    0.10       1.0  T
   5   -180.5630357 -0.360340E-01  0.718E-01    0.01       1.0  T
   6   -180.5418706  0.211651E-01  0.756E-01    0.08       1.0  T
   7   -180.5750988 -0.332282E-01  0.604E-01    0.03       1.0  T
   8   -180.5777865 -0.268767E-02  0.555E-01    0.03       1.0  T
   9   -180.5848735 -0.708694E-02  0.341E-01    0.06       1.0  T
  10   -180.5823642  0.250929E-02  0.478E-01    0.03       1.0  T
  11   -180.5948825 -0.125183E-01  0.351E-02    0.04       1.0  T
  12   -180.5943219  0.560572E-03  0.990E-02    0.03       1.0  T
  13   -180.5941594  0.162454E-03  0.120E-01    0.04       1.0  T
  14   -180.5945783 -0.418881E-03  0.785E-02    0.04       1.0  T
  15   -180.5949150 -0.336643E-03  0.246E-02    0.04       1.0  T
  16   -180.5949088  0.621036E-05  0.257E-02    0.04       1.0  T
  17   -180.5949483 -0.395031E-04  0.778E-03    0.04       1.4  T
  18   -180.5949379  0.103347E-04  0.132E-02    0.04       1.0  T
  19   -180.5949512 -0.132365E-04  0.630E-03    0.04       1.7  T
  20   -180.5949524 -0.120005E-05  0.347E-03    0.04       3.0  T
  21   -180.5949525 -0.132744E-06  0.378E-03    0.04       2.8  T
  22   -180.5949520  0.516446E-06  0.417E-03    0.04       2.5  T
  23   -180.5949532 -0.122887E-05  0.111E-03    0.04       9.5  T
  24   -180.5949527  0.532688E-06  0.331E-03    0.04       3.2  T
  25   -180.5949533 -0.620363E-06  0.453E-04    0.04      23.3  T
  26   -180.5949533  0.178312E-08  0.383E-04    0.04      27.6  T
     SCC iter.                  ...        0 min,  0.550 sec
     gradient                   ...        0 min,  0.048 sec
 * total energy  :  -178.8747227 Eh     change       -0.8522071E-03 Eh
   gradient norm :     0.0104426 Eh/α   predicted     0.0000000E+00 (-100.00%)
   displ. norm   :     0.1653239 α      lambda       -0.5929137E-03
   maximum displ.:     0.0817014 α      in ANC's #3, #2, #29, ...

........................................................................
.............................. CYCLE  152 ..............................
........................................................................

 iter      E             dE          RMSdq      gap      omega  full diag
   1   -180.5478468 -0.180548E+03  0.811E-01    0.05       0.0  T
   2   -176.7073606  0.384049E+01  0.977E+00    0.13       1.0  T
   3   -180.3003388 -0.359298E+01  0.227E+00    0.01       1.0  T
   4   -180.5561872 -0.255848E+00  0.727E-01    0.06       1.0  T
   5   -180.4545128  0.101674E+00  0.125E+00    0.01       1.0  T
   6   -180.4623281 -0.781533E-02  0.144E+00    0.01       1.0  T
   7   -180.5825017 -0.120174E+00  0.446E-01    0.02       1.0  T
   8   -180.5825376 -0.358340E-04  0.383E-01    0.02       1.0  T
   9   -180.5860107 -0.347318E-02  0.422E-01    0.03       1.0  T
  10   -180.5947844 -0.877363E-02  0.927E-02    0.04       1.0  T
  11   -180.5928548  0.192962E-02  0.191E-01    0.04       1.0  T
  12   -180.5947462 -0.189141E-02  0.734E-02    0.03       1.0  T
  13   -180.5952050 -0.458853E-03  0.195E-02    0.04       1.0  T
  14   -180.5950733  0.131708E-03  0.543E-02    0.04       1.0  T
  15   -180.5951608 -0.875237E-04  0.314E-02    0.04       1.0  T
  16   -180.5952050 -0.441984E-04  0.182E-02    0.04       1.0  T
  17   -180.5951825  0.225236E-04  0.290E-02    0.04       1.0  T
  18   -180.5952273 -0.447797E-04  0.290E-03    0.04       3.6  T
  19   -180.5952270  0.258720E-06  0.362E-03    0.04       2.9  T
  20   -180.5952270 -0.114981E-07  0.302E-03    0.04       3.5  T
  21   -180.5952274 -0.388823E-06  0.188E-03    0.04       5.6  T
  22   -180.5952277 -0.265787E-06  0.447E-04    0.04      23.6  T
  23   -180.5952277  0.569921E-08  0.448E-04    0.04      23.5  T
     SCC iter.                  ...        0 min,  0.494 sec
     gradient                   ...        0 min,  0.047 sec
 * total energy  :  -178.8739473 Eh     change        0.7753547E-03 Eh
   gradient norm :     0.0485099 Eh/α   predicted    -0.3046349E-03 (-139.29%)
   displ. norm   :     0.3480245 α      lambda       -0.3719661E-02
   maximum displ.:     0.1708136 α      in ANC's #3, #2, #5, ...

........................................................................
.............................. CYCLE  153 ..............................
........................................................................

 iter      E             dE          RMSdq      gap      omega  full diag
   1   -180.5068248 -0.180507E+03  0.114E+00    0.01       0.0  T
   2   -179.3669390  0.113989E+01  0.491E+00    0.01       1.0  T
   3   -180.2529187 -0.885980E+00  0.199E+00    0.81       1.0  T
   4   -180.1430597  0.109859E+00  0.299E+00    0.02       1.0  T
   5   -180.3721934 -0.229134E+00  0.158E+00    0.19       1.0  T
   6   -180.4657042 -0.935108E-01  0.148E+00    0.04       1.0  T
   7   -180.2874089  0.178295E+00  0.247E+00    0.02       1.0  T
   8   -180.2935331 -0.612420E-02  0.245E+00    0.02       1.0  T
   9   -180.4506505 -0.157117E+00  0.148E+00    0.01       1.0  T
  10   -180.5580507 -0.107400E+00  0.845E-01    0.02       1.0  T
  11   -180.5318321  0.262186E-01  0.828E-01    0.10       1.0  T
  12   -180.5809950 -0.491629E-01  0.580E-01    0.03       1.0  T
  13   -180.5596690  0.213260E-01  0.650E-01    0.08       1.0  T
  14   -180.5943197 -0.346506E-01  0.226E-01    0.05       1.0  T
  15   -180.5989081 -0.458838E-02  0.596E-02    0.03       1.0  T
  16   -180.5964515  0.245652E-02  0.195E-01    0.05       1.0  T
  17   -180.5990788 -0.262731E-02  0.437E-02    0.04       1.0  T
  18   -180.5991634 -0.845356E-04  0.195E-02    0.04       1.0  T
  19   -180.5989312  0.232164E-03  0.575E-02    0.04       1.0  T
  20   -180.5991776 -0.246374E-03  0.989E-03    0.04       1.1  T
  21   -180.5991315  0.460440E-04  0.263E-02    0.04       1.0  T
  22   -180.5991832 -0.516583E-04  0.513E-03    0.04       2.1  T
  23   -180.5991840 -0.809309E-06  0.346E-03    0.04       3.0  T
  24   -180.5991772  0.679650E-05  0.986E-03    0.04       1.1  T
  25   -180.5991847 -0.751149E-05  0.284E-04    0.04      37.1  T
  26   -180.5991847  0.484962E-07  0.964E-04    0.04      10.9  T
  27   -180.5991847  0.101603E-07  0.923E-04    0.04      11.4  T
     SCC iter.                  ...        0 min,  0.567 sec
     gradient                   ...        0 min,  0.049 sec
 * total energy  :  -178.8750946 Eh     change       -0.1147318E-02 Eh
   gradient norm :     0.0164689 Eh/α   predicted    -0.2085099E-02 (  81.74%)
   displ. norm   :     0.2604313 α      lambda       -0.1762728E-02
   maximum displ.:     0.1343874 α      in ANC's #14, #17, #26, ...

........................................................................
.............................. CYCLE  154 ..............................
........................................................................

 iter      E             dE          RMSdq      gap      omega  full diag
   1   -180.5809344 -0.180581E+03  0.566E-01    0.05       0.0  T
   2   -176.6746104  0.390632E+01  0.786E+00    0.07       1.0  T
   3   -180.3065963 -0.363199E+01  0.199E+00    0.01       1.0  T
   4   -180.4455117 -0.138915E+00  0.119E+00    0.15       1.0  T
   5   -180.4705635 -0.250517E-01  0.134E+00    0.01       1.0  T
   6   -180.5631725 -0.926090E-01  0.549E-01    0.07       1.0  T
   7   -180.5692928 -0.612031E-02  0.502E-01    0.07       1.0  T
   8   -180.5900313 -0.207385E-01  0.255E-01    0.04       1.0  T
   9   -180.5550082  0.350231E-01  0.704E-01    0.00       1.0  T
  10   -180.5625072 -0.749899E-02  0.632E-01    0.01       1.0  T
  11   -180.5770682 -0.145610E-01  0.469E-01    0.01       1.0  T
  12   -180.5945369 -0.174687E-01  0.774E-02    0.03       1.0  T
  13   -180.5949090 -0.372083E-03  0.433E-02    0.04       1.0  T
  14   -180.5947992  0.109847E-03  0.573E-02    0.04       1.0  T
  15   -180.5943858  0.413392E-03  0.962E-02    0.04       1.0  T
  16   -180.5949087 -0.522897E-03  0.456E-02    0.04       1.0  T
  17   -180.5950715 -0.162761E-03  0.990E-03    0.04       1.1  T
  18   -180.5950746 -0.317627E-05  0.846E-03    0.04       1.2  T
  19   -180.5950753 -0.678467E-06  0.821E-03    0.04       1.3  T
  20   -180.5950711  0.420065E-05  0.957E-03    0.04       1.1  T
  21   -180.5950711 -0.118857E-07  0.127E-02    0.04       1.0  T
  22   -180.5950768 -0.565167E-05  0.499E-03    0.04       2.1  T
  23   -180.5950786 -0.182829E-05  0.238E-03    0.04       4.4  T
  24   -180.5950786 -0.577225E-08  0.237E-03    0.04       4.5  T
  25   -180.5950789 -0.307320E-06  0.146E-03    0.04       7.2  T
  26   -180.5950789 -0.236803E-07  0.101E-03    0.04      10.4  T
  27   -180.5950790 -0.425364E-07  0.750E-04    0.04      14.1  T
  28   -180.5950790 -0.229667E-07  0.538E-04    0.04      19.6  T
     SCC iter.                  ...        0 min,  0.649 sec
     gradient                   ...        0 min,  0.050 sec
 * total energy  :  -178.8738766 Eh     change        0.1218042E-02 Eh
   gradient norm :     0.0163558 Eh/α   predicted    -0.9411459E-03 (-177.27%)
   displ. norm   :     0.2231744 α      lambda       -0.2131502E-02
   maximum displ.:     0.0760825 α      in ANC's #14, #3, #19, ...

........................................................................
.............................. CYCLE  155 ..............................
........................................................................

 iter      E             dE          RMSdq      gap      omega  full diag
   1   -180.2598900 -0.180260E+03  0.248E+00    0.02       0.0  T
   2   -175.9976034  0.426229E+01  0.117E+01    0.38       1.0  T
   3   -180.0938277 -0.409622E+01  0.275E+00    0.40       1.0  T
   4   -180.2717339 -0.177906E+00  0.265E+00    0.01       1.0  T
   5   -180.2937393 -0.220054E-01  0.184E+00    0.75       1.0  T
   6   -180.3560645 -0.623252E-01  0.160E+00    0.32       1.0  T
   7   -180.4155202 -0.594557E-01  0.139E+00    0.16       1.0  T
   8   -180.3868229  0.286973E-01  0.201E+00    0.01       1.0  T
   9   -180.4327754 -0.459525E-01  0.174E+00    0.01       1.0  T
  10   -180.5589502 -0.126175E+00  0.749E-01    0.06       1.0  T
  11   -180.4792522  0.796980E-01  0.134E+00    0.01       1.0  T
  12   -180.5374416 -0.581894E-01  0.961E-01    0.06       1.0  T
  13   -180.5666252 -0.291836E-01  0.663E-01    0.03       1.0  T
  14   -180.5058590  0.607662E-01  0.131E+00    0.02       1.0  T
  15   -180.5584035 -0.525445E-01  0.615E-01    0.07       1.0  T
  16   -180.5723765 -0.139730E-01  0.470E-01    0.06       1.0  T
  17   -180.5843106 -0.119342E-01  0.309E-01    0.05       1.0  T
  18   -180.5857369 -0.142621E-02  0.285E-01    0.05       1.0  T
  19   -180.5895992 -0.386236E-02  0.194E-01    0.05       1.0  T
  20   -180.5912129 -0.161366E-02  0.159E-01    0.04       1.0  T
  21   -180.5929093 -0.169645E-02  0.643E-02    0.04       1.0  T
  22   -180.5927686  0.140766E-03  0.777E-02    0.04       1.0  T
  23   -180.5932155 -0.446942E-03  0.134E-02    0.04       1.0  T
  24   -180.5932126  0.290897E-05  0.181E-02    0.04       1.0  T
  25   -180.5932028  0.976682E-05  0.234E-02    0.04       1.0  T
  26   -180.5932294 -0.265547E-04  0.652E-03    0.04       1.6  T
  27   -180.5932234  0.601225E-05  0.127E-02    0.04       1.0  T
  28   -180.5932313 -0.793359E-05  0.281E-03    0.04       3.8  T
  29   -180.5932317 -0.417447E-06  0.114E-03    0.04       9.3  T
  30   -180.5932296  0.214962E-05  0.643E-03    0.04       1.6  T
  31   -180.5932316 -0.205931E-05  0.173E-03    0.04       6.1  T
  32   -180.5932313  0.353476E-06  0.300E-03    0.04       3.5  T
  33   -180.5932318 -0.476560E-06  0.854E-04    0.04      12.3  T
  34   -180.5932318 -0.249642E-07  0.499E-04    0.04      21.1  T
     SCC iter.                  ...        0 min,  0.721 sec
     gradient                   ...        0 min,  0.049 sec
 * total energy  :  -178.8756241 Eh     change       -0.1747488E-02 Eh
   gradient norm :     0.0111610 Eh/α   predicted    -0.1118858E-02 ( -35.97%)
   displ. norm   :     0.3338308 α      lambda       -0.1546980E-02
   maximum displ.:     0.1628614 α      in ANC's #3, #2, #5, ...

........................................................................
.............................. CYCLE  156 ..............................
........................................................................

 iter      E             dE          RMSdq      gap      omega  full diag
   1   -180.5734453 -0.180573E+03  0.622E-01    0.03       0.0  T
   2   -176.9824024  0.359104E+01  0.779E+00    0.07       1.0  T
   3   -180.3427056 -0.336030E+01  0.157E+00    0.40       1.0  T
   4   -180.1865425  0.156163E+00  0.286E+00    0.02       1.0  T
   5   -180.3677068 -0.181164E+00  0.211E+00    0.02       1.0  T
   6   -180.4341772 -0.664704E-01  0.162E+00    0.02       1.0  T
   7   -180.5099709 -0.757937E-01  0.120E+00    0.03       1.0  T
   8   -180.5916561 -0.816852E-01  0.211E-01    0.04       1.0  T
   9   -180.5670540  0.246021E-01  0.637E-01    0.01       1.0  T
  10   -180.5788163 -0.117623E-01  0.534E-01    0.02       1.0  T
  11   -180.5883440 -0.952770E-02  0.404E-01    0.04       1.0  T
  12   -180.5801583  0.818564E-02  0.580E-01    0.03       1.0  T
  13   -180.5859378 -0.577949E-02  0.465E-01    0.04       1.0  T
  14   -180.5860026 -0.647527E-04  0.464E-01    0.04       1.0  T
  15   -180.5883267 -0.232412E-02  0.404E-01    0.03       1.0  T
  16   -180.5939990 -0.567232E-02  0.180E-01    0.04       1.0  T
  17   -180.5955217 -0.152269E-02  0.453E-02    0.03       1.0  T
  18   -180.5956000 -0.783318E-04  0.309E-02    0.04       1.0  T
  19   -180.5956519 -0.518689E-04  0.143E-02    0.04       1.0  T
  20   -180.5956574 -0.549278E-05  0.818E-03    0.04       1.3  T
  21   -180.5956478  0.957938E-05  0.168E-02    0.04       1.0  T
  22   -180.5956526 -0.476349E-05  0.133E-02    0.04       1.0  T
  23   -180.5956624 -0.985505E-05  0.342E-03    0.04       3.1  T
  24   -180.5956630 -0.536344E-06  0.263E-03    0.04       4.0  T
  25   -180.5956629  0.825409E-08  0.250E-03    0.04       4.2  T
  26   -180.5956629  0.271618E-07  0.213E-03    0.04       4.9  T
  27   -180.5956633 -0.385463E-06  0.478E-04    0.04      22.0  T
  28   -180.5956633  0.137248E-07  0.537E-04    0.04      19.6  T
     SCC iter.                  ...        0 min,  0.609 sec
     gradient                   ...        0 min,  0.049 sec
 * total energy  :  -178.8762347 Eh     change       -0.6106430E-03 Eh
   gradient norm :     0.0084366 Eh/α   predicted    -0.8596902E-03 (  40.78%)
   displ. norm   :     0.2597205 α      lambda       -0.6713606E-03
   maximum displ.:     0.1495405 α      in ANC's #3, #5, #2, ...

........................................................................
.............................. CYCLE  157 ..............................
........................................................................

 iter      E             dE          RMSdq      gap      omega  full diag
   1   -180.5946426 -0.180595E+03  0.126E-01    0.03       0.0  T
   2   -180.4212363  0.173406E+00  0.132E+00    0.14       1.0  T
   3   -180.5230927 -0.101856E+00  0.112E+00    0.01       1.0  T
   4   -180.5844304 -0.613377E-01  0.437E-01    0.03       1.0  T
   5   -180.5897586 -0.532816E-02  0.255E-01    0.05       1.0  T
   6   -180.5937583 -0.399976E-02  0.131E-01    0.04       1.0  T
   7   -180.5948937 -0.113538E-02  0.840E-02    0.03       1.0  T
   8   -180.5929316  0.196206E-02  0.176E-01    0.03       1.0  T
   9   -180.5949414 -0.200977E-02  0.640E-02    0.03       1.0  T
  10   -180.5948240  0.117385E-03  0.852E-02    0.04       1.0  T
  11   -180.5952829 -0.458897E-03  0.996E-03    0.04       1.1  T
  12   -180.5952804  0.257026E-05  0.128E-02    0.04       1.0  T
  13   -180.5952794  0.974792E-06  0.136E-02    0.04       1.0  T
  14   -180.5952858 -0.636899E-05  0.824E-03    0.04       1.3  T
  15   -180.5952894 -0.362337E-05  0.138E-03    0.04       7.6  T
  16   -180.5952889  0.523972E-06  0.288E-03    0.04       3.7  T
  17   -180.5952894 -0.518041E-06  0.119E-03    0.04       8.9  T
  18   -180.5952894 -0.553768E-07  0.115E-03    0.04       9.1  T
  19   -180.5952895 -0.703025E-07  0.225E-04    0.04      46.9  T
  20   -180.5952895  0.104367E-07  0.502E-04    0.04      21.0  T
     SCC iter.                  ...        0 min,  0.417 sec
     gradient                   ...        0 min,  0.048 sec
 * total energy  :  -178.8767492 Eh     change       -0.5144400E-03 Eh
   gradient norm :     0.0062823 Eh/α   predicted    -0.3583245E-03 ( -30.35%)
   displ. norm   :     0.5424580 α      lambda       -0.9978277E-03
   maximum displ.:     0.3066953 α      in ANC's #3, #5, #2, ...

........................................................................
.............................. CYCLE  158 ..............................
........................................................................

 iter      E             dE          RMSdq      gap      omega  full diag
   1   -180.5920559 -0.180592E+03  0.189E-01    0.04       0.0  T
   2   -180.3437884  0.248267E+00  0.194E+00    0.01       1.0  T
   3   -180.4309660 -0.871775E-01  0.126E+00    0.16       1.0  T
   4   -180.5850023 -0.154036E+00  0.367E-01    0.02       1.0  T
   5   -180.5796643  0.533807E-02  0.498E-01    0.03       1.0  T
   6   -180.5922239 -0.125597E-01  0.132E-01    0.04       1.0  T
   7   -180.5926299 -0.406002E-03  0.804E-02    0.04       1.0  T
   8   -180.5932005 -0.570540E-03  0.145E-02    0.04       1.0  T
   9   -180.5928316  0.368850E-03  0.728E-02    0.03       1.0  T
  10   -180.5930647 -0.233099E-03  0.405E-02    0.03       1.0  T
  11   -180.5931909 -0.126155E-03  0.138E-02    0.04       1.0  T
  12   -180.5931305  0.603284E-04  0.316E-02    0.04       1.0  T
  13   -180.5931995 -0.689500E-04  0.116E-02    0.04       1.0  T
  14   -180.5931803  0.191433E-04  0.166E-02    0.04       1.0  T
  15   -180.5931956 -0.152489E-04  0.143E-02    0.04       1.0  T
  16   -180.5932061 -0.104902E-04  0.308E-03    0.04       3.4  T
  17   -180.5932064 -0.331214E-06  0.267E-03    0.04       3.9  T
  18   -180.5932067 -0.280807E-06  0.162E-03    0.04       6.5  T
  19   -180.5932067 -0.567174E-07  0.122E-03    0.04       8.7  T
  20   -180.5932068 -0.608629E-07  0.101E-03    0.04      10.4  T
  21   -180.5932069 -0.549203E-07  0.183E-04    0.04      57.5  T
  22   -180.5932069  0.122068E-08  0.181E-04    0.04      58.2  T
     SCC iter.                  ...        0 min,  0.478 sec
     gradient                   ...        0 min,  0.051 sec
 * total energy  :  -178.8775053 Eh     change       -0.7561147E-03 Eh
   gradient norm :     0.0068102 Eh/α   predicted    -0.6457267E-03 ( -14.60%)
   displ. norm   :     0.6605277 α      lambda       -0.9543360E-03
   maximum displ.:     0.3797000 α      in ANC's #3, #2, #5, ...

........................................................................
.............................. CYCLE  159 ..............................
........................................................................

 iter      E             dE          RMSdq      gap      omega  full diag
   1   -180.5892039 -0.180589E+03  0.231E-01    0.03       0.0  T
   2   -180.3676517  0.221552E+00  0.147E+00    0.26       1.0  T
   3   -180.1636809  0.203971E+00  0.285E+00    0.02       1.0  T
   4   -180.5903417 -0.426661E+00  0.170E-01    0.04       1.0  T
   5   -180.5914400 -0.109830E-02  0.858E-02    0.04       1.0  T
   6   -180.5758265  0.156135E-01  0.463E-01    0.02       1.0  T
   7   -180.5921022 -0.162756E-01  0.302E-02    0.04       1.0  T
   8   -180.5919928  0.109344E-03  0.410E-02    0.03       1.0  T
   9   -180.5918662  0.126605E-03  0.615E-02    0.03       1.0  T
  10   -180.5916775  0.188727E-03  0.763E-02    0.04       1.0  T
  11   -180.5921029 -0.425347E-03  0.203E-02    0.04       1.0  T
  12   -180.5920146  0.883012E-04  0.454E-02    0.04       1.0  T
  13   -180.5921313 -0.116740E-03  0.104E-02    0.04       1.0  T
  14   -180.5921094  0.219269E-04  0.197E-02    0.04       1.0  T
  15   -180.5921330 -0.235892E-04  0.848E-03    0.04       1.2  T
  16   -180.5921359 -0.290122E-05  0.433E-03    0.04       2.4  T
  17   -180.5921365 -0.658296E-06  0.375E-03    0.04       2.8  T
  18   -180.5921367 -0.129152E-06  0.329E-03    0.04       3.2  T
  19   -180.5921375 -0.876809E-06  0.152E-03    0.04       6.9  T
  20   -180.5921372  0.336169E-06  0.267E-03    0.04       3.9  T
  21   -180.5921377 -0.466579E-06  0.162E-04    0.04      65.1  T
  22   -180.5921375  0.121137E-06  0.139E-03    0.04       7.6  T
  23   -180.5921376 -0.103245E-06  0.594E-04    0.04      17.7  T
     SCC iter.                  ...        0 min,  0.495 sec
     gradient                   ...        0 min,  0.051 sec
 * total energy  :  -178.8783350 Eh     change       -0.8297115E-03 Eh
   gradient norm :     0.0098192 Eh/α   predicted    -0.6853545E-03 ( -17.40%)
   displ. norm   :     0.7045042 α      lambda       -0.1132334E-02
   maximum displ.:     0.4113781 α      in ANC's #3, #2, #5, ...

........................................................................
.............................. CYCLE  160 ..............................
........................................................................

 iter      E             dE          RMSdq      gap      omega  full diag
   1   -180.5831497 -0.180583E+03  0.412E-01    0.02       0.0  T
   2   -180.0545232  0.528627E+00  0.329E+00    0.03       1.0  T
   3   -180.3498590 -0.295336E+00  0.154E+00    0.49       1.0  T
   4   -180.4667691 -0.116910E+00  0.151E+00    0.02       1.0  T
   5   -180.5842184 -0.117449E+00  0.394E-01    0.04       1.0  T
   6   -180.5451594  0.390590E-01  0.762E-01    0.01       1.0  T
   7   -180.5873910 -0.422316E-01  0.248E-01    0.05       1.0  T
   8   -180.5924702 -0.507923E-02  0.101E-01    0.04       1.0  T
   9   -180.5926629 -0.192705E-03  0.880E-02    0.04       1.0  T
  10   -180.5927513 -0.884046E-04  0.838E-02    0.04       1.0  T
  11   -180.5929557 -0.204366E-03  0.630E-02    0.04       1.0  T
  12   -180.5928583  0.973844E-04  0.608E-02    0.04       1.0  T
  13   -180.5930539 -0.195626E-03  0.369E-02    0.03       1.0  T
  14   -180.5931763 -0.122403E-03  0.101E-02    0.04       1.0  T
  15   -180.5931753  0.103569E-05  0.107E-02    0.04       1.0  T
  16   -180.5931586  0.166979E-04  0.180E-02    0.04       1.0  T
  17   -180.5931812 -0.226019E-04  0.457E-03    0.04       2.3  T
  18   -180.5931794  0.175585E-05  0.618E-03    0.04       1.7  T
  19   -180.5931827 -0.327882E-05  0.206E-03    0.04       5.1  T
  20   -180.5931827  0.472338E-07  0.176E-03    0.04       6.0  T
  21   -180.5931829 -0.232991E-06  0.880E-04    0.04      12.0  T
  22   -180.5931830 -0.590769E-07  0.320E-04    0.04      33.0  T
     SCC iter.                  ...        0 min,  0.493 sec
     gradient                   ...        0 min,  0.048 sec
 * total energy  :  -178.8793244 Eh     change       -0.9894334E-03 Eh
   gradient norm :     0.0100687 Eh/α   predicted    -0.8471358E-03 ( -14.38%)
   displ. norm   :     0.7176694 α      lambda       -0.1261889E-02
   maximum displ.:     0.4368353 α      in ANC's #3, #2, #4, ...

........................................................................
.............................. CYCLE  161 ..............................
........................................................................

 iter      E             dE          RMSdq      gap      omega  full diag
   1   -180.5981075 -0.180598E+03  0.176E-01    0.03       0.0  T
   2   -180.3957870  0.202321E+00  0.141E+00    0.21       1.0  T
   3   -180.5815385 -0.185752E+00  0.496E-01    0.02       1.0  T
   4   -180.5496279  0.319106E-01  0.899E-01    0.01       1.0  T
   5   -180.5904809 -0.408529E-01  0.327E-01    0.06       1.0  T
   6   -180.5933867 -0.290581E-02  0.239E-01    0.05       1.0  T
   7   -180.5976712 -0.428451E-02  0.154E-01    0.04       1.0  T
   8   -180.5909952  0.667599E-02  0.330E-01    0.02       1.0  T
   9   -180.5989369 -0.794164E-02  0.265E-02    0.04       1.0  T
  10   -180.5978179  0.111896E-02  0.141E-01    0.04       1.0  T
  11   -180.5988106 -0.992697E-03  0.482E-02    0.03       1.0  T
  12   -180.5988182 -0.763378E-05  0.555E-02    0.04       1.0  T
  13   -180.5989747 -0.156522E-03  0.146E-02    0.04       1.0  T
  14   -180.5989570  0.177556E-04  0.237E-02    0.04       1.0  T
  15   -180.5989838 -0.268466E-04  0.859E-03    0.04       1.2  T
  16   -180.5989878 -0.395201E-05  0.963E-04    0.04      10.9  T
  17   -180.5989873  0.445004E-06  0.240E-03    0.04       4.4  T
  18   -180.5989872  0.168933E-06  0.328E-03    0.04       3.2  T
  19   -180.5989874 -0.225273E-06  0.218E-03    0.04       4.8  T
  20   -180.5989877 -0.334536E-06  0.122E-03    0.04       8.7  T
  21   -180.5989878 -0.186312E-07  0.965E-04    0.04      10.9  T
  22   -180.5989876  0.152676E-06  0.180E-03    0.04       5.8  T
  23   -180.5989878 -0.237964E-06  0.155E-04    0.04      68.2  T
     SCC iter.                  ...        0 min,  0.575 sec
     gradient                   ...        0 min,  0.048 sec
 * total energy  :  -178.8803221 Eh     change       -0.9976768E-03 Eh
   gradient norm :     0.0072274 Eh/α   predicted    -0.9559135E-03 (  -4.19%)
   displ. norm   :     0.8133067 α      lambda       -0.1079345E-02
   maximum displ.:     0.4889168 α      in ANC's #3, #2, #4, ...

........................................................................
.............................. CYCLE  162 ..............................
........................................................................

 iter      E             dE          RMSdq      gap      omega  full diag
   1   -180.5947055 -0.180595E+03  0.262E-01    0.04       0.0  T
   2   -179.0583023  0.153640E+01  0.488E+00    0.01       1.0  T
   3   -180.5648723 -0.150657E+01  0.615E-01    0.06       1.0  T
   4   -180.3538141  0.211058E+00  0.197E+00    0.02       1.0  T
   5   -180.5619932 -0.208179E+00  0.715E-01    0.01       1.0  T
   6   -180.5770118 -0.150186E-01  0.451E-01    0.06       1.0  T
   7   -180.5781512 -0.113934E-02  0.586E-01    0.02       1.0  T
   8   -180.5839320 -0.578086E-02  0.495E-01    0.03       1.0  T
   9   -180.5905081 -0.657608E-02  0.341E-01    0.03       1.0  T
  10   -180.5964781 -0.597004E-02  0.110E-01    0.03       1.0  T
  11   -180.5971555 -0.677366E-03  0.491E-02    0.03       1.0  T
  12   -180.5970034  0.152054E-03  0.672E-02    0.04       1.0  T
  13   -180.5970735 -0.700072E-04  0.626E-02    0.04       1.0  T
  14   -180.5973177 -0.244217E-03  0.139E-02    0.04       1.0  T
  15   -180.5972870  0.307169E-04  0.268E-02    0.04       1.0  T
  16   -180.5972914 -0.443207E-05  0.236E-02    0.04       1.0  T
  17   -180.5973275 -0.360723E-04  0.836E-03    0.04       1.3  T
  18   -180.5973310 -0.353591E-05  0.230E-03    0.04       4.6  T
  19   -180.5973314 -0.390869E-06  0.972E-04    0.04      10.8  T
  20   -180.5973308  0.621999E-06  0.343E-03    0.04       3.1  T
  21   -180.5973312 -0.405330E-06  0.179E-03    0.04       5.9  T
  22   -180.5973314 -0.243044E-06  0.568E-04    0.04      18.6  T
     SCC iter.                  ...        0 min,  0.481 sec
     gradient                   ...        0 min,  0.051 sec
 * total energy  :  -178.8812295 Eh     change       -0.9074301E-03 Eh
   gradient norm :     0.0081385 Eh/α   predicted    -0.8966523E-03 (  -1.19%)
   displ. norm   :     0.7168393 α      lambda       -0.9792169E-03
   maximum displ.:     0.4485582 α      in ANC's #3, #2, #4, ...

........................................................................
.............................. CYCLE  163 ..............................
........................................................................

 iter      E             dE          RMSdq      gap      omega  full diag
   1   -180.5965010 -0.180597E+03  0.236E-01    0.05       0.0  T
   2   -178.9588082  0.163769E+01  0.500E+00    0.01       1.0  T
   3   -180.0918894 -0.113308E+01  0.308E+00    0.02       1.0  T
   4   -180.5075114 -0.415622E+00  0.968E-01    0.01       1.0  T
   5   -180.5783797 -0.708684E-01  0.537E-01    0.05       1.0  T
   6   -180.5952859 -0.169061E-01  0.241E-01    0.05       1.0  T
   7   -180.5989088 -0.362298E-02  0.136E-01    0.04       1.0  T
   8   -180.5990545 -0.145675E-03  0.110E-01    0.04       1.0  T
   9   -180.5996775 -0.622970E-03  0.574E-02    0.04       1.0  T
  10   -180.5990910  0.586493E-03  0.108E-01    0.03       1.0  T
  11   -180.5993918 -0.300777E-03  0.927E-02    0.03       1.0  T
  12   -180.5996352 -0.243382E-03  0.660E-02    0.03       1.0  T
  13   -180.5999206 -0.285470E-03  0.292E-02    0.04       1.0  T
  14   -180.5999657 -0.450550E-04  0.223E-02    0.04       1.0  T
  15   -180.5999508  0.148782E-04  0.249E-02    0.04       1.0  T
  16   -180.5999839 -0.331066E-04  0.149E-02    0.04       1.0  T
  17   -180.6000009 -0.169711E-04  0.441E-03    0.04       2.4  T
  18   -180.6000021 -0.119313E-05  0.231E-03    0.04       4.6  T
  19   -180.6000023 -0.244163E-06  0.163E-03    0.04       6.5  T
  20   -180.6000023  0.538063E-07  0.211E-03    0.04       5.0  T
  21   -180.6000025 -0.268935E-06  0.718E-04    0.04      14.7  T
  22   -180.6000026 -0.215268E-07  0.435E-04    0.04      24.3  T
     SCC iter.                  ...        0 min,  0.487 sec
     gradient                   ...        0 min,  0.050 sec
 * total energy  :  -178.8820331 Eh     change       -0.8035313E-03 Eh
   gradient norm :     0.0065599 Eh/α   predicted    -0.7412022E-03 (  -7.76%)
   displ. norm   :     0.7674102 α      lambda       -0.8695953E-03
   maximum displ.:     0.4731464 α      in ANC's #3, #2, #4, ...

........................................................................
.............................. CYCLE  164 ..............................
........................................................................

 iter      E             dE          RMSdq      gap      omega  full diag
   1   -180.5968069 -0.180597E+03  0.237E-01    0.04       0.0  T
   2   -180.5368133  0.599936E-01  0.103E+00    0.01       1.0  T
   3   -180.3943776  0.142436E+00  0.141E+00    0.27       1.0  T
   4   -180.5678395 -0.173462E+00  0.553E-01    0.01       1.0  T
   5   -180.5750120 -0.717252E-02  0.521E-01    0.06       1.0  T
   6   -180.5824171 -0.740508E-02  0.416E-01    0.06       1.0  T
   7   -180.5937537 -0.113366E-01  0.216E-01    0.05       1.0  T
   8   -180.5983061 -0.455242E-02  0.539E-02    0.03       1.0  T
   9   -180.5968769  0.142923E-02  0.169E-01    0.04       1.0  T
  10   -180.5982673 -0.139047E-02  0.696E-02    0.04       1.0  T
  11   -180.5984572 -0.189876E-03  0.327E-02    0.04       1.0  T
  12   -180.5984993 -0.420944E-04  0.193E-02    0.04       1.0  T
  13   -180.5985157 -0.163592E-04  0.141E-02    0.04       1.0  T
  14   -180.5985042  0.114467E-04  0.181E-02    0.04       1.0  T
  15   -180.5985240 -0.197917E-04  0.783E-03    0.04       1.3  T
  16   -180.5985251 -0.107583E-05  0.761E-03    0.04       1.4  T
  17   -180.5985266 -0.146440E-05  0.600E-03    0.04       1.8  T
  18   -180.5985277 -0.116087E-05  0.406E-03    0.04       2.6  T
  19   -180.5985271  0.662233E-06  0.474E-03    0.04       2.2  T
  20   -180.5985274 -0.366475E-06  0.466E-03    0.04       2.3  T
  21   -180.5985280 -0.531360E-06  0.321E-03    0.04       3.3  T
  22   -180.5985284 -0.471583E-06  0.156E-03    0.04       6.8  T
  23   -180.5985285 -0.114024E-06  0.118E-03    0.04       8.9  T
  24   -180.5985286 -0.746128E-07  0.511E-04    0.04      20.6  T
  25   -180.5985286 -0.244287E-07  0.913E-05    0.04     115.4  T
     SCC iter.                  ...        0 min,  0.534 sec
     gradient                   ...        0 min,  0.049 sec
 * total energy  :  -178.8827401 Eh     change       -0.7070296E-03 Eh
   gradient norm :     0.0066709 Eh/α   predicted    -0.6908603E-03 (  -2.29%)
   displ. norm   :     0.6705721 α      lambda       -0.8265452E-03
   maximum displ.:     0.4110122 α      in ANC's #3, #2, #1, ...

........................................................................
.............................. CYCLE  165 ..............................
........................................................................

 iter      E             dE          RMSdq      gap      omega  full diag
   1   -180.5846184 -0.180585E+03  0.565E-01    0.04       0.0  T
   2   -176.9762515  0.360837E+01  0.751E+00    0.09       1.0  T
   3   -180.4520752 -0.347582E+01  0.123E+00    0.13       1.0  T
   4   -180.3252772  0.126798E+00  0.201E+00    0.01       1.0  T
   5   -180.5709861 -0.245709E+00  0.769E-01    0.02       1.0  T
   6   -180.5403117  0.306745E-01  0.799E-01    0.01       1.0  T
   7   -180.5789875 -0.386758E-01  0.677E-01    0.03       1.0  T
   8   -180.5784419  0.545521E-03  0.559E-01    0.06       1.0  T
   9   -180.5893946 -0.109527E-01  0.472E-01    0.04       1.0  T
  10   -180.5986514 -0.925678E-02  0.270E-01    0.03       1.0  T
  11   -180.6014887 -0.283728E-02  0.140E-01    0.04       1.0  T
  12   -180.6022589 -0.770244E-03  0.559E-02    0.03       1.0  T
  13   -180.6024761 -0.217219E-03  0.234E-02    0.04       1.0  T
  14   -180.6020848  0.391323E-03  0.747E-02    0.04       1.0  T
  15   -180.6021678 -0.830461E-04  0.808E-02    0.04       1.0  T
  16   -180.6023233 -0.155486E-03  0.610E-02    0.04       1.0  T
  17   -180.6025141 -0.190797E-03  0.833E-03    0.04       1.3  T
  18   -180.6023466  0.167494E-03  0.570E-02    0.04       1.0  T
  19   -180.6024987 -0.152027E-03  0.178E-02    0.04       1.0  T
  20   -180.6025049 -0.623101E-05  0.175E-02    0.04       1.0  T
  21   -180.6025035  0.138889E-05  0.180E-02    0.04       1.0  T
  22   -180.6025195 -0.159679E-04  0.563E-03    0.04       1.9  T
  23   -180.6025177  0.178850E-05  0.806E-03    0.04       1.3  T
  24   -180.6025206 -0.292207E-05  0.220E-03    0.04       4.8  T
  25   -180.6025208 -0.146476E-06  0.226E-03    0.04       4.7  T
  26   -180.6025208 -0.782331E-07  0.205E-03    0.04       5.1  T
  27   -180.6025211 -0.228988E-06  0.940E-05    0.04     112.1  T
  28   -180.6025211  0.639741E-08  0.277E-04    0.04      38.1  T
     SCC iter.                  ...        0 min,  0.582 sec
     gradient                   ...        0 min,  0.048 sec
 * total energy  :  -178.8833256 Eh     change       -0.5855172E-03 Eh
   gradient norm :     0.0071620 Eh/α   predicted    -0.5991089E-03 (   2.32%)
   displ. norm   :     0.7164838 α      lambda       -0.7127018E-03
   maximum displ.:     0.4313751 α      in ANC's #3, #2, #1, ...

........................................................................
.............................. CYCLE  166 ..............................
........................................................................

 iter      E             dE          RMSdq      gap      omega  full diag
   1   -180.5857320 -0.180586E+03  0.401E-01    0.06       0.0  T
   2   -177.1873832  0.339835E+01  0.699E+00    0.01       1.0  T
   3   -180.3014171 -0.311403E+01  0.201E+00    0.01       1.0  T
   4   -180.0766179  0.224799E+00  0.313E+00    0.02       1.0  T
   5   -180.5568149 -0.480197E+00  0.713E-01    0.01       1.0  T
   6   -180.5914637 -0.346488E-01  0.280E-01    0.05       1.0  T
   7   -180.5877067  0.375706E-02  0.358E-01    0.02       1.0  T
   8   -180.5983631 -0.106564E-01  0.103E-01    0.03       1.0  T
   9   -180.5946755  0.368755E-02  0.226E-01    0.05       1.0  T
  10   -180.5976898 -0.301427E-02  0.137E-01    0.05       1.0  T
  11   -180.5990474 -0.135763E-02  0.601E-02    0.03       1.0  T
  12   -180.5992934 -0.246001E-03  0.337E-02    0.04       1.0  T
  13   -180.5993476 -0.542394E-04  0.177E-02    0.04       1.0  T
  14   -180.5993256  0.220683E-04  0.240E-02    0.04       1.0  T
  15   -180.5993594 -0.338076E-04  0.156E-02    0.04       1.0  T
  16   -180.5993757 -0.163084E-04  0.419E-03    0.04       2.5  T
  17   -180.5993738  0.193311E-05  0.632E-03    0.04       1.7  T
  18   -180.5993769 -0.310602E-05  0.194E-03    0.04       5.4  T
  19   -180.5993733  0.352247E-05  0.626E-03    0.04       1.7  T
  20   -180.5993765 -0.313664E-05  0.275E-03    0.04       3.8  T
  21   -180.5993771 -0.590156E-06  0.697E-04    0.04      15.1  T
  22   -180.5993771  0.532225E-09  0.667E-04    0.04      15.8  T
     SCC iter.                  ...        0 min,  0.466 sec
     gradient                   ...        0 min,  0.048 sec
 * total energy  :  -178.8838544 Eh     change       -0.5288009E-03 Eh
   gradient norm :     0.0077160 Eh/α   predicted    -0.5392880E-03 (   1.98%)
   displ. norm   :     0.5989496 α      lambda       -0.6398393E-03
   maximum displ.:     0.3350136 α      in ANC's #3, #2, #1, ...

........................................................................
.............................. CYCLE  167 ..............................
........................................................................

 iter      E             dE          RMSdq      gap      omega  full diag
   1   -180.5975401 -0.180598E+03  0.209E-01    0.03       0.0  T
   2   -180.2972548  0.300285E+00  0.243E+00    0.02       1.0  T
   3   -180.4202103 -0.122955E+00  0.133E+00    0.17       1.0  T
   4   -180.4960734 -0.758631E-01  0.109E+00    0.01       1.0  T
   5   -180.5907490 -0.946756E-01  0.297E-01    0.02       1.0  T
   6   -180.5957213 -0.497237E-02  0.180E-01    0.03       1.0  T
   7   -180.5987512 -0.302991E-02  0.268E-02    0.04       1.0  T
   8   -180.5979503  0.800900E-03  0.930E-02    0.04       1.0  T
   9   -180.5985210 -0.570694E-03  0.699E-02    0.04       1.0  T
  10   -180.5987559 -0.234830E-03  0.237E-02    0.04       1.0  T
  11   -180.5986873  0.685395E-04  0.398E-02    0.04       1.0  T
  12   -180.5987492 -0.619183E-04  0.208E-02    0.04       1.0  T
  13   -180.5987616 -0.123545E-04  0.195E-02    0.04       1.0  T
  14   -180.5987603  0.127517E-05  0.203E-02    0.04       1.0  T
  15   -180.5987787 -0.183451E-04  0.125E-02    0.04       1.0  T
  16   -180.5987895 -0.108172E-04  0.195E-03    0.04       5.4  T
  17   -180.5987886  0.889167E-06  0.435E-03    0.04       2.4  T
  18   -180.5987879  0.643956E-06  0.541E-03    0.04       1.9  T
  19   -180.5987895 -0.156837E-05  0.199E-03    0.04       5.3  T
  20   -180.5987894  0.106772E-06  0.198E-03    0.04       5.3  T
  21   -180.5987898 -0.347758E-06  0.287E-04    0.04      36.8  T
  22   -180.5987897  0.736083E-07  0.943E-04    0.04      11.2  T
     SCC iter.                  ...        0 min,  0.476 sec
     gradient                   ...        0 min,  0.050 sec
 * total energy  :  -178.8843684 Eh     change       -0.5139522E-03 Eh
   gradient norm :     0.0077423 Eh/α   predicted    -0.4346934E-03 ( -15.42%)
   displ. norm   :     0.5944181 α      lambda       -0.6954694E-03
   maximum displ.:     0.2991115 α      in ANC's #1, #3, #2, ...

........................................................................
.............................. CYCLE  168 ..............................
........................................................................

 iter      E             dE          RMSdq      gap      omega  full diag
   1   -180.5979159 -0.180598E+03  0.211E-01    0.05       0.0  T
   2   -180.1091379  0.488778E+00  0.242E+00    0.00       1.0  T
   3   -180.4748996 -0.365762E+00  0.114E+00    0.01       1.0  T
   4   -180.5429697 -0.680701E-01  0.103E+00    0.01       1.0  T
   5   -180.5717972 -0.288275E-01  0.578E-01    0.01       1.0  T
   6   -180.5833782 -0.115810E-01  0.535E-01    0.04       1.0  T
   7   -180.5942754 -0.108972E-01  0.307E-01    0.05       1.0  T
   8   -180.5963897 -0.211429E-02  0.229E-01    0.05       1.0  T
   9   -180.5987504 -0.236068E-02  0.133E-01    0.04       1.0  T
  10   -180.5997176 -0.967225E-03  0.439E-02    0.04       1.0  T
  11   -180.5994467  0.270871E-03  0.672E-02    0.04       1.0  T
  12   -180.5998151 -0.368422E-03  0.298E-02    0.04       1.0  T
  13   -180.5998770 -0.618146E-04  0.163E-02    0.04       1.0  T
  14   -180.5998926 -0.155882E-04  0.132E-02    0.04       1.0  T
  15   -180.5998943 -0.173471E-05  0.140E-02    0.04       1.0  T
  16   -180.5999031 -0.884279E-05  0.560E-03    0.04       1.9  T
  17   -180.5999031  0.409833E-08  0.510E-03    0.04       2.1  T
  18   -180.5999037 -0.564921E-06  0.484E-03    0.04       2.2  T
  19   -180.5999045 -0.803468E-06  0.292E-03    0.04       3.6  T
  20   -180.5999050 -0.534008E-06  0.970E-04    0.04      10.9  T
  21   -180.5999050 -0.488288E-08  0.966E-04    0.04      10.9  T
     SCC iter.                  ...        0 min,  0.490 sec
     gradient                   ...        0 min,  0.050 sec
 * total energy  :  -178.8849266 Eh     change       -0.5582158E-03 Eh
   gradient norm :     0.0073543 Eh/α   predicted    -0.4706057E-03 ( -15.69%)
   displ. norm   :     0.6660988 α      lambda       -0.6244694E-03
   maximum displ.:     0.3356810 α      in ANC's #1, #3, #2, ...

........................................................................
.............................. CYCLE  169 ..............................
........................................................................

 iter      E             dE          RMSdq      gap      omega  full diag
   1   -180.5979659 -0.180598E+03  0.185E-01    0.04       0.0  T
   2   -180.5081403  0.898256E-01  0.131E+00    0.01       1.0  T
   3   -180.5934359 -0.852955E-01  0.279E-01    0.03       1.0  T
   4   -180.4076042  0.185832E+00  0.137E+00    0.20       1.0  T
   5   -180.5871114 -0.179507E+00  0.451E-01    0.03       1.0  T
   6   -180.5913984 -0.428695E-02  0.349E-01    0.04       1.0  T
   7   -180.5963493 -0.495092E-02  0.142E-01    0.05       1.0  T
   8   -180.5965768 -0.227493E-03  0.140E-01    0.03       1.0  T
   9   -180.5974106 -0.833848E-03  0.938E-02    0.03       1.0  T
  10   -180.5978730 -0.462334E-03  0.419E-02    0.04       1.0  T
  11   -180.5979832 -0.110211E-03  0.250E-02    0.04       1.0  T
  12   -180.5980055 -0.222846E-04  0.206E-02    0.04       1.0  T
  13   -180.5980334 -0.279613E-04  0.613E-03    0.04       1.7  T
  14   -180.5980159  0.175040E-04  0.189E-02    0.04       1.0  T
  15   -180.5980246 -0.872719E-05  0.145E-02    0.04       1.0  T
  16   -180.5980358 -0.111355E-04  0.233E-03    0.04       4.5  T
  17   -180.5980337  0.204205E-05  0.668E-03    0.04       1.6  T
  18   -180.5980341 -0.370123E-06  0.617E-03    0.04       1.7  T
  19   -180.5980351 -0.103590E-05  0.431E-03    0.04       2.4  T
  20   -180.5980359 -0.748896E-06  0.212E-03    0.04       5.0  T
  21   -180.5980361 -0.203088E-06  0.677E-04    0.04      15.6  T
  22   -180.5980360  0.767062E-07  0.147E-03    0.04       7.2  T
  23   -180.5980361 -0.105694E-06  0.451E-04    0.04      23.4  T
     SCC iter.                  ...        0 min,  0.503 sec
     gradient                   ...        0 min,  0.050 sec
 * total energy  :  -178.8854345 Eh     change       -0.5079207E-03 Eh
   gradient norm :     0.0083469 Eh/α   predicted    -0.4507741E-03 ( -11.25%)
   displ. norm   :     0.6580304 α      lambda       -0.6169174E-03
   maximum displ.:     0.3488452 α      in ANC's #1, #2, #3, ...

........................................................................
.............................. CYCLE  170 ..............................
........................................................................

 iter      E             dE          RMSdq      gap      omega  full diag
   1   -180.5950919 -0.180595E+03  0.283E-01    0.03       0.0  T
   2   -180.3839616  0.211130E+00  0.144E+00    0.27       1.0  T
   3   -180.2580134  0.125948E+00  0.253E+00    0.02       1.0  T
   4   -180.4917243 -0.233711E+00  0.107E+00    0.00       1.0  T
   5   -180.4939176 -0.219327E-02  0.123E+00    0.06       1.0  T
   6   -180.5008629 -0.694532E-02  0.119E+00    0.06       1.0  T
   7   -180.5158470 -0.149841E-01  0.111E+00    0.05       1.0  T
   8   -180.5883507 -0.725037E-01  0.421E-01    0.04       1.0  T
   9   -180.5951232 -0.677248E-02  0.185E-01    0.03       1.0  T
  10   -180.5963292 -0.120603E-02  0.155E-01    0.04       1.0  T
  11   -180.5975404 -0.121120E-02  0.428E-02    0.04       1.0  T
  12   -180.5973656  0.174767E-03  0.771E-02    0.04       1.0  T
  13   -180.5976148 -0.249152E-03  0.424E-02    0.04       1.0  T
  14   -180.5976948 -0.800254E-04  0.190E-02    0.04       1.0  T
  15   -180.5977081 -0.132351E-04  0.826E-03    0.04       1.3  T
  16   -180.5977002  0.782124E-05  0.160E-02    0.04       1.0  T
  17   -180.5977042 -0.397148E-05  0.134E-02    0.04       1.0  T
  18   -180.5977064 -0.217978E-05  0.111E-02    0.04       1.0  T
  19   -180.5977139 -0.751485E-05  0.584E-04    0.04      18.1  T
  20   -180.5977117  0.224278E-05  0.629E-03    0.04       1.7  T
  21   -180.5977121 -0.475403E-06  0.574E-03    0.04       1.8  T
  22   -180.5977112  0.923311E-06  0.647E-03    0.04       1.6  T
  23   -180.5977138 -0.262947E-05  0.108E-03    0.04       9.7  T
  24   -180.5977138  0.648337E-07  0.149E-03    0.04       7.1  T
  25   -180.5977139 -0.969430E-07  0.822E-04    0.04      12.8  T
  26   -180.5977139 -0.389988E-07  0.171E-04    0.04      61.8  T
     SCC iter.                  ...        0 min,  0.594 sec
     gradient                   ...        0 min,  0.050 sec
 * total energy  :  -178.8859283 Eh     change       -0.4938394E-03 Eh
   gradient norm :     0.0081908 Eh/α   predicted    -0.4420253E-03 ( -10.49%)
   displ. norm   :     0.6706510 α      lambda       -0.5712939E-03
   maximum displ.:     0.3495757 α      in ANC's #1, #2, #3, ...

........................................................................
.............................. CYCLE  171 ..............................
........................................................................

 iter      E             dE          RMSdq      gap      omega  full diag
   1   -180.5892017 -0.180589E+03  0.356E-01    0.02       0.0  T
   2   -180.3542619  0.234940E+00  0.153E+00    0.69       1.0  T
   3   -180.4216535 -0.673916E-01  0.160E+00    0.01       1.0  T
   4   -180.4511570 -0.295035E-01  0.167E+00    0.01       1.0  T
   5   -180.4312850  0.198719E-01  0.131E+00    0.19       1.0  T
   6   -180.4679972 -0.367122E-01  0.114E+00    0.14       1.0  T
   7   -180.5563939 -0.883967E-01  0.654E-01    0.08       1.0  T
   8   -180.5863611 -0.299672E-01  0.438E-01    0.03       1.0  T
   9   -180.5868773 -0.516195E-03  0.416E-01    0.03       1.0  T
  10   -180.5929557 -0.607839E-02  0.238E-01    0.04       1.0  T
  11   -180.5953088 -0.235308E-02  0.111E-01    0.05       1.0  T
  12   -180.5953648 -0.559716E-04  0.120E-01    0.04       1.0  T
  13   -180.5954698 -0.104997E-03  0.997E-02    0.03       1.0  T
  14   -180.5958830 -0.413248E-03  0.706E-02    0.04       1.0  T
  15   -180.5959584 -0.754118E-04  0.639E-02    0.04       1.0  T
  16   -180.5962742 -0.315808E-03  0.253E-02    0.04       1.0  T
  17   -180.5963190 -0.447165E-04  0.154E-02    0.04       1.0  T
  18   -180.5963090  0.992837E-05  0.166E-02    0.04       1.0  T
  19   -180.5963316 -0.225236E-04  0.292E-03    0.04       3.6  T
  20   -180.5963316 -0.740789E-07  0.302E-03    0.04       3.5  T
  21   -180.5963306  0.107003E-05  0.465E-03    0.04       2.3  T
  22   -180.5963320 -0.148128E-05  0.154E-03    0.04       6.9  T
  23   -180.5963321 -0.652995E-07  0.138E-03    0.04       7.6  T
  24   -180.5963322 -0.111713E-06  0.888E-04    0.04      11.9  T
  25   -180.5963322 -0.204047E-07  0.525E-04    0.04      20.1  T
     SCC iter.                  ...        0 min,  0.568 sec
     gradient                   ...        0 min,  0.051 sec
 * total energy  :  -178.8863965 Eh     change       -0.4681201E-03 Eh
   gradient norm :     0.0079425 Eh/α   predicted    -0.4141278E-03 ( -11.53%)
   displ. norm   :     0.6003825 α      lambda       -0.6368733E-03
   maximum displ.:     0.3437487 α      in ANC's #1, #2, #3, ...

........................................................................
.............................. CYCLE  172 ..............................
........................................................................

 iter      E             dE          RMSdq      gap      omega  full diag
   1   -180.5730554 -0.180573E+03  0.608E-01    0.01       0.0  T
   2   -180.3070840  0.265971E+00  0.172E+00    0.76       1.0  T
   3   -180.2278877  0.791964E-01  0.273E+00    0.02       1.0  T
   4   -180.4521922 -0.224305E+00  0.129E+00    0.13       1.0  T
   5   -180.5522405 -0.100048E+00  0.932E-01    0.04       1.0  T
   6   -180.3940249  0.158216E+00  0.169E+00    0.01       1.0  T
   7   -180.5932121 -0.199187E+00  0.319E-01    0.06       1.0  T
   8   -180.5960351 -0.282305E-02  0.253E-01    0.03       1.0  T
   9   -180.5988354 -0.280027E-02  0.188E-01    0.03       1.0  T
  10   -180.5878724  0.109630E-01  0.401E-01    0.06       1.0  T
  11   -180.5977929 -0.992054E-02  0.203E-01    0.05       1.0  T
  12   -180.6008934 -0.310051E-02  0.695E-02    0.04       1.0  T
  13   -180.6010752 -0.181799E-03  0.414E-02    0.04       1.0  T
  14   -180.6012133 -0.138039E-03  0.435E-03    0.04       2.4  T
  15   -180.6012090  0.423077E-05  0.868E-03    0.04       1.2  T
  16   -180.6011881  0.209483E-04  0.183E-02    0.04       1.0  T
  17   -180.6011104  0.777128E-04  0.371E-02    0.04       1.0  T
  18   -180.6012134 -0.103052E-03  0.265E-03    0.04       4.0  T
  19   -180.6012046  0.884760E-05  0.110E-02    0.04       1.0  T
  20   -180.6012140 -0.941098E-05  0.939E-04    0.04      11.2  T
  21   -180.6012130  0.997585E-06  0.363E-03    0.04       2.9  T
  22   -180.6012140 -0.102458E-05  0.463E-04    0.04      22.7  T
  23   -180.6012139  0.172209E-06  0.167E-03    0.04       6.3  T
  24   -180.6012140 -0.104442E-06  0.105E-03    0.04      10.0  T
  25   -180.6012140 -0.426951E-07  0.741E-04    0.04      14.2  T
  26   -180.6012140  0.692563E-08  0.823E-04    0.04      12.8  T
     SCC iter.                  ...        0 min,  0.552 sec
     gradient                   ...        0 min,  0.050 sec
 * total energy  :  -178.8868041 Eh     change       -0.4076101E-03 Eh
   gradient norm :     0.0075049 Eh/α   predicted    -0.4332214E-03 (   6.28%)
   displ. norm   :     0.6557560 α      lambda       -0.5564913E-03
   maximum displ.:     0.3309165 α      in ANC's #1, #2, #3, ...

........................................................................
.............................. CYCLE  173 ..............................
........................................................................

 iter      E             dE          RMSdq      gap      omega  full diag
   1   -180.5909774 -0.180591E+03  0.377E-01    0.03       0.0  T
   2   -180.3582351  0.232742E+00  0.153E+00    0.57       1.0  T
   3   -180.2849714  0.732637E-01  0.215E+00    0.01       1.0  T
   4   -180.5535010 -0.268530E+00  0.902E-01    0.02       1.0  T
   5   -180.4801326  0.733684E-01  0.112E+00    0.13       1.0  T
   6   -180.5413847 -0.612521E-01  0.785E-01    0.09       1.0  T
   7   -180.5822582 -0.408735E-01  0.522E-01    0.05       1.0  T
   8   -180.5809947  0.126351E-02  0.488E-01    0.06       1.0  T
   9   -180.5940982 -0.131036E-01  0.203E-01    0.05       1.0  T
  10   -180.5975527 -0.345449E-02  0.847E-02    0.04       1.0  T
  11   -180.5964734  0.107934E-02  0.125E-01    0.03       1.0  T
  12   -180.5969582 -0.484793E-03  0.137E-01    0.04       1.0  T
  13   -180.5976986 -0.740389E-03  0.554E-02    0.04       1.0  T
  14   -180.5978310 -0.132400E-03  0.359E-02    0.04       1.0  T
  15   -180.5978546 -0.236588E-04  0.367E-02    0.04       1.0  T
  16   -180.5978685 -0.138574E-04  0.301E-02    0.04       1.0  T
  17   -180.5978986 -0.301212E-04  0.236E-02    0.04       1.0  T
  18   -180.5979179 -0.193160E-04  0.109E-02    0.04       1.0  T
  19   -180.5979215 -0.358508E-05  0.927E-03    0.04       1.1  T
  20   -180.5979236 -0.206476E-05  0.870E-03    0.04       1.2  T
  21   -180.5979274 -0.383184E-05  0.164E-03    0.04       6.4  T
  22   -180.5979262  0.118124E-05  0.389E-03    0.04       2.7  T
  23   -180.5979275 -0.129147E-05  0.123E-03    0.04       8.6  T
  24   -180.5979275  0.183657E-07  0.138E-03    0.04       7.7  T
  25   -180.5979276 -0.759944E-07  0.500E-04    0.04      21.1  T
  26   -180.5979276 -0.764098E-08  0.520E-04    0.04      20.3  T
     SCC iter.                  ...        0 min,  0.555 sec
     gradient                   ...        0 min,  0.050 sec
 * total energy  :  -178.8871733 Eh     change       -0.3692475E-03 Eh
   gradient norm :     0.0081312 Eh/α   predicted    -0.3978976E-03 (   7.76%)
   displ. norm   :     0.4483214 α      lambda       -0.3939223E-03
   maximum displ.:     0.2596515 α      in ANC's #1, #2, #3, ...

........................................................................
.............................. CYCLE  174 ..............................
........................................................................

 iter      E             dE          RMSdq      gap      omega  full diag
   1   -180.5960129 -0.180596E+03  0.270E-01    0.03       0.0  T
   2   -180.3782041  0.217809E+00  0.147E+00    0.31       1.0  T
   3   -180.1233503  0.254854E+00  0.310E+00    0.02       1.0  T
   4   -180.4946971 -0.371347E+00  0.133E+00    0.02       1.0  T
   5   -180.5109334 -0.162363E-01  0.114E+00    0.05       1.0  T
   6   -180.5370072 -0.260738E-01  0.942E-01    0.06       1.0  T
   7   -180.5466155 -0.960825E-02  0.869E-01    0.06       1.0  T
   8   -180.5934857 -0.468703E-01  0.299E-01    0.03       1.0  T
   9   -180.5996108 -0.612502E-02  0.711E-02    0.04       1.0  T
  10   -180.5996417 -0.308974E-04  0.848E-02    0.04       1.0  T
  11   -180.5998856 -0.243920E-03  0.504E-02    0.04       1.0  T
  12   -180.6000141 -0.128493E-03  0.186E-02    0.04       1.0  T
  13   -180.6000213 -0.723357E-05  0.176E-02    0.04       1.0  T
  14   -180.6000287 -0.739958E-05  0.168E-02    0.04       1.0  T
  15   -180.6000190  0.967216E-05  0.201E-02    0.04       1.0  T
  16   -180.6000435 -0.244769E-04  0.424E-03    0.04       2.5  T
  17   -180.6000411  0.242820E-05  0.703E-03    0.04       1.5  T
  18   -180.6000439 -0.283386E-05  0.363E-03    0.04       2.9  T
  19   -180.6000420  0.194428E-05  0.692E-03    0.04       1.5  T
  20   -180.6000442 -0.225430E-05  0.245E-03    0.04       4.3  T
  21   -180.6000417  0.248142E-05  0.590E-03    0.04       1.8  T
  22   -180.6000437 -0.197767E-05  0.385E-03    0.04       2.7  T
  23   -180.6000445 -0.783142E-06  0.158E-03    0.04       6.7  T
  24   -180.6000444  0.507636E-07  0.157E-03    0.04       6.7  T
  25   -180.6000446 -0.147194E-06  0.940E-04    0.04      11.2  T
  26   -180.6000446 -0.409529E-07  0.377E-04    0.04      28.0  T
     SCC iter.                  ...        0 min,  0.550 sec
     gradient                   ...        0 min,  0.051 sec
 * total energy  :  -178.8874708 Eh     change       -0.2974798E-03 Eh
   gradient norm :     0.0081440 Eh/α   predicted    -0.2365499E-03 ( -20.48%)
   displ. norm   :     0.4933636 α      lambda       -0.5035522E-03
   maximum displ.:     0.2993222 α      in ANC's #1, #2, #3, ...

........................................................................
.............................. CYCLE  175 ..............................
........................................................................

 iter      E             dE          RMSdq      gap      omega  full diag
   1   -180.6009235 -0.180601E+03  0.216E-01    0.03       0.0  T
   2   -180.4709060  0.130017E+00  0.124E+00    0.08       1.0  T
   3   -180.4952113 -0.243052E-01  0.114E+00    0.01       1.0  T
   4   -180.5083286 -0.131173E-01  0.970E-01    0.11       1.0  T
   5   -180.4575886  0.507400E-01  0.171E+00    0.01       1.0  T
   6   -180.5729329 -0.115344E+00  0.668E-01    0.05       1.0  T
   7   -180.5927791 -0.198462E-01  0.323E-01    0.06       1.0  T
   8   -180.6017282 -0.894908E-02  0.629E-02    0.04       1.0  T
   9   -180.6012343  0.493868E-03  0.119E-01    0.04       1.0  T
  10   -180.6013218 -0.875185E-04  0.881E-02    0.04       1.0  T
  11   -180.6015069 -0.185078E-03  0.916E-02    0.04       1.0  T
  12   -180.6017511 -0.244179E-03  0.520E-02    0.04       1.0  T
  13   -180.6019385 -0.187424E-03  0.212E-02    0.04       1.0  T
  14   -180.6019485 -0.100308E-04  0.175E-02    0.04       1.0  T
  15   -180.6019763 -0.277680E-04  0.617E-03    0.04       1.7  T
  16   -180.6019348  0.414970E-04  0.285E-02    0.04       1.0  T
  17   -180.6019684 -0.336234E-04  0.106E-02    0.04       1.0  T
  18   -180.6019719 -0.346085E-05  0.884E-03    0.04       1.2  T
  19   -180.6019734 -0.149551E-05  0.943E-03    0.04       1.1  T
  20   -180.6019754 -0.205664E-05  0.687E-03    0.04       1.5  T
  21   -180.6019772 -0.173428E-05  0.314E-03    0.04       3.4  T
  22   -180.6019778 -0.685966E-06  0.144E-03    0.04       7.3  T
  23   -180.6019778 -0.942947E-09  0.152E-03    0.04       7.0  T
  24   -180.6019778  0.675581E-08  0.166E-03    0.04       6.3  T
  25   -180.6019780 -0.185297E-06  0.404E-04    0.04      26.1  T
  26   -180.6019780  0.202907E-07  0.633E-04    0.04      16.7  T
     SCC iter.                  ...        0 min,  0.557 sec
     gradient                   ...        0 min,  0.051 sec
 * total energy  :  -178.8878371 Eh     change       -0.3663403E-03 Eh
   gradient norm :     0.0079630 Eh/α   predicted    -0.3130622E-03 ( -14.54%)
   displ. norm   :     0.5105534 α      lambda       -0.4195847E-03
   maximum displ.:     0.3264943 α      in ANC's #1, #2, #8, ...

........................................................................
.............................. CYCLE  176 ..............................
........................................................................

 iter      E             dE          RMSdq      gap      omega  full diag
   1   -180.5999737 -0.180600E+03  0.241E-01    0.05       0.0  T
   2   -178.9271363  0.167284E+01  0.636E+00    0.10       1.0  T
   3   -180.4534771 -0.152634E+01  0.126E+00    0.01       1.0  T
   4   -180.3921456  0.613316E-01  0.206E+00    0.02       1.0  T
   5   -180.5784779 -0.186332E+00  0.542E-01    0.02       1.0  T
   6   -180.5955937 -0.171158E-01  0.327E-01    0.05       1.0  T
   7   -180.6000712 -0.447756E-02  0.185E-01    0.03       1.0  T
   8   -180.6017834 -0.171218E-02  0.121E-01    0.04       1.0  T
   9   -180.6014209  0.362512E-03  0.136E-01    0.05       1.0  T
  10   -180.6024800 -0.105910E-02  0.491E-02    0.04       1.0  T
  11   -180.6026149 -0.134922E-03  0.338E-02    0.04       1.0  T
  12   -180.6026550 -0.401156E-04  0.250E-02    0.04       1.0  T
  13   -180.6026925 -0.374827E-04  0.151E-02    0.04       1.0  T
  14   -180.6027078 -0.152691E-04  0.110E-02    0.04       1.0  T
  15   -180.6027086 -0.804236E-06  0.111E-02    0.04       1.0  T
  16   -180.6027140 -0.544517E-05  0.478E-03    0.04       2.2  T
  17   -180.6027131  0.978605E-06  0.606E-03    0.04       1.7  T
  18   -180.6027149 -0.186830E-05  0.295E-03    0.04       3.6  T
  19   -180.6027150 -0.874443E-07  0.258E-03    0.04       4.1  T
  20   -180.6027155 -0.477378E-06  0.104E-03    0.04      10.1  T
  21   -180.6027155  0.257206E-07  0.119E-03    0.04       8.8  T
  22   -180.6027155  0.596307E-08  0.119E-03    0.04       8.9  T
  23   -180.6027156 -0.105569E-06  0.423E-04    0.04      24.9  T
  24   -180.6027156  0.508390E-08  0.459E-04    0.04      23.0  T
     SCC iter.                  ...        0 min,  0.527 sec
     gradient                   ...        0 min,  0.052 sec
 * total energy  :  -178.8881420 Eh     change       -0.3048781E-03 Eh
   gradient norm :     0.0077583 Eh/α   predicted    -0.2644822E-03 ( -13.25%)
   displ. norm   :     0.5600969 α      lambda       -0.4535215E-03
   maximum displ.:     0.3570828 α      in ANC's #1, #2, #8, ...

........................................................................
.............................. CYCLE  177 ..............................
........................................................................

 iter      E             dE          RMSdq      gap      omega  full diag
   1   -180.5977350 -0.180598E+03  0.260E-01    0.05       0.0  T
   2   -179.2791970  0.131854E+01  0.482E+00    0.03       1.0  T
   3   -180.3088745 -0.102968E+01  0.201E+00    0.01       1.0  T
   4   -180.1580428  0.150832E+00  0.298E+00    0.02       1.0  T
   5   -180.5405320 -0.382489E+00  0.106E+00    0.01       1.0  T
   6   -180.5822692 -0.417372E-01  0.631E-01    0.03       1.0  T
   7   -180.5940325 -0.117633E-01  0.361E-01    0.03       1.0  T
   8   -180.5989070 -0.487449E-02  0.244E-01    0.04       1.0  T
   9   -180.5998213 -0.914339E-03  0.189E-01    0.05       1.0  T
  10   -180.6016918 -0.187048E-02  0.709E-02    0.04       1.0  T
  11   -180.6018967 -0.204876E-03  0.513E-02    0.04       1.0  T
  12   -180.6019288 -0.321262E-04  0.454E-02    0.04       1.0  T
  13   -180.6018836  0.451730E-04  0.502E-02    0.04       1.0  T
  14   -180.6020820 -0.198413E-03  0.282E-02    0.04       1.0  T
  15   -180.6021150 -0.329361E-04  0.181E-02    0.04       1.0  T
  16   -180.6021119  0.304897E-05  0.165E-02    0.04       1.0  T
  17   -180.6021326 -0.206513E-04  0.669E-03    0.04       1.6  T
  18   -180.6021289  0.368789E-05  0.937E-03    0.04       1.1  T
  19   -180.6021343 -0.547327E-05  0.502E-03    0.04       2.1  T
  20   -180.6021363 -0.196686E-05  0.113E-03    0.04       9.3  T
  21   -180.6021363  0.607482E-07  0.148E-03    0.04       7.1  T
  22   -180.6021361  0.202299E-06  0.228E-03    0.04       4.6  T
  23   -180.6021362 -0.142931E-06  0.156E-03    0.04       6.7  T
  24   -180.6021364 -0.172952E-06  0.469E-04    0.04      22.5  T
  25   -180.6021364  0.203030E-08  0.584E-04    0.04      18.1  T
     SCC iter.                  ...        0 min,  0.540 sec
     gradient                   ...        0 min,  0.051 sec
 * total energy  :  -178.8884714 Eh     change       -0.3293872E-03 Eh
   gradient norm :     0.0090876 Eh/α   predicted    -0.2979039E-03 (  -9.56%)
   displ. norm   :     0.5383631 α      lambda       -0.4975530E-03
   maximum displ.:     0.3581141 α      in ANC's #1, #8, #7, ...

........................................................................
.............................. CYCLE  178 ..............................
........................................................................

 iter      E             dE          RMSdq      gap      omega  full diag
   1   -180.6014637 -0.180601E+03  0.211E-01    0.05       0.0  T
   2   -179.9491313  0.652332E+00  0.374E+00    0.02       1.0  T
   3   -180.4601354 -0.511004E+00  0.124E+00    0.01       1.0  T
   4   -180.4619257 -0.179035E-02  0.167E+00    0.02       1.0  T
   5   -180.4857369 -0.238112E-01  0.104E+00    0.02       1.0  T
   6   -180.5822726 -0.965357E-01  0.589E-01    0.05       1.0  T
   7   -180.5872118 -0.493922E-02  0.404E-01    0.07       1.0  T
   8   -180.6019049 -0.146931E-01  0.930E-02    0.05       1.0  T
   9   -180.6015646  0.340384E-03  0.130E-01    0.04       1.0  T
  10   -180.6020669 -0.502313E-03  0.658E-02    0.05       1.0  T
  11   -180.6024143 -0.347451E-03  0.157E-02    0.04       1.0  T
  12   -180.6024247 -0.104005E-04  0.126E-02    0.04       1.0  T
  13   -180.6023930  0.317567E-04  0.206E-02    0.04       1.0  T
  14   -180.6024209 -0.279865E-04  0.135E-02    0.04       1.0  T
  15   -180.6024203  0.601952E-06  0.141E-02    0.04       1.0  T
  16   -180.6024266 -0.622050E-05  0.125E-02    0.04       1.0  T
  17   -180.6024312 -0.463142E-05  0.727E-03    0.04       1.4  T
  18   -180.6024348 -0.360886E-05  0.288E-03    0.04       3.7  T
  19   -180.6024348 -0.302515E-07  0.298E-03    0.04       3.5  T
  20   -180.6024350 -0.187126E-06  0.286E-03    0.04       3.7  T
  21   -180.6024355 -0.524911E-06  0.113E-03    0.04       9.3  T
  22   -180.6024356 -0.177407E-07  0.101E-03    0.04      10.4  T
  23   -180.6024356 -0.752505E-08  0.109E-03    0.04       9.7  T
  24   -180.6024356 -0.457746E-07  0.419E-04    0.04      25.2  T
  25   -180.6024356 -0.977369E-08  0.302E-04    0.04      35.0  T
     SCC iter.                  ...        0 min,  0.532 sec
     gradient                   ...        0 min,  0.051 sec
 * total energy  :  -178.8888557 Eh     change       -0.3842665E-03 Eh
   gradient norm :     0.0091646 Eh/α   predicted    -0.3208853E-03 ( -16.49%)
   displ. norm   :     0.5286249 α      lambda       -0.5892223E-03
   maximum displ.:     0.3547275 α      in ANC's #1, #8, #7, ...

........................................................................
.............................. CYCLE  179 ..............................
........................................................................

 iter      E             dE          RMSdq      gap      omega  full diag
   1   -180.6015043 -0.180602E+03  0.222E-01    0.04       0.0  T
   2   -179.7865660  0.814938E+00  0.427E+00    0.02       1.0  T
   3   -180.5005063 -0.713940E+00  0.143E+00    0.01       1.0  T
   4   -180.4124832  0.880232E-01  0.154E+00    0.01       1.0  T
   5   -180.5197543 -0.107271E+00  0.816E-01    0.03       1.0  T
   6   -180.5952937 -0.755394E-01  0.285E-01    0.03       1.0  T
   7   -180.5988899 -0.359614E-02  0.255E-01    0.04       1.0  T
   8   -180.6001573 -0.126745E-02  0.211E-01    0.04       1.0  T
   9   -180.6021618 -0.200449E-02  0.918E-02    0.04       1.0  T
  10   -180.6023887 -0.226899E-03  0.650E-02    0.04       1.0  T
  11   -180.6024008 -0.120690E-04  0.616E-02    0.04       1.0  T
  12   -180.6025738 -0.172999E-03  0.217E-02    0.04       1.0  T
  13   -180.6025950 -0.212614E-04  0.671E-03    0.04       1.6  T
  14   -180.6025873  0.771458E-05  0.122E-02    0.04       1.0  T
  15   -180.6025893 -0.195041E-05  0.102E-02    0.04       1.0  T
  16   -180.6025972 -0.792628E-05  0.392E-03    0.04       2.7  T
  17   -180.6025966  0.605243E-06  0.467E-03    0.04       2.3  T
  18   -180.6025959  0.681234E-06  0.536E-03    0.04       2.0  T
  19   -180.6025978 -0.190939E-05  0.151E-03    0.04       7.0  T
  20   -180.6025980 -0.130142E-06  0.628E-04    0.04      16.8  T
  21   -180.6025979  0.565663E-07  0.133E-03    0.04       7.9  T
  22   -180.6025979 -0.575255E-10  0.106E-03    0.04       9.9  T
  23   -180.6025979 -0.179051E-07  0.926E-04    0.04      11.4  T
     SCC iter.                  ...        0 min,  0.501 sec
     gradient                   ...        0 min,  0.052 sec
 * total energy  :  -178.8893172 Eh     change       -0.4615075E-03 Eh
   gradient norm :     0.0100806 Eh/α   predicted    -0.3769400E-03 ( -18.32%)
   displ. norm   :     0.6107532 α      lambda       -0.6535820E-03
   maximum displ.:     0.4139156 α      in ANC's #1, #8, #7, ...

........................................................................
.............................. CYCLE  180 ..............................
........................................................................

 iter      E             dE          RMSdq      gap      omega  full diag
   1   -180.5992021 -0.180599E+03  0.282E-01    0.04       0.0  T
   2   -180.3551462  0.244056E+00  0.223E+00    0.01       1.0  T
   3   -180.4151658 -0.600196E-01  0.135E+00    0.23       1.0  T
   4   -180.4965441 -0.813783E-01  0.107E+00    0.01       1.0  T
   5   -180.5985104 -0.101966E+00  0.205E-01    0.04       1.0  T
   6   -180.5981905  0.319932E-03  0.247E-01    0.04       1.0  T
   7   -180.6004713 -0.228079E-02  0.976E-02    0.05       1.0  T
   8   -180.6006212 -0.149958E-03  0.109E-01    0.04       1.0  T
   9   -180.6010767 -0.455446E-03  0.586E-02    0.04       1.0  T
  10   -180.6012727 -0.196016E-03  0.270E-02    0.04       1.0  T
  11   -180.6007297  0.542951E-03  0.879E-02    0.04       1.0  T
  12   -180.6013043 -0.574549E-03  0.986E-03    0.04       1.1  T
  13   -180.6010068  0.297497E-03  0.589E-02    0.05       1.0  T
  14   -180.6012527 -0.245898E-03  0.262E-02    0.04       1.0  T
  15   -180.6012750 -0.222607E-04  0.266E-02    0.04       1.0  T
  16   -180.6012819 -0.696697E-05  0.185E-02    0.04       1.0  T
  17   -180.6013053 -0.233660E-04  0.957E-03    0.04       1.1  T
  18   -180.6013110 -0.572123E-05  0.104E-03    0.04      10.2  T
  19   -180.6013099  0.107328E-05  0.358E-03    0.04       2.9  T
  20   -180.6013110 -0.109071E-05  0.661E-04    0.04      15.9  T
  21   -180.6013107  0.320922E-06  0.217E-03    0.04       4.9  T
  22   -180.6013110 -0.313241E-06  0.688E-04    0.04      15.3  T
  23   -180.6013108  0.203034E-06  0.166E-03    0.04       6.3  T
  24   -180.6013110 -0.205252E-06  0.648E-04    0.04      16.3  T
     SCC iter.                  ...        0 min,  0.525 sec
     gradient                   ...        0 min,  0.050 sec
 * total energy  :  -178.8898240 Eh     change       -0.5068107E-03 Eh
   gradient norm :     0.0105098 Eh/α   predicted    -0.4486965E-03 ( -11.47%)
   displ. norm   :     0.6212610 α      lambda       -0.7211557E-03
   maximum displ.:     0.3898083 α      in ANC's #1, #7, #8, ...

........................................................................
.............................. CYCLE  181 ..............................
........................................................................

 iter      E             dE          RMSdq      gap      omega  full diag
   1   -180.5973778 -0.180597E+03  0.416E-01    0.03       0.0  T
   2   -180.3814512  0.215927E+00  0.147E+00    0.35       1.0  T
   3   -179.1429102  0.123854E+01  0.477E+00    0.01       1.0  T
   4   -180.4328848 -0.128997E+01  0.154E+00    0.01       1.0  T
   5   -180.5904799 -0.157595E+00  0.486E-01    0.04       1.0  T
   6   -180.5737629  0.167169E-01  0.614E-01    0.07       1.0  T
   7   -180.5763020 -0.253912E-02  0.592E-01    0.07       1.0  T
   8   -180.5989722 -0.226701E-01  0.312E-01    0.04       1.0  T
   9   -180.6024831 -0.351095E-02  0.159E-01    0.05       1.0  T
  10   -180.5956303  0.685281E-02  0.402E-01    0.04       1.0  T
  11   -180.6036423 -0.801204E-02  0.567E-02    0.04       1.0  T
  12   -180.6026667  0.975592E-03  0.153E-01    0.04       1.0  T
  13   -180.6006906  0.197617E-02  0.256E-01    0.04       1.0  T
  14   -180.6026413 -0.195076E-02  0.161E-01    0.04       1.0  T
  15   -180.6038127 -0.117142E-02  0.475E-02    0.04       1.0  T
  16   -180.6039208 -0.108039E-03  0.127E-02    0.04       1.0  T
  17   -180.6038411  0.796500E-04  0.402E-02    0.04       1.0  T
  18   -180.6038816 -0.404661E-04  0.299E-02    0.04       1.0  T
  19   -180.6039108 -0.292401E-04  0.181E-02    0.04       1.0  T
  20   -180.6039273 -0.164326E-04  0.339E-03    0.04       3.1  T
  21   -180.6039276 -0.323488E-06  0.375E-03    0.04       2.8  T
  22   -180.6039276  0.324581E-07  0.293E-03    0.04       3.6  T
  23   -180.6039269  0.631508E-06  0.430E-03    0.04       2.5  T
  24   -180.6039282 -0.126682E-05  0.117E-03    0.04       9.0  T
  25   -180.6039281  0.131913E-06  0.175E-03    0.04       6.0  T
  26   -180.6039283 -0.194046E-06  0.757E-04    0.04      13.9  T
  27   -180.6039283 -0.241101E-07  0.259E-04    0.04      40.8  T
     SCC iter.                  ...        0 min,  0.602 sec
     gradient                   ...        0 min,  0.052 sec
 * total energy  :  -178.8903612 Eh     change       -0.5371646E-03 Eh
   gradient norm :     0.0114552 Eh/α   predicted    -0.4997538E-03 (  -6.96%)
   displ. norm   :     0.6455340 α      lambda       -0.8047904E-03
   maximum displ.:     0.4629212 α      in ANC's #1, #7, #8, ...

........................................................................
.............................. CYCLE  182 ..............................
........................................................................

 iter      E             dE          RMSdq      gap      omega  full diag
   1   -180.5802436 -0.180580E+03  0.615E-01    0.01       0.0  T
   2   -180.3339249  0.246319E+00  0.165E+00    0.51       1.0  T
   3   -179.7834013  0.550524E+00  0.431E+00    0.02       1.0  T
   4   -180.4582566 -0.674855E+00  0.166E+00    0.03       1.0  T
   5   -180.5183363 -0.600796E-01  0.133E+00    0.01       1.0  T
   6   -180.5244686 -0.613229E-02  0.958E-01    0.01       1.0  T
   7   -180.5656236 -0.411551E-01  0.629E-01    0.08       1.0  T
   8   -180.5967157 -0.310921E-01  0.297E-01    0.06       1.0  T
   9   -180.5996284 -0.291270E-02  0.280E-01    0.03       1.0  T
  10   -180.5951802  0.444824E-02  0.361E-01    0.06       1.0  T
  11   -180.5904966  0.468356E-02  0.447E-01    0.02       1.0  T
  12   -180.6041237 -0.136271E-01  0.103E-01    0.04       1.0  T
  13   -180.6048757 -0.751959E-03  0.282E-02    0.04       1.0  T
  14   -180.6044601  0.415612E-03  0.762E-02    0.05       1.0  T
  15   -180.6049006 -0.440553E-03  0.148E-02    0.04       1.0  T
  16   -180.6049042 -0.357120E-05  0.108E-02    0.04       1.0  T
  17   -180.6048890  0.152252E-04  0.188E-02    0.04       1.0  T
  18   -180.6048999 -0.109482E-04  0.138E-02    0.04       1.0  T
  19   -180.6049062 -0.626319E-05  0.103E-02    0.04       1.0  T
  20   -180.6049121 -0.588954E-05  0.480E-03    0.04       2.2  T
  21   -180.6049137 -0.166144E-05  0.147E-03    0.04       7.2  T
  22   -180.6049129  0.861609E-06  0.416E-03    0.04       2.5  T
  23   -180.6049133 -0.434836E-06  0.306E-03    0.04       3.4  T
  24   -180.6049134 -0.141505E-06  0.245E-03    0.04       4.3  T
  25   -180.6049138 -0.409934E-06  0.469E-04    0.04      22.5  T
  26   -180.6049139 -0.584791E-08  0.430E-04    0.04      24.5  T
     SCC iter.                  ...        0 min,  0.599 sec
     gradient                   ...        0 min,  0.050 sec
 * total energy  :  -178.8908799 Eh     change       -0.5187780E-03 Eh
   gradient norm :     0.0136104 Eh/α   predicted    -0.5700822E-03 (   9.89%)
   displ. norm   :     0.5518299 α      lambda       -0.8626264E-03
   maximum displ.:     0.3712245 α      in ANC's #1, #7, #8, ...

........................................................................
.............................. CYCLE  183 ..............................
........................................................................

 iter      E             dE          RMSdq      gap      omega  full diag
   1   -180.5849449 -0.180585E+03  0.690E-01    0.04       0.0  T
   2   -176.9937279  0.359122E+01  0.761E+00    0.09       1.0  T
   3   -180.3764238 -0.338270E+01  0.153E+00    0.33       1.0  T
   4   -180.3400706  0.363532E-01  0.197E+00    0.01       1.0  T
   5   -180.5635921 -0.223522E+00  0.749E-01    0.07       1.0  T
   6   -180.5623096  0.128253E-02  0.796E-01    0.01       1.0  T
   7   -180.5871011 -0.247915E-01  0.602E-01    0.05       1.0  T
   8   -180.5852807  0.182039E-02  0.579E-01    0.06       1.0  T
   9   -180.5974201 -0.121394E-01  0.442E-01    0.03       1.0  T
  10   -180.5988829 -0.146281E-02  0.369E-01    0.03       1.0  T
  11   -180.5978858  0.997072E-03  0.430E-01    0.03       1.0  T
  12   -180.6005882 -0.270238E-02  0.357E-01    0.04       1.0  T
  13   -180.6068343 -0.624606E-02  0.521E-02    0.04       1.0  T
  14   -180.6056042  0.123005E-02  0.176E-01    0.04       1.0  T
  15   -180.6062769 -0.672663E-03  0.126E-01    0.04       1.0  T
  16   -180.6066092 -0.332314E-03  0.727E-02    0.05       1.0  T
  17   -180.6068601 -0.250896E-03  0.573E-02    0.04       1.0  T
  18   -180.6070543 -0.194219E-03  0.432E-03    0.04       2.4  T
  19   -180.6070507  0.360724E-05  0.855E-03    0.04       1.2  T
  20   -180.6070306  0.201298E-04  0.212E-02    0.04       1.0  T
  21   -180.6070516 -0.210214E-04  0.662E-03    0.04       1.6  T
  22   -180.6070487  0.291341E-05  0.115E-02    0.04       1.0  T
  23   -180.6070550 -0.631722E-05  0.136E-03    0.04       7.8  T
  24   -180.6070550 -0.422277E-07  0.944E-04    0.04      11.2  T
  25   -180.6070543  0.750540E-06  0.416E-03    0.04       2.5  T
  26   -180.6070550 -0.745079E-06  0.118E-03    0.04       8.9  T
  27   -180.6070548  0.185408E-06  0.182E-03    0.04       5.8  T
  28   -180.6070551 -0.248957E-06  0.413E-04    0.04      25.5  T
     SCC iter.                  ...        0 min,  0.657 sec
     gradient                   ...        0 min,  0.047 sec
 * total energy  :  -178.8915297 Eh     change       -0.6498030E-03 Eh
   gradient norm :     0.0122320 Eh/α   predicted    -0.5626546E-03 ( -13.41%)
   displ. norm   :     0.6950744 α      lambda       -0.1036373E-02
   maximum displ.:     0.4629017 α      in ANC's #1, #7, #5, ...
 * RMSD in coord.:     1.3636315 α      energy gain  -0.1765927E-01 Eh

generating ANC from exact Hessian ...
Using Lindh-Hessian (1995)
 Shifting diagonal of input Hessian by   1.034846245723260E-002
 Lowest  eigenvalues of input Hessian
    0.010000    0.000000    0.000000    0.000000    0.000000    0.000000
    0.000000    0.010561    0.010618    0.010809    0.011033    0.011123
    0.011242    0.011400    0.011620    0.011652    0.011704    0.011975
 Highest eigenvalues
    2.036796    2.150699    2.210469    2.216254    2.234016    2.240586
 

........................................................................
.............................. CYCLE  184 ..............................
........................................................................

 iter      E             dE          RMSdq      gap      omega  full diag
   1   -180.5838623 -0.180584E+03  0.589E-01    0.05       0.0  T
   2   -177.0099166  0.357395E+01  0.749E+00    0.09       1.0  T
   3   -180.4544843 -0.344457E+01  0.122E+00    0.14       1.0  T
   4   -180.3489519  0.105532E+00  0.183E+00    0.01       1.0  T
   5   -180.5817157 -0.232764E+00  0.572E-01    0.02       1.0  T
   6   -180.4001651  0.181551E+00  0.188E+00    0.02       1.0  T
   7   -180.5617673 -0.161602E+00  0.851E-01    0.02       1.0  T
   8   -180.5760985 -0.143313E-01  0.613E-01    0.06       1.0  T
   9   -180.5830781 -0.697957E-02  0.595E-01    0.04       1.0  T
  10   -180.5742937  0.878443E-02  0.712E-01    0.03       1.0  T
  11   -180.5840327 -0.973902E-02  0.581E-01    0.03       1.0  T
  12   -180.5828188  0.121387E-02  0.588E-01    0.03       1.0  T
  13   -180.5842546 -0.143575E-02  0.563E-01    0.03       1.0  T
  14   -180.5952903 -0.110357E-01  0.302E-01    0.04       1.0  T
  15   -180.5992199 -0.392963E-02  0.118E-01    0.05       1.0  T
  16   -180.5976023  0.161765E-02  0.240E-01    0.05       1.0  T
  17   -180.5979855 -0.383218E-03  0.217E-01    0.05       1.0  T
  18   -180.5999806 -0.199512E-02  0.774E-02    0.05       1.0  T
  19   -180.6002778 -0.297175E-03  0.525E-02    0.04       1.0  T
  20   -180.6004055 -0.127709E-03  0.178E-02    0.04       1.0  T
  21   -180.6003492  0.563021E-04  0.401E-02    0.04       1.0  T
  22   -180.6004128 -0.635762E-04  0.184E-02    0.04       1.0  T
  23   -180.6004283 -0.154949E-04  0.446E-03    0.04       2.4  T
  24   -180.6004298 -0.157527E-05  0.891E-04    0.04      11.8  T
  25   -180.6004290  0.844715E-06  0.414E-03    0.04       2.5  T
  26   -180.6004281  0.881660E-06  0.602E-03    0.04       1.8  T
  27   -180.6004296 -0.148191E-05  0.234E-03    0.04       4.5  T
  28   -180.6004297 -0.680228E-07  0.188E-03    0.04       5.6  T
  29   -180.6004298 -0.173625E-06  0.790E-04    0.04      13.3  T
  30   -180.6004299 -0.200090E-07  0.474E-04    0.04      22.3  T
     SCC iter.                  ...        0 min,  0.716 sec
     gradient                   ...        0 min,  0.050 sec
 * total energy  :  -178.8922556 Eh     change       -0.7258813E-03 Eh
   gradient norm :     0.0144003 Eh/α   predicted     0.0000000E+00 (-100.00%)
   displ. norm   :     0.1569080 α      lambda       -0.7747089E-03
   maximum displ.:     0.0520827 α      in ANC's #1, #5, #22, ...

........................................................................
.............................. CYCLE  185 ..............................
........................................................................

 iter      E             dE          RMSdq      gap      omega  full diag
   1   -180.5221383 -0.180522E+03  0.109E+00    0.01       0.0  T
   2   -180.3050180  0.217120E+00  0.200E+00    0.07       1.0  T
   3   -180.1479716  0.157046E+00  0.317E+00    0.02       1.0  T
   4   -180.3808946 -0.232923E+00  0.158E+00    0.43       1.0  T
   5   -180.4700456 -0.891510E-01  0.138E+00    0.06       1.0  T
   6   -180.4823822 -0.123366E-01  0.129E+00    0.07       1.0  T
   7   -180.4940250 -0.116428E-01  0.124E+00    0.07       1.0  T
   8   -180.3968035  0.972215E-01  0.177E+00    0.01       1.0  T
   9   -180.4854549 -0.886514E-01  0.132E+00    0.01       1.0  T
  10   -180.5229844 -0.375295E-01  0.105E+00    0.07       1.0  T
  11   -180.5606454 -0.376610E-01  0.775E-01    0.06       1.0  T
  12   -180.6025008 -0.418555E-01  0.191E-01    0.05       1.0  T
  13   -180.6034216 -0.920780E-03  0.174E-01    0.03       1.0  T
  14   -180.6051858 -0.176414E-02  0.791E-02    0.04       1.0  T
  15   -180.6053709 -0.185107E-03  0.427E-02    0.04       1.0  T
  16   -180.6034343  0.193654E-02  0.169E-01    0.05       1.0  T
  17   -180.6052524 -0.181807E-02  0.625E-02    0.04       1.0  T
  18   -180.6055005 -0.248137E-03  0.505E-03    0.04       2.1  T
  19   -180.6052978  0.202754E-03  0.532E-02    0.04       1.0  T
  20   -180.6054597 -0.161972E-03  0.246E-02    0.04       1.0  T
  21   -180.6055019 -0.421776E-04  0.832E-04    0.04      12.7  T
  22   -180.6054984  0.350641E-05  0.707E-03    0.04       1.5  T
  23   -180.6054953  0.315396E-05  0.989E-03    0.04       1.1  T
  24   -180.6055018 -0.656370E-05  0.157E-03    0.04       6.7  T
  25   -180.6055016  0.264220E-06  0.249E-03    0.04       4.2  T
  26   -180.6055019 -0.354561E-06  0.829E-04    0.04      12.7  T
  27   -180.6055012  0.684510E-06  0.327E-03    0.04       3.2  T
  28   -180.6055017 -0.490700E-06  0.184E-03    0.04       5.7  T
  29   -180.6055020 -0.232476E-06  0.377E-04    0.04      27.9  T
     SCC iter.                  ...        0 min,  0.638 sec
     gradient                   ...        0 min,  0.049 sec
 * total energy  :  -178.8920750 Eh     change        0.1805858E-03 Eh
   gradient norm :     0.0210425 Eh/α   predicted    -0.3968961E-03 (-319.78%)
   displ. norm   :     0.4016313 α      lambda       -0.2802663E-02
   maximum displ.:     0.1386132 α      in ANC's #5, #1, #12, ...

........................................................................
.............................. CYCLE  186 ..............................
........................................................................

 iter      E             dE          RMSdq      gap      omega  full diag
   1   -180.5462729 -0.180546E+03  0.944E-01    0.07       0.0  T
   2   -177.3556942  0.319058E+01  0.107E+01    0.14       1.0  T
   3   -180.2978928 -0.294220E+01  0.236E+00    0.01       1.0  T
   4   -180.4972667 -0.199374E+00  0.141E+00    0.01       1.0  T
   5   -180.5949761 -0.977094E-01  0.661E-01    0.02       1.0  T
   6   -180.0608071  0.534169E+00  0.341E+00    0.02       1.0  T
   7   -180.5331661 -0.472359E+00  0.927E-01    0.11       1.0  T
   8   -180.6174646 -0.842985E-01  0.161E-01    0.05       1.0  T
   9   -180.6076180  0.984661E-02  0.420E-01    0.03       1.0  T
  10   -180.6169297 -0.931164E-02  0.145E-01    0.05       1.0  T
  11   -180.6178094 -0.879781E-03  0.120E-01    0.04       1.0  T
  12   -180.6184573 -0.647891E-03  0.796E-02    0.05       1.0  T
  13   -180.6184673 -0.998165E-05  0.838E-02    0.04       1.0  T
  14   -180.6187692 -0.301889E-03  0.342E-02    0.04       1.0  T
  15   -180.6187608  0.842872E-05  0.261E-02    0.04       1.0  T
  16   -180.6187291  0.317195E-04  0.347E-02    0.04       1.0  T
  17   -180.6188045 -0.754848E-04  0.143E-02    0.04       1.0  T
  18   -180.6188146 -0.100840E-04  0.851E-03    0.04       1.2  T
  19   -180.6188127  0.190527E-05  0.940E-03    0.04       1.1  T
  20   -180.6188134 -0.661165E-06  0.714E-03    0.04       1.5  T
  21   -180.6188177 -0.434909E-05  0.202E-03    0.04       5.2  T
  22   -180.6188181 -0.358430E-06  0.969E-04    0.04      10.9  T
  23   -180.6188174  0.664869E-06  0.328E-03    0.04       3.2  T
  24   -180.6188180 -0.587424E-06  0.162E-03    0.04       6.5  T
  25   -180.6188181 -0.111876E-06  0.273E-04    0.04      38.6  T
     SCC iter.                  ...        0 min,  0.782 sec
     gradient                   ...        0 min,  0.053 sec
 * total energy  :  -178.8911797 Eh     change        0.8953492E-03 Eh
   gradient norm :     0.0496498 Eh/α   predicted    -0.1627378E-02 (-281.76%)
   displ. norm   :     0.1934696 α      lambda       -0.4984627E-02
   maximum displ.:     0.0499226 α      in ANC's #36, #11, #52, ...

........................................................................
.............................. CYCLE  187 ..............................
........................................................................

 iter      E             dE          RMSdq      gap      omega  full diag
   1   -180.5455301 -0.180546E+03  0.101E+00    0.01       0.0  T
   2   -179.5774553  0.968075E+00  0.477E+00    0.02       1.0  T
   3   -180.3062795 -0.728824E+00  0.187E+00    0.83       1.0  T
   4   -180.4692803 -0.163001E+00  0.137E+00    0.09       1.0  T
   5   -180.4769061 -0.762578E-02  0.127E+00    0.10       1.0  T
   6   -180.4616667  0.152394E-01  0.170E+00    0.02       1.0  T
   7   -180.5368142 -0.751475E-01  0.978E-01    0.07       1.0  T
   8   -180.4242640  0.112550E+00  0.171E+00    0.01       1.0  T
   9   -180.5813075 -0.157044E+00  0.705E-01    0.02       1.0  T
  10   -180.5835898 -0.228228E-02  0.674E-01    0.05       1.0  T
  11   -180.6037281 -0.201383E-01  0.329E-01    0.06       1.0  T
  12   -180.6037082  0.199379E-04  0.384E-01    0.03       1.0  T
  13   -180.6118721 -0.816392E-02  0.814E-02    0.04       1.0  T
  14   -180.6119271 -0.549912E-04  0.582E-02    0.04       1.0  T
  15   -180.6122113 -0.284188E-03  0.157E-02    0.04       1.0  T
  16   -180.6119319  0.279355E-03  0.733E-02    0.04       1.0  T
  17   -180.6118491  0.828368E-04  0.704E-02    0.04       1.0  T
  18   -180.6122164 -0.367297E-03  0.117E-02    0.04       1.0  T
  19   -180.6122258 -0.946670E-05  0.448E-03    0.04       2.4  T
  20   -180.6122272 -0.132409E-05  0.222E-03    0.04       4.7  T
  21   -180.6122274 -0.242161E-06  0.161E-03    0.04       6.6  T
  22   -180.6122263  0.113649E-05  0.422E-03    0.04       2.5  T
  23   -180.6122264 -0.161255E-06  0.401E-03    0.04       2.6  T
  24   -180.6122265 -0.614866E-07  0.422E-03    0.04       2.5  T
  25   -180.6122276 -0.108794E-05  0.339E-04    0.04      31.1  T
  26   -180.6122276 -0.188410E-08  0.321E-04    0.04      32.8  T
  27   -180.6122275  0.574153E-07  0.969E-04    0.04      10.9  T
     SCC iter.                  ...        0 min,  0.666 sec
     gradient                   ...        0 min,  0.049 sec
 * total energy  :  -178.8930262 Eh     change       -0.1846564E-02 Eh
   gradient norm :     0.0179006 Eh/α   predicted    -0.2585606E-02 (  40.02%)
   displ. norm   :     0.4457826 α      lambda       -0.4593655E-02
   maximum displ.:     0.2273185 α      in ANC's #14, #17, #42, ...

........................................................................
.............................. CYCLE  188 ..............................
........................................................................

 iter      E             dE          RMSdq      gap      omega  full diag
   1   -179.7809200 -0.179781E+03  0.427E+00    0.01       0.0  T
   2   -171.8283113  0.795261E+01  0.123E+01    0.25       1.0  T
   3   -179.9759564 -0.814765E+01  0.352E+00    0.38       1.0  T
   4   -180.3355120 -0.359556E+00  0.241E+00    0.24       1.0  T
   5   -180.2336761  0.101836E+00  0.283E+00    0.02       1.0  T
   6   -180.3272600 -0.935839E-01  0.194E+00    0.71       1.0  T
   7   -180.3856360 -0.583760E-01  0.171E+00    0.25       1.0  T
   8   -180.4448875 -0.592515E-01  0.184E+00    0.01       1.0  T
   9   -180.5466701 -0.101783E+00  0.122E+00    0.03       1.0  T
  10   -180.5576187 -0.109486E-01  0.104E+00    0.04       1.0  T
  11   -180.4238143  0.133804E+00  0.166E+00    0.01       1.0  T
  12   -180.5181557 -0.943413E-01  0.904E-01    0.10       1.0  T
  13   -180.5717153 -0.535597E-01  0.472E-01    0.05       1.0  T
  14   -180.4863866  0.853287E-01  0.153E+00    0.04       1.0  T
  15   -180.5316765 -0.452899E-01  0.792E-01    0.09       1.0  T
  16   -180.3998684  0.131808E+00  0.209E+00    0.01       1.0  T
  17   -180.5688322 -0.168964E+00  0.530E-01    0.06       1.0  T
  18   -180.5682968  0.535455E-03  0.522E-01    0.07       1.0  T
  19   -180.5769239 -0.862712E-02  0.488E-01    0.05       1.0  T
  20   -180.5848037 -0.787982E-02  0.366E-01    0.04       1.0  T
  21   -180.5868526 -0.204891E-02  0.265E-01    0.05       1.0  T
  22   -180.5866650  0.187604E-03  0.292E-01    0.05       1.0  T
  23   -180.5900291 -0.336404E-02  0.150E-01    0.05       1.0  T
  24   -180.5907209 -0.691798E-03  0.150E-01    0.04       1.0  T
  25   -180.5916083 -0.887449E-03  0.598E-02    0.04       1.0  T
  26   -180.5917636 -0.155335E-03  0.296E-02    0.04       1.0  T
  27   -180.5917881 -0.244089E-04  0.206E-02    0.04       1.0  T
  28   -180.5917974 -0.938908E-05  0.195E-02    0.04       1.0  T
  29   -180.5918126 -0.151515E-04  0.580E-03    0.04       1.8  T
  30   -180.5917977  0.149285E-04  0.187E-02    0.04       1.0  T
  31   -180.5918105 -0.128625E-04  0.925E-03    0.04       1.1  T
  32   -180.5918103  0.225153E-06  0.979E-03    0.04       1.1  T
  33   -180.5918151 -0.481690E-05  0.195E-03    0.04       5.4  T
  34   -180.5918153 -0.192648E-06  0.366E-04    0.04      28.8  T
  35   -180.5918137  0.161568E-05  0.547E-03    0.04       1.9  T
  36   -180.5918150 -0.130523E-05  0.237E-03    0.04       4.5  T
  37   -180.5918152 -0.239006E-06  0.117E-03    0.04       9.0  T
  38   -180.5918153 -0.745866E-07  0.328E-04    0.04      32.2  T
     SCC iter.                  ...        0 min,  0.869 sec
     gradient                   ...        0 min,  0.049 sec
 * total energy  :  -178.8879104 Eh     change        0.5115883E-02 Eh
   gradient norm :     0.0345033 Eh/α   predicted    -0.2753258E-02 (-153.82%)
   displ. norm   :     0.2859993 α      lambda       -0.7066110E-02
   maximum displ.:     0.1241291 α      in ANC's #14, #17, #38, ...

........................................................................
.............................. CYCLE  189 ..............................
........................................................................

 iter      E             dE          RMSdq      gap      omega  full diag
   1   -180.5881802 -0.180588E+03  0.663E-01    0.05       0.0  T
   2   -176.5895172  0.399866E+01  0.836E+00    0.07       1.0  T
   3   -180.4654980 -0.387598E+01  0.117E+00    0.15       1.0  T
   4   -180.3122204  0.153278E+00  0.198E+00    0.01       1.0  T
   5   -180.5913007 -0.279080E+00  0.541E-01    0.03       1.0  T
   6   -180.6036542 -0.123535E-01  0.266E-01    0.04       1.0  T
   7   -180.6064156 -0.276136E-02  0.218E-01    0.04       1.0  T
   8   -180.5885905  0.178251E-01  0.538E-01    0.02       1.0  T
   9   -180.5889567 -0.366197E-03  0.511E-01    0.02       1.0  T
  10   -180.5350592  0.538975E-01  0.129E+00    0.01       1.0  T
  11   -180.5673360 -0.322768E-01  0.921E-01    0.01       1.0  T
  12   -180.6038349 -0.364989E-01  0.204E-01    0.04       1.0  T
  13   -180.5793957  0.244392E-01  0.752E-01    0.02       1.0  T
  14   -180.6065223 -0.271266E-01  0.837E-02    0.04       1.0  T
  15   -180.6066349 -0.112616E-03  0.101E-01    0.04       1.0  T
  16   -180.6068418 -0.206905E-03  0.635E-02    0.04       1.0  T
  17   -180.6069072 -0.654556E-04  0.348E-02    0.04       1.0  T
  18   -180.6069195 -0.122394E-04  0.538E-02    0.04       1.0  T
  19   -180.6066489  0.270547E-03  0.947E-02    0.04       1.0  T
  20   -180.6069250 -0.276065E-03  0.505E-02    0.04       1.0  T
  21   -180.6070082 -0.831942E-04  0.205E-02    0.04       1.0  T
  22   -180.6070196 -0.114372E-04  0.160E-02    0.04       1.0  T
  23   -180.6070189  0.773238E-06  0.176E-02    0.04       1.0  T
  24   -180.6070255 -0.661867E-05  0.128E-02    0.04       1.0  T
  25   -180.6070283 -0.286438E-05  0.903E-03    0.04       1.2  T
  26   -180.6070312 -0.287189E-05  0.363E-03    0.04       2.9  T
  27   -180.6070318 -0.616639E-06  0.347E-04    0.04      30.4  T
  28   -180.6070316  0.216216E-06  0.199E-03    0.04       5.3  T
  29   -180.6070317 -0.852465E-07  0.136E-03    0.04       7.8  T
  30   -180.6070318 -0.137014E-06  0.191E-04    0.04      55.1  T
     SCC iter.                  ...        0 min,  0.668 sec
     gradient                   ...        0 min,  0.048 sec
 * total energy  :  -178.8928876 Eh     change       -0.4977223E-02 Eh
   gradient norm :     0.0132855 Eh/α   predicted    -0.3822049E-02 ( -23.21%)
   displ. norm   :     0.3040664 α      lambda       -0.2755173E-02
   maximum displ.:     0.1507786 α      in ANC's #14, #5, #17, ...

........................................................................
.............................. CYCLE  190 ..............................
........................................................................

 iter      E             dE          RMSdq      gap      omega  full diag
   1   -180.5595333 -0.180560E+03  0.789E-01    0.09       0.0  T
   2   -176.6867163  0.387282E+01  0.713E+00    0.01       1.0  T
   3   -180.2803124 -0.359360E+01  0.211E+00    0.01       1.0  T
   4   -180.0293557  0.250957E+00  0.341E+00    0.03       1.0  T
   5   -180.3805245 -0.351169E+00  0.185E+00    0.01       1.0  T
   6   -180.5861763 -0.205652E+00  0.671E-01    0.03       1.0  T
   7   -180.6033301 -0.171538E-01  0.310E-01    0.05       1.0  T
   8   -180.6065870 -0.325689E-02  0.230E-01    0.03       1.0  T
   9   -180.6091417 -0.255470E-02  0.123E-01    0.04       1.0  T
  10   -180.6077427  0.139899E-02  0.190E-01    0.04       1.0  T
  11   -180.6099380 -0.219528E-02  0.170E-02    0.04       1.0  T
  12   -180.6091122  0.825761E-03  0.120E-01    0.04       1.0  T
  13   -180.6092942 -0.182014E-03  0.843E-02    0.05       1.0  T
  14   -180.6097328 -0.438546E-03  0.524E-02    0.04       1.0  T
  15   -180.6099357 -0.202959E-03  0.130E-02    0.04       1.0  T
  16   -180.6099465 -0.107202E-04  0.915E-03    0.04       1.2  T
  17   -180.6099098  0.366772E-04  0.212E-02    0.04       1.0  T
  18   -180.6099422 -0.323944E-04  0.102E-02    0.04       1.0  T
  19   -180.6099475 -0.535263E-05  0.713E-03    0.04       1.5  T
  20   -180.6099345  0.130132E-04  0.139E-02    0.04       1.0  T
  21   -180.6099475 -0.129620E-04  0.645E-03    0.04       1.6  T
  22   -180.6099503 -0.285476E-05  0.203E-03    0.04       5.2  T
  23   -180.6099503  0.206719E-07  0.205E-03    0.04       5.1  T
  24   -180.6099506 -0.314932E-06  0.903E-04    0.04      11.7  T
  25   -180.6099506  0.414441E-07  0.111E-03    0.04       9.5  T
  26   -180.6099507 -0.110360E-06  0.145E-04    0.04      72.9  T
     SCC iter.                  ...        0 min,  0.567 sec
     gradient                   ...        0 min,  0.047 sec
 * total energy  :  -178.8925827 Eh     change        0.3048624E-03 Eh
   gradient norm :     0.0262452 Eh/α   predicted    -0.1504959E-02 (-593.65%)
   displ. norm   :     0.1884229 α      lambda       -0.3256870E-02
   maximum displ.:     0.0770725 α      in ANC's #14, #1, #12, ...

........................................................................
.............................. CYCLE  191 ..............................
........................................................................

 iter      E             dE          RMSdq      gap      omega  full diag
   1   -180.4674468 -0.180467E+03  0.166E+00    0.02       0.0  T
   2   -179.6234582  0.843989E+00  0.408E+00    0.01       1.0  T
   3   -180.3474492 -0.723991E+00  0.189E+00    0.78       1.0  T
   4   -177.3796369  0.296781E+01  0.703E+00    0.08       1.0  T
   5   -180.4881469 -0.310851E+01  0.131E+00    0.12       1.0  T
   6   -180.5758653 -0.877184E-01  0.843E-01    0.06       1.0  T
   7   -180.5060293  0.698360E-01  0.110E+00    0.12       1.0  T
   8   -180.5803430 -0.743137E-01  0.720E-01    0.06       1.0  T
   9   -180.5901298 -0.978685E-02  0.643E-01    0.05       1.0  T
  10   -180.5936874 -0.355761E-02  0.504E-01    0.06       1.0  T
  11   -180.4303068  0.163381E+00  0.197E+00    0.02       1.0  T
  12   -180.5938226 -0.163516E+00  0.568E-01    0.04       1.0  T
  13   -180.6051393 -0.113167E-01  0.263E-01    0.05       1.0  T
  14   -180.6089260 -0.378671E-02  0.112E-01    0.05       1.0  T
  15   -180.6058518  0.307421E-02  0.275E-01    0.05       1.0  T
  16   -180.6041366  0.171522E-02  0.351E-01    0.04       1.0  T
  17   -180.6042169 -0.803591E-04  0.344E-01    0.04       1.0  T
  18   -180.6082263 -0.400942E-02  0.189E-01    0.04       1.0  T
  19   -180.6094261 -0.119971E-02  0.109E-01    0.04       1.0  T
  20   -180.6089000  0.526030E-03  0.153E-01    0.04       1.0  T
  21   -180.6098961 -0.996093E-03  0.474E-02    0.04       1.0  T
  22   -180.6100168 -0.120662E-03  0.453E-03    0.04       2.3  T
  23   -180.6100176 -0.814039E-06  0.260E-03    0.04       4.1  T
  24   -180.6100116  0.594798E-05  0.105E-02    0.04       1.0  T
  25   -180.6100177 -0.607120E-05  0.264E-03    0.04       4.0  T
  26   -180.6100179 -0.173620E-06  0.199E-03    0.04       5.3  T
  27   -180.6100169  0.101944E-05  0.491E-03    0.04       2.1  T
  28   -180.6100180 -0.117577E-05  0.947E-04    0.04      11.1  T
  29   -180.6100181 -0.411079E-07  0.206E-04    0.04      51.1  T
  30   -180.6100174  0.654851E-06  0.351E-03    0.04       3.0  T
  31   -180.6100173  0.848562E-07  0.387E-03    0.04       2.7  T
  32   -180.6100181 -0.729024E-06  0.555E-04    0.04      19.0  T
     SCC iter.                  ...        0 min,  0.745 sec
     gradient                   ...        0 min,  0.052 sec
 * total energy  :  -178.8941075 Eh     change       -0.1524807E-02 Eh
   gradient norm :     0.0084644 Eh/α   predicted    -0.1686253E-02 (  10.59%)
   displ. norm   :     0.2494989 α      lambda       -0.5900029E-03
   maximum displ.:     0.1133115 α      in ANC's #1, #5, #6, ...

........................................................................
.............................. CYCLE  192 ..............................
........................................................................

 iter      E             dE          RMSdq      gap      omega  full diag
   1   -180.6094320 -0.180609E+03  0.123E-01    0.04       0.0  T
   2   -180.4444950  0.164937E+00  0.154E+00    0.02       1.0  T
   3   -180.5386836 -0.941886E-01  0.102E+00    0.01       1.0  T
   4   -180.5892200 -0.505364E-01  0.486E-01    0.07       1.0  T
   5   -180.6088221 -0.196020E-01  0.127E-01    0.04       1.0  T
   6   -180.6084597  0.362368E-03  0.142E-01    0.04       1.0  T
   7   -180.6091612 -0.701526E-03  0.103E-01    0.04       1.0  T
   8   -180.6091591  0.211546E-05  0.844E-02    0.05       1.0  T
   9   -180.6096511 -0.491996E-03  0.536E-02    0.04       1.0  T
  10   -180.6094356  0.215490E-03  0.735E-02    0.04       1.0  T
  11   -180.6097236 -0.287964E-03  0.357E-02    0.04       1.0  T
  12   -180.6098321 -0.108496E-03  0.874E-03    0.04       1.2  T
  13   -180.6097860  0.461056E-04  0.252E-02    0.04       1.0  T
  14   -180.6098216 -0.356404E-04  0.138E-02    0.04       1.0  T
  15   -180.6098356 -0.139721E-04  0.342E-03    0.04       3.1  T
  16   -180.6098363 -0.700025E-06  0.179E-03    0.04       5.9  T
  17   -180.6098363 -0.246860E-08  0.166E-03    0.04       6.4  T
  18   -180.6098364 -0.126918E-06  0.137E-03    0.04       7.7  T
  19   -180.6098363  0.107874E-06  0.156E-03    0.04       6.8  T
  20   -180.6098365 -0.220237E-06  0.115E-04    0.04      91.8  T
  21   -180.6098365  0.478937E-08  0.248E-04    0.04      42.5  T
     SCC iter.                  ...        0 min,  0.461 sec
     gradient                   ...        0 min,  0.051 sec
 * total energy  :  -178.8946597 Eh     change       -0.5522122E-03 Eh
   gradient norm :     0.0075205 Eh/α   predicted    -0.3133665E-03 ( -43.25%)
   displ. norm   :     0.8260316 α      lambda       -0.1922601E-02
   maximum displ.:     0.3747792 α      in ANC's #1, #5, #6, ...

........................................................................
.............................. CYCLE  193 ..............................
........................................................................

 iter      E             dE          RMSdq      gap      omega  full diag
   1   -180.5838335 -0.180584E+03  0.554E-01    0.07       0.0  T
   2   -177.1717991  0.341203E+01  0.685E+00    0.01       1.0  T
   3   -180.2981183 -0.312632E+01  0.201E+00    0.01       1.0  T
   4   -180.0462557  0.251863E+00  0.338E+00    0.03       1.0  T
   5   -180.5951002 -0.548845E+00  0.388E-01    0.05       1.0  T
   6   -180.5747980  0.203022E-01  0.590E-01    0.07       1.0  T
   7   -180.5571527  0.176453E-01  0.713E-01    0.01       1.0  T
   8   -180.6014291 -0.442764E-01  0.184E-01    0.03       1.0  T
   9   -180.6040239 -0.259482E-02  0.606E-02    0.04       1.0  T
  10   -180.6003659  0.365804E-02  0.201E-01    0.05       1.0  T
  11   -180.6041038 -0.373785E-02  0.568E-02    0.04       1.0  T
  12   -180.6042618 -0.158079E-03  0.158E-02    0.04       1.0  T
  13   -180.6042535  0.828838E-05  0.233E-02    0.04       1.0  T
  14   -180.6042692 -0.156811E-04  0.128E-02    0.04       1.0  T
  15   -180.6042126  0.566711E-04  0.276E-02    0.04       1.0  T
  16   -180.6042733 -0.607582E-04  0.876E-03    0.04       1.2  T
  17   -180.6042266  0.467048E-04  0.243E-02    0.04       1.0  T
  18   -180.6042656 -0.390293E-04  0.129E-02    0.04       1.0  T
  19   -180.6042794 -0.137205E-04  0.308E-03    0.04       3.4  T
  20   -180.6042765  0.283431E-05  0.647E-03    0.04       1.6  T
  21   -180.6042797 -0.315204E-05  0.199E-03    0.04       5.3  T
  22   -180.6042800 -0.331723E-06  0.672E-04    0.04      15.7  T
  23   -180.6042800  0.279381E-07  0.769E-04    0.04      13.7  T
     SCC iter.                  ...        0 min,  0.506 sec
     gradient                   ...        0 min,  0.050 sec
 * total energy  :  -178.8959487 Eh     change       -0.1288947E-02 Eh
   gradient norm :     0.0232845 Eh/α   predicted    -0.1617228E-02 (  25.47%)
   displ. norm   :     0.5446172 α      lambda       -0.1502593E-02
   maximum displ.:     0.2665522 α      in ANC's #1, #5, #3, ...

........................................................................
.............................. CYCLE  194 ..............................
........................................................................

 iter      E             dE          RMSdq      gap      omega  full diag
   1   -180.5823830 -0.180582E+03  0.616E-01    0.04       0.0  T
   2   -177.0435132  0.353887E+01  0.748E+00    0.09       1.0  T
   3   -180.3780371 -0.333452E+01  0.150E+00    0.31       1.0  T
   4   -180.3637066  0.143305E-01  0.185E+00    0.01       1.0  T
   5   -180.5529145 -0.189208E+00  0.772E-01    0.08       1.0  T
   6   -180.5999445 -0.470301E-01  0.107E-01    0.04       1.0  T
   7   -180.5868011  0.131434E-01  0.446E-01    0.06       1.0  T
   8   -180.5987780 -0.119769E-01  0.141E-01    0.05       1.0  T
   9   -180.5960185  0.275948E-02  0.233E-01    0.03       1.0  T
  10   -180.5939222  0.209632E-02  0.276E-01    0.02       1.0  T
  11   -180.5952446 -0.132242E-02  0.247E-01    0.03       1.0  T
  12   -180.5988571 -0.361242E-02  0.149E-01    0.03       1.0  T
  13   -180.5991451 -0.288010E-03  0.140E-01    0.03       1.0  T
  14   -180.5992391 -0.940207E-04  0.136E-01    0.05       1.0  T
  15   -180.6002530 -0.101392E-02  0.746E-02    0.04       1.0  T
  16   -180.6005151 -0.262081E-03  0.511E-02    0.04       1.0  T
  17   -180.6006937 -0.178571E-03  0.189E-02    0.04       1.0  T
  18   -180.6007000 -0.629332E-05  0.166E-02    0.04       1.0  T
  19   -180.6007111 -0.111000E-04  0.614E-03    0.04       1.7  T
  20   -180.6007097  0.135176E-05  0.821E-03    0.04       1.3  T
  21   -180.6007121 -0.237304E-05  0.439E-03    0.04       2.4  T
  22   -180.6007129 -0.816751E-06  0.166E-03    0.04       6.3  T
  23   -180.6007121  0.764674E-06  0.332E-03    0.04       3.2  T
  24   -180.6007126 -0.441421E-06  0.310E-03    0.04       3.4  T
  25   -180.6007130 -0.433559E-06  0.685E-04    0.04      15.4  T
  26   -180.6007130 -0.207834E-07  0.367E-04    0.04      28.7  T
     SCC iter.                  ...        0 min,  0.575 sec
     gradient                   ...        0 min,  0.049 sec
 * total energy  :  -178.8972194 Eh     change       -0.1270681E-02 Eh
   gradient norm :     0.0228653 Eh/α   predicted    -0.9741399E-03 ( -23.34%)
   displ. norm   :     0.5157396 α      lambda       -0.2844563E-02
   maximum displ.:     0.2943294 α      in ANC's #1, #5, #3, ...

........................................................................
.............................. CYCLE  195 ..............................
........................................................................

 iter      E             dE          RMSdq      gap      omega  full diag
   1   -180.5807872 -0.180581E+03  0.788E-01    0.02       0.0  T
   2   -180.2685860  0.312201E+00  0.226E+00    0.01       1.0  T
   3   -180.3484480 -0.798620E-01  0.169E+00    0.70       1.0  T
   4   -180.3188882  0.295597E-01  0.202E+00    0.01       1.0  T
   5   -180.4559182 -0.137030E+00  0.130E+00    0.16       1.0  T
   6   -180.5855107 -0.129593E+00  0.632E-01    0.06       1.0  T
   7   -180.5877606 -0.224986E-02  0.635E-01    0.03       1.0  T
   8   -180.4594686  0.128292E+00  0.176E+00    0.01       1.0  T
   9   -180.5778742 -0.118406E+00  0.632E-01    0.07       1.0  T
  10   -180.6031055 -0.252313E-01  0.337E-01    0.04       1.0  T
  11   -180.6045329 -0.142739E-02  0.267E-01    0.03       1.0  T
  12   -180.6083402 -0.380730E-02  0.109E-01    0.04       1.0  T
  13   -180.6066214  0.171876E-02  0.211E-01    0.04       1.0  T
  14   -180.6082332 -0.161177E-02  0.886E-02    0.05       1.0  T
  15   -180.6088998 -0.666604E-03  0.291E-02    0.04       1.0  T
  16   -180.6088614  0.383868E-04  0.404E-02    0.04       1.0  T
  17   -180.6089203 -0.588976E-04  0.309E-02    0.04       1.0  T
  18   -180.6089449 -0.245795E-04  0.156E-02    0.04       1.0  T
  19   -180.6089649 -0.199824E-04  0.672E-03    0.04       1.6  T
  20   -180.6089536  0.113024E-04  0.158E-02    0.04       1.0  T
  21   -180.6089672 -0.135874E-04  0.204E-03    0.04       5.2  T
  22   -180.6089673 -0.186093E-06  0.152E-03    0.04       6.9  T
  23   -180.6089670  0.352302E-06  0.306E-03    0.04       3.4  T
  24   -180.6089673 -0.346464E-06  0.150E-03    0.04       7.0  T
  25   -180.6089674 -0.111937E-06  0.345E-04    0.04      30.6  T
  26   -180.6089674  0.369993E-07  0.885E-04    0.04      11.9  T
     SCC iter.                  ...        0 min,  0.539 sec
     gradient                   ...        0 min,  0.051 sec
 * total energy  :  -178.8990343 Eh     change       -0.1814922E-02 Eh
   gradient norm :     0.0132783 Eh/α   predicted    -0.1800599E-02 (  -0.79%)
   displ. norm   :     0.8336613 α      lambda       -0.2442169E-02
   maximum displ.:     0.4179760 α      in ANC's #1, #5, #3, ...

........................................................................
.............................. CYCLE  196 ..............................
........................................................................

 iter      E             dE          RMSdq      gap      omega  full diag
   1   -180.5997894 -0.180600E+03  0.372E-01    0.05       0.0  T
   2   -178.9997697  0.160002E+01  0.494E+00    0.01       1.0  T
   3   -180.3525783 -0.135281E+01  0.219E+00    0.02       1.0  T
   4   -180.5924785 -0.239900E+00  0.343E-01    0.06       1.0  T
   5   -180.5791486  0.133298E-01  0.622E-01    0.04       1.0  T
   6   -180.5422856  0.368630E-01  0.798E-01    0.01       1.0  T
   7   -180.6020197 -0.597340E-01  0.104E-01    0.04       1.0  T
   8   -180.6015693  0.450406E-03  0.138E-01    0.04       1.0  T
   9   -180.6020397 -0.470428E-03  0.999E-02    0.04       1.0  T
  10   -180.6010073  0.103234E-02  0.154E-01    0.03       1.0  T
  11   -180.6004459  0.561429E-03  0.175E-01    0.03       1.0  T
  12   -180.6019566 -0.151072E-02  0.979E-02    0.04       1.0  T
  13   -180.6025374 -0.580752E-03  0.258E-02    0.04       1.0  T
  14   -180.6025312  0.618352E-05  0.316E-02    0.04       1.0  T
  15   -180.6023994  0.131840E-03  0.560E-02    0.04       1.0  T
  16   -180.6025180 -0.118638E-03  0.367E-02    0.04       1.0  T
  17   -180.6025903 -0.722848E-04  0.106E-02    0.04       1.0  T
  18   -180.6025751  0.151726E-04  0.171E-02    0.04       1.0  T
  19   -180.6025946 -0.195418E-04  0.579E-03    0.04       1.8  T
  20   -180.6025952 -0.587511E-06  0.586E-03    0.04       1.8  T
  21   -180.6025960 -0.806883E-06  0.495E-03    0.04       2.1  T
  22   -180.6025973 -0.122037E-05  0.101E-03    0.04      10.4  T
  23   -180.6025972  0.700364E-07  0.159E-03    0.04       6.6  T
  24   -180.6025973 -0.115136E-06  0.528E-04    0.04      20.0  T
  25   -180.6025973 -0.149587E-07  0.412E-04    0.04      25.6  T
     SCC iter.                  ...        0 min,  0.529 sec
     gradient                   ...        0 min,  0.051 sec
 * total energy  :  -178.9010809 Eh     change       -0.2046586E-02 Eh
   gradient norm :     0.0225283 Eh/α   predicted    -0.2069738E-02 (   1.13%)
   displ. norm   :     0.6711145 α      lambda       -0.2418889E-02
   maximum displ.:     0.3545377 α      in ANC's #1, #5, #39, ...

........................................................................
.............................. CYCLE  197 ..............................
........................................................................

 iter      E             dE          RMSdq      gap      omega  full diag
   1   -180.5664856 -0.180566E+03  0.698E-01    0.08       0.0  T
   2   -176.5776964  0.398879E+01  0.866E+00    0.03       1.0  T
   3   -179.9912376 -0.341354E+01  0.339E+00    0.02       1.0  T
   4   -180.1912908 -0.200053E+00  0.273E+00    0.02       1.0  T
   5   -180.5508335 -0.359543E+00  0.742E-01    0.10       1.0  T
   6   -180.5470792  0.375427E-02  0.819E-01    0.09       1.0  T
   7   -180.5481052 -0.102595E-02  0.113E+00    0.01       1.0  T
   8   -180.5659009 -0.177958E-01  0.977E-01    0.02       1.0  T
   9   -180.5114097  0.544912E-01  0.129E+00    0.01       1.0  T
  10   -180.5362023 -0.247926E-01  0.102E+00    0.01       1.0  T
  11   -180.5974441 -0.612417E-01  0.324E-01    0.02       1.0  T
  12   -180.5915081  0.593599E-02  0.504E-01    0.03       1.0  T
  13   -180.6002281 -0.872005E-02  0.298E-01    0.04       1.0  T
  14   -180.6037386 -0.351047E-02  0.169E-01    0.04       1.0  T
  15   -180.6040426 -0.303983E-03  0.141E-01    0.04       1.0  T
  16   -180.6051594 -0.111687E-02  0.136E-02    0.04       1.0  T
  17   -180.6050933  0.661317E-04  0.371E-02    0.04       1.0  T
  18   -180.6050099  0.833659E-04  0.562E-02    0.04       1.0  T
  19   -180.6051245 -0.114567E-03  0.243E-02    0.04       1.0  T
  20   -180.6051486 -0.241045E-04  0.158E-02    0.04       1.0  T
  21   -180.6051651 -0.165361E-04  0.591E-03    0.04       1.8  T
  22   -180.6051594  0.577802E-05  0.134E-02    0.04       1.0  T
  23   -180.6051670 -0.759915E-05  0.407E-03    0.04       2.6  T
  24   -180.6051677 -0.741120E-06  0.244E-03    0.04       4.3  T
  25   -180.6051673  0.448170E-06  0.412E-03    0.04       2.6  T
  26   -180.6051681 -0.850552E-06  0.107E-03    0.04       9.8  T
  27   -180.6051681 -0.394608E-07  0.868E-04    0.04      12.1  T
  28   -180.6051681  0.217105E-08  0.106E-03    0.04      10.0  T
  29   -180.6051682 -0.563072E-07  0.201E-04    0.04      52.4  T
     SCC iter.                  ...        0 min,  0.613 sec
     gradient                   ...        0 min,  0.052 sec
 * total energy  :  -178.9030513 Eh     change       -0.1970386E-02 Eh
   gradient norm :     0.0239831 Eh/α   predicted    -0.1754200E-02 ( -10.97%)
   displ. norm   :     0.5569955 α      lambda       -0.3231262E-02
   maximum displ.:     0.3021041 α      in ANC's #1, #5, #22, ...

........................................................................
.............................. CYCLE  198 ..............................
........................................................................

 iter      E             dE          RMSdq      gap      omega  full diag
   1   -180.6109428 -0.180611E+03  0.382E-01    0.06       0.0  T
   2   -177.0728671  0.353808E+01  0.734E+00    0.08       1.0  T
   3   -180.4777352 -0.340487E+01  0.138E+00    0.01       1.0  T
   4   -180.5710454 -0.933102E-01  0.888E-01    0.01       1.0  T
   5   -180.5508295  0.202158E-01  0.815E-01    0.08       1.0  T
   6   -180.5811851 -0.303556E-01  0.656E-01    0.01       1.0  T
   7   -180.6033319 -0.221469E-01  0.411E-01    0.06       1.0  T
   8   -180.6144924 -0.111605E-01  0.197E-01    0.05       1.0  T
   9   -180.6093537  0.513874E-02  0.357E-01    0.05       1.0  T
  10   -180.6117532 -0.239950E-02  0.263E-01    0.06       1.0  T
  11   -180.6164775 -0.472435E-02  0.158E-01    0.04       1.0  T
  12   -180.6170627 -0.585220E-03  0.949E-02    0.04       1.0  T
  13   -180.6158801  0.118267E-02  0.156E-01    0.03       1.0  T
  14   -180.6172250 -0.134491E-02  0.871E-02    0.04       1.0  T
  15   -180.6175573 -0.332372E-03  0.614E-02    0.04       1.0  T
  16   -180.6177962 -0.238809E-03  0.270E-02    0.04       1.0  T
  17   -180.6178456 -0.494510E-04  0.641E-03    0.04       1.6  T
  18   -180.6178389  0.674511E-05  0.105E-02    0.04       1.0  T
  19   -180.6178443 -0.545290E-05  0.973E-03    0.04       1.1  T
  20   -180.6178380  0.630494E-05  0.146E-02    0.04       1.0  T
  21   -180.6178466 -0.859450E-05  0.517E-03    0.04       2.0  T
  22   -180.6178477 -0.108591E-05  0.446E-03    0.04       2.4  T
  23   -180.6178481 -0.386098E-06  0.366E-03    0.04       2.9  T
  24   -180.6178485 -0.446977E-06  0.219E-03    0.04       4.8  T
  25   -180.6178489 -0.347452E-06  0.798E-04    0.04      13.2  T
  26   -180.6178489 -0.190027E-07  0.553E-04    0.04      19.0  T
     SCC iter.                  ...        0 min,  0.584 sec
     gradient                   ...        0 min,  0.052 sec
 * total energy  :  -178.9054499 Eh     change       -0.2398588E-02 Eh
   gradient norm :     0.0149002 Eh/α   predicted    -0.2116873E-02 ( -11.75%)
   displ. norm   :     0.8098030 α      lambda       -0.3152093E-02
   maximum displ.:     0.4033561 α      in ANC's #1, #5, #39, ...

........................................................................
.............................. CYCLE  199 ..............................
........................................................................

 iter      E             dE          RMSdq      gap      omega  full diag
   1   -180.6064206 -0.180606E+03  0.376E-01    0.05       0.0  T
   2   -179.7673886  0.839032E+00  0.318E+00    0.00       1.0  T
   3   -180.2850772 -0.517689E+00  0.252E+00    0.02       1.0  T
   4   -180.4803372 -0.195260E+00  0.133E+00    0.01       1.0  T
   5   -180.5154462 -0.351090E-01  0.954E-01    0.10       1.0  T
   6   -180.6062891 -0.908429E-01  0.209E-01    0.05       1.0  T
   7   -180.6050634  0.122574E-02  0.227E-01    0.05       1.0  T
   8   -180.6093918 -0.432843E-02  0.792E-02    0.04       1.0  T
   9   -180.6093885  0.324692E-05  0.660E-02    0.04       1.0  T
  10   -180.6079863  0.140219E-02  0.135E-01    0.03       1.0  T
  11   -180.6093754 -0.138907E-02  0.612E-02    0.04       1.0  T
  12   -180.6096785 -0.303109E-03  0.134E-02    0.04       1.0  T
  13   -180.6095978  0.807499E-04  0.350E-02    0.04       1.0  T
  14   -180.6096866 -0.888131E-04  0.960E-03    0.04       1.1  T
  15   -180.6096848  0.178598E-05  0.938E-03    0.04       1.1  T
  16   -180.6096826  0.221595E-05  0.102E-02    0.04       1.0  T
  17   -180.6096899 -0.735726E-05  0.372E-03    0.04       2.8  T
  18   -180.6096902 -0.264615E-06  0.335E-03    0.04       3.1  T
  19   -180.6096910 -0.765933E-06  0.172E-03    0.04       6.1  T
  20   -180.6096912 -0.209315E-06  0.934E-04    0.04      11.3  T
  21   -180.6096912 -0.498714E-07  0.225E-04    0.04      46.8  T
     SCC iter.                  ...        0 min,  0.447 sec
     gradient                   ...        0 min,  0.050 sec
 * total energy  :  -178.9079155 Eh     change       -0.2465645E-02 Eh
   gradient norm :     0.0150508 Eh/α   predicted    -0.2609596E-02 (   5.84%)
   displ. norm   :     0.6071698 α      lambda       -0.2656274E-02
   maximum displ.:     0.2576458 α      in ANC's #1, #5, #2, ...

........................................................................
.............................. CYCLE  200 ..............................
........................................................................

 iter      E             dE          RMSdq      gap      omega  full diag
   1   -180.5910164 -0.180591E+03  0.603E-01    0.07       0.0  T
   2   -177.1345635  0.345645E+01  0.693E+00    0.01       1.0  T
   3   -180.2945963 -0.316003E+01  0.204E+00    0.01       1.0  T
   4   -180.0576166  0.236980E+00  0.336E+00    0.02       1.0  T
   5   -180.6158769 -0.558260E+00  0.227E-01    0.04       1.0  T
   6   -180.5792286  0.366483E-01  0.652E-01    0.08       1.0  T
   7   -180.5636622  0.155664E-01  0.762E-01    0.01       1.0  T
   8   -180.6086028 -0.449406E-01  0.321E-01    0.02       1.0  T
   9   -180.6161836 -0.758073E-02  0.119E-01    0.05       1.0  T
  10   -180.6171027 -0.919161E-03  0.755E-02    0.04       1.0  T
  11   -180.6171994 -0.966535E-04  0.625E-02    0.04       1.0  T
  12   -180.6170507  0.148712E-03  0.687E-02    0.04       1.0  T
  13   -180.6173867 -0.336003E-03  0.200E-02    0.04       1.0  T
  14   -180.6173355  0.511712E-04  0.307E-02    0.04       1.0  T
  15   -180.6174027 -0.672031E-04  0.134E-02    0.04       1.0  T
  16   -180.6173554  0.473058E-04  0.259E-02    0.04       1.0  T
  17   -180.6174168 -0.613606E-04  0.370E-03    0.04       2.8  T
  18   -180.6174169 -0.109042E-06  0.380E-03    0.04       2.8  T
  19   -180.6174175 -0.657656E-06  0.252E-03    0.04       4.2  T
  20   -180.6174165  0.104933E-05  0.393E-03    0.04       2.7  T
  21   -180.6174177 -0.123743E-05  0.165E-03    0.04       6.4  T
  22   -180.6174176  0.133639E-06  0.183E-03    0.04       5.7  T
  23   -180.6174177 -0.160220E-06  0.125E-03    0.04       8.4  T
  24   -180.6174178 -0.763228E-07  0.862E-04    0.04      12.2  T
  25   -180.6174179 -0.571332E-07  0.329E-04    0.04      32.1  T
     SCC iter.                  ...        0 min,  0.528 sec
     gradient                   ...        0 min,  0.051 sec
 * total energy  :  -178.9091388 Eh     change       -0.1223335E-02 Eh
   gradient norm :     0.0232756 Eh/α   predicted    -0.1817768E-02 (  48.59%)
   displ. norm   :     0.6282603 α      lambda       -0.2788294E-02
   maximum displ.:     0.3350988 α      in ANC's #1, #5, #2, ...

........................................................................
.............................. CYCLE  201 ..............................
........................................................................

 iter      E             dE          RMSdq      gap      omega  full diag
   1   -180.5923818 -0.180592E+03  0.619E-01    0.04       0.0  T
   2   -177.1260889  0.346629E+01  0.737E+00    0.09       1.0  T
   3   -180.3798600 -0.325377E+01  0.151E+00    0.38       1.0  T
   4   -180.3928637 -0.130037E-01  0.174E+00    0.01       1.0  T
   5   -180.5648110 -0.171947E+00  0.768E-01    0.04       1.0  T
   6   -180.5822353 -0.174242E-01  0.546E-01    0.01       1.0  T
   7   -180.5647255  0.175097E-01  0.712E-01    0.08       1.0  T
   8   -180.5705006 -0.577514E-02  0.630E-01    0.08       1.0  T
   9   -180.5996639 -0.291633E-01  0.374E-01    0.05       1.0  T
  10   -180.6037998 -0.413593E-02  0.227E-01    0.05       1.0  T
  11   -180.5937485  0.100513E-01  0.490E-01    0.03       1.0  T
  12   -180.6068594 -0.131109E-01  0.121E-01    0.03       1.0  T
  13   -180.6059050  0.954385E-03  0.175E-01    0.03       1.0  T
  14   -180.6067932 -0.888215E-03  0.114E-01    0.03       1.0  T
  15   -180.6069044 -0.111185E-03  0.118E-01    0.03       1.0  T
  16   -180.6075641 -0.659749E-03  0.641E-02    0.04       1.0  T
  17   -180.6076993 -0.135114E-03  0.518E-02    0.04       1.0  T
  18   -180.6076483  0.509799E-04  0.496E-02    0.04       1.0  T
  19   -180.6076767 -0.283839E-04  0.441E-02    0.04       1.0  T
  20   -180.6077892 -0.112569E-03  0.319E-02    0.04       1.0  T
  21   -180.6078048 -0.156199E-04  0.265E-02    0.04       1.0  T
  22   -180.6078420 -0.371280E-04  0.287E-03    0.04       3.7  T
  23   -180.6078422 -0.178781E-06  0.328E-03    0.04       3.2  T
  24   -180.6078419  0.216232E-06  0.295E-03    0.04       3.6  T
  25   -180.6078425 -0.545888E-06  0.171E-03    0.04       6.2  T
  26   -180.6078424  0.454809E-07  0.224E-03    0.04       4.7  T
  27   -180.6078427 -0.245808E-06  0.233E-04    0.04      45.3  T
  28   -180.6078427  0.688655E-08  0.468E-04    0.04      22.5  T
     SCC iter.                  ...        0 min,  0.631 sec
     gradient                   ...        0 min,  0.050 sec
 * total energy  :  -178.9107010 Eh     change       -0.1562148E-02 Eh
   gradient norm :     0.0181869 Eh/α   predicted    -0.1944436E-02 (  24.47%)
   displ. norm   :     0.3700363 α      lambda       -0.1867882E-02
   maximum displ.:     0.1813012 α      in ANC's #1, #2, #4, ...

........................................................................
.............................. CYCLE  202 ..............................
........................................................................

 iter      E             dE          RMSdq      gap      omega  full diag
   1   -180.6084112 -0.180608E+03  0.283E-01    0.05       0.0  T
   2   -178.9668439  0.164157E+01  0.480E+00    0.01       1.0  T
   3   -180.0491910 -0.108235E+01  0.338E+00    0.02       1.0  T
   4   -180.6026591 -0.553468E+00  0.320E-01    0.06       1.0  T
   5   -180.6082610 -0.560189E-02  0.260E-01    0.04       1.0  T
   6   -180.6051303  0.313062E-02  0.283E-01    0.06       1.0  T
   7   -180.6059940 -0.863683E-03  0.238E-01    0.03       1.0  T
   8   -180.6106475 -0.465350E-02  0.136E-01    0.03       1.0  T
   9   -180.6113809 -0.733409E-03  0.880E-02    0.04       1.0  T
  10   -180.6116642 -0.283257E-03  0.589E-02    0.04       1.0  T
  11   -180.6115894  0.748391E-04  0.703E-02    0.04       1.0  T
  12   -180.6118745 -0.285169E-03  0.289E-02    0.04       1.0  T
  13   -180.6118663  0.825715E-05  0.293E-02    0.04       1.0  T
  14   -180.6119049 -0.386178E-04  0.228E-02    0.04       1.0  T
  15   -180.6119374 -0.325157E-04  0.876E-03    0.04       1.2  T
  16   -180.6119389 -0.153130E-05  0.711E-03    0.04       1.5  T
  17   -180.6119397 -0.754533E-06  0.550E-03    0.04       1.9  T
  18   -180.6119390  0.714705E-06  0.541E-03    0.04       1.9  T
  19   -180.6119415 -0.251198E-05  0.159E-03    0.04       6.6  T
  20   -180.6119412  0.278407E-06  0.214E-03    0.04       4.9  T
  21   -180.6119416 -0.363449E-06  0.746E-04    0.04      14.1  T
  22   -180.6119416 -0.375023E-07  0.419E-04    0.04      25.2  T
     SCC iter.                  ...        0 min,  0.462 sec
     gradient                   ...        0 min,  0.049 sec
 * total energy  :  -178.9115865 Eh     change       -0.8855096E-03 Eh
   gradient norm :     0.0199484 Eh/α   predicted    -0.1061823E-02 (  19.91%)
   displ. norm   :     0.5680189 α      lambda       -0.1889865E-02
   maximum displ.:     0.2755148 α      in ANC's #1, #5, #2, ...

........................................................................
.............................. CYCLE  203 ..............................
........................................................................

 iter      E             dE          RMSdq      gap      omega  full diag
   1   -180.6133528 -0.180613E+03  0.294E-01    0.05       0.0  T
   2   -179.3249807  0.128837E+01  0.439E+00    0.01       1.0  T
   3   -180.5727771 -0.124780E+01  0.672E-01    0.08       1.0  T
   4   -180.1034468  0.469330E+00  0.320E+00    0.02       1.0  T
   5   -180.5654548 -0.462008E+00  0.758E-01    0.01       1.0  T
   6   -180.6001196 -0.346647E-01  0.381E-01    0.05       1.0  T
   7   -180.6113347 -0.112152E-01  0.267E-01    0.04       1.0  T
   8   -180.6118824 -0.547704E-03  0.254E-01    0.04       1.0  T
   9   -180.6129996 -0.111720E-02  0.189E-01    0.03       1.0  T
  10   -180.6138527 -0.853074E-03  0.133E-01    0.03       1.0  T
  11   -180.6139958 -0.143130E-03  0.114E-01    0.03       1.0  T
  12   -180.6146892 -0.693340E-03  0.839E-02    0.04       1.0  T
  13   -180.6145867  0.102487E-03  0.917E-02    0.04       1.0  T
  14   -180.6149130 -0.326310E-03  0.536E-02    0.04       1.0  T
  15   -180.6150539 -0.140940E-03  0.253E-02    0.04       1.0  T
  16   -180.6150766 -0.226896E-04  0.143E-02    0.04       1.0  T
  17   -180.6150832 -0.661466E-05  0.113E-02    0.04       1.0  T
  18   -180.6150718  0.114260E-04  0.174E-02    0.04       1.0  T
  19   -180.6150877 -0.158952E-04  0.527E-03    0.04       2.0  T
  20   -180.6150898 -0.208154E-05  0.116E-03    0.04       9.1  T
  21   -180.6150896  0.177900E-06  0.208E-03    0.04       5.1  T
  22   -180.6150898 -0.212163E-06  0.918E-04    0.04      11.5  T
  23   -180.6150898  0.153180E-07  0.902E-04    0.04      11.7  T
     SCC iter.                  ...        0 min,  0.483 sec
     gradient                   ...        0 min,  0.050 sec
 * total energy  :  -178.9127915 Eh     change       -0.1204989E-02 Eh
   gradient norm :     0.0134561 Eh/α   predicted    -0.1249815E-02 (   3.72%)
   displ. norm   :     0.5907537 α      lambda       -0.1542077E-02
   maximum displ.:     0.2734614 α      in ANC's #1, #2, #22, ...

........................................................................
.............................. CYCLE  204 ..............................
........................................................................

 iter      E             dE          RMSdq      gap      omega  full diag
   1   -180.5970565 -0.180597E+03  0.560E-01    0.06       0.0  T
   2   -176.9046341  0.369242E+01  0.752E+00    0.09       1.0  T
   3   -180.5790274 -0.367439E+01  0.691E-01    0.05       1.0  T
   4   -180.1454129  0.433615E+00  0.305E+00    0.02       1.0  T
   5   -180.5991813 -0.453768E+00  0.570E-01    0.02       1.0  T
   6   -180.6058354 -0.665413E-02  0.339E-01    0.06       1.0  T
   7   -180.6019596  0.387579E-02  0.516E-01    0.03       1.0  T
   8   -180.6098669 -0.790732E-02  0.378E-01    0.04       1.0  T
   9   -180.6073836  0.248329E-02  0.399E-01    0.03       1.0  T
  10   -180.6040310  0.335265E-02  0.446E-01    0.02       1.0  T
  11   -180.6028325  0.119843E-02  0.461E-01    0.02       1.0  T
  12   -180.6081355 -0.530293E-02  0.364E-01    0.03       1.0  T
  13   -180.6163428 -0.820736E-02  0.636E-02    0.04       1.0  T
  14   -180.6159785  0.364354E-03  0.102E-01    0.04       1.0  T
  15   -180.6159763  0.222885E-05  0.108E-01    0.04       1.0  T
  16   -180.6159686  0.766767E-05  0.926E-02    0.04       1.0  T
  17   -180.6165513 -0.582728E-03  0.130E-02    0.04       1.0  T
  18   -180.6165484  0.296279E-05  0.157E-02    0.04       1.0  T
  19   -180.6165620 -0.135925E-04  0.411E-03    0.04       2.6  T
  20   -180.6165432  0.187768E-04  0.177E-02    0.04       1.0  T
  21   -180.6165621 -0.189143E-04  0.381E-03    0.04       2.8  T
  22   -180.6165627 -0.589200E-06  0.202E-03    0.04       5.2  T
  23   -180.6165623  0.394887E-06  0.296E-03    0.04       3.6  T
  24   -180.6165628 -0.534607E-06  0.118E-03    0.04       8.9  T
  25   -180.6165629 -0.730200E-07  0.627E-04    0.04      16.8  T
  26   -180.6165629 -0.164124E-08  0.548E-04    0.04      19.2  T
     SCC iter.                  ...        0 min,  0.555 sec
     gradient                   ...        0 min,  0.049 sec
 * total energy  :  -178.9137557 Eh     change       -0.9642690E-03 Eh
   gradient norm :     0.0123171 Eh/α   predicted    -0.1040128E-02 (   7.87%)
   displ. norm   :     0.4698043 α      lambda       -0.1173899E-02
   maximum displ.:     0.2211194 α      in ANC's #1, #2, #5, ...

........................................................................
.............................. CYCLE  205 ..............................
........................................................................

 iter      E             dE          RMSdq      gap      omega  full diag
   1   -180.6121146 -0.180612E+03  0.347E-01    0.06       0.0  T
   2   -177.0184642  0.359365E+01  0.735E+00    0.09       1.0  T
   3   -180.0907103 -0.307225E+01  0.321E+00    0.02       1.0  T
   4   -180.4950130 -0.404303E+00  0.146E+00    0.01       1.0  T
   5   -180.5299842 -0.349712E-01  0.124E+00    0.03       1.0  T
   6   -180.6135363 -0.835522E-01  0.276E-01    0.04       1.0  T
   7   -180.5955388  0.179975E-01  0.498E-01    0.07       1.0  T
   8   -180.6067331 -0.111943E-01  0.356E-01    0.06       1.0  T
   9   -180.6174645 -0.107314E-01  0.135E-01    0.04       1.0  T
  10   -180.6140079  0.345655E-02  0.275E-01    0.03       1.0  T
  11   -180.6121620  0.184599E-02  0.314E-01    0.03       1.0  T
  12   -180.6156084 -0.344643E-02  0.229E-01    0.03       1.0  T
  13   -180.6176383 -0.202990E-02  0.152E-01    0.03       1.0  T
  14   -180.6168969  0.741433E-03  0.178E-01    0.03       1.0  T
  15   -180.6191205 -0.222365E-02  0.486E-02    0.04       1.0  T
  16   -180.6192842 -0.163690E-03  0.225E-02    0.04       1.0  T
  17   -180.6191073  0.176871E-03  0.537E-02    0.04       1.0  T
  18   -180.6192256 -0.118288E-03  0.388E-02    0.04       1.0  T
  19   -180.6192719 -0.463216E-04  0.299E-02    0.04       1.0  T
  20   -180.6193191 -0.471263E-04  0.118E-02    0.04       1.0  T
  21   -180.6193273 -0.824065E-05  0.550E-03    0.04       1.9  T
  22   -180.6193284 -0.106793E-05  0.375E-03    0.04       2.8  T
  23   -180.6193279  0.490675E-06  0.450E-03    0.04       2.3  T
  24   -180.6193289 -0.106644E-05  0.150E-03    0.04       7.0  T
  25   -180.6193290 -0.893708E-07  0.146E-03    0.04       7.2  T
  26   -180.6193291 -0.113134E-06  0.241E-04    0.04      43.7  T
  27   -180.6193291  0.148766E-07  0.543E-04    0.04      19.4  T
     SCC iter.                  ...        0 min,  0.625 sec
     gradient                   ...        0 min,  0.051 sec
 * total energy  :  -178.9144997 Eh     change       -0.7439931E-03 Eh
   gradient norm :     0.0116838 Eh/α   predicted    -0.7165015E-03 (  -3.70%)
   displ. norm   :     0.6409050 α      lambda       -0.1173484E-02
   maximum displ.:     0.3159979 α      in ANC's #1, #2, #5, ...

........................................................................
.............................. CYCLE  206 ..............................
........................................................................

 iter      E             dE          RMSdq      gap      omega  full diag
   1   -180.5982617 -0.180598E+03  0.516E-01    0.07       0.0  T
   2   -176.8977118  0.370055E+01  0.739E+00    0.09       1.0  T
   3   -179.0184362 -0.212072E+01  0.614E+00    0.08       1.0  T
   4   -180.1305911 -0.111215E+01  0.303E+00    0.02       1.0  T
   5   -180.4948581 -0.364267E+00  0.138E+00    0.04       1.0  T
   6   -180.3687538  0.126104E+00  0.211E+00    0.01       1.0  T
   7   -180.5878198 -0.219066E+00  0.650E-01    0.02       1.0  T
   8   -180.6137719 -0.259521E-01  0.282E-01    0.03       1.0  T
   9   -180.6119753  0.179657E-02  0.280E-01    0.03       1.0  T
  10   -180.6140217 -0.204636E-02  0.206E-01    0.03       1.0  T
  11   -180.6153661 -0.134444E-02  0.103E-01    0.04       1.0  T
  12   -180.6155663 -0.200176E-03  0.117E-01    0.03       1.0  T
  13   -180.6155026  0.636962E-04  0.856E-02    0.04       1.0  T
  14   -180.6159515 -0.448849E-03  0.501E-02    0.04       1.0  T
  15   -180.6159901 -0.386259E-04  0.451E-02    0.04       1.0  T
  16   -180.6160392 -0.490834E-04  0.373E-02    0.04       1.0  T
  17   -180.6161421 -0.102984E-03  0.104E-02    0.04       1.0  T
  18   -180.6161005  0.416068E-04  0.249E-02    0.04       1.0  T
  19   -180.6161383 -0.377317E-04  0.125E-02    0.04       1.0  T
  20   -180.6161471 -0.881761E-05  0.704E-03    0.04       1.5  T
  21   -180.6161500 -0.294264E-05  0.352E-03    0.04       3.0  T
  22   -180.6161498  0.229068E-06  0.388E-03    0.04       2.7  T
  23   -180.6161504 -0.624274E-06  0.149E-03    0.04       7.1  T
  24   -180.6161499  0.579848E-06  0.299E-03    0.04       3.5  T
  25   -180.6161506 -0.751185E-06  0.438E-04    0.04      24.1  T
  26   -180.6161505  0.105190E-06  0.121E-03    0.04       8.7  T
  27   -180.6161506 -0.111627E-06  0.343E-04    0.04      30.8  T
     SCC iter.                  ...        0 min,  0.607 sec
     gradient                   ...        0 min,  0.051 sec
 * total energy  :  -178.9149630 Eh     change       -0.4632246E-03 Eh
   gradient norm :     0.0160037 Eh/α   predicted    -0.8277592E-03 (  78.69%)
   displ. norm   :     0.2446203 α      lambda       -0.9371872E-03
   maximum displ.:     0.1174848 α      in ANC's #1, #2, #22, ...

........................................................................
.............................. CYCLE  207 ..............................
........................................................................

 iter      E             dE          RMSdq      gap      omega  full diag
   1   -180.6313586 -0.180631E+03  0.128E-01    0.04       0.0  T
   2   -180.5812551  0.501035E-01  0.766E-01    0.07       1.0  T
   3   -180.5907030 -0.944788E-02  0.753E-01    0.01       1.0  T
   4   -180.3930411  0.197662E+00  0.210E+00    0.02       1.0  T
   5   -180.6236041 -0.230563E+00  0.328E-01    0.04       1.0  T
   6   -180.6281529 -0.454884E-02  0.236E-01    0.05       1.0  T
   7   -180.6299734 -0.182053E-02  0.142E-01    0.05       1.0  T
   8   -180.6314250 -0.145150E-02  0.251E-02    0.04       1.0  T
   9   -180.6313226  0.102352E-03  0.495E-02    0.04       1.0  T
  10   -180.6314214 -0.987777E-04  0.295E-02    0.04       1.0  T
  11   -180.6314514 -0.300319E-04  0.179E-02    0.04       1.0  T
  12   -180.6314672 -0.157889E-04  0.543E-03    0.04       1.9  T
  13   -180.6314623  0.494442E-05  0.108E-02    0.04       1.0  T
  14   -180.6314635 -0.120653E-05  0.102E-02    0.04       1.0  T
  15   -180.6314647 -0.125672E-05  0.851E-03    0.04       1.2  T
  16   -180.6314685 -0.379608E-05  0.251E-03    0.04       4.2  T
  17   -180.6314687 -0.158474E-06  0.258E-03    0.04       4.1  T
  18   -180.6314679  0.793466E-06  0.443E-03    0.04       2.4  T
  19   -180.6314684 -0.565827E-06  0.266E-03    0.04       4.0  T
  20   -180.6314690 -0.509786E-06  0.103E-03    0.04      10.2  T
  21   -180.6314690 -0.688146E-09  0.978E-04    0.04      10.8  T
  22   -180.6314690 -0.455678E-07  0.374E-04    0.04      28.2  T
     SCC iter.                  ...        0 min,  0.460 sec
     gradient                   ...        0 min,  0.050 sec
 * total energy  :  -178.9151665 Eh     change       -0.2035650E-03 Eh
   gradient norm :     0.0188901 Eh/α   predicted    -0.4966376E-03 ( 143.97%)
   displ. norm   :     0.3283787 α      lambda       -0.9941248E-03
   maximum displ.:     0.1814253 α      in ANC's #1, #5, #2, ...

........................................................................
.............................. CYCLE  208 ..............................
........................................................................

 iter      E             dE          RMSdq      gap      omega  full diag
   1   -180.6143384 -0.180614E+03  0.204E-01    0.04       0.0  T
   2   -180.3639267  0.250412E+00  0.189E+00    0.01       1.0  T
   3   -180.5687495 -0.204823E+00  0.692E-01    0.09       1.0  T
   4   -180.2397487  0.329001E+00  0.275E+00    0.02       1.0  T
   5   -180.6010585 -0.361310E+00  0.432E-01    0.03       1.0  T
   6   -180.6086808 -0.762237E-02  0.301E-01    0.03       1.0  T
   7   -180.6125864 -0.390555E-02  0.206E-01    0.04       1.0  T
   8   -180.6142683 -0.168192E-02  0.939E-02    0.04       1.0  T
   9   -180.6147407 -0.472384E-03  0.390E-02    0.04       1.0  T
  10   -180.6148162 -0.755300E-04  0.107E-02    0.04       1.0  T
  11   -180.6148067  0.952545E-05  0.186E-02    0.04       1.0  T
  12   -180.6147838  0.229045E-04  0.276E-02    0.04       1.0  T
  13   -180.6148235 -0.396858E-04  0.440E-03    0.04       2.4  T
  14   -180.6148179  0.559980E-05  0.112E-02    0.04       1.0  T
  15   -180.6148163  0.155730E-05  0.115E-02    0.04       1.0  T
  16   -180.6148243 -0.793624E-05  0.130E-03    0.04       8.1  T
  17   -180.6148222  0.207539E-05  0.584E-03    0.04       1.8  T
  18   -180.6148241 -0.191442E-05  0.214E-03    0.04       4.9  T
  19   -180.6148243 -0.194099E-06  0.904E-04    0.04      11.7  T
  20   -180.6148243 -0.398609E-07  0.452E-04    0.04      23.3  T
     SCC iter.                  ...        0 min,  0.485 sec
     gradient                   ...        0 min,  0.052 sec
 * total energy  :  -178.9153615 Eh     change       -0.1949874E-03 Eh
   gradient norm :     0.0232684 Eh/α   predicted    -0.5506639E-03 ( 182.41%)
   displ. norm   :     0.1185770 α      lambda       -0.7643986E-03
   maximum displ.:     0.0410364 α      in ANC's #9, #1, #11, ...

........................................................................
.............................. CYCLE  209 ..............................
........................................................................

 iter      E             dE          RMSdq      gap      omega  full diag
   1   -180.6198795 -0.180620E+03  0.224E-01    0.04       0.0  T
   2   -179.8587595  0.761120E+00  0.335E+00    0.00       1.0  T
   3   -180.4836836 -0.624924E+00  0.118E+00    0.16       1.0  T
   4   -180.6096505 -0.125967E+00  0.364E-01    0.03       1.0  T
   5   -180.6131960 -0.354554E-02  0.336E-01    0.05       1.0  T
   6   -180.6133778 -0.181751E-03  0.297E-01    0.06       1.0  T
   7   -180.6173790 -0.400124E-02  0.300E-01    0.04       1.0  T
   8   -180.6198082 -0.242916E-02  0.202E-01    0.04       1.0  T
   9   -180.6216595 -0.185126E-02  0.733E-02    0.04       1.0  T
  10   -180.6214949  0.164579E-03  0.681E-02    0.04       1.0  T
  11   -180.6218519 -0.357032E-03  0.306E-02    0.04       1.0  T
  12   -180.6217918  0.600771E-04  0.507E-02    0.04       1.0  T
  13   -180.6219241 -0.132306E-03  0.120E-02    0.04       1.0  T
  14   -180.6219093  0.148138E-04  0.223E-02    0.04       1.0  T
  15   -180.6219354 -0.260375E-04  0.248E-03    0.04       4.3  T
  16   -180.6219239  0.114288E-04  0.135E-02    0.04       1.0  T
  17   -180.6219331 -0.916978E-05  0.582E-03    0.04       1.8  T
  18   -180.6219352 -0.208944E-05  0.247E-03    0.04       4.3  T
  19   -180.6219355 -0.316466E-06  0.162E-03    0.04       6.5  T
  20   -180.6219356 -0.133272E-06  0.118E-03    0.04       8.9  T
  21   -180.6219357 -0.838087E-07  0.363E-04    0.04      29.0  T
  22   -180.6219357 -0.281568E-08  0.254E-04    0.04      41.5  T
     SCC iter.                  ...        0 min,  0.499 sec
     gradient                   ...        0 min,  0.054 sec
 * total energy  :  -178.9156669 Eh     change       -0.3053623E-03 Eh
   gradient norm :     0.0093514 Eh/α   predicted    -0.3875758E-03 (  26.92%)
   displ. norm   :     0.2180651 α      lambda       -0.5242223E-03
   maximum displ.:     0.1121838 α      in ANC's #1, #2, #22, ...

........................................................................
.............................. CYCLE  210 ..............................
........................................................................

 iter      E             dE          RMSdq      gap      omega  full diag
   1   -180.6196686 -0.180620E+03  0.219E-01    0.04       0.0  T
   2   -178.9358759  0.168379E+01  0.630E+00    0.10       1.0  T
   3   -180.4036272 -0.146775E+01  0.170E+00    0.01       1.0  T
   4   -180.5862029 -0.182576E+00  0.728E-01    0.05       1.0  T
   5   -180.6026212 -0.164184E-01  0.437E-01    0.03       1.0  T
   6   -180.6214171 -0.187958E-01  0.115E-01    0.04       1.0  T
   7   -180.6210342  0.382866E-03  0.111E-01    0.04       1.0  T
   8   -180.6220241 -0.989891E-03  0.407E-02    0.04       1.0  T
   9   -180.6220188  0.527850E-05  0.312E-02    0.04       1.0  T
  10   -180.6220863 -0.675515E-04  0.166E-02    0.04       1.0  T
  11   -180.6220785  0.783855E-05  0.189E-02    0.04       1.0  T
  12   -180.6220892 -0.107337E-04  0.181E-02    0.04       1.0  T
  13   -180.6221030 -0.137210E-04  0.109E-02    0.04       1.0  T
  14   -180.6220956  0.737005E-05  0.127E-02    0.04       1.0  T
  15   -180.6221071 -0.115126E-04  0.598E-03    0.04       1.8  T
  16   -180.6221097 -0.257335E-05  0.249E-03    0.04       4.2  T
  17   -180.6221094  0.274907E-06  0.322E-03    0.04       3.3  T
  18   -180.6221102 -0.773065E-06  0.106E-03    0.04       9.9  T
  19   -180.6221102 -0.522175E-07  0.626E-04    0.04      16.8  T
  20   -180.6221102 -0.701212E-08  0.546E-04    0.04      19.3  T
     SCC iter.                  ...        0 min,  0.425 sec
     gradient                   ...        0 min,  0.051 sec
 * total energy  :  -178.9157731 Eh     change       -0.1062235E-03 Eh
   gradient norm :     0.0143762 Eh/α   predicted    -0.2745753E-03 ( 158.49%)
   displ. norm   :     0.1606065 α      lambda       -0.4703857E-03
   maximum displ.:     0.0953501 α      in ANC's #1, #5, #2, ...

........................................................................
.............................. CYCLE  211 ..............................
........................................................................

 iter      E             dE          RMSdq      gap      omega  full diag
   1   -180.6216760 -0.180622E+03  0.201E-01    0.04       0.0  T
   2   -179.5664242  0.105525E+01  0.486E+00    0.01       1.0  T
   3   -180.5129023 -0.946478E+00  0.110E+00    0.10       1.0  T
   4   -180.5981203 -0.852180E-01  0.521E-01    0.01       1.0  T
   5   -180.6164874 -0.183671E-01  0.241E-01    0.04       1.0  T
   6   -180.6208092 -0.432176E-02  0.212E-01    0.05       1.0  T
   7   -180.6234610 -0.265183E-02  0.342E-02    0.04       1.0  T
   8   -180.6234484  0.125872E-04  0.403E-02    0.04       1.0  T
   9   -180.6235559 -0.107434E-03  0.147E-02    0.04       1.0  T
  10   -180.6235691 -0.132620E-04  0.908E-03    0.04       1.2  T
  11   -180.6235472  0.218922E-04  0.171E-02    0.04       1.0  T
  12   -180.6235692 -0.220048E-04  0.735E-03    0.04       1.4  T
  13   -180.6235735 -0.425792E-05  0.246E-03    0.04       4.3  T
  14   -180.6235706  0.293750E-05  0.606E-03    0.04       1.7  T
  15   -180.6235721 -0.149567E-05  0.462E-03    0.04       2.3  T
  16   -180.6235738 -0.177794E-05  0.139E-03    0.04       7.6  T
  17   -180.6235735  0.361814E-06  0.277E-03    0.04       3.8  T
  18   -180.6235737 -0.233501E-06  0.191E-03    0.04       5.5  T
  19   -180.6235739 -0.159066E-06  0.113E-03    0.04       9.3  T
  20   -180.6235739 -0.365173E-07  0.789E-04    0.04      13.4  T
  21   -180.6235739 -0.229771E-07  0.440E-04    0.04      24.0  T
     SCC iter.                  ...        0 min,  0.456 sec
     gradient                   ...        0 min,  0.051 sec
 * total energy  :  -178.9160418 Eh     change       -0.2687297E-03 Eh
   gradient norm :     0.0082950 Eh/α   predicted    -0.2412616E-03 ( -10.22%)
   displ. norm   :     0.2254306 α      lambda       -0.3982972E-03
   maximum displ.:     0.1373868 α      in ANC's #1, #5, #2, ...

........................................................................
.............................. CYCLE  212 ..............................
........................................................................

 iter      E             dE          RMSdq      gap      omega  full diag
   1   -180.6205171 -0.180621E+03  0.235E-01    0.04       0.0  T
   2   -180.5501466  0.703706E-01  0.874E-01    0.10       1.0  T
   3   -180.1561131  0.394033E+00  0.258E+00    0.01       1.0  T
   4   -180.6180705 -0.461957E+00  0.257E-01    0.03       1.0  T
   5   -180.6159281  0.214233E-02  0.240E-01    0.04       1.0  T
   6   -180.6197911 -0.386299E-02  0.239E-01    0.04       1.0  T
   7   -180.6199470 -0.155904E-03  0.224E-01    0.04       1.0  T
   8   -180.6182720  0.167508E-02  0.285E-01    0.04       1.0  T
   9   -180.6226069 -0.433492E-02  0.176E-02    0.04       1.0  T
  10   -180.6223937  0.213176E-03  0.653E-02    0.04       1.0  T
  11   -180.6225557 -0.161957E-03  0.320E-02    0.04       1.0  T
  12   -180.6226122 -0.565869E-04  0.113E-02    0.04       1.0  T
  13   -180.6226022  0.100182E-04  0.160E-02    0.04       1.0  T
  14   -180.6226226 -0.204076E-04  0.505E-03    0.04       2.1  T
  15   -180.6226215  0.112210E-05  0.678E-03    0.04       1.6  T
  16   -180.6226087  0.128571E-04  0.171E-02    0.04       1.0  T
  17   -180.6226219 -0.132273E-04  0.554E-03    0.04       1.9  T
  18   -180.6226239 -0.198268E-05  0.154E-03    0.04       6.8  T
  19   -180.6226239 -0.646969E-07  0.157E-03    0.04       6.7  T
  20   -180.6226233  0.648917E-06  0.385E-03    0.04       2.7  T
  21   -180.6226240 -0.697370E-06  0.117E-03    0.04       9.0  T
  22   -180.6226240 -0.687165E-07  0.154E-04    0.04      68.5  T
  23   -180.6226240  0.808427E-09  0.178E-04    0.04      59.2  T
     SCC iter.                  ...        0 min,  0.485 sec
     gradient                   ...        0 min,  0.049 sec
 * total energy  :  -178.9162397 Eh     change       -0.1978502E-03 Eh
   gradient norm :     0.0099983 Eh/α   predicted    -0.2092715E-03 (   5.77%)
   displ. norm   :     0.3306354 α      lambda       -0.3956096E-03
   maximum displ.:     0.2003573 α      in ANC's #1, #2, #5, ...

........................................................................
.............................. CYCLE  213 ..............................
........................................................................

 iter      E             dE          RMSdq      gap      omega  full diag
   1   -180.6185069 -0.180619E+03  0.225E-01    0.04       0.0  T
   2   -179.8403827  0.778124E+00  0.410E+00    0.02       1.0  T
   3   -180.5364575 -0.696075E+00  0.961E-01    0.09       1.0  T
   4   -180.5283717  0.808575E-02  0.106E+00    0.01       1.0  T
   5   -180.6067465 -0.783748E-01  0.359E-01    0.03       1.0  T
   6   -180.6113562 -0.460965E-02  0.408E-01    0.04       1.0  T
   7   -180.6190822 -0.772606E-02  0.138E-01    0.04       1.0  T
   8   -180.6198491 -0.766901E-03  0.817E-02    0.04       1.0  T
   9   -180.6198643 -0.151418E-04  0.757E-02    0.04       1.0  T
  10   -180.6202127 -0.348376E-03  0.120E-02    0.04       1.0  T
  11   -180.6202131 -0.390626E-06  0.107E-02    0.04       1.0  T
  12   -180.6201956  0.174560E-04  0.169E-02    0.04       1.0  T
  13   -180.6202023 -0.674994E-05  0.177E-02    0.04       1.0  T
  14   -180.6202024 -0.837834E-07  0.180E-02    0.04       1.0  T
  15   -180.6202066 -0.418279E-05  0.131E-02    0.04       1.0  T
  16   -180.6202158 -0.917386E-05  0.875E-03    0.04       1.2  T
  17   -180.6202211 -0.526907E-05  0.232E-03    0.04       4.5  T
  18   -180.6202210  0.134200E-07  0.213E-03    0.04       4.9  T
  19   -180.6202211 -0.799268E-07  0.183E-03    0.04       5.8  T
  20   -180.6202213 -0.192426E-06  0.292E-04    0.04      36.1  T
  21   -180.6202213  0.477138E-08  0.466E-04    0.04      22.6  T
     SCC iter.                  ...        0 min,  0.455 sec
     gradient                   ...        0 min,  0.051 sec
 * total energy  :  -178.9164502 Eh     change       -0.2104798E-03 Eh
   gradient norm :     0.0101362 Eh/α   predicted    -0.2194309E-03 (   4.25%)
   displ. norm   :     0.3380788 α      lambda       -0.4782952E-03
   maximum displ.:     0.1818701 α      in ANC's #1, #15, #2, ...

........................................................................
.............................. CYCLE  214 ..............................
........................................................................

 iter      E             dE          RMSdq      gap      omega  full diag
   1   -180.6207355 -0.180621E+03  0.206E-01    0.04       0.0  T
   2   -179.6069430  0.101379E+01  0.473E+00    0.01       1.0  T
   3   -180.3749577 -0.768015E+00  0.184E+00    0.01       1.0  T
   4   -180.6155814 -0.240624E+00  0.295E-01    0.05       1.0  T
   5   -180.5760697  0.395117E-01  0.717E-01    0.01       1.0  T
   6   -180.6127265 -0.366568E-01  0.355E-01    0.02       1.0  T
   7   -180.6216380 -0.891150E-02  0.115E-01    0.04       1.0  T
   8   -180.6205287  0.110930E-02  0.141E-01    0.05       1.0  T
   9   -180.6223554 -0.182663E-02  0.383E-02    0.04       1.0  T
  10   -180.6223338  0.215819E-04  0.397E-02    0.04       1.0  T
  11   -180.6224435 -0.109735E-03  0.185E-02    0.04       1.0  T
  12   -180.6224705 -0.269632E-04  0.668E-03    0.04       1.6  T
  13   -180.6224479  0.225893E-04  0.165E-02    0.04       1.0  T
  14   -180.6224627 -0.147620E-04  0.111E-02    0.04       1.0  T
  15   -180.6224718 -0.912427E-05  0.506E-03    0.04       2.1  T
  16   -180.6224727 -0.948103E-06  0.341E-03    0.04       3.1  T
  17   -180.6224718  0.883062E-06  0.447E-03    0.04       2.4  T
  18   -180.6224734 -0.153576E-05  0.676E-04    0.04      15.6  T
  19   -180.6224733  0.575525E-07  0.113E-03    0.04       9.3  T
  20   -180.6224733 -0.237704E-07  0.848E-04    0.04      12.4  T
  21   -180.6224734 -0.319185E-07  0.596E-04    0.04      17.7  T
     SCC iter.                  ...        0 min,  0.473 sec
     gradient                   ...        0 min,  0.050 sec
 * total energy  :  -178.9166918 Eh     change       -0.2416545E-03 Eh
   gradient norm :     0.0099060 Eh/α   predicted    -0.2664882E-03 (  10.28%)
   displ. norm   :     0.3080742 α      lambda       -0.3611510E-03
   maximum displ.:     0.1723896 α      in ANC's #1, #2, #5, ...

........................................................................
.............................. CYCLE  215 ..............................
........................................................................

 iter      E             dE          RMSdq      gap      omega  full diag
   1   -180.6166135 -0.180617E+03  0.211E-01    0.05       0.0  T
   2   -178.9244755  0.169214E+01  0.503E+00    0.01       1.0  T
   3   -180.4735969 -0.154912E+01  0.160E+00    0.02       1.0  T
   4   -180.6163404 -0.142743E+00  0.152E-01    0.04       1.0  T
   5   -180.5932873  0.230531E-01  0.597E-01    0.05       1.0  T
   6   -180.6171144 -0.238272E-01  0.147E-01    0.03       1.0  T
   7   -180.6185719 -0.145748E-02  0.841E-02    0.04       1.0  T
   8   -180.6189430 -0.371107E-03  0.400E-02    0.04       1.0  T
   9   -180.6188577  0.853480E-04  0.541E-02    0.04       1.0  T
  10   -180.6185201  0.337560E-03  0.868E-02    0.03       1.0  T
  11   -180.6185746 -0.544710E-04  0.822E-02    0.03       1.0  T
  12   -180.6190627 -0.488146E-03  0.140E-02    0.04       1.0  T
  13   -180.6189379  0.124833E-03  0.443E-02    0.04       1.0  T
  14   -180.6190273 -0.893876E-04  0.276E-02    0.04       1.0  T
  15   -180.6190603 -0.329809E-04  0.186E-02    0.04       1.0  T
  16   -180.6190771 -0.168718E-04  0.744E-03    0.04       1.4  T
  17   -180.6190796 -0.240941E-05  0.258E-03    0.04       4.1  T
  18   -180.6190788  0.783181E-06  0.434E-03    0.04       2.4  T
  19   -180.6190800 -0.121846E-05  0.564E-04    0.04      18.7  T
  20   -180.6190800  0.218580E-07  0.878E-04    0.04      12.0  T
  21   -180.6190800 -0.403752E-07  0.290E-04    0.04      36.4  T
     SCC iter.                  ...        0 min,  0.448 sec
     gradient                   ...        0 min,  0.051 sec
 * total energy  :  -178.9168672 Eh     change       -0.1754323E-03 Eh
   gradient norm :     0.0109196 Eh/α   predicted    -0.1977160E-03 (  12.70%)
   displ. norm   :     0.2520933 α      lambda       -0.3830388E-03
   maximum displ.:     0.1165256 α      in ANC's #1, #15, #2, ...

........................................................................
.............................. CYCLE  216 ..............................
........................................................................

 iter      E             dE          RMSdq      gap      omega  full diag
   1   -180.6236537 -0.180624E+03  0.231E-01    0.03       0.0  T
   2   -180.4842509  0.139403E+00  0.128E+00    0.08       1.0  T
   3   -180.5649249 -0.806740E-01  0.109E+00    0.01       1.0  T
   4   -180.6163827 -0.514578E-01  0.451E-01    0.04       1.0  T
   5   -180.6124869  0.389584E-02  0.404E-01    0.02       1.0  T
   6   -180.6208762 -0.838931E-02  0.320E-01    0.05       1.0  T
   7   -180.6262221 -0.534586E-02  0.655E-02    0.04       1.0  T
   8   -180.6254635  0.758549E-03  0.112E-01    0.03       1.0  T
   9   -180.6265344 -0.107089E-02  0.261E-02    0.04       1.0  T
  10   -180.6265711 -0.367075E-04  0.184E-02    0.04       1.0  T
  11   -180.6265876 -0.164774E-04  0.920E-03    0.04       1.1  T
  12   -180.6265857  0.192215E-05  0.943E-03    0.04       1.1  T
  13   -180.6265890 -0.334089E-05  0.729E-03    0.04       1.4  T
  14   -180.6265764  0.126442E-04  0.171E-02    0.04       1.0  T
  15   -180.6265920 -0.156208E-04  0.562E-03    0.04       1.9  T
  16   -180.6265925 -0.500615E-06  0.469E-03    0.04       2.2  T
  17   -180.6265931 -0.554932E-06  0.276E-03    0.04       3.8  T
  18   -180.6265936 -0.556901E-06  0.130E-03    0.04       8.1  T
  19   -180.6265935  0.834026E-07  0.214E-03    0.04       4.9  T
  20   -180.6265936 -0.712759E-07  0.177E-03    0.04       6.0  T
  21   -180.6265937 -0.151629E-06  0.502E-04    0.04      21.0  T
  22   -180.6265937  0.125540E-07  0.674E-04    0.04      15.6  T
     SCC iter.                  ...        0 min,  0.486 sec
     gradient                   ...        0 min,  0.053 sec
 * total energy  :  -178.9169978 Eh     change       -0.1305375E-03 Eh
   gradient norm :     0.0161275 Eh/α   predicted    -0.2036953E-03 (  56.04%)
   displ. norm   :     0.2210868 α      lambda       -0.4148095E-03
   maximum displ.:     0.0852022 α      in ANC's #1, #3, #15, ...

........................................................................
.............................. CYCLE  217 ..............................
........................................................................

 iter      E             dE          RMSdq      gap      omega  full diag
   1   -180.6238977 -0.180624E+03  0.145E-01    0.04       0.0  T
   2   -180.5664446  0.574531E-01  0.776E-01    0.09       1.0  T
   3   -180.3841394  0.182305E+00  0.185E+00    0.01       1.0  T
   4   -180.6049959 -0.220857E+00  0.457E-01    0.01       1.0  T
   5   -180.6129929 -0.799693E-02  0.459E-01    0.03       1.0  T
   6   -180.6181979 -0.520506E-02  0.351E-01    0.04       1.0  T
   7   -180.6202452 -0.204728E-02  0.271E-01    0.04       1.0  T
   8   -180.6242187 -0.397350E-02  0.660E-02    0.04       1.0  T
   9   -180.6234513  0.767429E-03  0.137E-01    0.04       1.0  T
  10   -180.6244275 -0.976218E-03  0.346E-02    0.04       1.0  T
  11   -180.6244787 -0.511618E-04  0.278E-02    0.04       1.0  T
  12   -180.6244882 -0.951740E-05  0.304E-02    0.04       1.0  T
  13   -180.6244958 -0.758451E-05  0.311E-02    0.04       1.0  T
  14   -180.6245259 -0.301163E-04  0.184E-02    0.04       1.0  T
  15   -180.6245425 -0.165839E-04  0.678E-03    0.04       1.6  T
  16   -180.6245451 -0.261652E-05  0.437E-03    0.04       2.4  T
  17   -180.6245455 -0.439013E-06  0.337E-03    0.04       3.1  T
  18   -180.6245459 -0.392333E-06  0.276E-03    0.04       3.8  T
  19   -180.6245463 -0.429010E-06  0.819E-04    0.04      12.9  T
  20   -180.6245463  0.166757E-07  0.111E-03    0.04       9.5  T
  21   -180.6245464 -0.706374E-07  0.259E-04    0.04      40.6  T
     SCC iter.                  ...        0 min,  0.484 sec
     gradient                   ...        0 min,  0.049 sec
 * total energy  :  -178.9171901 Eh     change       -0.1923395E-03 Eh
   gradient norm :     0.0083751 Eh/α   predicted    -0.2175442E-03 (  13.10%)
   displ. norm   :     0.2333117 α      lambda       -0.3305621E-03
   maximum displ.:     0.1253888 α      in ANC's #1, #2, #5, ...

........................................................................
.............................. CYCLE  218 ..............................
........................................................................

 iter      E             dE          RMSdq      gap      omega  full diag
   1   -180.6083820 -0.180608E+03  0.357E-01    0.06       0.0  T
   2   -176.9554338  0.365295E+01  0.743E+00    0.09       1.0  T
   3   -180.3948779 -0.343944E+01  0.182E+00    0.02       1.0  T
   4   -180.5538299 -0.158952E+00  0.889E-01    0.01       1.0  T
   5   -180.6037816 -0.499517E-01  0.534E-01    0.03       1.0  T
   6   -180.6185018 -0.147202E-01  0.103E-01    0.04       1.0  T
   7   -180.6177160  0.785806E-03  0.122E-01    0.05       1.0  T
   8   -180.6188410 -0.112501E-02  0.618E-02    0.04       1.0  T
   9   -180.6190214 -0.180359E-03  0.550E-02    0.04       1.0  T
  10   -180.6191007 -0.793507E-04  0.348E-02    0.04       1.0  T
  11   -180.6191746 -0.738990E-04  0.138E-02    0.04       1.0  T
  12   -180.6191867 -0.120602E-04  0.523E-03    0.04       2.0  T
  13   -180.6191874 -0.764217E-06  0.390E-03    0.04       2.7  T
  14   -180.6191762  0.112057E-04  0.126E-02    0.04       1.0  T
  15   -180.6191797 -0.343647E-05  0.999E-03    0.04       1.1  T
  16   -180.6191829 -0.323239E-05  0.747E-03    0.04       1.4  T
  17   -180.6191782  0.468858E-05  0.126E-02    0.04       1.0  T
  18   -180.6191755  0.266286E-05  0.140E-02    0.04       1.0  T
  19   -180.6191831 -0.757855E-05  0.913E-03    0.04       1.2  T
  20   -180.6191883 -0.520708E-05  0.135E-03    0.04       7.8  T
  21   -180.6191883 -0.103538E-07  0.147E-03    0.04       7.2  T
  22   -180.6191884 -0.699269E-07  0.840E-04    0.04      12.5  T
  23   -180.6191884  0.355416E-07  0.117E-03    0.04       9.0  T
  24   -180.6191884 -0.651923E-07  0.290E-04    0.04      36.3  T
     SCC iter.                  ...        0 min,  0.518 sec
     gradient                   ...        0 min,  0.052 sec
 * total energy  :  -178.9173172 Eh     change       -0.1270696E-03 Eh
   gradient norm :     0.0075797 Eh/α   predicted    -0.1742816E-03 (  37.15%)
   displ. norm   :     0.1792413 α      lambda       -0.2323695E-03
   maximum displ.:     0.0806621 α      in ANC's #1, #3, #2, ...

........................................................................
.............................. CYCLE  219 ..............................
........................................................................

 iter      E             dE          RMSdq      gap      omega  full diag
   1   -180.6195044 -0.180620E+03  0.159E-01    0.05       0.0  T
   2   -179.2486972  0.137081E+01  0.447E+00    0.01       1.0  T
   3   -180.1443744 -0.895677E+00  0.308E+00    0.02       1.0  T
   4   -180.6023538 -0.457979E+00  0.440E-01    0.02       1.0  T
   5   -180.6155980 -0.132442E-01  0.257E-01    0.05       1.0  T
   6   -180.6213471 -0.574908E-02  0.621E-02    0.04       1.0  T
   7   -180.6215208 -0.173700E-03  0.333E-02    0.04       1.0  T
   8   -180.6214192  0.101672E-03  0.525E-02    0.04       1.0  T
   9   -180.6214374 -0.182503E-04  0.499E-02    0.04       1.0  T
  10   -180.6215817 -0.144250E-03  0.116E-02    0.04       1.0  T
  11   -180.6215876 -0.595813E-05  0.744E-03    0.04       1.4  T
  12   -180.6215902 -0.262414E-05  0.442E-03    0.04       2.4  T
  13   -180.6215852  0.501487E-05  0.874E-03    0.04       1.2  T
  14   -180.6215912 -0.599163E-05  0.155E-03    0.04       6.8  T
  15   -180.6215898  0.141274E-05  0.544E-03    0.04       1.9  T
  16   -180.6215890  0.812124E-06  0.606E-03    0.04       1.7  T
  17   -180.6215902 -0.124452E-05  0.409E-03    0.04       2.6  T
  18   -180.6215913 -0.101862E-05  0.993E-04    0.04      10.6  T
  19   -180.6215913 -0.512097E-07  0.701E-04    0.04      15.0  T
  20   -180.6215911  0.196613E-06  0.173E-03    0.04       6.1  T
  21   -180.6215913 -0.196675E-06  0.662E-04    0.04      15.9  T
     SCC iter.                  ...        0 min,  0.453 sec
     gradient                   ...        0 min,  0.051 sec
 * total energy  :  -178.9174482 Eh     change       -0.1309963E-03 Eh
   gradient norm :     0.0071002 Eh/α   predicted    -0.1199205E-03 (  -8.46%)
   displ. norm   :     0.2306145 α      lambda       -0.1924188E-03
   maximum displ.:     0.1105333 α      in ANC's #1, #2, #3, ...
 * RMSD in coord.:     1.1278479 α      energy gain  -0.2591846E-01 Eh

generating ANC from exact Hessian ...
Using Lindh-Hessian (1995)
 Shifting diagonal of input Hessian by   1.028417582469090E-002
 Lowest  eigenvalues of input Hessian
    0.010000    0.000000    0.000000    0.000000    0.000000    0.000000
    0.000000    0.010492    0.010598    0.010765    0.010991    0.011041
    0.011300    0.011343    0.011494    0.011589    0.011859    0.012342
 Highest eigenvalues
    2.045812    2.154467    2.203440    2.209623    2.215105    2.247634
 

........................................................................
.............................. CYCLE  220 ..............................
........................................................................

 iter      E             dE          RMSdq      gap      omega  full diag
   1   -180.6190398 -0.180619E+03  0.249E-01    0.03       0.0  T
   2   -180.3788920  0.240148E+00  0.217E+00    0.01       1.0  T
   3   -180.4313567 -0.524648E-01  0.137E+00    0.28       1.0  T
   4   -180.5889003 -0.157544E+00  0.812E-01    0.02       1.0  T
   5   -180.5944998 -0.559957E-02  0.620E-01    0.01       1.0  T
   6   -180.6080105 -0.135106E-01  0.451E-01    0.02       1.0  T
   7   -180.6209439 -0.129335E-01  0.184E-01    0.04       1.0  T
   8   -180.6194928  0.145110E-02  0.189E-01    0.05       1.0  T
   9   -180.6226015 -0.310863E-02  0.436E-02    0.04       1.0  T
  10   -180.6218152  0.786287E-03  0.135E-01    0.04       1.0  T
  11   -180.6226763 -0.861144E-03  0.341E-02    0.04       1.0  T
  12   -180.6227608 -0.844328E-04  0.122E-02    0.04       1.0  T
  13   -180.6227434  0.173430E-04  0.206E-02    0.04       1.0  T
  14   -180.6227711 -0.276516E-04  0.188E-03    0.04       5.6  T
  15   -180.6227646  0.646014E-05  0.988E-03    0.04       1.1  T
  16   -180.6227704 -0.577646E-05  0.381E-03    0.04       2.8  T
  17   -180.6227701  0.273199E-06  0.399E-03    0.04       2.6  T
  18   -180.6227713 -0.115365E-05  0.520E-04    0.04      20.3  T
  19   -180.6227698  0.147427E-05  0.439E-03    0.04       2.4  T
  20   -180.6227710 -0.122610E-05  0.195E-03    0.04       5.4  T
  21   -180.6227713 -0.244522E-06  0.619E-04    0.04      17.0  T
  22   -180.6227713 -0.200486E-07  0.107E-04    0.04      98.2  T
     SCC iter.                  ...        0 min,  0.490 sec
     gradient                   ...        0 min,  0.050 sec
 * total energy  :  -178.9175687 Eh     change       -0.1205070E-03 Eh
   gradient norm :     0.0057589 Eh/α   predicted     0.0000000E+00 (-100.00%)
   displ. norm   :     0.0764341 α      lambda       -0.1526252E-03
   maximum displ.:     0.0237752 α      in ANC's #2, #9, #7, ...

........................................................................
.............................. CYCLE  221 ..............................
........................................................................

 iter      E             dE          RMSdq      gap      omega  full diag
   1   -180.6117083 -0.180612E+03  0.419E-01    0.05       0.0  T
   2   -177.0036602  0.360805E+01  0.744E+00    0.09       1.0  T
   3   -180.4961907 -0.349253E+01  0.111E+00    0.13       1.0  T
   4   -180.5038176 -0.762695E-02  0.128E+00    0.01       1.0  T
   5   -180.6055981 -0.101780E+00  0.469E-01    0.06       1.0  T
   6   -180.6152290 -0.963093E-02  0.373E-01    0.04       1.0  T
   7   -180.6165850 -0.135606E-02  0.364E-01    0.04       1.0  T
   8   -180.6196307 -0.304570E-02  0.266E-01    0.04       1.0  T
   9   -180.6207081 -0.107731E-02  0.195E-01    0.03       1.0  T
  10   -180.6206584  0.496174E-04  0.197E-01    0.03       1.0  T
  11   -180.6205395  0.118956E-03  0.195E-01    0.03       1.0  T
  12   -180.6226255 -0.208600E-02  0.961E-02    0.04       1.0  T
  13   -180.6229888 -0.363289E-03  0.548E-02    0.04       1.0  T
  14   -180.6231476 -0.158824E-03  0.503E-03    0.04       2.1  T
  15   -180.6231468  0.792803E-06  0.591E-03    0.04       1.8  T
  16   -180.6231303  0.164762E-04  0.149E-02    0.04       1.0  T
  17   -180.6231474 -0.170547E-04  0.461E-03    0.04       2.3  T
  18   -180.6231478 -0.417312E-06  0.418E-03    0.04       2.5  T
  19   -180.6231482 -0.430164E-06  0.387E-03    0.04       2.7  T
  20   -180.6231490 -0.757221E-06  0.461E-04    0.04      22.9  T
  21   -180.6231490  0.246489E-07  0.814E-04    0.04      13.0  T
     SCC iter.                  ...        0 min,  0.470 sec
     gradient                   ...        0 min,  0.051 sec
 * total energy  :  -178.9176237 Eh     change       -0.5502710E-04 Eh
   gradient norm :     0.0072286 Eh/α   predicted    -0.7679049E-04 (  39.55%)
   displ. norm   :     0.3961890 α      lambda       -0.7863921E-03
   maximum displ.:     0.1313324 α      in ANC's #2, #28, #7, ...

........................................................................
.............................. CYCLE  222 ..............................
........................................................................

 iter      E             dE          RMSdq      gap      omega  full diag
   1   -180.5685197 -0.180569E+03  0.908E-01    0.01       0.0  T
   2   -180.0769625  0.491557E+00  0.344E+00    0.03       1.0  T
   3   -180.3534103 -0.276448E+00  0.172E+00    0.90       1.0  T
   4   -180.4689921 -0.115582E+00  0.138E+00    0.13       1.0  T
   5   -180.4954921 -0.265000E-01  0.139E+00    0.06       1.0  T
   6   -180.5088410 -0.133490E-01  0.130E+00    0.06       1.0  T
   7   -180.6207961 -0.111955E+00  0.148E-01    0.04       1.0  T
   8   -180.3909557  0.229840E+00  0.187E+00    0.01       1.0  T
   9   -180.6172763 -0.226321E+00  0.317E-01    0.03       1.0  T
  10   -180.6161024  0.117392E-02  0.332E-01    0.03       1.0  T
  11   -180.5529787  0.631236E-01  0.989E-01    0.06       1.0  T
  12   -180.6204462 -0.674674E-01  0.172E-01    0.04       1.0  T
  13   -180.6211304 -0.684272E-03  0.121E-01    0.05       1.0  T
  14   -180.6209739  0.156591E-03  0.131E-01    0.05       1.0  T
  15   -180.6214205 -0.446613E-03  0.126E-01    0.04       1.0  T
  16   -180.6223280 -0.907505E-03  0.330E-02    0.04       1.0  T
  17   -180.6223805 -0.525011E-04  0.175E-02    0.04       1.0  T
  18   -180.6223725  0.801764E-05  0.219E-02    0.04       1.0  T
  19   -180.6223017  0.707240E-04  0.402E-02    0.04       1.0  T
  20   -180.6223994 -0.977149E-04  0.117E-02    0.04       1.0  T
  21   -180.6223987  0.784875E-06  0.109E-02    0.04       1.0  T
  22   -180.6224038 -0.518954E-05  0.714E-03    0.04       1.5  T
  23   -180.6224078 -0.393832E-05  0.101E-03    0.04      10.4  T
  24   -180.6224076  0.232092E-06  0.215E-03    0.04       4.9  T
  25   -180.6224078 -0.250810E-06  0.115E-03    0.04       9.2  T
  26   -180.6224073  0.534023E-06  0.292E-03    0.04       3.6  T
  27   -180.6224077 -0.421022E-06  0.161E-03    0.04       6.6  T
  28   -180.6224079 -0.177278E-06  0.205E-04    0.04      51.4  T
  29   -180.6224079 -0.192358E-09  0.251E-04    0.04      42.0  T
     SCC iter.                  ...        0 min,  0.618 sec
     gradient                   ...        0 min,  0.051 sec
 * total energy  :  -178.9153493 Eh     change        0.2274437E-02 Eh
   gradient norm :     0.0322690 Eh/α   predicted    -0.4549184E-03 (-120.00%)
   displ. norm   :     0.1906304 α      lambda       -0.3818776E-02
   maximum displ.:     0.0940911 α      in ANC's #28, #23, #42, ...

........................................................................
.............................. CYCLE  223 ..............................
........................................................................

 iter      E             dE          RMSdq      gap      omega  full diag
   1   -180.5845302 -0.180585E+03  0.682E-01    0.07       0.0  T
   2   -176.3596053  0.422492E+01  0.957E+00    0.14       1.0  T
   3   -180.3591631 -0.399956E+01  0.195E+00    0.01       1.0  T
   4   -180.5581703 -0.199007E+00  0.925E-01    0.01       1.0  T
   5   -180.5411314  0.170389E-01  0.101E+00    0.01       1.0  T
   6   -180.5904897 -0.493582E-01  0.614E-01    0.07       1.0  T
   7   -180.6142927 -0.238031E-01  0.354E-01    0.06       1.0  T
   8   -180.6186747 -0.438194E-02  0.269E-01    0.05       1.0  T
   9   -180.6217789 -0.310428E-02  0.172E-01    0.05       1.0  T
  10   -180.6193136  0.246539E-02  0.324E-01    0.04       1.0  T
  11   -180.6225960 -0.328241E-02  0.166E-01    0.04       1.0  T
  12   -180.6237221 -0.112612E-02  0.832E-02    0.04       1.0  T
  13   -180.6240236 -0.301470E-03  0.358E-02    0.04       1.0  T
  14   -180.6240332 -0.965003E-05  0.307E-02    0.04       1.0  T
  15   -180.6240242  0.896338E-05  0.297E-02    0.04       1.0  T
  16   -180.6240171  0.711749E-05  0.266E-02    0.04       1.0  T
  17   -180.6240272 -0.100561E-04  0.238E-02    0.04       1.0  T
  18   -180.6240529 -0.257654E-04  0.127E-02    0.04       1.0  T
  19   -180.6240546 -0.161526E-05  0.107E-02    0.04       1.0  T
  20   -180.6240582 -0.361852E-05  0.529E-03    0.04       2.0  T
  21   -180.6240599 -0.175070E-05  0.263E-03    0.04       4.0  T
  22   -180.6240603 -0.335196E-06  0.228E-03    0.04       4.6  T
  23   -180.6240599  0.333222E-06  0.306E-03    0.04       3.4  T
  24   -180.6240603 -0.327796E-06  0.208E-03    0.04       5.1  T
  25   -180.6240604 -0.188294E-06  0.103E-03    0.04      10.3  T
  26   -180.6240605 -0.454930E-07  0.276E-04    0.04      38.2  T
  27   -180.6240605  0.507299E-08  0.380E-04    0.04      27.8  T
     SCC iter.                  ...        0 min,  0.642 sec
     gradient                   ...        0 min,  0.050 sec
 * total energy  :  -178.9169632 Eh     change       -0.1613902E-02 Eh
   gradient norm :     0.0247349 Eh/α   predicted    -0.1978776E-02 (  22.61%)
   displ. norm   :     0.5427840 α      lambda       -0.7639179E-02
   maximum displ.:     0.1845698 α      in ANC's #18, #21, #23, ...

........................................................................
.............................. CYCLE  224 ..............................
........................................................................

 iter      E             dE          RMSdq      gap      omega  full diag
   1   -180.0881642 -0.180088E+03  0.325E+00    0.02       0.0  T
   2   -174.9183293  0.516983E+01  0.118E+01    0.11       1.0  T
   3   -180.0702926 -0.515196E+01  0.300E+00    0.33       1.0  T
   4   -180.3843596 -0.314067E+00  0.202E+00    0.31       1.0  T
   5   -180.2695591  0.114800E+00  0.267E+00    0.01       1.0  T
   6   -180.3796688 -0.110110E+00  0.166E+00    0.44       1.0  T
   7   -180.5629723 -0.183303E+00  0.113E+00    0.06       1.0  T
   8   -180.5107965  0.521758E-01  0.151E+00    0.01       1.0  T
   9   -180.5607217 -0.499253E-01  0.111E+00    0.02       1.0  T
  10   -180.5600643  0.657470E-03  0.809E-01    0.08       1.0  T
  11   -180.4365285  0.123536E+00  0.157E+00    0.01       1.0  T
  12   -180.5877982 -0.151270E+00  0.587E-01    0.07       1.0  T
  13   -180.5325586  0.552396E-01  0.127E+00    0.05       1.0  T
  14   -180.5863781 -0.538195E-01  0.521E-01    0.07       1.0  T
  15   -180.4247415  0.161637E+00  0.200E+00    0.01       1.0  T
  16   -180.5734069 -0.148665E+00  0.639E-01    0.08       1.0  T
  17   -180.5863242 -0.129173E-01  0.571E-01    0.06       1.0  T
  18   -180.5968927 -0.105685E-01  0.497E-01    0.04       1.0  T
  19   -180.5990073 -0.211464E-02  0.427E-01    0.05       1.0  T
  20   -180.5967763  0.223104E-02  0.475E-01    0.05       1.0  T
  21   -180.5998312 -0.305496E-02  0.429E-01    0.04       1.0  T
  22   -180.6040263 -0.419505E-02  0.323E-01    0.04       1.0  T
  23   -180.6065600 -0.253372E-02  0.254E-01    0.04       1.0  T
  24   -180.6102653 -0.370531E-02  0.588E-02    0.04       1.0  T
  25   -180.6103816 -0.116351E-03  0.348E-02    0.04       1.0  T
  26   -180.6103849 -0.320486E-05  0.436E-02    0.04       1.0  T
  27   -180.6104789 -0.940295E-04  0.104E-02    0.04       1.0  T
  28   -180.6104830 -0.416326E-05  0.960E-03    0.04       1.1  T
  29   -180.6104829  0.145902E-06  0.935E-03    0.04       1.1  T
  30   -180.6104813  0.164220E-05  0.113E-02    0.04       1.0  T
  31   -180.6104850 -0.370377E-05  0.779E-03    0.04       1.4  T
  32   -180.6104881 -0.317177E-05  0.104E-03    0.04      10.1  T
  33   -180.6104882 -0.288979E-07  0.865E-04    0.04      12.2  T
  34   -180.6104882 -0.227464E-07  0.533E-04    0.04      19.8  T
     SCC iter.                  ...        0 min,  0.727 sec
     gradient                   ...        0 min,  0.047 sec
 * total energy  :  -178.9082565 Eh     change        0.8706681E-02 Eh
   gradient norm :     0.0726710 Eh/α   predicted    -0.4944896E-02 (-156.79%)
   displ. norm   :     0.3035968 α      lambda       -0.1461277E-01
   maximum displ.:     0.1366020 α      in ANC's #23, #28, #21, ...

........................................................................
.............................. CYCLE  225 ..............................
........................................................................

 iter      E             dE          RMSdq      gap      omega  full diag
   1   -180.5781882 -0.180578E+03  0.918E-01    0.02       0.0  T
   2   -178.7411467  0.183704E+01  0.674E+00    0.14       1.0  T
   3   -180.3379152 -0.159677E+01  0.173E+00    0.82       1.0  T
   4   -180.4919764 -0.154061E+00  0.140E+00    0.06       1.0  T
   5   -180.5774835 -0.855071E-01  0.784E-01    0.07       1.0  T
   6   -180.3435822  0.233901E+00  0.190E+00    0.01       1.0  T
   7   -180.5789288 -0.235347E+00  0.699E-01    0.01       1.0  T
   8   -180.5360781  0.428506E-01  0.110E+00    0.05       1.0  T
   9   -180.4888198  0.472583E-01  0.136E+00    0.01       1.0  T
  10   -180.6175994 -0.128780E+00  0.215E-01    0.03       1.0  T
  11   -180.6105047  0.709470E-02  0.331E-01    0.06       1.0  T
  12   -180.6203814 -0.987678E-02  0.652E-02    0.04       1.0  T
  13   -180.6180156  0.236588E-02  0.217E-01    0.04       1.0  T
  14   -180.6195641 -0.154851E-02  0.122E-01    0.04       1.0  T
  15   -180.6203393 -0.775173E-03  0.583E-02    0.04       1.0  T
  16   -180.6203380  0.128970E-05  0.649E-02    0.04       1.0  T
  17   -180.6205658 -0.227795E-03  0.390E-02    0.04       1.0  T
  18   -180.6206526 -0.868535E-04  0.660E-03    0.04       1.6  T
  19   -180.6205930  0.595787E-04  0.293E-02    0.04       1.0  T
  20   -180.6206551 -0.620808E-04  0.456E-03    0.04       2.3  T
  21   -180.6206437  0.114459E-04  0.123E-02    0.04       1.0  T
  22   -180.6206547 -0.110432E-04  0.473E-03    0.04       2.2  T
  23   -180.6206540  0.684703E-06  0.544E-03    0.04       1.9  T
  24   -180.6206561 -0.211817E-05  0.166E-03    0.04       6.4  T
  25   -180.6206555  0.652597E-06  0.328E-03    0.04       3.2  T
  26   -180.6206562 -0.749343E-06  0.954E-04    0.04      11.0  T
  27   -180.6206562  0.574575E-07  0.127E-03    0.04       8.3  T
  28   -180.6206563 -0.797814E-07  0.797E-04    0.04      13.2  T
     SCC iter.                  ...        0 min,  0.585 sec
     gradient                   ...        0 min,  0.048 sec
 * total energy  :  -178.9162426 Eh     change       -0.7986101E-02 Eh
   gradient norm :     0.0208584 Eh/α   predicted    -0.7979839E-02 (  -0.08%)
   displ. norm   :     0.2969261 α      lambda       -0.3759665E-02
   maximum displ.:     0.1329480 α      in ANC's #18, #15, #22, ...

........................................................................
.............................. CYCLE  226 ..............................
........................................................................

 iter      E             dE          RMSdq      gap      omega  full diag
   1   -180.5276106 -0.180528E+03  0.105E+00    0.12       0.0  T
   2   -176.2480906  0.427952E+01  0.106E+01    0.18       1.0  T
   3   -176.8009905 -0.552900E+00  0.821E+00    0.07       1.0  T
   4   -180.2697946 -0.346880E+01  0.230E+00    0.01       1.0  T
   5   -180.5866628 -0.316868E+00  0.865E-01    0.02       1.0  T
   6   -180.5681289  0.185338E-01  0.863E-01    0.02       1.0  T
   7   -180.5316165  0.365124E-01  0.963E-01    0.12       1.0  T
   8   -180.6100595 -0.784430E-01  0.401E-01    0.05       1.0  T
   9   -180.6136496 -0.359004E-02  0.344E-01    0.05       1.0  T
  10   -180.6189076 -0.525808E-02  0.201E-01    0.05       1.0  T
  11   -180.6183077  0.599972E-03  0.211E-01    0.05       1.0  T
  12   -180.6090970  0.921066E-02  0.542E-01    0.03       1.0  T
  13   -180.6183750 -0.927801E-02  0.355E-01    0.03       1.0  T
  14   -180.6182074  0.167644E-03  0.374E-01    0.04       1.0  T
  15   -180.6205656 -0.235826E-02  0.274E-01    0.04       1.0  T
  16   -180.6213259 -0.760237E-03  0.206E-01    0.03       1.0  T
  17   -180.6228675 -0.154157E-02  0.840E-02    0.04       1.0  T
  18   -180.6223801  0.487306E-03  0.112E-01    0.04       1.0  T
  19   -180.6228794 -0.499269E-03  0.883E-02    0.04       1.0  T
  20   -180.6234139 -0.534510E-03  0.396E-02    0.04       1.0  T
  21   -180.6233968  0.171752E-04  0.439E-02    0.04       1.0  T
  22   -180.6234759 -0.791417E-04  0.208E-02    0.04       1.0  T
  23   -180.6234953 -0.193809E-04  0.880E-03    0.04       1.2  T
  24   -180.6234965 -0.122815E-05  0.762E-03    0.04       1.4  T
  25   -180.6234945  0.197809E-05  0.869E-03    0.04       1.2  T
  26   -180.6234974 -0.283308E-05  0.507E-03    0.04       2.1  T
  27   -180.6234995 -0.214106E-05  0.336E-03    0.04       3.1  T
  28   -180.6234998 -0.286742E-06  0.194E-03    0.04       5.4  T
  29   -180.6235000 -0.227715E-06  0.144E-03    0.04       7.3  T
  30   -180.6235001 -0.802892E-07  0.361E-04    0.04      29.2  T
  31   -180.6235001  0.338850E-07  0.587E-04    0.04      18.0  T
     SCC iter.                  ...        0 min,  0.658 sec
     gradient                   ...        0 min,  0.051 sec
 * total energy  :  -178.9171501 Eh     change       -0.9074622E-03 Eh
   gradient norm :     0.0164486 Eh/α   predicted    -0.2045568E-02 ( 125.42%)
   displ. norm   :     0.1678828 α      lambda       -0.1708838E-02
   maximum displ.:     0.0600296 α      in ANC's #18, #16, #23, ...

........................................................................
.............................. CYCLE  227 ..............................
........................................................................

 iter      E             dE          RMSdq      gap      omega  full diag
   1   -180.4026487 -0.180403E+03  0.210E+00    0.02       0.0  T
   2   -176.5240533  0.387860E+01  0.971E+00    0.06       1.0  T
   3   -180.2003177 -0.367626E+01  0.243E+00    0.58       1.0  T
   4   -180.4225374 -0.222220E+00  0.169E+00    0.30       1.0  T
   5   -180.3079477  0.114590E+00  0.231E+00    0.01       1.0  T
   6   -180.4210714 -0.113124E+00  0.149E+00    0.31       1.0  T
   7   -180.5289896 -0.107918E+00  0.109E+00    0.11       1.0  T
   8   -180.6014545 -0.724649E-01  0.768E-01    0.04       1.0  T
   9   -180.5956390  0.581548E-02  0.817E-01    0.03       1.0  T
  10   -180.6034672 -0.782815E-02  0.707E-01    0.04       1.0  T
  11   -180.5936195  0.984769E-02  0.753E-01    0.02       1.0  T
  12   -180.6097824 -0.161629E-01  0.482E-01    0.03       1.0  T
  13   -180.4551677  0.154615E+00  0.191E+00    0.01       1.0  T
  14   -180.6075693 -0.152402E+00  0.522E-01    0.05       1.0  T
  15   -180.6194612 -0.118919E-01  0.266E-01    0.04       1.0  T
  16   -180.6117569  0.770433E-02  0.405E-01    0.05       1.0  T
  17   -180.6177214 -0.596450E-02  0.280E-01    0.05       1.0  T
  18   -180.6212763 -0.355493E-02  0.162E-01    0.05       1.0  T
  19   -180.6214032 -0.126885E-03  0.167E-01    0.05       1.0  T
  20   -180.6215611 -0.157888E-03  0.180E-01    0.04       1.0  T
  21   -180.6230983 -0.153722E-02  0.712E-02    0.04       1.0  T
  22   -180.6234886 -0.390296E-03  0.175E-02    0.04       1.0  T
  23   -180.6234752  0.134173E-04  0.248E-02    0.04       1.0  T
  24   -180.6234146  0.606282E-04  0.433E-02    0.04       1.0  T
  25   -180.6234863 -0.717337E-04  0.196E-02    0.04       1.0  T
  26   -180.6235060 -0.196513E-04  0.645E-03    0.04       1.6  T
  27   -180.6235085 -0.251596E-05  0.424E-03    0.04       2.5  T
  28   -180.6235092 -0.688161E-06  0.172E-03    0.04       6.1  T
  29   -180.6235092 -0.503853E-07  0.157E-03    0.04       6.7  T
  30   -180.6235093 -0.125442E-06  0.200E-04    0.04      52.6  T
  31   -180.6235092  0.104707E-06  0.149E-03    0.04       7.1  T
  32   -180.6235093 -0.876322E-07  0.612E-04    0.04      17.2  T
     SCC iter.                  ...        0 min,  0.662 sec
     gradient                   ...        0 min,  0.050 sec
 * total energy  :  -178.9176997 Eh     change       -0.5496587E-03 Eh
   gradient norm :     0.0077925 Eh/α   predicted    -0.8785013E-03 (  59.83%)
   displ. norm   :     0.0731278 α      lambda       -0.3225525E-03
   maximum displ.:     0.0201734 α      in ANC's #18, #15, #32, ...

........................................................................
.............................. CYCLE  228 ..............................
........................................................................

 iter      E             dE          RMSdq      gap      omega  full diag
   1   -180.6166638 -0.180617E+03  0.379E-01    0.03       0.0  T
   2   -179.0376410  0.157902E+01  0.609E+00    0.07       1.0  T
   3   -180.4178149 -0.138017E+01  0.143E+00    0.31       1.0  T
   4   -180.5831958 -0.165381E+00  0.784E-01    0.05       1.0  T
   5   -180.6190880 -0.358922E-01  0.252E-01    0.05       1.0  T
   6   -180.5932050  0.258830E-01  0.639E-01    0.01       1.0  T
   7   -180.6220843 -0.288793E-01  0.157E-01    0.05       1.0  T
   8   -180.6241756 -0.209129E-02  0.319E-02    0.04       1.0  T
   9   -180.6239417  0.233864E-03  0.652E-02    0.04       1.0  T
  10   -180.6237527  0.189072E-03  0.845E-02    0.04       1.0  T
  11   -180.6241631 -0.410486E-03  0.300E-02    0.04       1.0  T
  12   -180.6242357 -0.725645E-04  0.532E-03    0.04       2.0  T
  13   -180.6242331  0.261356E-05  0.773E-03    0.04       1.4  T
  14   -180.6242304  0.266125E-05  0.114E-02    0.04       1.0  T
  15   -180.6242331 -0.267840E-05  0.714E-03    0.04       1.5  T
  16   -180.6242373 -0.419487E-05  0.186E-03    0.04       5.7  T
  17   -180.6242370  0.281779E-06  0.259E-03    0.04       4.1  T
  18   -180.6242375 -0.468983E-06  0.451E-04    0.04      23.4  T
  19   -180.6242375  0.302882E-07  0.730E-04    0.04      14.4  T
     SCC iter.                  ...        0 min,  0.507 sec
     gradient                   ...        0 min,  0.051 sec
 * total energy  :  -178.9178424 Eh     change       -0.1426383E-03 Eh
   gradient norm :     0.0048137 Eh/α   predicted    -0.1621373E-03 (  13.67%)
   displ. norm   :     0.0998234 α      lambda       -0.2133543E-03
   maximum displ.:     0.0410514 α      in ANC's #2, #18, #1, ...

........................................................................
.............................. CYCLE  229 ..............................
........................................................................

 iter      E             dE          RMSdq      gap      omega  full diag
   1   -180.6191543 -0.180619E+03  0.298E-01    0.04       0.0  T
   2   -178.5989309  0.202022E+01  0.693E+00    0.18       1.0  T
   3   -180.5197562 -0.192083E+01  0.109E+00    0.09       1.0  T
   4   -180.5787851 -0.590289E-01  0.701E-01    0.01       1.0  T
   5   -180.6166967 -0.379116E-01  0.255E-01    0.04       1.0  T
   6   -180.6198760 -0.317938E-02  0.250E-01    0.05       1.0  T
   7   -180.6221831 -0.230702E-02  0.145E-01    0.05       1.0  T
   8   -180.6238851 -0.170204E-02  0.272E-02    0.04       1.0  T
   9   -180.6238710  0.141248E-04  0.264E-02    0.04       1.0  T
  10   -180.6237623  0.108669E-03  0.451E-02    0.04       1.0  T
  11   -180.6239169 -0.154588E-03  0.104E-02    0.04       1.0  T
  12   -180.6239175 -0.649363E-06  0.103E-02    0.04       1.0  T
  13   -180.6239227 -0.518942E-05  0.697E-03    0.04       1.5  T
  14   -180.6239256 -0.284800E-05  0.471E-03    0.04       2.2  T
  15   -180.6239258 -0.237221E-06  0.323E-03    0.04       3.3  T
  16   -180.6239265 -0.715851E-06  0.193E-03    0.04       5.5  T
  17   -180.6239266 -0.593818E-07  0.158E-03    0.04       6.7  T
  18   -180.6239267 -0.120542E-06  0.814E-04    0.04      12.9  T
  19   -180.6239267 -0.687379E-09  0.775E-04    0.04      13.6  T
     SCC iter.                  ...        0 min,  0.396 sec
     gradient                   ...        0 min,  0.050 sec
 * total energy  :  -178.9178987 Eh     change       -0.5628945E-04 Eh
   gradient norm :     0.0057818 Eh/α   predicted    -0.1077427E-03 (  91.41%)
   displ. norm   :     0.0658608 α      lambda       -0.1247935E-03
   maximum displ.:     0.0296404 α      in ANC's #2, #1, #16, ...

........................................................................
.............................. CYCLE  230 ..............................
........................................................................

 iter      E             dE          RMSdq      gap      omega  full diag
   1   -180.6200585 -0.180620E+03  0.268E-01    0.04       0.0  T
   2   -180.3868399  0.233219E+00  0.188E+00    0.01       1.0  T
   3   -180.4247808 -0.379409E-01  0.140E+00    0.32       1.0  T
   4   -180.6085485 -0.183768E+00  0.552E-01    0.03       1.0  T
   5   -180.6172759 -0.872739E-02  0.327E-01    0.04       1.0  T
   6   -180.6214276 -0.415173E-02  0.213E-01    0.04       1.0  T
   7   -180.6126207  0.880690E-02  0.445E-01    0.03       1.0  T
   8   -180.6233760 -0.107553E-01  0.717E-02    0.04       1.0  T
   9   -180.6237620 -0.386003E-03  0.110E-02    0.04       1.0  T
  10   -180.6237284  0.335884E-04  0.273E-02    0.04       1.0  T
  11   -180.6237590 -0.306553E-04  0.108E-02    0.04       1.0  T
  12   -180.6237491  0.997206E-05  0.178E-02    0.04       1.0  T
  13   -180.6237534 -0.432568E-05  0.160E-02    0.04       1.0  T
  14   -180.6237648 -0.113767E-04  0.858E-03    0.04       1.2  T
  15   -180.6237681 -0.333734E-05  0.303E-03    0.04       3.5  T
  16   -180.6237684 -0.255690E-06  0.212E-03    0.04       5.0  T
  17   -180.6237680  0.351481E-06  0.336E-03    0.04       3.1  T
  18   -180.6237685 -0.531553E-06  0.104E-03    0.04      10.1  T
  19   -180.6237685  0.228314E-08  0.105E-03    0.04      10.0  T
  20   -180.6237685 -0.465974E-09  0.100E-03    0.04      10.5  T
  21   -180.6237686 -0.161862E-07  0.896E-04    0.04      11.8  T
  22   -180.6237686 -0.333428E-07  0.400E-04    0.04      26.3  T
     SCC iter.                  ...        0 min,  0.480 sec
     gradient                   ...        0 min,  0.052 sec
 * total energy  :  -178.9179739 Eh     change       -0.7520154E-04 Eh
   gradient norm :     0.0017459 Eh/α   predicted    -0.6266814E-04 ( -16.67%)
   displ. norm   :     0.2254969 α      lambda       -0.8328493E-04
   maximum displ.:     0.1069448 α      in ANC's #2, #1, #7, ...

........................................................................
.............................. CYCLE  231 ..............................
........................................................................

 iter      E             dE          RMSdq      gap      omega  full diag
   1   -180.6200567 -0.180620E+03  0.260E-01    0.05       0.0  T
   2   -178.9848772  0.163518E+01  0.497E+00    0.01       1.0  T
   3   -180.5082040 -0.152333E+01  0.107E+00    0.13       1.0  T
   4   -180.5081358  0.681975E-04  0.124E+00    0.01       1.0  T
   5   -180.6146924 -0.106557E+00  0.369E-01    0.03       1.0  T
   6   -180.6161699 -0.147753E-02  0.285E-01    0.02       1.0  T
   7   -180.6164369 -0.266959E-03  0.373E-01    0.04       1.0  T
   8   -180.6210590 -0.462207E-02  0.225E-01    0.04       1.0  T
   9   -180.6231528 -0.209384E-02  0.102E-01    0.04       1.0  T
  10   -180.6229948  0.158045E-03  0.120E-01    0.04       1.0  T
  11   -180.6235534 -0.558668E-03  0.439E-02    0.04       1.0  T
  12   -180.6236134 -0.599282E-04  0.388E-02    0.04       1.0  T
  13   -180.6237067 -0.933298E-04  0.192E-02    0.04       1.0  T
  14   -180.6237162 -0.950406E-05  0.153E-02    0.04       1.0  T
  15   -180.6236989  0.172989E-04  0.223E-02    0.04       1.0  T
  16   -180.6237277 -0.288038E-04  0.367E-03    0.04       2.9  T
  17   -180.6237268  0.954797E-06  0.494E-03    0.04       2.1  T
  18   -180.6237276 -0.846932E-06  0.450E-03    0.04       2.3  T
  19   -180.6237280 -0.439669E-06  0.373E-03    0.04       2.8  T
  20   -180.6237285 -0.444049E-06  0.230E-03    0.04       4.6  T
  21   -180.6237288 -0.270518E-06  0.570E-04    0.04      18.5  T
  22   -180.6237288 -0.109863E-07  0.282E-04    0.04      37.3  T
     SCC iter.                  ...        0 min,  0.464 sec
     gradient                   ...        0 min,  0.051 sec
 * total energy  :  -178.9180663 Eh     change       -0.9248012E-04 Eh
   gradient norm :     0.0034874 Eh/α   predicted    -0.4258454E-04 ( -53.95%)
   displ. norm   :     0.3932497 α      lambda       -0.1868009E-03
   maximum displ.:     0.1832934 α      in ANC's #2, #1, #7, ...

........................................................................
.............................. CYCLE  232 ..............................
........................................................................

 iter      E             dE          RMSdq      gap      omega  full diag
   1   -180.6209298 -0.180621E+03  0.178E-01    0.05       0.0  T
   2   -180.1364670  0.484463E+00  0.276E+00    0.02       1.0  T
   3   -180.4006210 -0.264154E+00  0.175E+00    0.01       1.0  T
   4   -180.6164494 -0.215828E+00  0.313E-01    0.05       1.0  T
   5   -180.6089754  0.747396E-02  0.362E-01    0.03       1.0  T
   6   -180.6223397 -0.133643E-01  0.366E-02    0.04       1.0  T
   7   -180.6221049  0.234745E-03  0.677E-02    0.04       1.0  T
   8   -180.6223817 -0.276754E-03  0.260E-02    0.04       1.0  T
   9   -180.6222851  0.966064E-04  0.384E-02    0.04       1.0  T
  10   -180.6223697 -0.846327E-04  0.250E-02    0.04       1.0  T
  11   -180.6223809 -0.111754E-04  0.215E-02    0.04       1.0  T
  12   -180.6224169 -0.360136E-04  0.679E-03    0.04       1.6  T
  13   -180.6224167  0.239414E-06  0.593E-03    0.04       1.8  T
  14   -180.6224093  0.737148E-05  0.108E-02    0.04       1.0  T
  15   -180.6224181 -0.880890E-05  0.348E-03    0.04       3.0  T
  16   -180.6224180  0.929058E-07  0.410E-03    0.04       2.6  T
  17   -180.6224174  0.643762E-06  0.467E-03    0.04       2.3  T
  18   -180.6224192 -0.185367E-05  0.478E-04    0.04      22.0  T
  19   -180.6224189  0.328041E-06  0.217E-03    0.04       4.8  T
  20   -180.6224192 -0.318633E-06  0.520E-04    0.04      20.3  T
  21   -180.6224192 -0.174612E-07  0.119E-04    0.04      88.2  T
     SCC iter.                  ...        0 min,  0.451 sec
     gradient                   ...        0 min,  0.051 sec
 * total energy  :  -178.9181992 Eh     change       -0.1328640E-03 Eh
   gradient norm :     0.0040813 Eh/α   predicted    -0.1078460E-03 ( -18.83%)
   displ. norm   :     0.4243496 α      lambda       -0.1664268E-03
   maximum displ.:     0.1988562 α      in ANC's #2, #1, #7, ...

........................................................................
.............................. CYCLE  233 ..............................
........................................................................

 iter      E             dE          RMSdq      gap      omega  full diag
   1   -180.6199979 -0.180620E+03  0.173E-01    0.05       0.0  T
   2   -180.1075791  0.512419E+00  0.266E+00    0.01       1.0  T
   3   -180.3748947 -0.267316E+00  0.215E+00    0.02       1.0  T
   4   -180.6200181 -0.245123E+00  0.136E-01    0.04       1.0  T
   5   -180.6032392  0.167789E-01  0.405E-01    0.03       1.0  T
   6   -180.6191019 -0.158627E-01  0.148E-01    0.03       1.0  T
   7   -180.6207714 -0.166949E-02  0.600E-02    0.04       1.0  T
   8   -180.6199692  0.802136E-03  0.109E-01    0.05       1.0  T
   9   -180.6210627 -0.109343E-02  0.246E-02    0.04       1.0  T
  10   -180.6210566  0.609964E-05  0.286E-02    0.04       1.0  T
  11   -180.6210853 -0.287679E-04  0.153E-02    0.04       1.0  T
  12   -180.6210612  0.241010E-04  0.212E-02    0.04       1.0  T
  13   -180.6211028 -0.415462E-04  0.386E-03    0.04       2.7  T
  14   -180.6210905  0.122446E-04  0.119E-02    0.04       1.0  T
  15   -180.6211020 -0.114370E-04  0.447E-03    0.04       2.4  T
  16   -180.6211026 -0.608088E-06  0.393E-03    0.04       2.7  T
  17   -180.6211034 -0.774729E-06  0.128E-03    0.04       8.2  T
  18   -180.6211031  0.233308E-06  0.194E-03    0.04       5.4  T
  19   -180.6211033 -0.176181E-06  0.131E-03    0.04       8.0  T
  20   -180.6211034 -0.130166E-06  0.428E-04    0.04      24.7  T
  21   -180.6211034 -0.955924E-08  0.225E-04    0.04      46.9  T
     SCC iter.                  ...        0 min,  0.455 sec
     gradient                   ...        0 min,  0.050 sec
 * total energy  :  -178.9183176 Eh     change       -0.1183489E-03 Eh
   gradient norm :     0.0039018 Eh/α   predicted    -0.9820087E-04 ( -17.02%)
   displ. norm   :     0.4007313 α      lambda       -0.1579969E-03
   maximum displ.:     0.1912052 α      in ANC's #2, #1, #7, ...

........................................................................
.............................. CYCLE  234 ..............................
........................................................................

 iter      E             dE          RMSdq      gap      omega  full diag
   1   -180.6088013 -0.180609E+03  0.382E-01    0.06       0.0  T
   2   -176.9187210  0.369008E+01  0.737E+00    0.09       1.0  T
   3   -179.3212757 -0.240255E+01  0.539E+00    0.03       1.0  T
   4   -180.4968628 -0.117559E+01  0.113E+00    0.01       1.0  T
   5   -180.6171680 -0.120305E+00  0.225E-01    0.05       1.0  T
   6   -180.6213496 -0.418166E-02  0.635E-02    0.04       1.0  T
   7   -180.6185298  0.281986E-02  0.210E-01    0.03       1.0  T
   8   -180.6166442  0.188558E-02  0.263E-01    0.03       1.0  T
   9   -180.6169782 -0.334009E-03  0.250E-01    0.03       1.0  T
  10   -180.6199069 -0.292869E-02  0.155E-01    0.05       1.0  T
  11   -180.6188471  0.105983E-02  0.192E-01    0.05       1.0  T
  12   -180.6206157 -0.176867E-02  0.118E-01    0.05       1.0  T
  13   -180.6215321 -0.916335E-03  0.268E-02    0.04       1.0  T
  14   -180.6215789 -0.467955E-04  0.548E-03    0.04       1.9  T
  15   -180.6215693  0.954145E-05  0.122E-02    0.04       1.0  T
  16   -180.6215390  0.303703E-04  0.224E-02    0.04       1.0  T
  17   -180.6215803 -0.413141E-04  0.327E-03    0.04       3.2  T
  18   -180.6215809 -0.653320E-06  0.126E-03    0.04       8.4  T
  19   -180.6215809  0.367988E-07  0.127E-03    0.04       8.3  T
  20   -180.6215807  0.136533E-06  0.171E-03    0.04       6.2  T
  21   -180.6215810 -0.223195E-06  0.594E-04    0.04      17.7  T
  22   -180.6215810  0.164654E-07  0.610E-04    0.04      17.3  T
     SCC iter.                  ...        0 min,  0.495 sec
     gradient                   ...        0 min,  0.050 sec
 * total energy  :  -178.9184188 Eh     change       -0.1012528E-03 Eh
   gradient norm :     0.0032289 Eh/α   predicted    -0.9168983E-04 (  -9.44%)
   displ. norm   :     0.2778552 α      lambda       -0.1034964E-03
   maximum displ.:     0.1339602 α      in ANC's #2, #1, #3, ...

........................................................................
.............................. CYCLE  235 ..............................
........................................................................

 iter      E             dE          RMSdq      gap      omega  full diag
   1   -180.6223923 -0.180622E+03  0.141E-01    0.04       0.0  T
   2   -180.4644609  0.157931E+00  0.130E+00    0.01       1.0  T
   3   -180.6068213 -0.142360E+00  0.485E-01    0.06       1.0  T
   4   -180.5956966  0.111247E-01  0.659E-01    0.02       1.0  T
   5   -180.6221164 -0.264198E-01  0.118E-01    0.03       1.0  T
   6   -180.6228786 -0.762130E-03  0.563E-02    0.04       1.0  T
   7   -180.6230306 -0.152035E-03  0.474E-02    0.04       1.0  T
   8   -180.6229306  0.999511E-04  0.578E-02    0.04       1.0  T
   9   -180.6229648 -0.341859E-04  0.533E-02    0.04       1.0  T
  10   -180.6231140 -0.149159E-03  0.371E-02    0.04       1.0  T
  11   -180.6232015 -0.874859E-04  0.198E-02    0.04       1.0  T
  12   -180.6232037 -0.222260E-05  0.162E-02    0.04       1.0  T
  13   -180.6232267 -0.229594E-04  0.361E-03    0.04       2.9  T
  14   -180.6232246  0.209659E-05  0.585E-03    0.04       1.8  T
  15   -180.6232272 -0.262828E-05  0.138E-03    0.04       7.6  T
  16   -180.6232270  0.197351E-06  0.244E-03    0.04       4.3  T
  17   -180.6232270 -0.294979E-07  0.198E-03    0.04       5.3  T
  18   -180.6232272 -0.156044E-06  0.145E-03    0.04       7.3  T
  19   -180.6232271  0.915978E-07  0.183E-03    0.04       5.8  T
  20   -180.6232273 -0.259066E-06  0.251E-04    0.04      42.1  T
  21   -180.6232273  0.268187E-07  0.597E-04    0.04      17.7  T
     SCC iter.                  ...        0 min,  0.475 sec
     gradient                   ...        0 min,  0.049 sec
 * total energy  :  -178.9184938 Eh     change       -0.7497221E-04 Eh
   gradient norm :     0.0032576 Eh/α   predicted    -0.5574437E-04 ( -25.65%)
   displ. norm   :     0.3388722 α      lambda       -0.1218770E-03
   maximum displ.:     0.1621240 α      in ANC's #2, #1, #3, ...

........................................................................
.............................. CYCLE  236 ..............................
........................................................................

 iter      E             dE          RMSdq      gap      omega  full diag
   1   -180.6222336 -0.180622E+03  0.203E-01    0.05       0.0  T
   2   -179.7550519  0.867182E+00  0.317E+00    0.01       1.0  T
   3   -180.1752125 -0.420161E+00  0.298E+00    0.02       1.0  T
   4   -180.5819195 -0.406707E+00  0.742E-01    0.01       1.0  T
   5   -180.6142575 -0.323380E-01  0.305E-01    0.05       1.0  T
   6   -180.6210112 -0.675365E-02  0.194E-01    0.05       1.0  T
   7   -180.6243064 -0.329526E-02  0.594E-02    0.04       1.0  T
   8   -180.6244972 -0.190781E-03  0.315E-02    0.04       1.0  T
   9   -180.6245266 -0.294429E-04  0.314E-02    0.04       1.0  T
  10   -180.6244489  0.777801E-04  0.400E-02    0.04       1.0  T
  11   -180.6245623 -0.113465E-03  0.160E-02    0.04       1.0  T
  12   -180.6245760 -0.136899E-04  0.111E-02    0.04       1.0  T
  13   -180.6245800 -0.401879E-05  0.101E-02    0.04       1.0  T
  14   -180.6245789  0.117251E-05  0.932E-03    0.04       1.1  T
  15   -180.6245851 -0.625800E-05  0.293E-03    0.04       3.6  T
  16   -180.6245847  0.370624E-06  0.348E-03    0.04       3.0  T
  17   -180.6245858 -0.101367E-05  0.120E-03    0.04       8.8  T
  18   -180.6245858 -0.802193E-07  0.598E-04    0.04      17.6  T
  19   -180.6245858  0.138253E-07  0.665E-04    0.04      15.8  T
     SCC iter.                  ...        0 min,  0.427 sec
     gradient                   ...        0 min,  0.053 sec
 * total energy  :  -178.9185912 Eh     change       -0.9737175E-04 Eh
   gradient norm :     0.0034451 Eh/α   predicted    -0.6793848E-04 ( -30.23%)
   displ. norm   :     0.4486171 α      lambda       -0.1768614E-03
   maximum displ.:     0.2066715 α      in ANC's #2, #1, #3, ...

........................................................................
.............................. CYCLE  237 ..............................
........................................................................

 iter      E             dE          RMSdq      gap      omega  full diag
   1   -180.6241456 -0.180624E+03  0.202E-01    0.04       0.0  T
   2   -180.4538031  0.170343E+00  0.135E+00    0.00       1.0  T
   3   -180.6024223 -0.148619E+00  0.483E-01    0.07       1.0  T
   4   -180.4063166  0.196106E+00  0.175E+00    0.01       1.0  T
   5   -180.6018521 -0.195535E+00  0.585E-01    0.02       1.0  T
   6   -180.6122351 -0.103831E-01  0.384E-01    0.02       1.0  T
   7   -180.6230809 -0.108458E-01  0.153E-01    0.03       1.0  T
   8   -180.6239830 -0.902082E-03  0.119E-01    0.05       1.0  T
   9   -180.6248803 -0.897288E-03  0.711E-02    0.04       1.0  T
  10   -180.6252794 -0.399116E-03  0.152E-02    0.04       1.0  T
  11   -180.6252907 -0.112838E-04  0.651E-03    0.04       1.6  T
  12   -180.6252638  0.269638E-04  0.205E-02    0.04       1.0  T
  13   -180.6252751 -0.113002E-04  0.149E-02    0.04       1.0  T
  14   -180.6252593  0.157639E-04  0.231E-02    0.04       1.0  T
  15   -180.6252710 -0.116856E-04  0.156E-02    0.04       1.0  T
  16   -180.6252917 -0.207359E-04  0.458E-03    0.04       2.3  T
  17   -180.6252905  0.122308E-05  0.613E-03    0.04       1.7  T
  18   -180.6252906 -0.767725E-07  0.535E-03    0.04       2.0  T
  19   -180.6252932 -0.261296E-05  0.837E-04    0.04      12.6  T
  20   -180.6252928  0.344950E-06  0.232E-03    0.04       4.5  T
  21   -180.6252932 -0.373351E-06  0.231E-04    0.04      45.6  T
  22   -180.6252930  0.158916E-06  0.168E-03    0.04       6.3  T
  23   -180.6252932 -0.145516E-06  0.480E-04    0.04      22.0  T
     SCC iter.                  ...        0 min,  0.552 sec
     gradient                   ...        0 min,  0.052 sec
 * total energy  :  -178.9187242 Eh     change       -0.1330923E-03 Eh
   gradient norm :     0.0037549 Eh/α   predicted    -0.1062269E-03 ( -20.19%)
   displ. norm   :     0.4653009 α      lambda       -0.1584426E-03
   maximum displ.:     0.2078325 α      in ANC's #2, #1, #3, ...

........................................................................
.............................. CYCLE  238 ..............................
........................................................................

 iter      E             dE          RMSdq      gap      omega  full diag
   1   -180.6192298 -0.180619E+03  0.282E-01    0.05       0.0  T
   2   -177.6016712  0.301756E+01  0.672E+00    0.06       1.0  T
   3   -180.0426375 -0.244097E+01  0.334E+00    0.02       1.0  T
   4   -180.6124908 -0.569853E+00  0.320E-01    0.05       1.0  T
   5   -180.6060324  0.645842E-02  0.478E-01    0.05       1.0  T
   6   -180.6107043 -0.467191E-02  0.371E-01    0.02       1.0  T
   7   -180.6235259 -0.128216E-01  0.849E-02    0.04       1.0  T
   8   -180.6224889  0.103707E-02  0.118E-01    0.05       1.0  T
   9   -180.6232621 -0.773214E-03  0.786E-02    0.04       1.0  T
  10   -180.6232695 -0.746113E-05  0.852E-02    0.04       1.0  T
  11   -180.6232239  0.456021E-04  0.854E-02    0.04       1.0  T
  12   -180.6231509  0.729903E-04  0.900E-02    0.03       1.0  T
  13   -180.6234203 -0.269329E-03  0.683E-02    0.04       1.0  T
  14   -180.6237787 -0.358455E-03  0.205E-02    0.04       1.0  T
  15   -180.6237076  0.711002E-04  0.432E-02    0.04       1.0  T
  16   -180.6237618 -0.542072E-04  0.299E-02    0.04       1.0  T
  17   -180.6237738 -0.119493E-04  0.233E-02    0.04       1.0  T
  18   -180.6238176 -0.437937E-04  0.292E-03    0.04       3.6  T
  19   -180.6238177 -0.146594E-06  0.221E-03    0.04       4.8  T
  20   -180.6238179 -0.197949E-06  0.120E-03    0.04       8.8  T
  21   -180.6238178  0.135470E-06  0.160E-03    0.04       6.6  T
  22   -180.6238178 -0.607502E-07  0.151E-03    0.04       7.0  T
  23   -180.6238180 -0.130352E-06  0.771E-04    0.04      13.7  T
  24   -180.6238180  0.625715E-08  0.894E-04    0.04      11.8  T
     SCC iter.                  ...        0 min,  0.539 sec
     gradient                   ...        0 min,  0.051 sec
 * total energy  :  -178.9188358 Eh     change       -0.1116006E-03 Eh
   gradient norm :     0.0043704 Eh/α   predicted    -0.9637642E-04 ( -13.64%)
   displ. norm   :     0.3898289 α      lambda       -0.1201159E-03
   maximum displ.:     0.1750246 α      in ANC's #2, #1, #3, ...

........................................................................
.............................. CYCLE  239 ..............................
........................................................................

 iter      E             dE          RMSdq      gap      omega  full diag
   1   -180.6206665 -0.180621E+03  0.190E-01    0.05       0.0  T
   2   -179.7382332  0.882433E+00  0.352E+00    0.01       1.0  T
   3   -180.3905283 -0.652295E+00  0.206E+00    0.02       1.0  T
   4   -180.6180281 -0.227500E+00  0.246E-01    0.04       1.0  T
   5   -180.5927027  0.253254E-01  0.514E-01    0.03       1.0  T
   6   -180.6173911 -0.246884E-01  0.228E-01    0.03       1.0  T
   7   -180.6217817 -0.439064E-02  0.584E-02    0.04       1.0  T
   8   -180.6204277  0.135403E-02  0.130E-01    0.05       1.0  T
   9   -180.6220180 -0.159037E-02  0.241E-02    0.04       1.0  T
  10   -180.6219784  0.396375E-04  0.343E-02    0.04       1.0  T
  11   -180.6219644  0.139641E-04  0.324E-02    0.04       1.0  T
  12   -180.6219629  0.154382E-05  0.321E-02    0.04       1.0  T
  13   -180.6220567 -0.938142E-04  0.700E-03    0.04       1.5  T
  14   -180.6220505  0.617118E-05  0.111E-02    0.04       1.0  T
  15   -180.6220490  0.153061E-05  0.116E-02    0.04       1.0  T
  16   -180.6220556 -0.660482E-05  0.804E-03    0.04       1.3  T
  17   -180.6220591 -0.349977E-05  0.198E-03    0.04       5.3  T
  18   -180.6220589  0.180243E-06  0.285E-03    0.04       3.7  T
  19   -180.6220591 -0.223748E-06  0.225E-03    0.04       4.7  T
  20   -180.6220594 -0.224689E-06  0.107E-03    0.04       9.8  T
  21   -180.6220594  0.213780E-08  0.990E-04    0.04      10.6  T
  22   -180.6220594 -0.514608E-07  0.524E-04    0.04      20.1  T
     SCC iter.                  ...        0 min,  0.539 sec
     gradient                   ...        0 min,  0.057 sec
 * total energy  :  -178.9189205 Eh     change       -0.8464778E-04 Eh
   gradient norm :     0.0043304 Eh/α   predicted    -0.6918889E-04 ( -18.26%)
   displ. norm   :     0.3053099 α      lambda       -0.1130165E-03
   maximum displ.:     0.1341619 α      in ANC's #2, #1, #3, ...

........................................................................
.............................. CYCLE  240 ..............................
........................................................................

 iter      E             dE          RMSdq      gap      omega  full diag
   1   -180.6188817 -0.180619E+03  0.218E-01    0.05       0.0  T
   2   -177.9695107  0.264937E+01  0.629E+00    0.04       1.0  T
   3   -180.2746153 -0.230510E+01  0.258E+00    0.02       1.0  T
   4   -180.6087152 -0.334100E+00  0.352E-01    0.06       1.0  T
   5   -180.6068626  0.185257E-02  0.466E-01    0.05       1.0  T
   6   -180.6063219  0.540684E-03  0.392E-01    0.03       1.0  T
   7   -180.6198518 -0.135299E-01  0.153E-01    0.04       1.0  T
   8   -180.6211726 -0.132080E-02  0.736E-02    0.04       1.0  T
   9   -180.6203606  0.811948E-03  0.137E-01    0.03       1.0  T
  10   -180.6198729  0.487700E-03  0.156E-01    0.03       1.0  T
  11   -180.6198755 -0.260527E-05  0.156E-01    0.03       1.0  T
  12   -180.6215597 -0.168413E-02  0.364E-02    0.04       1.0  T
  13   -180.6216772 -0.117486E-03  0.127E-02    0.04       1.0  T
  14   -180.6216696  0.757849E-05  0.148E-02    0.04       1.0  T
  15   -180.6216313  0.382885E-04  0.306E-02    0.04       1.0  T
  16   -180.6216663 -0.350414E-04  0.189E-02    0.04       1.0  T
  17   -180.6216812 -0.148430E-04  0.907E-03    0.04       1.2  T
  18   -180.6216859 -0.472818E-05  0.363E-03    0.04       2.9  T
  19   -180.6216863 -0.351662E-06  0.227E-03    0.04       4.7  T
  20   -180.6216866 -0.385946E-06  0.617E-04    0.04      17.1  T
  21   -180.6216866  0.406158E-07  0.109E-03    0.04       9.7  T
  22   -180.6216866 -0.343863E-07  0.564E-04    0.04      18.7  T
     SCC iter.                  ...        0 min,  0.521 sec
     gradient                   ...        0 min,  0.050 sec
 * total energy  :  -178.9190013 Eh     change       -0.8081564E-04 Eh
   gradient norm :     0.0034281 Eh/α   predicted    -0.6177736E-04 ( -23.56%)
   displ. norm   :     0.3055646 α      lambda       -0.9659393E-04
   maximum displ.:     0.1491849 α      in ANC's #2, #1, #3, ...

........................................................................
.............................. CYCLE  241 ..............................
........................................................................

 iter      E             dE          RMSdq      gap      omega  full diag
   1   -180.6178011 -0.180618E+03  0.211E-01    0.05       0.0  T
   2   -177.8008126  0.281699E+01  0.647E+00    0.05       1.0  T
   3   -180.1822808 -0.238147E+01  0.296E+00    0.02       1.0  T
   4   -180.6096674 -0.427387E+00  0.340E-01    0.06       1.0  T
   5   -180.6065315  0.313590E-02  0.486E-01    0.05       1.0  T
   6   -180.6040180  0.251345E-02  0.437E-01    0.03       1.0  T
   7   -180.6165556 -0.125376E-01  0.236E-01    0.05       1.0  T
   8   -180.6200064 -0.345077E-02  0.742E-02    0.04       1.0  T
   9   -180.6196986  0.307832E-03  0.103E-01    0.03       1.0  T
  10   -180.6197028 -0.425077E-05  0.102E-01    0.03       1.0  T
  11   -180.6197032 -0.359394E-06  0.988E-02    0.03       1.0  T
  12   -180.6203176 -0.614437E-03  0.575E-02    0.04       1.0  T
  13   -180.6203448 -0.271573E-04  0.479E-02    0.04       1.0  T
  14   -180.6204637 -0.118911E-03  0.242E-02    0.04       1.0  T
  15   -180.6204892 -0.254864E-04  0.134E-02    0.04       1.0  T
  16   -180.6204960 -0.683817E-05  0.799E-03    0.04       1.3  T
  17   -180.6204926  0.335521E-05  0.104E-02    0.04       1.0  T
  18   -180.6204989 -0.626956E-05  0.247E-03    0.04       4.3  T
  19   -180.6204982  0.665360E-06  0.337E-03    0.04       3.1  T
  20   -180.6204990 -0.795039E-06  0.170E-03    0.04       6.2  T
  21   -180.6204991 -0.524514E-07  0.134E-03    0.04       7.9  T
  22   -180.6204992 -0.780538E-07  0.102E-03    0.04      10.4  T
  23   -180.6204992 -0.198618E-07  0.821E-04    0.04      12.8  T
  24   -180.6204992 -0.784641E-08  0.768E-04    0.04      13.7  T
     SCC iter.                  ...        0 min,  0.502 sec
     gradient                   ...        0 min,  0.048 sec
 * total energy  :  -178.9190644 Eh     change       -0.6313515E-04 Eh
   gradient norm :     0.0035982 Eh/α   predicted    -0.5281094E-04 ( -16.35%)
   displ. norm   :     0.1840231 α      lambda       -0.5978839E-04
   maximum displ.:     0.0775549 α      in ANC's #2, #1, #3, ...

........................................................................
.............................. CYCLE  242 ..............................
........................................................................

 iter      E             dE          RMSdq      gap      omega  full diag
   1   -180.6232106 -0.180623E+03  0.114E-01    0.04       0.0  T
   2   -180.4537049  0.169506E+00  0.153E+00    0.01       1.0  T
   3   -180.5884186 -0.134714E+00  0.719E-01    0.01       1.0  T
   4   -180.5965484 -0.812987E-02  0.547E-01    0.08       1.0  T
   5   -180.6184102 -0.218618E-01  0.224E-01    0.03       1.0  T
   6   -180.6234440 -0.503379E-02  0.686E-02    0.04       1.0  T
   7   -180.6236818 -0.237750E-03  0.265E-02    0.04       1.0  T
   8   -180.6236208  0.609793E-04  0.384E-02    0.04       1.0  T
   9   -180.6235941  0.266973E-04  0.408E-02    0.04       1.0  T
  10   -180.6236911 -0.970004E-04  0.206E-02    0.04       1.0  T
  11   -180.6237248 -0.337066E-04  0.933E-03    0.04       1.1  T
  12   -180.6237136  0.111898E-04  0.144E-02    0.04       1.0  T
  13   -180.6237150 -0.145397E-05  0.127E-02    0.04       1.0  T
  14   -180.6237289 -0.138100E-04  0.398E-03    0.04       2.7  T
  15   -180.6237278  0.106937E-05  0.529E-03    0.04       2.0  T
  16   -180.6237288 -0.979757E-06  0.344E-03    0.04       3.1  T
  17   -180.6237296 -0.858665E-06  0.172E-03    0.04       6.1  T
  18   -180.6237297 -0.439856E-07  0.156E-03    0.04       6.8  T
  19   -180.6237298 -0.159518E-06  0.702E-04    0.04      15.0  T
  20   -180.6237299 -0.281983E-07  0.476E-04    0.04      22.1  T
     SCC iter.                  ...        0 min,  0.444 sec
     gradient                   ...        0 min,  0.052 sec
 * total energy  :  -178.9190985 Eh     change       -0.3403247E-04 Eh
   gradient norm :     0.0035740 Eh/α   predicted    -0.3090891E-04 (  -9.18%)
   displ. norm   :     0.3437657 α      lambda       -0.6078264E-04
   maximum displ.:     0.1768664 α      in ANC's #2, #1, #3, ...

   *** GEOMETRY OPTIMIZATION CONVERGED AFTER 242 ITERATIONS ***

------------------------------------------------------------------------
 total energy gain   :        -0.5761862 Eh     -361.5623 kcal/mol
 total RMSD          :         5.7572651 a0        3.0466 Å
 total power (kW/mol):        -6.2511435 (step)   -9.4066 (real)
------------------------------------------------------------------------

 ANCopt (total)                0 d,  0 h,  2 min, 40.821 sec
 optimizer setup                ...        0 min,  0.000 sec (  0.000%)
 model hessian                  ...        0 min,  0.459 sec (  0.285%)
 ANC generation                 ...        0 min,  0.094 sec (  0.058%)
 coordinate transformation      ...        0 min,  0.022 sec (  0.014%)
 single point calculation       ...        2 min, 39.785 sec ( 99.356%)
 optimization log               ...        0 min,  0.326 sec (  0.203%)
 hessian update                 ...        0 min,  0.018 sec (  0.011%)
 rational function              ...        0 min,  0.090 sec (  0.056%)

================
 final structure:
================
90
 xtb: 6.7.1pre (5071a88)
C           -4.03745266123339        1.96259674083549        8.46360875672025
C           -2.87124991040961        2.88664044476399        8.12103618471277
C           -2.73402087175289        3.97382010146441        9.19815467533587
C           -3.08244914392968        3.54841014207163        6.75251165289169
C           -1.56758651811817        2.12575739087982        8.08010034945703
N           -1.52841102665968        0.85747080218698        8.39983196664695
C           -0.30596645542552        0.24705179613829        8.40683286098139
N            0.90387238789260        0.95743167662817        8.07820147745330
C            0.67952962248619        2.25588640107800        7.70086852176810
N           -0.49119640810285        2.87251722672384        7.73388783605261
N            1.74023065404094        2.98893866655506        7.32208493135147
C            1.52484134003392        4.25485203007894        6.63591752489726
C            2.73074156230666        4.57184343216556        5.75690616410054
O            3.94175642027126        4.63965363073023        6.49407222733497
C            4.01306895773506        3.72587977249023        7.56974631798934
C            3.10755308129925        2.50931815375037        7.38028265912113
C           -0.21517992238526       -1.16788815206557        8.62298552458152
C           -1.37418473870080       -1.97993052974196        8.67301479179521
N           -1.37159525276972       -3.25307136219469        8.31857870760679
C           -0.25134545152384       -3.75912651197753        7.81880526127091
N           -0.30969462718528       -5.06279918218584        7.36239515138580
C            0.63871842342208       -5.54515679785469        6.37766986705732
C           -0.04525353462620       -5.58972912004264        4.98401298167530
O           -1.10832722734494       -4.64051732139741        4.93714616261800
C           -2.18469708416856       -5.05709140216994        5.78667927325438
C           -1.63579853252246       -5.59522949922569        7.12632129771908
N            0.96163783726729       -3.14895127212512        7.86542064913814
C            0.99579386001682       -1.92066893626203        8.38045861747285
N            2.22823192356097       -1.42288587526397        8.70584578268426
H           -4.95659215241226        2.53991779844786        8.53375132542934
H           -3.85303560188483        1.46783795146307        9.41284202296093
H           -4.15194185618067        1.19070041166107        7.68354568060341
H           -3.62220770681487        4.60095185984457        9.21231182120946
H           -1.86524064810867        4.58831435734696        8.98426936820412
H           -2.60842314535962        3.52095288405404       10.17839637685854
H           -3.13519627602373        2.79042361533365        5.95974654969165
H           -4.00366932771755        4.12734345730728        6.75820078725263
H           -2.24350681252261        4.20500771260897        6.53185178690084
H            0.63035070777874        4.16490320731582        6.00935690766987
H            1.36644889454958        5.04674786016863        7.37733646245784
H            2.60798161774129        5.55474474142443        5.29678844586199
H            2.80595823228101        3.81445717996077        4.95018864698881
H            3.73099392868999        4.24075739475656        8.50077789291635
H            5.05839066538138        3.41399788483685        7.64592807865668
H            3.20343080245570        1.83462465954526        8.23568711927889
H            3.38280361228956        1.97198733797131        6.46324649892383
H           -2.33163126621601       -1.56038669982431        8.96032158369343
H            1.51508517368865       -4.87455753860198        6.36321701605797
H            0.95901309407928       -6.55285008544935        6.66924330192122
H            0.65866178143931       -5.31118108739614        4.18777694859346
H           -0.45640684372404       -6.58962985311543        4.77580302948908
H           -2.77193936258964       -5.82573024904731        5.26320692917865
H           -2.78764685567977       -4.15155327795859        5.93045307544825
H           -2.27902861725041       -5.28967959150376        7.94944017731398
H           -1.54827966278624       -6.68574281692352        7.10935898945239
H            2.28153726212708       -0.41006131755417        8.77240431063588
H            3.00940924731559       -1.89867850493292        8.26445295430709
Ti          -3.25619923120977       -0.59551661007718        5.24025583413481
Ti          -1.17928052470165       -2.20007684689919        3.84002639250204
Ti          -0.50167850215209       -3.48469255073586        1.31342679043909
Ti          -1.33981428326909        1.31277975566051        3.95092214132148
Ti           1.44697676174023       -2.25527094949013        5.21301890097608
Ti           0.39544257131875        0.15399389183751        6.35346101874728
Ti          -3.37423522807263       -0.68356711712616        1.55932998406891
Ti           0.20144898736282       -0.16324781623783        1.11504930087146
Ti           1.22545567412113       -1.64956300646419       -1.21822935360752
Ti           1.31887006948038        2.11689012677121        2.49065241899908
Ti           2.25521391466179       -2.19807827594591        1.88360429293078
Ti           3.28669747664576        0.45078835497912        0.78793879531225
C           -0.85140449451056        3.29901170107926        3.53498776504126
C            3.31905325279123       -3.10589661912082        3.39516626131649
C            2.38337739900084        0.54710955569369        4.76635487084004
C            0.27366721248609        3.70998653333329        3.21114281163874
C            3.14756978594954       -3.23519912487973        4.61662374104916
C            2.51430404102199        1.51574312826287        3.95292619498066
C            2.25028879127262       -0.41677471413041        5.68950947769144
O           -2.98209742077822        1.06447767152671        4.50745957657266
O           -2.62150441394308       -2.17619663789652        4.91756763935988
O           -1.02106167791296       -1.14990473263121        0.55625168851551
O           -1.09307089161686       -0.50603814077206        3.44703672344551
O            0.47595042706984       -2.84158068857504        3.83157560953720
O           -0.31016640461600        1.32154048026305        5.29709360834904
O           -0.08200288454911       -1.43898152356692        5.93539859483867
O           -1.84488635484055       -2.99440435487513        2.36829702203698
O            1.00730070087492       -0.05118479524708       -0.48300804783251
O            1.22793280317807       -3.29892262900970        0.94195172539894
O           -0.30786442242905        1.35583049255038        1.71914535605147
O            1.29185261441907       -0.82855807101809        2.30552191884069
O            2.45529304446959        1.93578029080894        1.14405271309210
O            3.34168361855710       -1.36891751598479        0.78247596951907
 
 Bond Distances (Angstroems)
 ---------------------------
C1-C2=1.5268         C1-H30=1.0877        C1-H31=1.0862        C1-H32=1.1034        C2-C1=1.5268         C2-C3=1.5365         
C2-C4=1.5347         C2-C5=1.5100         C3-C2=1.5365         C3-H33=1.0874        C3-H34=1.0854        C3-H35=1.0871        
C4-C2=1.5347         C4-H36=1.0981        C4-H37=1.0880        C4-H38=1.0880        C5-C2=1.5100         C5-N6=1.3086         
C5-N10=1.3550        N6-C5=1.3086         N6-C7=1.3664         C7-N6=1.3664         C7-N8=1.4410         C7-C17=1.4342        
C7-Ti63=2.1719       N8-C7=1.4410         N8-C9=1.3707         N8-Ti63=1.9695       C9-N8=1.3707         C9-N10=1.3236        
C9-N11=1.3438        C9-Ti63=2.5128       N10-C5=1.3550        N10-C9=1.3236        N11-C9=1.3438        N11-C12=1.4559       
N11-C16=1.4502       C12-N11=1.4559       C12-C13=1.5256       C12-H39=1.0958       C12-H40=1.0963       C13-C12=1.5256       
C13-O14=1.4194       C13-H41=1.0922       C13-H42=1.1091       O14-C13=1.4194       O14-C15=1.4132       C15-O14=1.4132       
C15-C16=1.5284       C15-H43=1.1007       C15-H44=1.0935       C16-N11=1.4502       C16-C15=1.5284       C16-H45=1.0937       
C16-H46=1.0979       C17-C7=1.4342        C17-C18=1.4161       C17-C28=1.4464       C17-Ti63=2.6965      C18-C17=1.4161       
C18-N19=1.3216       C18-H47=1.0841       N19-C18=1.3216       N19-C20=1.3270       C20-N19=1.3270       C20-N21=1.3825       
C20-N27=1.3586       N21-C20=1.3825       N21-C22=1.4498       N21-C26=1.4484       C22-N21=1.4498       C22-C23=1.5531       
C22-H48=1.1036       C22-H49=1.0968       C23-C22=1.5531       C23-O24=1.4259       C23-H50=1.0987       C23-H51=1.1010       
O24-C23=1.4259       O24-C25=1.4331       O24-Ti59=2.6767      C25-O24=1.4331       C25-C26=1.5445       C25-H52=1.0999       
C25-H53=1.0974       C26-N21=1.4484       C26-C25=1.5445       C26-H54=1.0884       C26-H55=1.0942       N27-C20=1.3586       
N27-C28=1.3323       N27-Ti62=2.8407      C28-C17=1.4464       C28-N27=1.3323       C28-N29=1.3684       N29-C28=1.3684       
N29-H56=1.0164       N29-H57=1.0156       H30-C1=1.0877        H31-C1=1.0862        H32-C1=1.1034        H33-C3=1.0874        
H34-C3=1.0854        H35-C3=1.0871        H36-C4=1.0981        H37-C4=1.0880        H38-C4=1.0880        H39-C12=1.0958       
H40-C12=1.0963       H41-C13=1.0922       H42-C13=1.1091       H43-C15=1.1007       H44-C15=1.0935       H45-C16=1.0937       
H46-C16=1.0979       H47-C18=1.0841       H48-C22=1.1036       H49-C22=1.0968       H50-C23=1.0987       H51-C23=1.1010       
H52-C25=1.0999       H53-C25=1.0974       H54-C26=1.0884       H55-C26=1.0942       H56-N29=1.0164       H57-N29=1.0156       
Ti58-Ti59=2.9747     Ti58-Ti61=2.9961     Ti58-Ti64=3.6839     Ti58-O77=1.8351      Ti58-O78=1.7336      Ti59-O24=2.6767      
Ti59-Ti58=2.9747     Ti59-Ti60=2.9143     Ti59-Ti61=3.5183     Ti59-Ti62=2.9640     Ti59-Ti63=3.7867     Ti59-Ti64=3.5099     
Ti59-Ti65=3.6716     Ti59-O78=1.8005      Ti59-O80=1.7412      Ti59-O81=1.7752      Ti59-O83=2.4847      Ti59-O84=1.8000      
Ti60-Ti59=2.9143     Ti60-Ti65=3.4008     Ti60-Ti66=3.5721     Ti60-Ti68=3.0953     Ti60-O79=2.5088      Ti60-O84=1.7769      
Ti60-O86=1.7788      Ti61-Ti58=2.9961     Ti61-Ti59=3.5183     Ti61-Ti63=3.1822     Ti61-Ti64=3.7208     Ti61-Ti65=3.5491     
Ti61-Ti67=3.1381     Ti61-C70=2.0873      Ti61-O77=1.7517      Ti61-O80=1.9034      Ti61-O82=1.6948      Ti61-O87=2.4592      
Ti62-N27=2.8407      Ti62-Ti59=2.9640     Ti62-Ti63=2.8655     Ti62-Ti68=3.4266     Ti62-C71=2.7446      Ti62-C74=2.0513      
Ti62-C76=2.0621      Ti62-O81=1.7875      Ti62-O83=1.8777      Ti63-C7=2.1719       Ti63-N8=1.9695       Ti63-C9=2.5128       
Ti63-C17=2.6965      Ti63-Ti59=3.7867     Ti63-Ti61=3.1822     Ti63-Ti62=2.8655     Ti63-C72=2.5740      Ti63-C76=2.0511      
Ti63-O82=1.7254      Ti63-O83=1.7147      Ti64-Ti58=3.6839     Ti64-Ti59=3.5099     Ti64-Ti61=3.7208     Ti64-Ti65=3.6406     
Ti64-O79=2.6002      Ti65-Ti59=3.6716     Ti65-Ti60=3.4008     Ti65-Ti61=3.5491     Ti65-Ti64=3.6406     Ti65-Ti66=2.9499     
Ti65-Ti67=2.8879     Ti65-Ti68=2.9915     Ti65-Ti69=3.1627     Ti65-O79=1.6674      Ti65-O80=2.6891      Ti65-O85=1.7932      
Ti65-O87=1.7123      Ti65-O88=1.7461      Ti66-Ti60=3.5721     Ti66-Ti65=2.9499     Ti66-Ti68=3.3140     Ti66-Ti69=3.5616     
Ti66-O85=1.7728      Ti66-O86=2.7179      Ti67-Ti61=3.1381     Ti67-Ti65=2.8879     Ti67-Ti69=3.0899     Ti67-C70=2.6829      
Ti67-C73=2.0370      Ti67-C75=1.9821      Ti67-O87=1.9547      Ti67-O89=1.7713      Ti68-Ti60=3.0953     Ti68-Ti62=3.4266     
Ti68-Ti65=2.9915     Ti68-Ti66=3.3140     Ti68-Ti69=3.0465     Ti68-C71=2.0593      Ti68-O81=2.7156      Ti68-O86=1.7759      
Ti68-O88=1.7268      Ti68-O90=1.7551      Ti69-Ti65=3.1627     Ti69-Ti66=3.5616     Ti69-Ti67=3.0899     Ti69-Ti68=3.0465     
Ti69-O85=2.6576      Ti69-O89=1.7388      Ti69-O90=1.8205      C70-Ti61=2.0873      C70-Ti67=2.6829      C70-C73=1.2408       
C71-Ti62=2.7446      C71-Ti68=2.0593      C71-C74=1.2402       C72-Ti63=2.5740      C72-C75=1.2716       C72-C76=1.3413       
C73-Ti67=2.0370      C73-C70=1.2408       C74-Ti62=2.0513      C74-C71=1.2402       C75-Ti67=1.9821      C75-C72=1.2716       
C76-Ti62=2.0621      C76-Ti63=2.0511      C76-C72=1.3413       O77-Ti58=1.8351      O77-Ti61=1.7517      O78-Ti58=1.7336      
O78-Ti59=1.8005      O79-Ti60=2.5088      O79-Ti64=2.6002      O79-Ti65=1.6674      O80-Ti59=1.7412      O80-Ti61=1.9034      
O80-Ti65=2.6891      O81-Ti59=1.7752      O81-Ti62=1.7875      O81-Ti68=2.7156      O82-Ti61=1.6948      O82-Ti63=1.7254      
O83-Ti59=2.4847      O83-Ti62=1.8777      O83-Ti63=1.7147      O84-Ti59=1.8000      O84-Ti60=1.7769      O85-Ti65=1.7932      
O85-Ti66=1.7728      O85-Ti69=2.6576      O86-Ti60=1.7788      O86-Ti66=2.7179      O86-Ti68=1.7759      O87-Ti61=2.4592      
O87-Ti65=1.7123      O87-Ti67=1.9547      O88-Ti65=1.7461      O88-Ti68=1.7268      O89-Ti67=1.7713      O89-Ti69=1.7388      
O90-Ti68=1.7551      O90-Ti69=1.8205      
 C  H  Rav=1.0944 sigma=0.0065  Rmin=1.0841  Rmax=1.1091    26
 C  C  Rav=1.4433 sigma=0.1119  Rmin=1.2402  Rmax=1.5531    15
 N  H  Rav=1.0160 sigma=0.0004  Rmin=1.0156  Rmax=1.0164     2
 N  C  Rav=1.3767 sigma=0.0505  Rmin=1.3086  Rmax=1.4559    17
 O  C  Rav=1.4229 sigma=0.0074  Rmin=1.4132  Rmax=1.4331     4
 Ti C  Rav=2.2856 sigma=0.2895  Rmin=1.9821  Rmax=2.7446    13
 Ti N  Rav=2.4051 sigma=0.4356  Rmin=1.9695  Rmax=2.8407     2
 Ti O  Rav=1.9845 sigma=0.3695  Rmin=1.6674  Rmax=2.7179    36
 Ti Ti Rav=3.2820 sigma=0.2966  Rmin=2.8655  Rmax=3.7867    27
 
 selected bond angles (degree)
 --------------------
H30-C1-C2=109.80               H31-C1-C2=110.00               H31-C1-H30=109.20              H32-C1-C2=110.12               
H32-C1-H30=109.22              H32-C1-H31=108.47              C3-C2-C1=109.82                C4-C2-C1=110.85                
C4-C2-C3=109.41                C5-C2-C1=111.13                C5-C2-C3=107.36                C5-C2-C4=108.17                
H33-C3-C2=110.14               H34-C3-C2=109.51               H34-C3-H33=109.26              H35-C3-C2=110.34               
H35-C3-H33=108.84              H35-C3-H34=108.73              H36-C4-C2=110.65               H37-C4-C2=109.96               
H37-C4-H36=109.29              H38-C4-C2=109.57               H38-C4-H36=107.89              H38-C4-H37=109.44              
N6-C5-C2=120.50                N10-C5-C2=114.52               N10-C5-N6=124.94               C7-N6-C5=117.45                
N8-C7-N6=121.99                C17-C7-N6=119.88               C17-C7-N8=117.88               Ti63-C7-N6=107.65              
Ti63-C7-N8= 62.25              Ti63-C7-C17= 94.58             C9-N8-C7=113.10                Ti63-N8-C7= 77.40              
Ti63-N8-C9= 95.92              N10-C9-N8=125.40               N11-C9-N8=117.72               N11-C9-N10=116.81              
Ti63-C9-N8= 51.22              Ti63-C9-N10=107.64             Ti63-C9-N11=113.23             C9-N10-C5=116.89               
 
 selected dihedral angles (degree)
 ---------------------------------
C3-C2-C1-H30= 58.68           C3-C2-C1-H31=298.48           C3-C2-C1-H32=178.98           C4-C2-C1-H30=297.66           
C4-C2-C1-H31=177.46           C4-C2-C1-H32= 57.96           C5-C2-C1-H30=177.33           C5-C2-C1-H31= 57.13           
C5-C2-C1-H32=297.63           H33-C3-C2-C1=296.53           H33-C3-C2-C4= 58.41           H33-C3-C2-C5=175.58           
H34-C3-C2-C1=176.36           H34-C3-C2-C4=298.24           H34-C3-C2-C5= 55.41           H35-C3-C2-C1= 56.71           
H35-C3-C2-C4=178.59           H35-C3-C2-C5=295.76           H36-C4-C2-C1=298.56           H36-C4-C2-C3=177.29           
H36-C4-C2-C5= 60.64           H37-C4-C2-C1= 59.39           H37-C4-C2-C3=298.13           H37-C4-C2-C5=181.47           
H38-C4-C2-C1=179.71           H38-C4-C2-C3= 58.45           H38-C4-C2-C5=301.79           N6-C5-C2-C1=355.87            
N6-C5-C2-C3=115.99            N6-C5-C2-C4=233.96            N10-C5-C2-C1=177.73           N10-C5-C2-C3=297.85           
N10-C5-C2-C4= 55.82           C7-N6-C5-C2=183.24            C7-N6-C5-N10=  1.18           N8-C7-N6-C5=  0.04            
C17-C7-N6-C5=185.99           Ti63-C7-N6-C5=292.21          C9-N8-C7-N6=356.80            C9-N8-C7-C17=170.96           
C9-N8-C7-Ti63= 91.12          Ti63-N8-C7-N6=265.68          Ti63-N8-C7-C17= 79.84         N10-C9-N8-C7=  5.81           
N10-C9-N8-Ti63= 84.61         N11-C9-N8-C7=182.61           N11-C9-N8-Ti63=261.41         Ti63-C9-N8-C7=281.20          
C9-N10-C5-C2=179.12           C9-N10-C5-N6=  1.07           C5-N10-C9-N8=355.07           C5-N10-C9-N11=178.24          
C5-N10-C9-Ti63= 49.60         
 
 CMA Distance (Angstroems)
 ---------------------------
R(CMA):  4.6514
           -------------------------------------------------
          |                Final Singlepoint                |
           -------------------------------------------------

          ...................................................
          :                      SETUP                      :
          :.................................................:
          :  # basis functions                 348          :
          :  # atomic orbitals                 336          :
          :  # shells                          164          :
          :  # electrons                       316          :
          :  max. iterations                   500          :
          :  Hamiltonian                  GFN2-xTB          :
          :  restarted?                      false          :
          :  GBSA solvation                  false          :
          :  PC potential                    false          :
          :  electronic temp.          300.0000000     K    :
          :  accuracy                    1.0000000          :
          :  -> integral cutoff          0.2500000E+02      :
          :  -> integral neglect         0.1000000E-07      :
          :  -> SCF convergence          0.1000000E-05 Eh   :
          :  -> wf. convergence          0.1000000E-03 e    :
          :  Broyden damping             0.4000000          :
          :  net charge                          0          :
          :  unpaired electrons                  0          :
          ...................................................

 iter      E             dE          RMSdq      gap      omega  full diag
   1   -180.6237299 -0.180624E+03  0.388E-04    0.04       0.0  T
   2   -180.6237056  0.243064E-04  0.185E-02    0.04       1.0  T
   3   -180.6237298 -0.242168E-04  0.102E-03    0.04      10.4  T
   4   -180.6237298 -0.127566E-07  0.103E-03    0.04      10.3  T
   5   -180.6237299 -0.846772E-07  0.149E-04    0.04      70.8  T
   6   -180.6237299 -0.810786E-09  0.132E-04    0.04      80.0  T

   *** convergence criteria satisfied after 6 iterations ***

         #    Occupation            Energy/Eh            Energy/eV
      -------------------------------------------------------------
         1        2.0000           -0.7820153             -21.2797
       ...           ...                  ...                  ...
       152        2.0000           -0.3248971              -8.8409
       153        2.0000           -0.3214814              -8.7480
       154        2.0000           -0.3205737              -8.7233
       155        2.0000           -0.3112985              -8.4709
       156        2.0000           -0.2890403              -7.8652
       157        1.9998           -0.2848153              -7.7502
       158        0.9971           -0.2762113              -7.5161 (HOMO)
       159        0.3489           -0.2747400              -7.4761 (LUMO)
       160        0.2498           -0.2743673              -7.4659
       161        0.1790           -0.2740132              -7.4563
       162        0.1476           -0.2738135              -7.4508
       163        0.0706           -0.2730737              -7.4307
       ...           ...                  ...                  ...
       336                         13.6642520             371.8232
      -------------------------------------------------------------
                  HL-Gap            0.0014713 Eh            0.0400 eV
             Fermi-level           -0.2762169 Eh           -7.5162 eV

 SCC (total)                   0 d,  0 h,  0 min,  0.205 sec
 SCC setup                      ...        0 min,  0.001 sec (  0.488%)
 Dispersion                     ...        0 min,  0.000 sec (  0.000%)
 classical contributions        ...        0 min,  0.000 sec (  0.000%)
 integral evaluation            ...        0 min,  0.018 sec (  8.780%)
 iterations                     ...        0 min,  0.133 sec ( 64.878%)
 molecular gradient             ...        0 min,  0.051 sec ( 24.878%)
 printout                       ...        0 min,  0.002 sec (  0.976%)

         :::::::::::::::::::::::::::::::::::::::::::::::::::::
         ::                     SUMMARY                     ::
         :::::::::::::::::::::::::::::::::::::::::::::::::::::
         :: total energy            -178.919098486134 Eh    ::
         :: gradient norm              0.003574666743 Eh/a0 ::
         :: HOMO-LUMO gap              0.040035701235 eV    ::
         ::.................................................::
         :: SCC energy              -180.612958881697 Eh    ::
         :: -> isotropic ES            1.159701980320 Eh    ::
         :: -> anisotropic ES         -0.589710345491 Eh    ::
         :: -> anisotropic XC         -0.043211165177 Eh    ::
         :: -> dispersion             -0.207300344329 Eh    ::
         :: repulsion energy           1.693860395563 Eh    ::
         :: add. restraining           0.000000000000 Eh    ::
         :: total charge              -0.000000000001 e     ::
         :::::::::::::::::::::::::::::::::::::::::::::::::::::

           -------------------------------------------------
          |                Property Printout                |
           -------------------------------------------------

    * Orbital Energies and Occupations

         #    Occupation            Energy/Eh            Energy/eV
      -------------------------------------------------------------
         1        2.0000           -0.7820153             -21.2797
       ...           ...                  ...                  ...
       146        2.0000           -0.3601354              -9.7998
       147        2.0000           -0.3579364              -9.7399
       148        2.0000           -0.3562319              -9.6936
       149        2.0000           -0.3534881              -9.6189
       150        2.0000           -0.3468099              -9.4372
       151        2.0000           -0.3391236              -9.2280
       152        2.0000           -0.3248971              -8.8409
       153        2.0000           -0.3214814              -8.7480
       154        2.0000           -0.3205737              -8.7233
       155        2.0000           -0.3112985              -8.4709
       156        2.0000           -0.2890403              -7.8652
       157        1.9998           -0.2848153              -7.7502
       158        0.9971           -0.2762113              -7.5161 (HOMO)
       159        0.3489           -0.2747400              -7.4761 (LUMO)
       160        0.2498           -0.2743673              -7.4659
       161        0.1790           -0.2740132              -7.4563
       162        0.1476           -0.2738135              -7.4508
       163        0.0706           -0.2730737              -7.4307
       164        0.0060           -0.2707087              -7.3664
       165        0.0013           -0.2692257              -7.3260
       166        0.0000           -0.2628447              -7.1524
       167        0.0000           -0.2607506              -7.0954
       168                         -0.2474521              -6.7335
       169                         -0.2419532              -6.5839
       ...                                ...                  ...
       336                         13.6642520             371.8232
      -------------------------------------------------------------
                  HL-Gap            0.0014713 Eh            0.0400 eV
             Fermi-level           -0.2762169 Eh           -7.5162 eV

     #   Z          covCN         q      C6AA      α(0)
     1   6 C        3.757    -0.139    23.236     6.873
     2   6 C        3.907     0.022    20.140     6.379
     3   6 C        3.764    -0.125    22.943     6.827
     4   6 C        3.760    -0.142    23.287     6.879
     5   6 C        2.947     0.180    24.142     8.059
     6   7 N        1.904    -0.304    28.728     7.946
     7   6 C        3.712     0.114    18.841     6.203
     8   7 N        2.602    -0.408    30.602     8.216
     9   6 C        3.417     0.258    19.224     6.725
    10   7 N        1.854    -0.346    29.839     8.096
    11   7 N        2.760    -0.075    22.691     7.075
    12   6 C        3.749    -0.028    21.128     6.556
    13   6 C        3.696     0.048    19.935     6.387
    14   8 O        1.699    -0.298    18.957     5.878
    15   6 C        3.700     0.062    19.684     6.345
    16   6 C        3.743    -0.034    21.257     6.577
    17   6 C        3.284    -0.063    27.969     8.501
    18   6 C        2.914     0.047    26.947     8.512
    19   7 N        1.840    -0.272    27.912     7.830
    20   6 C        2.887     0.214    23.495     7.947
    21   7 N        2.745    -0.094    23.082     7.135
    22   6 C        3.751    -0.031    21.185     6.564
    23   6 C        3.702     0.058    19.752     6.355
    24   8 O        1.830    -0.287    18.742     5.846
    25   6 C        3.703     0.049    19.905     6.379
    26   6 C        3.764    -0.030    21.152     6.556
    27   7 N        1.948    -0.299    28.582     7.928
    28   6 C        2.962     0.169    24.360     8.096
    29   7 N        2.643    -0.271    27.022     7.720
    30   1 H        0.925     0.061     2.186     2.312
    31   1 H        0.925     0.069     2.100     2.266
    32   1 H        0.923     0.064     2.147     2.292
    33   1 H        0.925     0.054     2.274     2.358
    34   1 H        0.925     0.063     2.161     2.299
    35   1 H        0.925     0.049     2.334     2.389
    36   1 H        0.923     0.080     1.979     2.200
    37   1 H        0.925     0.063     2.166     2.301
    38   1 H        0.925     0.078     1.995     2.209
    39   1 H        0.924     0.098     1.806     2.101
    40   1 H        0.924     0.082     1.961     2.190
    41   1 H        0.924     0.083     1.952     2.185
    42   1 H        0.922     0.080     1.984     2.203
    43   1 H        0.923     0.051     2.310     2.377
    44   1 H        0.924     0.068     2.106     2.269
    45   1 H        0.924     0.081     1.969     2.194
    46   1 H        0.923     0.102     1.769     2.080
    47   1 H        0.925     0.077     2.013     2.219
    48   1 H        0.923     0.114     1.660     2.015
    49   1 H        0.924     0.080     1.974     2.197
    50   1 H        0.923     0.091     1.872     2.140
    51   1 H        0.923     0.063     2.163     2.300
    52   1 H        0.923     0.056     2.242     2.342
    53   1 H        0.924     0.112     1.679     2.026
    54   1 H        0.925     0.103     1.755     2.072
    55   1 H        0.924     0.068     2.107     2.270
    56   1 H        0.860     0.233     0.950     1.527
    57   1 H        0.860     0.223     0.996     1.563
    58  22 Ti       3.186     0.983   103.407    24.831
    59  22 Ti       6.366     1.580    83.791    14.862
    60  22 Ti       3.824     1.057    96.776    22.780
    61  22 Ti       5.854     1.377    85.694    15.029
    62  22 Ti       5.522     1.127    88.153    15.244
    63  22 Ti       6.929     1.082    88.597    15.282
    64  22 Ti       0.689     0.828  1160.519   103.401
    65  22 Ti       6.774     1.582    83.771    14.860
    66  22 Ti       2.404     0.937   196.410    34.319
    67  22 Ti       5.733     1.139    88.028    15.233
    68  22 Ti       6.060     1.383    85.645    15.025
    69  22 Ti       3.835     1.024    96.598    22.610
    70   6 C        2.152    -0.265    38.612    10.046
    71   6 C        2.077    -0.273    39.162    10.109
    72   6 C        2.586    -0.032    28.819     8.778
    73   6 C        1.876    -0.254    38.748    10.054
    74   6 C        1.847    -0.259    38.963    10.083
    75   6 C        1.818    -0.356    42.546    10.539
    76   6 C        2.643    -0.418    40.417    10.400
    77   8 O        1.451    -0.836    31.830     7.603
    78   8 O        1.452    -0.863    32.677     7.704
    79   8 O        1.266    -0.952    36.077     8.072
    80   8 O        1.633    -1.009    37.434     8.259
    81   8 O        1.622    -0.949    35.288     8.018
    82   8 O        1.454    -0.864    32.684     7.705
    83   8 O        1.791    -0.912    33.964     7.870
    84   8 O        1.478    -0.899    33.778     7.835
    85   8 O        1.602    -0.857    32.259     7.665
    86   8 O        1.554    -0.901    33.742     7.837
    87   8 O        1.817    -0.944    35.048     7.995
    88   8 O        1.517    -1.031    38.396     8.357
    89   8 O        1.456    -0.797    30.622     7.458
    90   8 O        1.469    -0.850    32.226     7.652

 Mol. C6AA /au·bohr⁶  :     190525.582333
 Mol. C8AA /au·bohr⁸  :    8529199.049905
 Mol. α(0) /au        :        760.802009


Wiberg/Mayer (AO) data.
largest (>0.10) Wiberg bond orders for each atom

 ---------------------------------------------------------------------------
     #   Z sym  total        # sym  WBO       # sym  WBO       # sym  WBO
 ---------------------------------------------------------------------------
     1   6 C    3.979 --     2 C    1.000    30 H    0.983    31 H    0.981
                            32 H    0.910
     2   6 C    3.988 --     1 C    1.000     4 C    0.984     3 C    0.977
                             5 C    0.972
     3   6 C    3.981 --    35 H    0.986    33 H    0.983    34 H    0.982
                             2 C    0.977
     4   6 C    3.982 --     2 C    0.984    37 H    0.981    38 H    0.968
                            36 H    0.913
     5   6 C    3.889 --     6 N    1.464    10 N    1.229     2 C    0.972
     6   7 N    3.055 --     5 C    1.464     7 C    1.176
     7   6 C    3.773 --     6 N    1.176    17 C    1.140     8 N    0.993
                            63 Ti   0.262
     8   7 N    3.050 --     9 C    1.165     7 C    0.993    63 Ti   0.475
     9   6 C    3.967 --    10 N    1.312    11 N    1.236     8 N    1.165
    10   7 N    2.950 --     9 C    1.312     5 C    1.229
    11   7 N    3.490 --     9 C    1.236    16 C    0.975    12 C    0.970
    12   6 C    3.957 --    13 C    1.001    11 N    0.970    40 H    0.961
                            39 H    0.942
    13   6 C    3.949 --    12 C    1.001    14 O    0.984    41 H    0.962
                            42 H    0.912
    14   8 O    2.074 --    15 C    0.989    13 C    0.984
    15   6 C    3.958 --    16 C    0.998    14 O    0.989    44 H    0.967
                            43 H    0.966
    16   6 C    3.961 --    15 C    0.998    11 N    0.975    45 H    0.950
                            46 H    0.925
    17   6 C    3.944 --    18 C    1.262     7 C    1.140    28 C    1.119
                            63 Ti   0.106
    18   6 C    3.883 --    19 N    1.421    17 C    1.262    47 H    0.934
    19   7 N    3.056 --    18 C    1.421    20 C    1.339
    20   6 C    3.892 --    19 N    1.339    27 N    1.219    21 N    1.128
    21   7 N    3.337 --    20 C    1.128    22 C    0.998    26 C    0.995
    22   6 C    3.970 --    21 N    0.998    23 C    0.972    49 H    0.965
                            48 H    0.894
    23   6 C    3.927 --    22 C    0.972    51 H    0.965    24 O    0.960
                            50 H    0.926
    24   8 O    2.259 --    23 C    0.960    25 C    0.945    59 Ti   0.176
    25   6 C    3.915 --    26 C    0.981    52 H    0.964    24 O    0.945
                            53 H    0.927
    26   6 C    3.968 --    21 N    0.995    25 C    0.981    55 H    0.970
                            54 H    0.962
    27   7 N    3.137 --    28 C    1.353    20 C    1.219    62 Ti   0.173
    28   6 C    3.941 --    27 N    1.353    29 N    1.189    17 C    1.119
    29   7 N    3.287 --    28 C    1.189    57 H    0.902    56 H    0.874
    30   1 H    0.996 --     1 C    0.983
    31   1 H    0.995 --     1 C    0.981
    32   1 H    0.995 --     1 C    0.910
    33   1 H    0.996 --     3 C    0.983
    34   1 H    0.995 --     3 C    0.982
    35   1 H    0.997 --     3 C    0.986
    36   1 H    0.993 --     4 C    0.913
    37   1 H    0.995 --     4 C    0.981
    38   1 H    0.994 --     4 C    0.968
    39   1 H    0.990 --    12 C    0.942
    40   1 H    0.993 --    12 C    0.961
    41   1 H    0.992 --    13 C    0.962
    42   1 H    0.994 --    13 C    0.912
    43   1 H    0.996 --    15 C    0.966
    44   1 H    0.995 --    15 C    0.967
    45   1 H    0.993 --    16 C    0.950
    46   1 H    0.988 --    16 C    0.925
    47   1 H    0.992 --    18 C    0.934
    48   1 H    0.987 --    22 C    0.894
    49   1 H    0.991 --    22 C    0.965
    50   1 H    0.991 --    23 C    0.926
    51   1 H    0.995 --    23 C    0.965
    52   1 H    0.996 --    25 C    0.964
    53   1 H    0.987 --    25 C    0.927
    54   1 H    0.989 --    26 C    0.962
    55   1 H    0.994 --    26 C    0.970
    56   1 H    0.944 --    29 N    0.874
    57   1 H    0.949 --    29 N    0.902
    58  22 Ti   2.906 --    78 O    0.965    77 O    0.711    64 Ti   0.311
                            61 Ti   0.203    59 Ti   0.186
    59  22 Ti   3.773 --    84 O    0.695    78 O    0.691    80 O    0.644
                            81 O    0.580    58 Ti   0.186    24 O    0.176
                            60 Ti   0.170    83 O    0.164    62 Ti   0.123
                            64 Ti   0.107
    60  22 Ti   2.700 --    84 O    0.766    86 O    0.724    66 Ti   0.287
                            79 O    0.196    59 Ti   0.170    68 Ti   0.139
                            81 O    0.102
    61  22 Ti   3.941 --    77 O    0.912    82 O    0.902    70 C    0.640
                            80 O    0.408    58 Ti   0.203    87 O    0.175
                            67 Ti   0.160    63 Ti   0.111
    62  22 Ti   4.097 --    76 C    0.778    74 C    0.689    81 O    0.677
                            83 O    0.500    63 Ti   0.216    27 N    0.173
                            75 C    0.169    68 Ti   0.140    71 C    0.136
                            59 Ti   0.123
    63  22 Ti   4.353 --    83 O    0.782    76 C    0.705    82 O    0.642
                             8 N    0.475     7 C    0.262    62 Ti   0.216
                            75 C    0.141    61 Ti   0.111    17 C    0.106
                            72 C    0.101
    64  22 Ti   1.492 --    58 Ti   0.311    79 O    0.258    84 O    0.169
                            65 Ti   0.147    80 O    0.108    59 Ti   0.107
    65  22 Ti   3.796 --    79 O    0.954    87 O    0.796    85 O    0.577
                            88 O    0.515    66 Ti   0.184    64 Ti   0.147
                            80 O    0.121    67 Ti   0.105
    66  22 Ti   2.412 --    85 O    1.026    60 Ti   0.287    69 Ti   0.260
                            65 Ti   0.184    86 O    0.170    79 O    0.154
                            90 O    0.136    68 Ti   0.128
    67  22 Ti   4.068 --    75 C    0.869    89 O    0.843    73 C    0.740
                            87 O    0.434    69 Ti   0.228    61 Ti   0.160
                            70 C    0.149    76 C    0.111    65 Ti   0.105
    68  22 Ti   3.939 --    90 O    0.888    86 O    0.735    71 C    0.699
                            88 O    0.639    69 Ti   0.211    62 Ti   0.140
                            60 Ti   0.139    66 Ti   0.128    81 O    0.101
    69  22 Ti   2.742 --    89 O    0.908    90 O    0.682    66 Ti   0.260
                            67 Ti   0.228    68 Ti   0.211    85 O    0.150
    70   6 C    3.751 --    73 C    2.741    61 Ti   0.640    67 Ti   0.149
    71   6 C    3.819 --    74 C    2.760    68 Ti   0.699    62 Ti   0.136
    72   6 C    3.974 --    75 C    2.066    76 C    1.542    63 Ti   0.101
    73   6 C    3.742 --    70 C    2.741    67 Ti   0.740
    74   6 C    3.715 --    71 C    2.760    62 Ti   0.689
    75   6 C    3.646 --    72 C    2.066    67 Ti   0.869    62 Ti   0.169
                            63 Ti   0.141
    76   6 C    3.603 --    72 C    1.542    62 Ti   0.778    63 Ti   0.705
                            67 Ti   0.111
    77   8 O    1.941 --    61 Ti   0.912    58 Ti   0.711
    78   8 O    1.912 --    58 Ti   0.965    59 Ti   0.691
    79   8 O    1.779 --    65 Ti   0.954    64 Ti   0.258    60 Ti   0.196
                            66 Ti   0.154
    80   8 O    1.704 --    59 Ti   0.644    61 Ti   0.408    65 Ti   0.121
                            64 Ti   0.108
    81   8 O    1.797 --    62 Ti   0.677    59 Ti   0.580    60 Ti   0.102
                            68 Ti   0.101
    82   8 O    1.916 --    61 Ti   0.902    63 Ti   0.642
    83   8 O    1.844 --    63 Ti   0.782    62 Ti   0.500    59 Ti   0.164
    84   8 O    1.860 --    60 Ti   0.766    59 Ti   0.695    64 Ti   0.169
    85   8 O    1.928 --    66 Ti   1.026    65 Ti   0.577    69 Ti   0.150
    86   8 O    1.861 --    68 Ti   0.735    60 Ti   0.724    66 Ti   0.170
    87   8 O    1.800 --    65 Ti   0.796    67 Ti   0.434    61 Ti   0.175
    88   8 O    1.683 --    68 Ti   0.639    65 Ti   0.515
    89   8 O    2.008 --    69 Ti   0.908    67 Ti   0.843
    90   8 O    1.934 --    68 Ti   0.888    69 Ti   0.682    66 Ti   0.136
 ---------------------------------------------------------------------------

Topologies differ in total number of bonds
Writing topology from bond orders to xtbtopo.mol

molecular dipole:
                 x           y           z       tot (Debye)
 q only:       -2.248      -3.310      -0.547
   full:       -2.280      -3.029      -1.678      10.538
molecular quadrupole (traceless):
                xx          xy          yy          xz          yz          zz
 q only:        5.257      15.001     -10.839     -15.449      -9.285       5.583
  q+dip:        0.900       1.767      16.852      -7.385     -20.311     -17.752
   full:        2.121      -0.361      17.157      -7.091     -19.312     -19.277

           -------------------------------------------------
          |                Geometry Summary                 |
           -------------------------------------------------

      molecular mass/u    :     1282.9465183
   center of mass at/Å    :        0.1218824      -0.4938774       4.2770056
  moments of inertia/u·Å² :        0.1224153E+05   0.1544675E+05   0.1864326E+05
rotational constants/cm⁻¹ :        0.1377085E-02   0.1091338E-02   0.9042211E-03

 * 96 selected distances

     #   Z          #   Z                                           value/Å
     1   6 C        2   6 C                                       1.5268405
     2   6 C        3   6 C                                       1.5365468
     2   6 C        4   6 C                                       1.5347326
     5   6 C        6   7 N                                       1.3085542
     6   7 N        7   6 C                                       1.3663936
     7   6 C        8   7 N                                       1.4409540
     8   7 N        9   6 C                                       1.3706549
     5   6 C       10   7 N                                       1.3550385
     9   6 C       10   7 N                                       1.3236025
     9   6 C       11   7 N                                       1.3438488
    11   7 N       12   6 C                                       1.4559379
    12   6 C       13   6 C                                       1.5255623
    13   6 C       14   8 O                                       1.4193553
    14   8 O       15   6 C                                       1.4132032
    11   7 N       16   6 C                                       1.4501703
    15   6 C       16   6 C                                       1.5283580
     7   6 C       17   6 C                                       1.4342314
    17   6 C       18   6 C                                       1.4160538
    18   6 C       19   7 N                                       1.3215595
    19   7 N       20   6 C                                       1.3269609
    20   6 C       21   7 N                                       1.3824896
    21   7 N       22   6 C                                       1.4497726
    23   6 C       24   8 O                                       1.4259473
    24   8 O       25   6 C                                       1.4331130
    21   7 N       26   6 C                                       1.4483663
    20   6 C       27   7 N                                       1.3586080
    17   6 C       28   6 C                                       1.4463596
    27   7 N       28   6 C                                       1.3323320
    28   6 C       29   7 N                                       1.3684183
     1   6 C       30   1 H                                       1.0876751
     1   6 C       31   1 H                                       1.0862044
     1   6 C       32   1 H                                       1.1033723
     3   6 C       33   1 H                                       1.0873687
     3   6 C       34   1 H                                       1.0854167
     3   6 C       35   1 H                                       1.0870775
     4   6 C       36   1 H                                       1.0980904
     4   6 C       37   1 H                                       1.0880455
     4   6 C       38   1 H                                       1.0879502
    12   6 C       39   1 H                                       1.0958023
    12   6 C       40   1 H                                       1.0963072
    13   6 C       41   1 H                                       1.0921875
    13   6 C       42   1 H                                       1.1090919
    15   6 C       43   1 H                                       1.1006749
    15   6 C       44   1 H                                       1.0935135
    16   6 C       45   1 H                                       1.0936731
    16   6 C       46   1 H                                       1.0979266
    18   6 C       47   1 H                                       1.0840970
    22   6 C       48   1 H                                       1.1035992
    22   6 C       49   1 H                                       1.0968362
    23   6 C       50   1 H                                       1.0986709
    23   6 C       51   1 H                                       1.1009996
    25   6 C       52   1 H                                       1.0998558
    25   6 C       53   1 H                                       1.0973691
    26   6 C       54   1 H                                       1.0884074
    26   6 C       55   1 H                                       1.0941512
    29   7 N       56   1 H                                       1.0164080
    29   7 N       57   1 H                                       1.0156005 (min)
     7   6 C       63  22 Ti                                      2.1718589
     8   7 N       63  22 Ti                                      1.9694526
    62  22 Ti      63  22 Ti                                      2.8654652
    65  22 Ti      67  22 Ti                                      2.8878962 (max)
    68  22 Ti      71   6 C                                       2.0592981
    67  22 Ti      73   6 C                                       2.0370352
    70   6 C       73   6 C                                       1.2407911
    71   6 C       74   6 C                                       1.2401953
    67  22 Ti      75   6 C                                       1.9820912
    72   6 C       75   6 C                                       1.2716365
    62  22 Ti      76   6 C                                       2.0621403
    63  22 Ti      76   6 C                                       2.0511128
    72   6 C       76   6 C                                       1.3412681
    61  22 Ti      77   8 O                                       1.7517084
    58  22 Ti      78   8 O                                       1.7336421
    59  22 Ti      78   8 O                                       1.8004654
    65  22 Ti      79   8 O                                       1.6674170
    59  22 Ti      80   8 O                                       1.7411607
    61  22 Ti      80   8 O                                       1.9033870
    59  22 Ti      81   8 O                                       1.7752151
    62  22 Ti      81   8 O                                       1.7874668
    61  22 Ti      82   8 O                                       1.6948244
    63  22 Ti      82   8 O                                       1.7253874
    62  22 Ti      83   8 O                                       1.8777487
    63  22 Ti      83   8 O                                       1.7147308
    59  22 Ti      84   8 O                                       1.7999931
    60  22 Ti      84   8 O                                       1.7768910
    65  22 Ti      85   8 O                                       1.7932493
    66  22 Ti      85   8 O                                       1.7728382
    60  22 Ti      86   8 O                                       1.7787805
    68  22 Ti      86   8 O                                       1.7759152
    65  22 Ti      87   8 O                                       1.7122884
    67  22 Ti      87   8 O                                       1.9546613
    65  22 Ti      88   8 O                                       1.7460938
    68  22 Ti      88   8 O                                       1.7267500
    67  22 Ti      89   8 O                                       1.7713242
    69  22 Ti      89   8 O                                       1.7387501
    68  22 Ti      90   8 O                                       1.7551092
    69  22 Ti      90   8 O                                       1.8205448

 * 9 distinct bonds (by element types)

   Z      Z             #   av. dist./Å        max./Å        min./Å
   1 H    6 C          26     1.0943986     1.1090919     1.0840970
   6 C    6 C          12     1.4202147     1.5365468     1.2401953
   1 H    7 N           2     1.0160043     1.0164080     1.0156005
   6 C    7 N          17     1.3766860     1.4559379     1.3085542
   6 C    8 O           4     1.4229047     1.4331130     1.4132032
   6 C   22 Ti          6     2.0605894     2.1718589     1.9820912
   7 N   22 Ti          1     1.9694526     1.9694526     1.9694526
   8 O   22 Ti         26     1.7729363     1.9546613     1.6674170
  22 Ti  22 Ti          2     2.8766807     2.8878962     2.8654652


optimized geometry written to: xtbopt.xyz


           -------------------------------------------------
          | TOTAL ENERGY             -178.919098486134 Eh   |
          | GRADIENT NORM               0.003574666743 Eh/α |
          | HOMO-LUMO GAP               0.040035701235 eV   |
           -------------------------------------------------

------------------------------------------------------------------------
 * finished run on 2026/09/02 at 20:11:54.197     
------------------------------------------------------------------------
 total:
 * wall-time:     0 d,  0 h,  2 min, 42.766 sec
 *  cpu-time:     0 d,  0 h,  8 min, 50.969 sec
 * ratio c/w:     3.262 speedup
 SCF:
 * wall-time:     0 d,  0 h,  0 min,  1.615 sec
 *  cpu-time:     0 d,  0 h,  0 min,  5.141 sec
 * ratio c/w:     3.183 speedup
 ANC optimizer:
 * wall-time:     0 d,  0 h,  2 min, 41.036 sec
 *  cpu-time:     0 d,  0 h,  8 min, 45.641 sec
 * ratio c/w:     3.264 speedup

