33
 energy: -92.087008564836 gnorm: 0.000747974016 xtb: 6.7.1pre (5071a88)
Ti          -1.99998513371018       -2.44807396300780        4.20576512368757
Ti           0.47519539186937       -1.73465525761555        2.87580707394615
Ti           1.91811494038665       -3.33284130386852        0.83282557049725
Ti          -2.39317331470389       -0.15952716850887        2.44284780029542
Ti           2.36898449992656        0.61879480258126        3.20016613441145
Ti          -0.40083098889607        0.84278583914313        4.56217681585955
Ti          -1.88049338094622       -3.42077660152454        0.88569374898903
Ti          -0.40296639156807       -1.17791565567896       -0.67705753731357
Ti           1.89745288848524       -2.08491185879846       -2.06778687235564
Ti          -1.90571483622050        1.31613680678317       -0.26423699230719
Ti           2.47740820548050        0.28179930235669        0.22274105965424
Ti           0.76048407807440        1.48635235601065       -1.91484857245930
C           -3.75648309832062        1.00947425141188        1.44427648630543
C            4.24029199229649        0.40587417622172        1.28776423172813
C            0.42640446467721        1.98118661153399        1.40020886757151
C           -3.77957909435763        1.72754688601301        0.42993056437434
C            4.29932880868206        0.69801660419220        2.49475821683876
C           -0.80317455633471        2.20216134889409        1.12627229139336
C            1.71783438775894        1.74686411355226        1.64022217172756
O           -3.08463774344005       -1.77634033624179        2.94413530998802
O           -0.25493590932084       -2.20910967977022        4.41048579300837
O            0.61441865280837       -3.27125058395122        2.06632884583413
O           -0.74195215031743       -0.78138454610344        2.14150330649027
O            2.04697146957550       -1.07795730485904        2.73553818004732
O           -2.04658032283125        0.55428068767544        3.98295623167143
O            1.31637925548970        0.89515185272133        4.56979100713616
O           -0.64695332390220       -2.87726897579781       -0.28914315512030
O            0.26567110047700       -1.30995649354763       -2.28570865905830
O            2.70865568647945       -2.66019240337536       -0.58715314167281
O           -1.94081343651562       -0.52616046482814       -0.21536883711637
O            0.93429626546219       -0.60025275129798        0.21583109378412
O           -0.95551818154183        1.54433416941683       -1.72001570132099
O            2.38658847200075        0.99028280412924       -1.36004214926970
