      -----------------------------------------------------------      
     |                   =====================                   |     
     |                           x T B                           |     
     |                   =====================                   |     
     |                         S. Grimme                         |     
     |          Mulliken Center for Theoretical Chemistry        |     
     |                    University of Bonn                     |     
      -----------------------------------------------------------      

   * xtb version 6.7.1pre (5071a88) compiled by 'Marcel@Raven' on 2024-07-23

   xtb is free software: you can redistribute it and/or modify it under
   the terms of the GNU Lesser General Public License as published by
   the Free Software Foundation, either version 3 of the License, or
   (at your option) any later version.
   
   xtb is distributed in the hope that it will be useful,
   but WITHOUT ANY WARRANTY; without even the implied warranty of
   MERCHANTABILITY or FITNESS FOR A PARTICULAR PURPOSE.  See the
   GNU Lesser General Public License for more details.
   
   Cite this work as:
   * C. Bannwarth, E. Caldeweyher, S. Ehlert, A. Hansen, P. Pracht,
     J. Seibert, S. Spicher, S. Grimme, WIREs Comput. Mol. Sci., 2020, 11,
     e01493. DOI: 10.1002/wcms.1493
   
   for GFN2-xTB:
   * C. Bannwarth, S. Ehlert and S. Grimme., J. Chem. Theory Comput., 2019,
     15, 1652-1671. DOI: 10.1021/acs.jctc.8b01176
   for GFN1-xTB:
   * S. Grimme, C. Bannwarth, P. Shushkov, J. Chem. Theory Comput., 2017,
     13, 1989-2009. DOI: 10.1021/acs.jctc.7b00118
   for GFN0-xTB:
   * P. Pracht, E. Caldeweyher, S. Ehlert, S. Grimme, ChemRxiv, 2019, preprint.
     DOI: 10.26434/chemrxiv.8326202.v1
   for GFN-FF:
   * S. Spicher and S. Grimme, Angew. Chem. Int. Ed., 2020, 59, 15665-15673.
     DOI: 10.1002/anie.202004239
   
   for ALPB and GBSA implicit solvation:
   * S. Ehlert, M. Stahn, S. Spicher, S. Grimme, J. Chem. Theory Comput.,
     2021, 17, 4250-4261. DOI: 10.1021/acs.jctc.1c00471
   
   for ddCOSMO and CPCM-X implicit solvation:
   * M. Stahn, S. Ehlert, S. Grimme, J. Phys. Chem. A,
     2023, XX, XXXX-XXXX. DOI: 10.1021/acs.jpca.3c04382
   
   for DFT-D4:
   * E. Caldeweyher, C. Bannwarth and S. Grimme, J. Chem. Phys., 2017,
     147, 034112. DOI: 10.1063/1.4993215
   * E. Caldeweyher, S. Ehlert, A. Hansen, H. Neugebauer, S. Spicher,
     C. Bannwarth and S. Grimme, J. Chem. Phys., 2019, 150, 154122.
     DOI: 10.1063/1.5090222
   * E. Caldeweyher, J.-M. Mewes, S. Ehlert and S. Grimme, Phys. Chem. Chem. Phys.
     2020, 22, 8499-8512. DOI: 10.1039/D0CP00502A
   
   for sTDA-xTB:
   * S. Grimme and C. Bannwarth, J. Chem. Phys., 2016, 145, 054103.
     DOI: 10.1063/1.4959605
   
   in the mass-spec context:
   * V. Asgeirsson, C. Bauer and S. Grimme, Chem. Sci., 2017, 8, 4879.
     DOI: 10.1039/c7sc00601b
   * J. Koopman and S. Grimme, ACS Omega 2019, 4, 12, 15120-15133.
     DOI: 10.1021/acsomega.9b02011
   
   for metadynamics refer to:
   * S. Grimme, J. Chem. Theory Comput., 2019, 155, 2847-2862
     DOI: 10.1021/acs.jctc.9b00143
   
   for SPH calculations refer to:
   * S. Spicher and S. Grimme, J. Chem. Theory Comput., 2021, 17, 1701-1714
     DOI: 10.1021/acs.jctc.0c01306
   
   for ONIOM refer to:
   * C. Plett, A. Katbashev, S. Ehlert, S. Grimme, M. Bursch,
     Phys. Chem. Chem. Phys., 2023, 25, 17860-17868. DOI: 10.1039/D3CP02178E
   
   for DIPRO refer to:
   * J. Kohn, N. Gildemeister, S. Grimme, D. Fazzi, A. Hansen,
     J. Chem. Phys., 2023, just accepted.
   
   for PTB refer to:
   * S. Grimme, M. Mueller, A. Hansen, J. Chem. Phys., 2023, 158, 124111.
     DOI: 10.1063/5.0137838
   
   with help from (in alphabetical order)
   P. Atkinson, C. Bannwarth, F. Bohle, G. Brandenburg, E. Caldeweyher
   M. Checinski, S. Dohm, S. Ehlert, S. Ehrlich, I. Gerasimov, C. Hölzer
   A. Katbashev, J. Kohn, J. Koopman, C. Lavigne, S. Lehtola, F. März, M. Müller,
   F. Musil, H. Neugebauer, J. Pisarek, C. Plett, P. Pracht, F. Pultar,
   J. Seibert, P. Shushkov, S. Spicher, M. Stahn, M. Steiner, T. Strunk,
   J. Stückrath, T. Rose, and J. Unsleber
   
 * started run on 2026/08/31 at 20:55:39.436     
   ID    Z sym.   atoms
    1    6 C      1-5, 7, 9, 12, 13, 15-18, 20, 22, 23, 25, 26, 28, 70-76
    2    7 N      6, 8, 10, 11, 19, 21, 27, 29
    3    8 O      14, 24, 77-90
    4    1 H      30-57
    5   22 Ti     58-69

           -------------------------------------------------
          |                Calculation Setup                |
           -------------------------------------------------

          program call               : "c:\Users\Andre\Proyectos doctorado\kras-pancreatic-gC3N4-ai\tools\xtb\xtb-6.7.1\bin\xtb.exe" "c:\Users\Andre\Proyectos doctorado\mxene-glioblastoma-qsar-ai\calculations\gbm\Paxalisib\Paxalisib_Ti3C2O2_complex.xyz" --gfn 2 --sp --chrg 0 --uhf 0 --iterations 500 --norestart
          coordinate file            : c:\Users\Andre\Proyectos doctorado\mxene-glioblastoma-qsar-ai\calculations\gbm\Paxalisib\Paxalisib_Ti3C2O2_complex.xyz
          omp threads                :                    16


molecular fragmentation (1/2 indicates fragments):
111111111111111111111111111111111111111111111111111111111111111111111221
221122222222222222
# atoms in fragment 1/2:    72    18
 fragment masses (1/2) :     1010.91      272.03
CMA distance (Bohr)    :   4.033
constraining FC (au)   :  0.0500

           -------------------------------------------------
          |                 G F N 2 - x T B                 |
           -------------------------------------------------

        Reference                      10.1021/acs.jctc.8b01176
      * Hamiltonian:
        H0-scaling (s, p, d)           1.850000    2.230000    2.230000
        zeta-weighting                 0.500000
      * Dispersion:
        s8                             2.700000
        a1                             0.520000
        a2                             5.000000
        s9                             5.000000
      * Repulsion:
        kExp                           1.500000    1.000000
        rExp                           1.000000
      * Coulomb:
        alpha                          2.000000
        third order                    shell-resolved
        anisotropic                    true
        a3                             3.000000
        a5                             4.000000
        cn-shift                       1.200000
        cn-exp                         4.000000
        max-rad                        5.000000


          ...................................................
          :                      SETUP                      :
          :.................................................:
          :  # basis functions                 348          :
          :  # atomic orbitals                 336          :
          :  # shells                          164          :
          :  # electrons                       316          :
          :  max. iterations                   500          :
          :  Hamiltonian                  GFN2-xTB          :
          :  restarted?                      false          :
          :  GBSA solvation                  false          :
          :  PC potential                    false          :
          :  electronic temp.          300.0000000     K    :
          :  accuracy                    1.0000000          :
          :  -> integral cutoff          0.2500000E+02      :
          :  -> integral neglect         0.1000000E-07      :
          :  -> SCF convergence          0.1000000E-05 Eh   :
          :  -> wf. convergence          0.1000000E-03 e    :
          :  Broyden damping             0.4000000          :
          :  net charge                          0          :
          :  unpaired electrons                  0          :
          ...................................................

 iter      E             dE          RMSdq      gap      omega  full diag
   1   -175.4178654 -0.175418E+03  0.120E+01    0.04       0.0  T
   2   -132.7132134  0.427047E+02  0.164E+01    0.09       1.0  T
   3    -60.1887768  0.725244E+02  0.235E+01    0.48       1.0  T
   4   -166.0315169 -0.105843E+03  0.103E+01    0.18       1.0  T
   5   -161.3330827  0.469843E+01  0.117E+01    0.01       1.0  T
   6   -174.0687185 -0.127356E+02  0.794E+00    0.25       1.0  T
   7   -168.8688257  0.519989E+01  0.813E+00    0.23       1.0  T
   8   -170.5596543 -0.169083E+01  0.836E+00    0.03       1.0  T
   9   -175.1146684 -0.455501E+01  0.629E+00    0.12       1.0  T
  10   -176.1643795 -0.104971E+01  0.545E+00    0.12       1.0  T
  11   -176.7078397 -0.543460E+00  0.497E+00    0.03       1.0  T
  12   -177.6754417 -0.967602E+00  0.441E+00    0.07       1.0  T
  13   -178.0669985 -0.391557E+00  0.415E+00    0.08       1.0  T
  14   -177.5843860  0.482612E+00  0.401E+00    0.04       1.0  T
  15   -178.4175776 -0.833192E+00  0.378E+00    0.05       1.0  T
  16   -177.8926112  0.524966E+00  0.377E+00    0.06       1.0  T
  17   -178.1994002 -0.306789E+00  0.346E+00    0.03       1.0  T
  18   -178.5717489 -0.372349E+00  0.329E+00    0.07       1.0  T
  19   -178.8736424 -0.301893E+00  0.280E+00    0.10       1.0  T
  20   -178.9787525 -0.105110E+00  0.225E+00    0.07       1.0  T
  21   -179.2065044 -0.227752E+00  0.163E+00    0.09       1.0  T
  22   -179.2160959 -0.959145E-02  0.146E+00    0.07       1.0  T
  23   -179.1651301  0.509658E-01  0.150E+00    0.20       1.0  T
  24   -179.2210085 -0.558785E-01  0.127E+00    0.11       1.0  T
  25   -179.2382447 -0.172361E-01  0.110E+00    0.14       1.0  T
  26   -179.2570252 -0.187805E-01  0.107E+00    0.14       1.0  T
  27   -179.2432927  0.137325E-01  0.983E-01    0.16       1.0  T
  28   -179.2768171 -0.335244E-01  0.842E-01    0.12       1.0  T
  29   -179.2978810 -0.210639E-01  0.671E-01    0.10       1.0  T
  30   -179.3051226 -0.724159E-02  0.586E-01    0.09       1.0  T
  31   -179.3133775 -0.825490E-02  0.545E-01    0.08       1.0  T
  32   -179.3135041 -0.126615E-03  0.512E-01    0.09       1.0  T
  33   -179.3233379 -0.983373E-02  0.448E-01    0.08       1.0  T
  34   -179.3262523 -0.291448E-02  0.419E-01    0.08       1.0  T
  35   -179.3307773 -0.452499E-02  0.375E-01    0.08       1.0  T
  36   -179.3347661 -0.398872E-02  0.337E-01    0.08       1.0  T
  37   -179.3368585 -0.209246E-02  0.311E-01    0.08       1.0  T
  38   -179.3420047 -0.514620E-02  0.341E-01    0.04       1.0  T
  39   -179.3469229 -0.491819E-02  0.288E-01    0.05       1.0  T
  40   -179.3024880  0.444349E-01  0.581E-01    0.02       1.0  T
  41   -179.3503704 -0.478823E-01  0.221E-01    0.06       1.0  T
  42   -179.3439684  0.640197E-02  0.293E-01    0.04       1.0  T
  43   -179.3514420 -0.747360E-02  0.180E-01    0.05       1.0  T
  44   -179.3404867  0.109553E-01  0.303E-01    0.04       1.0  T
  45   -179.3533527 -0.128659E-01  0.119E-01    0.06       1.0  T
  46   -179.3531830  0.169670E-03  0.114E-01    0.06       1.0  T
  47   -179.3540163 -0.833291E-03  0.689E-02    0.06       1.0  T
  48   -179.3524659  0.155040E-02  0.119E-01    0.05       1.0  T
  49   -179.3541397 -0.167377E-02  0.626E-02    0.06       1.0  T
  50   -179.3544533 -0.313569E-03  0.335E-02    0.06       1.0  T
  51   -179.3542707  0.182542E-03  0.467E-02    0.06       1.0  T
  52   -179.3545368 -0.266137E-03  0.177E-02    0.06       1.0  T
  53   -179.3542246  0.312273E-03  0.443E-02    0.06       1.0  T
  54   -179.3545162 -0.291631E-03  0.188E-02    0.06       1.0  T
  55   -179.3544899  0.262805E-04  0.212E-02    0.06       1.0  T
  56   -179.3545481 -0.581340E-04  0.802E-03    0.06       1.3  T
  57   -179.3544993  0.487309E-04  0.169E-02    0.06       1.0  T
  58   -179.3545081 -0.875707E-05  0.156E-02    0.06       1.0  T
  59   -179.3545552 -0.470721E-04  0.518E-03    0.06       2.0  T
  60   -179.3545585 -0.332173E-05  0.343E-03    0.06       3.1  T
  61   -179.3545600 -0.151426E-05  0.191E-03    0.06       5.5  T
  62   -179.3545587  0.127716E-05  0.300E-03    0.06       3.5  T
  63   -179.3545603 -0.160114E-05  0.888E-04    0.06      11.9  T
  64   -179.3545601  0.261254E-06  0.137E-03    0.06       7.7  T
  65   -179.3545604 -0.336407E-06  0.440E-04    0.06      24.0  T
  66   -179.3545604  0.430431E-07  0.573E-04    0.06      18.4  T

   *** convergence criteria satisfied after 66 iterations ***

         #    Occupation            Energy/Eh            Energy/eV
      -------------------------------------------------------------
         1        2.0000           -0.8979824             -24.4353
       ...           ...                  ...                  ...
       152        2.0000           -0.3832722             -10.4294
       153        2.0000           -0.3800764             -10.3424
       154        2.0000           -0.3795838             -10.3290
       155        2.0000           -0.3778055             -10.2806
       156        1.9999           -0.3749960             -10.2042
       157        1.8665           -0.3675576             -10.0018
       158        1.5735           -0.3662915              -9.9673 (HOMO)
       159        0.5023           -0.3640134              -9.9053 (LUMO)
       160        0.0552           -0.3616671              -9.8415
       161        0.0025           -0.3587070              -9.7609
       162        0.0000           -0.3530167              -9.6061
       163        0.0000           -0.3496977              -9.5158
       ...           ...                  ...                  ...
       336                         18.2340212             496.1730
      -------------------------------------------------------------
                  HL-Gap            0.0022780 Eh            0.0620 eV
             Fermi-level           -0.3650513 Eh           -9.9336 eV

 SCC (total)                   0 d,  0 h,  0 min,  1.609 sec
 SCC setup                      ...        0 min,  0.001 sec (  0.062%)
 Dispersion                     ...        0 min,  0.002 sec (  0.124%)
 classical contributions        ...        0 min,  0.000 sec (  0.000%)
 integral evaluation            ...        0 min,  0.009 sec (  0.559%)
 iterations                     ...        0 min,  1.564 sec ( 97.203%)
 molecular gradient             ...        0 min,  0.031 sec (  1.927%)
 printout                       ...        0 min,  0.002 sec (  0.124%)

         :::::::::::::::::::::::::::::::::::::::::::::::::::::
         ::                     SUMMARY                     ::
         :::::::::::::::::::::::::::::::::::::::::::::::::::::
         :: total energy            -173.515610723625 Eh    ::
         :: gradient norm              5.374766286617 Eh/a0 ::
         :: HOMO-LUMO gap              0.061988177619 eV    ::
         ::.................................................::
         :: SCC energy              -179.347739515586 Eh    ::
         :: -> isotropic ES            0.869973743487 Eh    ::
         :: -> anisotropic ES         -0.040992283773 Eh    ::
         :: -> anisotropic XC         -0.049888950683 Eh    ::
         :: -> dispersion             -0.171437370918 Eh    ::
         :: repulsion energy           5.832128791961 Eh    ::
         :: add. restraining           0.000000000000 Eh    ::
         :: total charge               0.000000000000 e     ::
         :::::::::::::::::::::::::::::::::::::::::::::::::::::

           -------------------------------------------------
          |                Property Printout                |
           -------------------------------------------------

    * Orbital Energies and Occupations

         #    Occupation            Energy/Eh            Energy/eV
      -------------------------------------------------------------
         1        2.0000           -0.8979824             -24.4353
       ...           ...                  ...                  ...
       146        2.0000           -0.3950811             -10.7507
       147        2.0000           -0.3946590             -10.7392
       148        2.0000           -0.3912170             -10.6456
       149        2.0000           -0.3881510             -10.5621
       150        2.0000           -0.3851215             -10.4797
       151        2.0000           -0.3845524             -10.4642
       152        2.0000           -0.3832722             -10.4294
       153        2.0000           -0.3800764             -10.3424
       154        2.0000           -0.3795838             -10.3290
       155        2.0000           -0.3778055             -10.2806
       156        1.9999           -0.3749960             -10.2042
       157        1.8665           -0.3675576             -10.0018
       158        1.5735           -0.3662915              -9.9673 (HOMO)
       159        0.5023           -0.3640134              -9.9053 (LUMO)
       160        0.0552           -0.3616671              -9.8415
       161        0.0025           -0.3587070              -9.7609
       162        0.0000           -0.3530167              -9.6061
       163        0.0000           -0.3496977              -9.5158
       164                         -0.3466340              -9.4324
       165                         -0.3447306              -9.3806
       166                         -0.3397848              -9.2460
       167                         -0.3354177              -9.1272
       168                         -0.3299671              -8.9789
       169                         -0.3280952              -8.9279
       ...                                ...                  ...
       336                         18.2340212             496.1730
      -------------------------------------------------------------
                  HL-Gap            0.0022780 Eh            0.0620 eV
             Fermi-level           -0.3650513 Eh           -9.9336 eV

     #   Z          covCN         q      C6AA      α(0)
     1   6 C        3.756    -0.111    22.670     6.789
     2   6 C        3.901     0.028    20.047     6.364
     3   6 C        3.756    -0.119    22.832     6.813
     4   6 C        3.755    -0.120    22.850     6.816
     5   6 C        2.961     0.211    23.552     7.960
     6   7 N        1.838    -0.260    27.617     7.788
     7   6 C        2.969     0.210    23.563     7.962
     8   7 N        1.844    -0.284    28.208     7.871
     9   6 C        2.902     0.239    23.013     7.866
    10   7 N        1.841    -0.282    28.165     7.865
    11   7 N        2.736    -0.061    22.425     7.033
    12   6 C        3.801    -0.095    22.319     6.726
    13   6 C        3.702     0.050    19.889     6.377
    14   8 O        1.695    -0.278    18.624     5.826
    15   6 C        3.702     0.049    19.909     6.380
    16   6 C        3.748    -0.030    21.170     6.562
    17   6 C        2.964    -0.027    28.665     8.782
    18   6 C        2.925     0.073    26.368     8.421
    19   7 N        1.835    -0.217    26.560     7.637
    20   6 C        2.862     0.225    23.287     7.910
    21   7 N        2.735    -0.082    22.840     7.098
    22   6 C        3.751    -0.022    21.026     6.539
    23   6 C        3.701     0.064    19.651     6.339
    24   8 O        1.694    -0.311    19.180     5.913
    25   6 C        3.702     0.064    19.650     6.339
    26   6 C        3.750    -0.022    21.032     6.540
    27   7 N        1.845    -0.217    26.566     7.639
    28   6 C        2.893     0.200    23.763     7.992
    29   7 N        2.640    -0.296    27.626     7.806
    30   1 H        0.924     0.053     2.287     2.365
    31   1 H        0.924     0.046     2.371     2.408
    32   1 H        0.924     0.038     2.476     2.461
    33   1 H        0.924     0.071     2.070     2.250
    34   1 H        0.924     0.049     2.327     2.385
    35   1 H        0.924     0.047     2.359     2.402
    36   1 H        0.924     0.062     2.171     2.304
    37   1 H        0.924     0.050     2.324     2.384
    38   1 H        0.924     0.044     2.391     2.418
    39   1 H        0.924     0.123     1.587     1.970
    40   1 H        1.784     0.377     0.515     1.121
    41   1 H        0.924     0.090     1.878     2.143
    42   1 H        0.924     0.084     1.936     2.176
    43   1 H        0.924     0.068     2.112     2.272
    44   1 H        0.924     0.086     1.921     2.167
    45   1 H        0.924     0.108     1.718     2.050
    46   1 H        0.924     0.088     1.898     2.154
    47   1 H        0.925     0.094     1.845     2.124
    48   1 H        0.924     0.088     1.903     2.157
    49   1 H        0.923     0.060     2.202     2.320
    50   1 H        0.924     0.067     2.124     2.279
    51   1 H        0.924     0.042     2.419     2.432
    52   1 H        0.924     0.042     2.427     2.436
    53   1 H        0.924     0.064     2.149     2.292
    54   1 H        0.924     0.085     1.925     2.170
    55   1 H        0.924     0.059     2.211     2.325
    56   1 H        0.860     0.204     1.087     1.633
    57   1 H        0.860     0.263     0.835     1.431
    58  22 Ti       4.264     0.745    92.040    15.762
    59  22 Ti       6.350     0.693    92.673    15.629
    60  22 Ti       4.151     0.767    91.654    16.228
    61  22 Ti       7.449     1.035    89.079    15.323
    62  22 Ti       7.449     1.044    88.986    15.315
    63  22 Ti       6.519     1.057    88.850    15.304
    64  22 Ti       4.151     0.771    91.621    16.225
    65  22 Ti       6.350     0.756    91.994    15.572
    66  22 Ti       4.151     0.788    91.430    16.208
    67  22 Ti       7.449     1.059    88.830    15.302
    68  22 Ti       7.449     1.053    88.893    15.307
    69  22 Ti       6.519     1.070    88.726    15.293
    70   6 C        5.128    -0.730    39.695     8.948
    71   6 C        5.128    -0.719    39.278     8.901
    72   6 C        5.649    -0.567    33.963     8.277
    73   6 C        2.445    -0.423    41.209    10.474
    74   6 C        2.445    -0.412    40.808    10.423
    75   6 C        2.445    -0.337    38.124    10.074
    76   6 C        2.445    -0.338    38.135    10.076
    77   8 O        1.528    -0.561    24.347     6.656
    78   8 O        0.729    -0.604    26.294     6.871
    79   8 O        0.728    -0.539    24.739     6.665
    80   8 O        0.729    -0.695    28.664     7.174
    81   8 O        0.729    -0.679    28.233     7.120
    82   8 O        0.753    -0.627    26.850     6.944
    83   8 O        0.753    -0.632    26.978     6.961
    84   8 O        0.728    -0.527    24.462     6.628
    85   8 O        0.729    -0.572    25.503     6.767
    86   8 O        0.728    -0.539    24.723     6.663
    87   8 O        0.729    -0.654    27.558     7.035
    88   8 O        0.729    -0.658    27.661     7.048
    89   8 O        0.753    -0.576    25.606     6.782
    90   8 O        0.753    -0.579    25.673     6.791

 Mol. C6AA /au·bohr⁶  :     165316.691112
 Mol. C8AA /au·bohr⁸  :    6979715.682824
 Mol. α(0) /au        :        619.732110


Wiberg/Mayer (AO) data.
largest (>0.10) Wiberg bond orders for each atom

 ---------------------------------------------------------------------------
     #   Z sym  total        # sym  WBO       # sym  WBO       # sym  WBO
 ---------------------------------------------------------------------------
     1   6 C    3.992 --    32 H    0.986    31 H    0.985    30 H    0.982
                             2 C    0.978
     2   6 C    3.985 --     4 C    0.998     3 C    0.981     1 C    0.978
                             5 C    0.977
     3   6 C    3.981 --    35 H    0.984    34 H    0.982     2 C    0.981
                            33 H    0.973
     4   6 C    3.985 --     2 C    0.998    38 H    0.984    37 H    0.984
                            36 H    0.973
     5   6 C    3.933 --     6 N    1.388    10 N    1.380     2 C    0.977
     6   7 N    3.047 --     5 C    1.388     7 C    1.355
     7   6 C    3.951 --     6 N    1.355     8 N    1.353    17 C    1.063
     8   7 N    3.039 --     7 C    1.353     9 C    1.349
     9   6 C    3.957 --     8 N    1.349    10 N    1.348    11 N    1.100
    10   7 N    3.017 --     5 C    1.380     9 C    1.348
    11   7 N    3.373 --     9 C    1.100    12 C    1.053    16 C    0.981
    12   6 C    3.758 --    11 N    1.053    13 C    0.995    39 H    0.934
                            40 H    0.417    58 Ti   0.151
    13   6 C    3.943 --    12 C    0.995    14 O    0.982    42 H    0.952
                            41 H    0.929
    14   8 O    2.139 --    13 C    0.982    15 C    0.974
    15   6 C    3.942 --    16 C    1.000    14 O    0.974    44 H    0.965
                            43 H    0.964
    16   6 C    3.957 --    15 C    1.000    11 N    0.981    45 H    0.960
                            46 H    0.925
    17   6 C    3.938 --    18 C    1.370    28 C    1.261     7 C    1.063
    18   6 C    3.957 --    19 N    1.438    17 C    1.370    47 H    0.941
    19   7 N    3.033 --    18 C    1.438    20 C    1.299
    20   6 C    3.956 --    27 N    1.312    19 N    1.299    21 N    1.183
    21   7 N    3.385 --    20 C    1.183    26 C    0.978    22 C    0.977
    22   6 C    3.965 --    23 C    1.000    21 N    0.977    49 H    0.966
                            48 H    0.964
    23   6 C    3.955 --    22 C    1.000    24 O    0.983    50 H    0.969
                            51 H    0.968
    24   8 O    2.066 --    25 C    0.986    23 C    0.983
    25   6 C    3.955 --    26 C    0.999    24 O    0.986    53 H    0.969
                            52 H    0.965
    26   6 C    3.967 --    25 C    0.999    21 N    0.978    55 H    0.966
                            54 H    0.959
    27   7 N    3.025 --    28 C    1.393    20 C    1.312
    28   6 C    3.954 --    27 N    1.393    17 C    1.261    29 N    1.090
    29   7 N    2.989 --    28 C    1.090    56 H    0.908    57 H    0.796
    30   1 H    0.996 --     1 C    0.982
    31   1 H    0.998 --     1 C    0.985
    32   1 H    0.999 --     1 C    0.986
    33   1 H    0.995 --     3 C    0.973
    34   1 H    0.996 --     3 C    0.982
    35   1 H    0.997 --     3 C    0.984
    36   1 H    0.996 --     4 C    0.973
    37   1 H    0.997 --     4 C    0.984
    38   1 H    0.998 --     4 C    0.984
    39   1 H    0.978 --    12 C    0.934
    40   1 H    0.841 --    12 C    0.417    77 O    0.309
    41   1 H    0.991 --    13 C    0.929
    42   1 H    0.982 --    13 C    0.952
    43   1 H    0.990 --    15 C    0.964
    44   1 H    0.992 --    15 C    0.965
    45   1 H    0.987 --    16 C    0.960
    46   1 H    0.987 --    16 C    0.925
    47   1 H    0.977 --    18 C    0.941
    48   1 H    0.991 --    22 C    0.964
    49   1 H    0.995 --    22 C    0.966
    50   1 H    0.995 --    23 C    0.969
    51   1 H    0.997 --    23 C    0.968
    52   1 H    0.998 --    25 C    0.965
    53   1 H    0.995 --    25 C    0.969
    54   1 H    0.992 --    26 C    0.959
    55   1 H    0.995 --    26 C    0.966
    56   1 H    0.956 --    29 N    0.908
    57   1 H    0.930 --    29 N    0.796
    58  22 Ti   4.160 --    77 O    1.600    64 Ti   0.621    59 Ti   0.326
                            70 C    0.320    61 Ti   0.216    73 C    0.214
                            12 C    0.151
    59  22 Ti   4.438 --    78 O    1.888    65 Ti   0.378    58 Ti   0.326
                            60 Ti   0.319    70 C    0.269    71 C    0.250
                            62 Ti   0.122    61 Ti   0.121    66 Ti   0.112
    60  22 Ti   3.961 --    79 O    2.023    66 Ti   0.578    59 Ti   0.319
                            71 C    0.272    62 Ti   0.195    74 C    0.168
    61  22 Ti   4.461 --    80 O    1.715    73 C    0.674    70 C    0.527
                            82 O    0.220    58 Ti   0.216    67 Ti   0.166
                            63 Ti   0.140    72 C    0.139    59 Ti   0.121
    62  22 Ti   4.451 --    81 O    1.735    74 C    0.640    71 C    0.514
                            83 O    0.211    60 Ti   0.195    68 Ti   0.167
                            63 Ti   0.151    72 C    0.151    59 Ti   0.122
    63  22 Ti   4.450 --    82 O    1.132    83 O    1.083    72 C    0.484
                            75 C    0.424    76 C    0.400    69 Ti   0.260
                            62 Ti   0.151    61 Ti   0.140
    64  22 Ti   3.996 --    84 O    2.043    58 Ti   0.621    65 Ti   0.305
                            70 C    0.270    67 Ti   0.186    73 C    0.166
    65  22 Ti   4.482 --    85 O    1.913    59 Ti   0.378    66 Ti   0.335
                            64 Ti   0.305    71 C    0.280    70 C    0.274
                            68 Ti   0.135    67 Ti   0.129
    66  22 Ti   3.946 --    86 O    2.025    60 Ti   0.578    65 Ti   0.335
                            71 C    0.262    68 Ti   0.194    74 C    0.177
                            59 Ti   0.112
    67  22 Ti   4.413 --    87 O    1.740    73 C    0.647    70 C    0.509
                            89 O    0.224    64 Ti   0.186    61 Ti   0.166
                            72 C    0.165    69 Ti   0.158    65 Ti   0.129
    68  22 Ti   4.431 --    88 O    1.736    74 C    0.643    71 C    0.511
                            90 O    0.227    66 Ti   0.194    72 C    0.169
                            62 Ti   0.167    69 Ti   0.161    65 Ti   0.135
    69  22 Ti   4.451 --    90 O    1.096    89 O    1.096    72 C    0.505
                            75 C    0.450    76 C    0.444    63 Ti   0.260
                            68 Ti   0.161    67 Ti   0.158
    70   6 C    3.675 --    73 C    0.860    61 Ti   0.527    67 Ti   0.509
                            58 Ti   0.320    65 Ti   0.274    64 Ti   0.270
                            59 Ti   0.269
    71   6 C    3.607 --    74 C    0.893    62 Ti   0.514    68 Ti   0.511
                            65 Ti   0.280    60 Ti   0.272    66 Ti   0.262
                            59 Ti   0.250
    72   6 C    3.799 --    76 C    0.825    75 C    0.823    69 Ti   0.505
                            63 Ti   0.484    68 Ti   0.169    67 Ti   0.165
                            62 Ti   0.151    61 Ti   0.139
    73   6 C    3.287 --    70 C    0.860    61 Ti   0.674    67 Ti   0.647
                            58 Ti   0.214    75 C    0.197    64 Ti   0.166
    74   6 C    3.302 --    71 C    0.893    68 Ti   0.643    62 Ti   0.640
                            76 C    0.240    66 Ti   0.177    60 Ti   0.168
    75   6 C    3.288 --    72 C    0.823    69 Ti   0.450    63 Ti   0.424
                            89 O    0.416    82 O    0.345    73 C    0.197
                            76 C    0.137
    76   6 C    3.311 --    72 C    0.825    69 Ti   0.444    90 O    0.411
                            63 Ti   0.400    83 O    0.332    74 C    0.240
                            75 C    0.137
    77   8 O    2.297 --    58 Ti   1.600    40 H    0.309
    78   8 O    2.199 --    59 Ti   1.888
    79   8 O    2.263 --    60 Ti   2.023
    80   8 O    2.081 --    61 Ti   1.715
    81   8 O    2.095 --    62 Ti   1.735
    82   8 O    2.109 --    63 Ti   1.132    75 C    0.345    61 Ti   0.220
                            89 O    0.123
    83   8 O    2.102 --    63 Ti   1.083    76 C    0.332    62 Ti   0.211
                            90 O    0.115
    84   8 O    2.281 --    64 Ti   2.043
    85   8 O    2.234 --    65 Ti   1.913
    86   8 O    2.264 --    66 Ti   2.025
    87   8 O    2.124 --    67 Ti   1.740
    88   8 O    2.121 --    68 Ti   1.736
    89   8 O    2.157 --    69 Ti   1.096    75 C    0.416    67 Ti   0.224
                            82 O    0.123
    90   8 O    2.143 --    69 Ti   1.096    76 C    0.411    68 Ti   0.227
                            83 O    0.115
 ---------------------------------------------------------------------------

Topologies differ in total number of bonds
Writing topology from bond orders to xtbtopo.mol

molecular dipole:
                 x           y           z       tot (Debye)
 q only:       -2.073      -9.907       8.506
   full:       -2.087      -4.511       6.252      20.300
molecular quadrupole (traceless):
                xx          xy          yy          xz          yz          zz
 q only:       31.335      12.186      26.570     -36.586     -17.559     -57.905
  q+dip:       20.824       6.133      40.068     -49.353     -19.812     -60.892
   full:       18.043       5.950      45.443     -48.022     -19.775     -63.486


           -------------------------------------------------
          | TOTAL ENERGY             -173.515610723625 Eh   |
          | GRADIENT NORM               5.374766286617 Eh/α |
          | HOMO-LUMO GAP               0.061988177619 eV   |
           -------------------------------------------------

------------------------------------------------------------------------
 * finished run on 2026/08/31 at 20:55:41.096     
------------------------------------------------------------------------
 total:
 * wall-time:     0 d,  0 h,  0 min,  1.659 sec
 *  cpu-time:     0 d,  0 h,  0 min, 15.719 sec
 * ratio c/w:     9.475 speedup
 SCF:
 * wall-time:     0 d,  0 h,  0 min,  1.609 sec
 *  cpu-time:     0 d,  0 h,  0 min, 15.281 sec
 * ratio c/w:     9.497 speedup

normal termination of xtb
