90
Drug@Ti12C7O14 non-overlapping complex
C     -3.412290      2.989924     11.179648
C     -2.747862      3.015583      9.792188
C     -3.795550      3.380493      8.724519
C     -1.657909      4.105823      9.790869
C     -2.174069      1.632225      9.490671
N     -0.854062      1.490835      9.380920
C     -0.430828      0.249252      9.137874
N     -1.235290     -0.806184      9.003073
C     -2.541140     -0.585829      9.119522
N     -3.038126      0.622698      9.369477
N     -3.417424     -1.668034      9.018285
C     -2.900531     -2.793547      8.221315
C     -3.892364     -3.966331      8.254896
O     -5.202171     -3.560817      7.828906
C     -5.704957     -2.538163      8.702399
C     -4.803962     -1.294070      8.690068
C      1.011640      0.013247      9.025366
C      1.536562     -1.264412      9.092748
N      2.847870     -1.574980      9.009553
C      3.710411     -0.564928      8.845870
N      5.071378     -0.850787      8.719446
C      5.944969      0.291090      9.034881
C      7.413748     -0.087346      8.790259
O      7.785437     -1.269351      9.517981
C      6.968214     -2.374993      9.101966
C      5.478019     -2.108256      9.363849
N      3.299598      0.707852      8.760434
C      1.986344      0.990480      8.861825
N      1.668466      2.353001      8.702582
H     -3.826307      3.971221     11.438245
H     -4.233882      2.265249     11.222503
H     -2.692161      2.714443     11.959268
H     -3.356087      3.374223      7.719996
H     -4.210033      4.379445      8.902426
H     -4.635005      2.675362      8.719555
H     -1.150618      4.163777      8.820579
H     -2.086559      5.093194      9.998246
H     -0.895230      3.913421     10.554674
H     -1.939802     -3.153303      8.608335
H     -2.762540     -2.470444      7.181230
H     -3.553572     -4.758230      7.579406
H     -3.961400     -4.394551      9.262226
H     -5.796818     -2.947687      9.715659
H     -6.709632     -2.272153      8.358837
H     -5.209308     -0.577284      9.414177
H     -4.832955     -0.840874      7.690520
H      0.892747     -2.131263      9.227396
H      5.713154      1.161216      8.409167
H      5.819083      0.569534     10.089454
H      8.066810      0.725794      9.122694
H      7.604621     -0.252436      7.722916
H      7.151480     -2.572802      8.038858
H      7.291659     -3.256546      9.664510
H      4.909741     -2.962248      8.976613
H      5.312569     -2.036008     10.446813
H      0.998674      2.612757      9.427228
H      1.177245      2.471719      7.820743
Ti     -2.141866     -3.008818      2.119748
Ti      0.288991     -1.694759      1.432425
Ti      1.903098     -3.067749     -0.729322
Ti     -2.521502     -0.251928      1.303687
Ti      2.142050      0.499533      2.204434
Ti     -0.681448      0.189635      3.681230
Ti     -2.036770     -3.077740     -1.200512
Ti     -0.605340     -0.770900     -2.035132
Ti      1.945488     -1.587317     -3.412400
Ti     -1.878170      1.746573     -1.240030
Ti      2.412512      0.454231     -0.774247
Ti      0.817742      1.838452     -2.940004
C     -3.678414      1.281398      0.600737
C      4.128193      0.482847      0.387293
C      0.455479      2.267202      0.349695
C     -3.666709      2.118834     -0.313920
C      4.115962      0.632239      1.621354
C     -0.635167      2.741046     -0.118921
C      1.630072      1.780996      0.734224
O     -3.093456     -1.956907      1.037949
O     -0.487250     -2.605849      2.701203
O      0.314079     -2.888890      0.145001
O     -0.800785     -0.435934      0.971227
O      1.902865     -1.158331      1.469449
O     -2.322673     -0.113878      3.024800
O      1.013786      0.441598      3.568761
O     -1.772019     -4.587905     -1.652810
O      0.190605     -1.189189     -3.534030
O      2.831420     -2.170248     -1.918042
O     -2.054558     -0.224445     -1.337505
O      0.768511     -0.390574     -1.063664
O     -0.900039      1.649313     -2.818565
O      2.415313      1.357463     -2.264115
