      -----------------------------------------------------------      
     |                   =====================                   |     
     |                           x T B                           |     
     |                   =====================                   |     
     |                         S. Grimme                         |     
     |          Mulliken Center for Theoretical Chemistry        |     
     |                    University of Bonn                     |     
      -----------------------------------------------------------      

   * xtb version 6.7.1pre (5071a88) compiled by 'Marcel@Raven' on 2024-07-23

   xtb is free software: you can redistribute it and/or modify it under
   the terms of the GNU Lesser General Public License as published by
   the Free Software Foundation, either version 3 of the License, or
   (at your option) any later version.
   
   xtb is distributed in the hope that it will be useful,
   but WITHOUT ANY WARRANTY; without even the implied warranty of
   MERCHANTABILITY or FITNESS FOR A PARTICULAR PURPOSE.  See the
   GNU Lesser General Public License for more details.
   
   Cite this work as:
   * C. Bannwarth, E. Caldeweyher, S. Ehlert, A. Hansen, P. Pracht,
     J. Seibert, S. Spicher, S. Grimme, WIREs Comput. Mol. Sci., 2020, 11,
     e01493. DOI: 10.1002/wcms.1493
   
   for GFN2-xTB:
   * C. Bannwarth, S. Ehlert and S. Grimme., J. Chem. Theory Comput., 2019,
     15, 1652-1671. DOI: 10.1021/acs.jctc.8b01176
   for GFN1-xTB:
   * S. Grimme, C. Bannwarth, P. Shushkov, J. Chem. Theory Comput., 2017,
     13, 1989-2009. DOI: 10.1021/acs.jctc.7b00118
   for GFN0-xTB:
   * P. Pracht, E. Caldeweyher, S. Ehlert, S. Grimme, ChemRxiv, 2019, preprint.
     DOI: 10.26434/chemrxiv.8326202.v1
   for GFN-FF:
   * S. Spicher and S. Grimme, Angew. Chem. Int. Ed., 2020, 59, 15665-15673.
     DOI: 10.1002/anie.202004239
   
   for ALPB and GBSA implicit solvation:
   * S. Ehlert, M. Stahn, S. Spicher, S. Grimme, J. Chem. Theory Comput.,
     2021, 17, 4250-4261. DOI: 10.1021/acs.jctc.1c00471
   
   for ddCOSMO and CPCM-X implicit solvation:
   * M. Stahn, S. Ehlert, S. Grimme, J. Phys. Chem. A,
     2023, XX, XXXX-XXXX. DOI: 10.1021/acs.jpca.3c04382
   
   for DFT-D4:
   * E. Caldeweyher, C. Bannwarth and S. Grimme, J. Chem. Phys., 2017,
     147, 034112. DOI: 10.1063/1.4993215
   * E. Caldeweyher, S. Ehlert, A. Hansen, H. Neugebauer, S. Spicher,
     C. Bannwarth and S. Grimme, J. Chem. Phys., 2019, 150, 154122.
     DOI: 10.1063/1.5090222
   * E. Caldeweyher, J.-M. Mewes, S. Ehlert and S. Grimme, Phys. Chem. Chem. Phys.
     2020, 22, 8499-8512. DOI: 10.1039/D0CP00502A
   
   for sTDA-xTB:
   * S. Grimme and C. Bannwarth, J. Chem. Phys., 2016, 145, 054103.
     DOI: 10.1063/1.4959605
   
   in the mass-spec context:
   * V. Asgeirsson, C. Bauer and S. Grimme, Chem. Sci., 2017, 8, 4879.
     DOI: 10.1039/c7sc00601b
   * J. Koopman and S. Grimme, ACS Omega 2019, 4, 12, 15120-15133.
     DOI: 10.1021/acsomega.9b02011
   
   for metadynamics refer to:
   * S. Grimme, J. Chem. Theory Comput., 2019, 155, 2847-2862
     DOI: 10.1021/acs.jctc.9b00143
   
   for SPH calculations refer to:
   * S. Spicher and S. Grimme, J. Chem. Theory Comput., 2021, 17, 1701-1714
     DOI: 10.1021/acs.jctc.0c01306
   
   for ONIOM refer to:
   * C. Plett, A. Katbashev, S. Ehlert, S. Grimme, M. Bursch,
     Phys. Chem. Chem. Phys., 2023, 25, 17860-17868. DOI: 10.1039/D3CP02178E
   
   for DIPRO refer to:
   * J. Kohn, N. Gildemeister, S. Grimme, D. Fazzi, A. Hansen,
     J. Chem. Phys., 2023, just accepted.
   
   for PTB refer to:
   * S. Grimme, M. Mueller, A. Hansen, J. Chem. Phys., 2023, 158, 124111.
     DOI: 10.1063/5.0137838
   
   with help from (in alphabetical order)
   P. Atkinson, C. Bannwarth, F. Bohle, G. Brandenburg, E. Caldeweyher
   M. Checinski, S. Dohm, S. Ehlert, S. Ehrlich, I. Gerasimov, C. Hölzer
   A. Katbashev, J. Kohn, J. Koopman, C. Lavigne, S. Lehtola, F. März, M. Müller,
   F. Musil, H. Neugebauer, J. Pisarek, C. Plett, P. Pracht, F. Pultar,
   J. Seibert, P. Shushkov, S. Spicher, M. Stahn, M. Steiner, T. Strunk,
   J. Stückrath, T. Rose, and J. Unsleber
   
 * started run on 2026/08/31 at 21:19:27.166     
   ID    Z sym.   atoms
    1    6 C      1-5, 7, 9, 12, 13, 15-18, 20, 22, 23, 25, 26, 28, 70-76
    2    7 N      6, 8, 10, 11, 19, 21, 27, 29
    3    8 O      14, 24, 77-90
    4    1 H      30-57
    5   22 Ti     58-69

           -------------------------------------------------
          |                Calculation Setup                |
           -------------------------------------------------

          program call               : "c:\Users\Andre\Proyectos doctorado\kras-pancreatic-gC3N4-ai\tools\xtb\xtb-6.7.1\bin\xtb.exe" "c:\Users\Andre\Proyectos doctorado\mxene-glioblastoma-qsar-ai\calculations\gbm\Paxalisib\Paxalisib_Ti12C7O14_phys_complex.xyz" --gfn 2 --sp --chrg 0 --uhf 0 --etemp 300 --iterations 500 --norestart
          coordinate file            : c:\Users\Andre\Proyectos doctorado\mxene-glioblastoma-qsar-ai\calculations\gbm\Paxalisib\Paxalisib_Ti12C7O14_phys_complex.xyz
          omp threads                :                    16


molecular fragmentation (1/2 indicates fragments):
111111111111111111111111111111111111111111111111111111111222222222222222
222222222222222222
# atoms in fragment 1/2:    57    33
 fragment masses (1/2) :      400.48      882.47
CMA distance (Bohr)    :  17.260
constraining FC (au)   :  0.0500

           -------------------------------------------------
          |                 G F N 2 - x T B                 |
           -------------------------------------------------

        Reference                      10.1021/acs.jctc.8b01176
      * Hamiltonian:
        H0-scaling (s, p, d)           1.850000    2.230000    2.230000
        zeta-weighting                 0.500000
      * Dispersion:
        s8                             2.700000
        a1                             0.520000
        a2                             5.000000
        s9                             5.000000
      * Repulsion:
        kExp                           1.500000    1.000000
        rExp                           1.000000
      * Coulomb:
        alpha                          2.000000
        third order                    shell-resolved
        anisotropic                    true
        a3                             3.000000
        a5                             4.000000
        cn-shift                       1.200000
        cn-exp                         4.000000
        max-rad                        5.000000


          ...................................................
          :                      SETUP                      :
          :.................................................:
          :  # basis functions                 348          :
          :  # atomic orbitals                 336          :
          :  # shells                          164          :
          :  # electrons                       316          :
          :  max. iterations                   500          :
          :  Hamiltonian                  GFN2-xTB          :
          :  restarted?                      false          :
          :  GBSA solvation                  false          :
          :  PC potential                    false          :
          :  electronic temp.          300.0000000     K    :
          :  accuracy                    1.0000000          :
          :  -> integral cutoff          0.2500000E+02      :
          :  -> integral neglect         0.1000000E-07      :
          :  -> SCF convergence          0.1000000E-05 Eh   :
          :  -> wf. convergence          0.1000000E-03 e    :
          :  Broyden damping             0.4000000          :
          :  net charge                          0          :
          :  unpaired electrons                  0          :
          ...................................................

 iter      E             dE          RMSdq      gap      omega  full diag
   1   -177.5175951 -0.177518E+03  0.132E+01    0.08       0.0  T
   2   -140.8308061  0.366868E+02  0.146E+01    0.07       1.0  T
   3    -29.3703447  0.111460E+03  0.261E+01    0.04       1.0  T
   4   -164.2657720 -0.134895E+03  0.113E+01    0.08       1.0  T
   5   -136.5484532  0.277173E+02  0.131E+01    0.00       1.0  T
   6   -179.1856134 -0.426372E+02  0.628E+00    0.04       1.0  T
   7   -179.0184867  0.167127E+00  0.562E+00    0.21       1.0  T
   8   -179.7328793 -0.714393E+00  0.534E+00    0.60       1.0  T
   9   -179.8396385 -0.106759E+00  0.504E+00    0.58       1.0  T
  10   -179.9032454 -0.636069E-01  0.468E+00    0.48       1.0  T
  11   -173.8776993  0.602555E+01  0.598E+00    0.60       1.0  T
  12   -176.5934444 -0.271575E+01  0.497E+00    0.04       1.0  T
  13   -176.6268629 -0.334185E-01  0.471E+00    0.11       1.0  T
  14   -176.8329109 -0.206048E+00  0.716E+00    0.23       1.0  T
  15   -179.0212180 -0.218831E+01  0.355E+00    0.05       1.0  T
  16   -177.4234422  0.159778E+01  0.424E+00    0.25       1.0  T
  17   -179.2811125 -0.185767E+01  0.326E+00    0.26       1.0  T
  18   -179.2738080  0.730442E-02  0.325E+00    0.30       1.0  T
  19   -179.3079097 -0.341017E-01  0.299E+00    0.27       1.0  T
  20   -180.1377252 -0.829816E+00  0.216E+00    0.13       1.0  T
  21   -180.1456831 -0.795790E-02  0.201E+00    0.12       1.0  T
  22   -180.1846685 -0.389854E-01  0.185E+00    0.35       1.0  T
  23   -180.2075648 -0.228963E-01  0.155E+00    0.52       1.0  T
  24   -180.2174434 -0.987851E-02  0.123E+00    0.55       1.0  T
  25   -180.2300314 -0.125881E-01  0.100E+00    0.76       1.0  T
  26   -180.2546753 -0.246439E-01  0.820E-01    0.84       1.0  T
  27   -180.2615070 -0.683172E-02  0.740E-01    0.90       1.0  T
  28   -180.2708764 -0.936942E-02  0.616E-01    0.94       1.0  T
  29   -180.2751069 -0.423045E-02  0.550E-01    0.93       1.0  T
  30   -180.2823416 -0.723470E-02  0.413E-01    0.87       1.0  T
  31   -180.2843313 -0.198971E-02  0.354E-01    0.87       1.0  T
  32   -180.2860318 -0.170046E-02  0.335E-01    0.86       1.0  T
  33   -180.2875608 -0.152903E-02  0.312E-01    0.85       1.0  T
  34   -180.2892435 -0.168275E-02  0.271E-01    0.84       1.0  T
  35   -180.2906870 -0.144350E-02  0.238E-01    0.81       1.0  T
  36   -180.2909142 -0.227199E-03  0.226E-01    0.81       1.0  T
  37   -180.2917760 -0.861743E-03  0.205E-01    0.80       1.0  T
  38   -180.2921912 -0.415200E-03  0.190E-01    0.78       1.0  T
  39   -180.2924019 -0.210735E-03  0.183E-01    0.78       1.0  T
  40   -180.2928309 -0.428953E-03  0.164E-01    0.76       1.0  T
  41   -180.2931300 -0.299109E-03  0.151E-01    0.75       1.0  T
  42   -180.2934102 -0.280209E-03  0.137E-01    0.74       1.0  T
  43   -180.2939415 -0.531268E-03  0.111E-01    0.72       1.0  T
  44   -180.2941769 -0.235409E-03  0.929E-02    0.71       1.0  T
  45   -180.2945266 -0.349773E-03  0.601E-02    0.68       1.0  T
  46   -180.2946904 -0.163745E-03  0.344E-02    0.65       1.0  T
  47   -180.2947171 -0.266836E-04  0.278E-02    0.64       1.0  T
  48   -180.2947441 -0.270429E-04  0.192E-02    0.63       1.0  T
  49   -180.2947531 -0.900916E-05  0.134E-02    0.63       1.0  T
  50   -180.2947584 -0.530907E-05  0.848E-03    0.63       1.2  T
  51   -180.2947602 -0.180624E-05  0.565E-03    0.62       1.9  T
  52   -180.2947605 -0.239801E-06  0.399E-03    0.62       2.6  T
  53   -180.2947604  0.103942E-06  0.372E-03    0.62       2.8  T
  54   -180.2947607 -0.310959E-06  0.314E-03    0.62       3.4  T
  55   -180.2947610 -0.344245E-06  0.235E-03    0.62       4.5  T
  56   -180.2947612 -0.205783E-06  0.175E-03    0.62       6.0  T
  57   -180.2947614 -0.137697E-06  0.118E-03    0.62       8.9  T
  58   -180.2947614 -0.307997E-07  0.967E-04    0.62      10.9  T
  59   -180.2947614  0.788674E-09  0.950E-04    0.62      11.1  T

   *** convergence criteria satisfied after 59 iterations ***

         #    Occupation            Energy/Eh            Energy/eV
      -------------------------------------------------------------
         1        2.0000           -0.8218002             -22.3623
       ...           ...                  ...                  ...
       152        2.0000           -0.3560767              -9.6893
       153        2.0000           -0.3531105              -9.6086
       154        2.0000           -0.3507348              -9.5440
       155        2.0000           -0.3463234              -9.4239
       156        2.0000           -0.3389185              -9.2224
       157        2.0000           -0.3238588              -8.8126
       158        2.0000           -0.3092568              -8.4153 (HOMO)
       159        0.0000           -0.2864427              -7.7945 (LUMO)
       160        0.0000           -0.2857593              -7.7759
       161        0.0000           -0.2846796              -7.7465
       162        0.0000           -0.2844147              -7.7393
       163                         -0.2805776              -7.6349
       ...                                ...                  ...
       336                         13.3435174             363.0956
      -------------------------------------------------------------
                  HL-Gap            0.0228142 Eh            0.6208 eV
             Fermi-level           -0.2981199 Eh           -8.1123 eV

 SCC (total)                   0 d,  0 h,  0 min,  1.088 sec
 SCC setup                      ...        0 min,  0.001 sec (  0.092%)
 Dispersion                     ...        0 min,  0.002 sec (  0.184%)
 classical contributions        ...        0 min,  0.000 sec (  0.000%)
 integral evaluation            ...        0 min,  0.007 sec (  0.643%)
 iterations                     ...        0 min,  1.056 sec ( 97.059%)
 molecular gradient             ...        0 min,  0.021 sec (  1.930%)
 printout                       ...        0 min,  0.001 sec (  0.092%)

         :::::::::::::::::::::::::::::::::::::::::::::::::::::
         ::                     SUMMARY                     ::
         :::::::::::::::::::::::::::::::::::::::::::::::::::::
         :: total energy            -178.599550534713 Eh    ::
         :: gradient norm              0.094059916589 Eh/a0 ::
         :: HOMO-LUMO gap              0.620804843703 eV    ::
         ::.................................................::
         :: SCC energy              -180.291904791792 Eh    ::
         :: -> isotropic ES            1.022782447577 Eh    ::
         :: -> anisotropic ES         -0.376142490283 Eh    ::
         :: -> anisotropic XC         -0.009665436191 Eh    ::
         :: -> dispersion             -0.151169668834 Eh    ::
         :: repulsion energy           1.692354257079 Eh    ::
         :: add. restraining           0.000000000000 Eh    ::
         :: total charge              -0.000000000010 e     ::
         :::::::::::::::::::::::::::::::::::::::::::::::::::::

           -------------------------------------------------
          |                Property Printout                |
           -------------------------------------------------

    * Orbital Energies and Occupations

         #    Occupation            Energy/Eh            Energy/eV
      -------------------------------------------------------------
         1        2.0000           -0.8218002             -22.3623
       ...           ...                  ...                  ...
       146        2.0000           -0.3780461             -10.2872
       147        2.0000           -0.3736476             -10.1675
       148        2.0000           -0.3700539             -10.0697
       149        2.0000           -0.3690445             -10.0422
       150        2.0000           -0.3618929              -9.8476
       151        2.0000           -0.3595226              -9.7831
       152        2.0000           -0.3560767              -9.6893
       153        2.0000           -0.3531105              -9.6086
       154        2.0000           -0.3507348              -9.5440
       155        2.0000           -0.3463234              -9.4239
       156        2.0000           -0.3389185              -9.2224
       157        2.0000           -0.3238588              -8.8126
       158        2.0000           -0.3092568              -8.4153 (HOMO)
       159        0.0000           -0.2864427              -7.7945 (LUMO)
       160        0.0000           -0.2857593              -7.7759
       161        0.0000           -0.2846796              -7.7465
       162        0.0000           -0.2844147              -7.7393
       163                         -0.2805776              -7.6349
       164                         -0.2805583              -7.6344
       165                         -0.2758314              -7.5058
       166                         -0.2748503              -7.4791
       167                         -0.2728536              -7.4247
       168                         -0.2726295              -7.4186
       169                         -0.2718283              -7.3968
       ...                                ...                  ...
       336                         13.3435174             363.0956
      -------------------------------------------------------------
                  HL-Gap            0.0228142 Eh            0.6208 eV
             Fermi-level           -0.2981199 Eh           -8.1123 eV

     #   Z          covCN         q      C6AA      α(0)
     1   6 C        3.756    -0.105    22.561     6.772
     2   6 C        3.901     0.023    20.126     6.377
     3   6 C        3.756    -0.112    22.691     6.792
     4   6 C        3.755    -0.113    22.725     6.797
     5   6 C        2.961     0.201    23.740     7.992
     6   7 N        1.838    -0.307    28.810     7.954
     7   6 C        2.969     0.198    23.796     8.002
     8   7 N        1.844    -0.325    29.269     8.018
     9   6 C        2.902     0.248    22.862     7.840
    10   7 N        1.841    -0.315    29.006     7.982
    11   7 N        2.736    -0.115    23.496     7.199
    12   6 C        3.748    -0.009    20.796     6.504
    13   6 C        3.702     0.065    19.636     6.336
    14   8 O        1.695    -0.316    19.284     5.929
    15   6 C        3.702     0.067    19.612     6.332
    16   6 C        3.748    -0.008    20.786     6.503
    17   6 C        2.964    -0.055    29.376     8.890
    18   6 C        2.925     0.072    26.400     8.426
    19   7 N        1.835    -0.286    28.258     7.878
    20   6 C        2.862     0.229    23.211     7.897
    21   7 N        2.735    -0.105    23.294     7.168
    22   6 C        3.751    -0.011    20.829     6.509
    23   6 C        3.701     0.068    19.594     6.330
    24   8 O        1.694    -0.316    19.278     5.928
    25   6 C        3.702     0.069    19.579     6.327
    26   6 C        3.750    -0.008    20.776     6.501
    27   7 N        1.845    -0.283    28.178     7.867
    28   6 C        2.893     0.185    24.046     8.040
    29   7 N        2.640    -0.335    28.615     7.945
    30   1 H        0.924     0.047     2.362     2.403
    31   1 H        0.924     0.046     2.367     2.406
    32   1 H        0.924     0.037     2.490     2.468
    33   1 H        0.924     0.037     2.495     2.470
    34   1 H        0.924     0.048     2.350     2.397
    35   1 H        0.924     0.049     2.327     2.386
    36   1 H        0.924     0.044     2.396     2.421
    37   1 H        0.924     0.044     2.393     2.419
    38   1 H        0.924     0.045     2.389     2.417
    39   1 H        0.924     0.074     2.046     2.237
    40   1 H        0.924     0.046     2.371     2.408
    41   1 H        0.924     0.060     2.198     2.318
    42   1 H        0.924     0.044     2.394     2.420
    43   1 H        0.924     0.041     2.429     2.437
    44   1 H        0.924     0.061     2.183     2.311
    45   1 H        0.924     0.074     2.045     2.237
    46   1 H        0.924     0.049     2.327     2.385
    47   1 H        0.925     0.059     2.212     2.326
    48   1 H        0.924     0.079     1.988     2.205
    49   1 H        0.923     0.052     2.299     2.371
    50   1 H        0.924     0.060     2.195     2.317
    51   1 H        0.924     0.040     2.452     2.449
    52   1 H        0.924     0.039     2.466     2.456
    53   1 H        0.924     0.058     2.217     2.329
    54   1 H        0.924     0.072     2.063     2.246
    55   1 H        0.924     0.049     2.332     2.388
    56   1 H        0.860     0.190     1.158     1.685
    57   1 H        0.860     0.172     1.264     1.761
    58  22 Ti       3.637     1.052   101.782    24.486
    59  22 Ti       6.855     1.551    84.054    14.885
    60  22 Ti       3.227     1.049   102.635    24.738
    61  22 Ti       5.860     1.381    85.662    15.027
    62  22 Ti       5.627     1.124    88.176    15.246
    63  22 Ti       3.541     1.037   102.512    24.676
    64  22 Ti       2.352     0.881   202.652    34.856
    65  22 Ti       6.011     1.349    85.972    15.054
    66  22 Ti       3.414     1.008   103.053    24.779
    67  22 Ti       5.519     1.095    88.467    15.271
    68  22 Ti       5.687     1.189    87.526    15.189
    69  22 Ti       3.581     1.026   102.475    24.642
    70   6 C        2.246    -0.258    37.662     9.943
    71   6 C        2.142    -0.256    38.347    10.010
    72   6 C        2.248    -0.019    30.615     8.965
    73   6 C        1.838    -0.210    37.314     9.868
    74   6 C        1.894    -0.224    37.732     9.921
    75   6 C        1.821    -0.347    42.187    10.494
    76   6 C        2.631    -0.404    39.937    10.337
    77   8 O        1.554    -0.847    32.013     7.634
    78   8 O        1.464    -0.882    33.247     7.772
    79   8 O        1.557    -0.956    35.606     8.051
    80   8 O        1.523    -1.007    37.478     8.257
    81   8 O        1.523    -0.914    34.193     7.887
    82   8 O        1.458    -0.824    31.433     7.556
    83   8 O        1.455    -0.800    30.731     7.471
    84   8 O        0.727    -0.636    27.084     6.974
    85   8 O        1.453    -0.864    32.696     7.706
    86   8 O        1.476    -0.799    30.670     7.466
    87   8 O        1.603    -0.946    35.200     8.007
    88   8 O        1.547    -0.969    36.080     8.104
    89   8 O        1.700    -0.817    30.969     7.513
    90   8 O        1.453    -0.781    30.164     7.402

 Mol. C6AA /au·bohr⁶  :     174889.711430
 Mol. C8AA /au·bohr⁸  :    7319509.601761
 Mol. α(0) /au        :        700.294813


Wiberg/Mayer (AO) data.
largest (>0.10) Wiberg bond orders for each atom

 ---------------------------------------------------------------------------
     #   Z sym  total        # sym  WBO       # sym  WBO       # sym  WBO
 ---------------------------------------------------------------------------
     1   6 C    3.993 --    32 H    0.986    31 H    0.985    30 H    0.983
                             2 C    0.980
     2   6 C    3.989 --     4 C    0.998     3 C    0.984     1 C    0.980
                             5 C    0.976
     3   6 C    3.992 --    33 H    0.986    35 H    0.984     2 C    0.984
                            34 H    0.983
     4   6 C    3.993 --     2 C    0.998    36 H    0.985    37 H    0.985
                            38 H    0.985
     5   6 C    3.946 --    10 N    1.407     6 N    1.384     2 C    0.976
     6   7 N    3.046 --     5 C    1.384     7 C    1.349
     7   6 C    3.953 --     8 N    1.376     6 N    1.349    17 C    1.062
     8   7 N    3.027 --     7 C    1.376     9 C    1.328
     9   6 C    3.963 --     8 N    1.328    10 N    1.321    11 N    1.174
    10   7 N    3.029 --     5 C    1.407     9 C    1.321
    11   7 N    3.376 --     9 C    1.174    12 C    0.982    16 C    0.981
    12   6 C    3.967 --    13 C    0.999    11 N    0.982    39 H    0.967
                            40 H    0.960
    13   6 C    3.956 --    12 C    0.999    14 O    0.985    41 H    0.969
                            42 H    0.968
    14   8 O    2.064 --    13 C    0.985    15 C    0.983
    15   6 C    3.955 --    16 C    0.999    14 O    0.983    44 H    0.970
                            43 H    0.968
    16   6 C    3.973 --    15 C    0.999    11 N    0.981    45 H    0.968
                            46 H    0.967
    17   6 C    3.982 --    18 C    1.379    28 C    1.298     7 C    1.062
    18   6 C    3.971 --    19 N    1.446    17 C    1.379    47 H    0.959
    19   7 N    3.034 --    18 C    1.446    20 C    1.319
    20   6 C    3.964 --    27 N    1.322    19 N    1.319    21 N    1.178
    21   7 N    3.366 --    20 C    1.178    26 C    0.980    22 C    0.980
    22   6 C    3.971 --    23 C    0.999    21 N    0.980    49 H    0.967
                            48 H    0.967
    23   6 C    3.956 --    22 C    0.999    24 O    0.983    50 H    0.970
                            51 H    0.969
    24   8 O    2.064 --    25 C    0.985    23 C    0.983
    25   6 C    3.957 --    26 C    0.999    24 O    0.985    53 H    0.970
                            52 H    0.969
    26   6 C    3.973 --    25 C    0.999    21 N    0.980    54 H    0.968
                            55 H    0.967
    27   7 N    3.046 --    28 C    1.415    20 C    1.322
    28   6 C    3.968 --    27 N    1.415    17 C    1.298    29 N    1.067
    29   7 N    3.018 --    28 C    1.067    57 H    0.921    56 H    0.918
    30   1 H    0.997 --     1 C    0.983
    31   1 H    0.998 --     1 C    0.985
    32   1 H    0.999 --     1 C    0.986
    33   1 H    0.998 --     3 C    0.986
    34   1 H    0.997 --     3 C    0.983
    35   1 H    0.998 --     3 C    0.984
    36   1 H    0.998 --     4 C    0.985
    37   1 H    0.998 --     4 C    0.985
    38   1 H    0.998 --     4 C    0.985
    39   1 H    0.994 --    12 C    0.967
    40   1 H    0.998 --    12 C    0.960
    41   1 H    0.995 --    13 C    0.969
    42   1 H    0.998 --    13 C    0.968
    43   1 H    0.998 --    15 C    0.968
    44   1 H    0.996 --    15 C    0.970
    45   1 H    0.995 --    16 C    0.968
    46   1 H    0.997 --    16 C    0.967
    47   1 H    0.996 --    18 C    0.959
    48   1 H    0.994 --    22 C    0.967
    49   1 H    0.996 --    22 C    0.967
    50   1 H    0.996 --    23 C    0.970
    51   1 H    0.998 --    23 C    0.969
    52   1 H    0.998 --    25 C    0.969
    53   1 H    0.996 --    25 C    0.970
    54   1 H    0.995 --    26 C    0.968
    55   1 H    0.996 --    26 C    0.967
    56   1 H    0.963 --    29 N    0.918
    57   1 H    0.970 --    29 N    0.921
    58  22 Ti   2.824 --    77 O    0.845    78 O    0.814    64 Ti   0.329
                            59 Ti   0.202    61 Ti   0.198
    59  22 Ti   3.853 --    78 O    0.750    81 O    0.745    79 O    0.692
                            80 O    0.608    58 Ti   0.202    60 Ti   0.188
                            62 Ti   0.139    63 Ti   0.134
    60  22 Ti   2.722 --    86 O    0.962    79 O    0.599    66 Ti   0.372
                            59 Ti   0.188    64 Ti   0.140    81 O    0.110
    61  22 Ti   3.917 --    82 O    0.933    70 C    0.721    77 O    0.705
                            80 O    0.563    63 Ti   0.208    58 Ti   0.198
                            67 Ti   0.178    87 O    0.124
    62  22 Ti   4.070 --    76 C    0.894    83 O    0.768    74 C    0.743
                            81 O    0.602    68 Ti   0.284    63 Ti   0.172
                            75 C    0.160    71 C    0.152    59 Ti   0.139
    63  22 Ti   2.642 --    83 O    0.974    82 O    0.711    61 Ti   0.208
                            62 Ti   0.172    59 Ti   0.134    78 O    0.123
    64  22 Ti   3.767 --    84 O    1.997    65 Ti   0.608    58 Ti   0.329
                            79 O    0.152    77 O    0.147    60 Ti   0.140
                            87 O    0.112
    65  22 Ti   4.017 --    87 O    0.802    85 O    0.753    88 O    0.715
                            64 Ti   0.608    89 O    0.196    66 Ti   0.166
                            69 Ti   0.147    67 Ti   0.141
    66  22 Ti   2.745 --    85 O    0.835    86 O    0.764    60 Ti   0.372
                            69 Ti   0.221    65 Ti   0.166    68 Ti   0.130
    67  22 Ti   4.013 --    75 C    1.059    73 C    0.725    89 O    0.615
                            87 O    0.441    76 C    0.234    69 Ti   0.199
                            61 Ti   0.178    70 C    0.155    65 Ti   0.141
    68  22 Ti   4.082 --    90 O    0.968    71 C    0.670    76 C    0.652
                            88 O    0.442    62 Ti   0.284    69 Ti   0.210
                            75 C    0.141    66 Ti   0.130    86 O    0.114
    69  22 Ti   2.791 --    89 O    0.901    90 O    0.734    66 Ti   0.221
                            68 Ti   0.210    67 Ti   0.199    65 Ti   0.147
    70   6 C    3.843 --    73 C    2.739    61 Ti   0.721    67 Ti   0.155
    71   6 C    3.782 --    74 C    2.732    68 Ti   0.670    62 Ti   0.152
    72   6 C    3.979 --    75 C    2.007    76 C    1.605
    73   6 C    3.705 --    70 C    2.739    67 Ti   0.725
    74   6 C    3.747 --    71 C    2.732    62 Ti   0.743
    75   6 C    3.769 --    72 C    2.007    67 Ti   1.059    62 Ti   0.160
                            68 Ti   0.141
    76   6 C    3.830 --    72 C    1.605    62 Ti   0.894    68 Ti   0.652
                            67 Ti   0.234
    77   8 O    1.934 --    58 Ti   0.845    61 Ti   0.705    64 Ti   0.147
    78   8 O    1.891 --    58 Ti   0.814    59 Ti   0.750    63 Ti   0.123
    79   8 O    1.783 --    59 Ti   0.692    60 Ti   0.599    64 Ti   0.152
    80   8 O    1.719 --    59 Ti   0.608    61 Ti   0.563
    81   8 O    1.846 --    59 Ti   0.745    62 Ti   0.602    60 Ti   0.110
    82   8 O    1.968 --    61 Ti   0.933    63 Ti   0.711
    83   8 O    2.010 --    63 Ti   0.974    62 Ti   0.768
    84   8 O    2.171 --    64 Ti   1.997
    85   8 O    1.911 --    66 Ti   0.835    65 Ti   0.753
    86   8 O    2.008 --    60 Ti   0.962    66 Ti   0.764    68 Ti   0.114
    87   8 O    1.799 --    65 Ti   0.802    67 Ti   0.441    61 Ti   0.124
                            64 Ti   0.112
    88   8 O    1.772 --    65 Ti   0.715    68 Ti   0.442
    89   8 O    1.987 --    69 Ti   0.901    67 Ti   0.615    65 Ti   0.196
    90   8 O    2.032 --    68 Ti   0.968    69 Ti   0.734
 ---------------------------------------------------------------------------

Topologies differ in total number of bonds
Writing topology from bond orders to xtbtopo.mol

molecular dipole:
                 x           y           z       tot (Debye)
 q only:        0.423      -0.945      -0.918
   full:       -1.640      -1.138      -0.149       5.087
molecular quadrupole (traceless):
                xx          xy          yy          xz          yz          zz
 q only:      -26.005      -9.013       2.191     -50.749      -8.418      23.814
  q+dip:      -22.912     -18.294     -15.946     -40.022     -26.212      38.858
   full:      -21.812     -16.843     -16.325     -39.680     -23.340      38.137


           -------------------------------------------------
          | TOTAL ENERGY             -178.599550534713 Eh   |
          | GRADIENT NORM               0.094059916589 Eh/α |
          | HOMO-LUMO GAP               0.620804843703 eV   |
           -------------------------------------------------

------------------------------------------------------------------------
 * finished run on 2026/08/31 at 21:19:28.298     
------------------------------------------------------------------------
 total:
 * wall-time:     0 d,  0 h,  0 min,  1.131 sec
 *  cpu-time:     0 d,  0 h,  0 min, 12.078 sec
 * ratio c/w:    10.679 speedup
 SCF:
 * wall-time:     0 d,  0 h,  0 min,  1.089 sec
 *  cpu-time:     0 d,  0 h,  0 min, 11.766 sec
 * ratio c/w:    10.804 speedup

normal termination of xtb
