33
MXene frozen in true relaxed complex geometry
Ti          -1.95973582284527       -2.65811324222482        4.10469607559334
Ti           0.43175162532951       -1.68068820830784        2.86864009680259
Ti           1.85355238742571       -3.33312127357004        0.83193834128467
Ti          -2.38179570247848       -0.24989220444710        2.55890290399976
Ti           2.25644960769495        0.72212683535203        3.22944009162737
Ti          -0.44815086921306        0.85390419064270        4.63112605280824
Ti          -1.90250925411297       -3.40477104260318        0.77568460150852
Ti          -0.40142319014795       -1.13639146258597       -0.67911526462835
Ti           1.84015304888262       -2.14769363252988       -2.07352336294782
Ti          -1.87452513954709        1.32418273734374       -0.25927677784729
Ti           2.48288276545418        0.29239134635001        0.22939809350719
Ti           0.79723893843392        1.42684264676348       -1.97601228857657
C           -3.64189044931025        1.05066857591320        1.60568152230958
C            4.21302859127210        0.37314753933079        1.34928842464059
C            0.49512493992324        2.12530854184818        1.22890939137118
C           -3.70474180726289        1.73131734794183        0.57063558692232
C            4.21747030478900        0.69915319871626        2.54729907513005
C           -0.68564087939757        2.44002088351935        0.86183156894645
C            1.73952598805550        1.79144168030707        1.57966343828811
O           -2.98680593437721       -1.95307507997388        2.81241640916796
O           -0.25948436692575       -2.20891223760353        4.39396625383486
O            0.53050409354857       -3.19459093179727        2.03927006690580
O           -0.71748964659329       -0.60795509210613        2.15438210683718
O            1.99846647672518       -1.02461183236850        2.83618547591918
O           -2.06733304446364        0.26042810009762        4.20941481460620
O            1.27776081048704        1.07581564841522        4.66282487350402
O           -0.67018731565158       -2.85181330157546       -0.35083021177819
O            0.26616106702567       -1.30251352112624       -2.29704737205084
O            2.64750228098784       -2.78871390858502       -0.62092729530147
O           -1.93354404783046       -0.51291475570914       -0.16415553061556
O            0.95898473561257       -0.61802676354984        0.21731361816034
O           -0.93738055041168        1.38388019829917       -1.76956558884653
O            2.42676905592466        0.97563628368442       -1.37179088383763
