57
Frozen drug extracted from genuine optimized complex (angle 90 deg)
C      3.388647     -2.621583      7.825647
C      2.169362     -3.403552      7.322842
C      1.702751     -4.388874      8.412693
C      2.510777     -4.185709      6.047878
C      0.990943     -2.467826      7.110810
N      0.943700     -1.350201      7.745811
C     -0.254139     -0.654138      7.728406
N     -1.432905     -1.358165      7.510971
C     -1.292849     -2.481746      6.861087
N     -0.081407     -2.983253      6.373860
N     -2.345110     -3.328928      6.762127
C     -2.332753     -4.474934      5.866896
C     -3.763559     -4.765311      5.408372
O     -4.638601     -5.040046      6.491564
C     -4.333356     -4.330769      7.675160
C     -3.604080     -3.014755      7.413098
C     -0.192078      0.707244      7.944080
C      1.126434      1.378020      7.984347
N      1.187080      2.738676      7.551276
C      0.038620      3.371444      7.292179
N      0.091437      4.650853      6.870543
C     -1.076207      5.488807      6.749409
C     -0.995100      6.580063      7.839022
O      0.343931      6.852408      8.208500
C      1.224128      6.779929      7.114485
C      1.346447      5.323118      6.607453
N     -1.209198      2.854377      7.485378
C     -1.331143      1.577709      7.802819
N     -2.568598      1.118794      8.105727
H      4.230219     -3.299559      7.962507
H      3.150849     -2.138661      8.770383
H      3.670710     -1.827429      7.099640
H      2.500886     -5.089190      8.647047
H      0.834252     -4.941234      8.062561
H      1.431712     -3.849503      9.316450
H      2.985424     -3.525725      5.311408
H      3.202946     -4.991436      6.288572
H      1.603864     -4.610185      5.605625
H     -1.705677     -4.253418      4.982771
H     -1.915306     -5.345231      6.393068
H     -3.784049     -5.659583      4.778946
H     -4.130908     -3.899500      4.821888
H     -3.707295     -4.961344      8.324700
H     -5.285715     -4.147283      8.179117
H     -3.375415     -2.516956      8.359437
H     -4.226308     -2.322244      6.777535
H      1.793569      1.163984      8.827680
H     -1.083500      5.931184      5.748103
H     -1.962421      4.868050      6.869532
H     -1.477100      7.502269      7.479270
H     -1.484627      6.254407      8.758580
H      2.186005      7.139971      7.479911
H      0.881371      7.443974      6.309423
H      1.563934      5.307656      5.521969
H      2.136496      4.781600      7.142271
H     -2.660142      0.107090      8.032037
H     -3.329744      1.679016      7.738127
