      -----------------------------------------------------------      
     |                   =====================                   |     
     |                           x T B                           |     
     |                   =====================                   |     
     |                         S. Grimme                         |     
     |          Mulliken Center for Theoretical Chemistry        |     
     |                    University of Bonn                     |     
      -----------------------------------------------------------      

   * xtb version 6.7.1pre (5071a88) compiled by 'Marcel@Raven' on 2024-07-23

   xtb is free software: you can redistribute it and/or modify it under
   the terms of the GNU Lesser General Public License as published by
   the Free Software Foundation, either version 3 of the License, or
   (at your option) any later version.
   
   xtb is distributed in the hope that it will be useful,
   but WITHOUT ANY WARRANTY; without even the implied warranty of
   MERCHANTABILITY or FITNESS FOR A PARTICULAR PURPOSE.  See the
   GNU Lesser General Public License for more details.
   
   Cite this work as:
   * C. Bannwarth, E. Caldeweyher, S. Ehlert, A. Hansen, P. Pracht,
     J. Seibert, S. Spicher, S. Grimme, WIREs Comput. Mol. Sci., 2020, 11,
     e01493. DOI: 10.1002/wcms.1493
   
   for GFN2-xTB:
   * C. Bannwarth, S. Ehlert and S. Grimme., J. Chem. Theory Comput., 2019,
     15, 1652-1671. DOI: 10.1021/acs.jctc.8b01176
   for GFN1-xTB:
   * S. Grimme, C. Bannwarth, P. Shushkov, J. Chem. Theory Comput., 2017,
     13, 1989-2009. DOI: 10.1021/acs.jctc.7b00118
   for GFN0-xTB:
   * P. Pracht, E. Caldeweyher, S. Ehlert, S. Grimme, ChemRxiv, 2019, preprint.
     DOI: 10.26434/chemrxiv.8326202.v1
   for GFN-FF:
   * S. Spicher and S. Grimme, Angew. Chem. Int. Ed., 2020, 59, 15665-15673.
     DOI: 10.1002/anie.202004239
   
   for ALPB and GBSA implicit solvation:
   * S. Ehlert, M. Stahn, S. Spicher, S. Grimme, J. Chem. Theory Comput.,
     2021, 17, 4250-4261. DOI: 10.1021/acs.jctc.1c00471
   
   for ddCOSMO and CPCM-X implicit solvation:
   * M. Stahn, S. Ehlert, S. Grimme, J. Phys. Chem. A,
     2023, XX, XXXX-XXXX. DOI: 10.1021/acs.jpca.3c04382
   
   for DFT-D4:
   * E. Caldeweyher, C. Bannwarth and S. Grimme, J. Chem. Phys., 2017,
     147, 034112. DOI: 10.1063/1.4993215
   * E. Caldeweyher, S. Ehlert, A. Hansen, H. Neugebauer, S. Spicher,
     C. Bannwarth and S. Grimme, J. Chem. Phys., 2019, 150, 154122.
     DOI: 10.1063/1.5090222
   * E. Caldeweyher, J.-M. Mewes, S. Ehlert and S. Grimme, Phys. Chem. Chem. Phys.
     2020, 22, 8499-8512. DOI: 10.1039/D0CP00502A
   
   for sTDA-xTB:
   * S. Grimme and C. Bannwarth, J. Chem. Phys., 2016, 145, 054103.
     DOI: 10.1063/1.4959605
   
   in the mass-spec context:
   * V. Asgeirsson, C. Bauer and S. Grimme, Chem. Sci., 2017, 8, 4879.
     DOI: 10.1039/c7sc00601b
   * J. Koopman and S. Grimme, ACS Omega 2019, 4, 12, 15120-15133.
     DOI: 10.1021/acsomega.9b02011
   
   for metadynamics refer to:
   * S. Grimme, J. Chem. Theory Comput., 2019, 155, 2847-2862
     DOI: 10.1021/acs.jctc.9b00143
   
   for SPH calculations refer to:
   * S. Spicher and S. Grimme, J. Chem. Theory Comput., 2021, 17, 1701-1714
     DOI: 10.1021/acs.jctc.0c01306
   
   for ONIOM refer to:
   * C. Plett, A. Katbashev, S. Ehlert, S. Grimme, M. Bursch,
     Phys. Chem. Chem. Phys., 2023, 25, 17860-17868. DOI: 10.1039/D3CP02178E
   
   for DIPRO refer to:
   * J. Kohn, N. Gildemeister, S. Grimme, D. Fazzi, A. Hansen,
     J. Chem. Phys., 2023, just accepted.
   
   for PTB refer to:
   * S. Grimme, M. Mueller, A. Hansen, J. Chem. Phys., 2023, 158, 124111.
     DOI: 10.1063/5.0137838
   
   with help from (in alphabetical order)
   P. Atkinson, C. Bannwarth, F. Bohle, G. Brandenburg, E. Caldeweyher
   M. Checinski, S. Dohm, S. Ehlert, S. Ehrlich, I. Gerasimov, C. Hölzer
   A. Katbashev, J. Kohn, J. Koopman, C. Lavigne, S. Lehtola, F. März, M. Müller,
   F. Musil, H. Neugebauer, J. Pisarek, C. Plett, P. Pracht, F. Pultar,
   J. Seibert, P. Shushkov, S. Spicher, M. Stahn, M. Steiner, T. Strunk,
   J. Stückrath, T. Rose, and J. Unsleber
   
 * started run on 2026/09/02 at 20:07:53.856     
   ID    Z sym.   atoms
    1    6 C      1-5, 7, 9, 12, 13, 15-18, 20, 22, 23, 25, 26, 28, 70-76
    2    7 N      6, 8, 10, 11, 19, 21, 27, 29
    3    8 O      14, 24, 77-90
    4    1 H      30-57
    5   22 Ti     58-69

           -------------------------------------------------
          |                Calculation Setup                |
           -------------------------------------------------

          program call               : "c:\Users\Andre\Proyectos doctorado\nano-qsar-ai-papers\kras-pancreatic-gC3N4-ai\tools\xtb\xtb-6.7.1\bin\xtb.exe" "c:\Users\Andre\Proyectos doctorado\nano-qsar-ai-papers\mxene-glioblastoma-qsar-ai\calculations\gbm\Paxalisib\Paxalisib_opt_orient_180deg.xyz" --opt loose --gfn 2 --chrg 0 --uhf 0 --iterations 500 --cycles 400 --norestart
          coordinate file            : c:\Users\Andre\Proyectos doctorado\nano-qsar-ai-papers\mxene-glioblastoma-qsar-ai\calculations\gbm\Paxalisib\Paxalisib_opt_orient_180deg.xyz
          omp threads                :                     4


molecular fragmentation (1/2 indicates fragments):
111111111111111111111111111111111111111111111111111111111222222222222222
222222222222222222
# atoms in fragment 1/2:    57    33
 fragment masses (1/2) :      400.48      882.47
CMA distance (Bohr)    :  17.255
constraining FC (au)   :  0.0500

           -------------------------------------------------
          |                 G F N 2 - x T B                 |
           -------------------------------------------------

        Reference                      10.1021/acs.jctc.8b01176
      * Hamiltonian:
        H0-scaling (s, p, d)           1.850000    2.230000    2.230000
        zeta-weighting                 0.500000
      * Dispersion:
        s8                             2.700000
        a1                             0.520000
        a2                             5.000000
        s9                             5.000000
      * Repulsion:
        kExp                           1.500000    1.000000
        rExp                           1.000000
      * Coulomb:
        alpha                          2.000000
        third order                    shell-resolved
        anisotropic                    true
        a3                             3.000000
        a5                             4.000000
        cn-shift                       1.200000
        cn-exp                         4.000000
        max-rad                        5.000000


          ...................................................
          :                      SETUP                      :
          :.................................................:
          :  # basis functions                 348          :
          :  # atomic orbitals                 336          :
          :  # shells                          164          :
          :  # electrons                       316          :
          :  max. iterations                   500          :
          :  Hamiltonian                  GFN2-xTB          :
          :  restarted?                      false          :
          :  GBSA solvation                  false          :
          :  PC potential                    false          :
          :  electronic temp.          300.0000000     K    :
          :  accuracy                    1.0000000          :
          :  -> integral cutoff          0.2500000E+02      :
          :  -> integral neglect         0.1000000E-07      :
          :  -> SCF convergence          0.1000000E-05 Eh   :
          :  -> wf. convergence          0.1000000E-03 e    :
          :  Broyden damping             0.4000000          :
          :  net charge                          0          :
          :  unpaired electrons                  0          :
          ...................................................

 iter      E             dE          RMSdq      gap      omega  full diag
   1   -177.4848260 -0.177485E+03  0.132E+01    0.07       0.0  T
   2   -140.3240301  0.371608E+02  0.146E+01    0.08       1.0  T
   3    -21.1154235  0.119209E+03  0.262E+01    0.11       1.0  T
   4   -164.4810211 -0.143366E+03  0.113E+01    0.09       1.0  T
   5   -150.6937718  0.137872E+02  0.114E+01    0.02       1.0  T
   6   -178.7002536 -0.280065E+02  0.609E+00    0.05       1.0  T
   7   -177.8923790  0.807875E+00  0.503E+00    0.04       1.0  T
   8   -179.6283319 -0.173595E+01  0.534E+00    0.32       1.0  T
   9   -179.7396020 -0.111270E+00  0.508E+00    0.52       1.0  T
  10   -179.7831430 -0.435409E-01  0.496E+00    0.52       1.0  T
  11   -179.2808862  0.502257E+00  0.492E+00    0.08       1.0  T
  12   -177.5126534  0.176823E+01  0.500E+00    0.10       1.0  T
  13   -179.2507729 -0.173812E+01  0.447E+00    0.11       1.0  T
  14   -179.1091003  0.141673E+00  0.436E+00    0.12       1.0  T
  15   -179.1647314 -0.556312E-01  0.418E+00    0.21       1.0  T
  16   -176.2086790  0.295605E+01  0.972E+00    0.06       1.0  T
  17   -176.8539632 -0.645284E+00  0.750E+00    0.10       1.0  T
  18   -177.1923156 -0.338352E+00  0.904E+00    0.15       1.0  T
  19   -177.6147132 -0.422398E+00  0.816E+00    0.11       1.0  T
  20   -179.6180444 -0.200333E+01  0.304E+00    0.05       1.0  T
  21   -180.1223212 -0.504277E+00  0.272E+00    0.34       1.0  T
  22   -180.1000423  0.222789E-01  0.247E+00    0.08       1.0  T
  23   -179.2487096  0.851333E+00  0.346E+00    0.25       1.0  T
  24   -179.2831681 -0.344585E-01  0.340E+00    0.16       1.0  T
  25   -179.2620506  0.211175E-01  0.344E+00    0.19       1.0  T
  26   -179.7672860 -0.505235E+00  0.273E+00    0.09       1.0  T
  27   -179.8836858 -0.116400E+00  0.238E+00    0.09       1.0  T
  28   -180.0110373 -0.127352E+00  0.208E+00    0.12       1.0  T
  29   -180.1588035 -0.147766E+00  0.157E+00    0.09       1.0  T
  30   -180.2168515 -0.580479E-01  0.150E+00    0.26       1.0  T
  31   -180.2430134 -0.261620E-01  0.128E+00    0.52       1.0  T
  32   -180.2555697 -0.125563E-01  0.116E+00    0.71       1.0  T
  33   -180.2641191 -0.854934E-02  0.107E+00    0.77       1.0  T
  34   -180.2667594 -0.264030E-02  0.105E+00    0.69       1.0  T
  35   -180.2665701  0.189264E-03  0.103E+00    0.58       1.0  T
  36   -180.2677339 -0.116374E-02  0.947E-01    0.51       1.0  T
  37   -180.2667561  0.977731E-03  0.867E-01    0.52       1.0  T
  38   -180.2687679 -0.201175E-02  0.787E-01    0.54       1.0  T
  39   -180.2770412 -0.827337E-02  0.634E-01    0.57       1.0  T
  40   -180.2803445 -0.330325E-02  0.577E-01    0.58       1.0  T
  41   -180.2822266 -0.188209E-02  0.549E-01    0.59       1.0  T
  42   -180.2849369 -0.271036E-02  0.493E-01    0.60       1.0  T
  43   -180.2890195 -0.408257E-02  0.435E-01    0.62       1.0  T
  44   -180.2907139 -0.169442E-02  0.409E-01    0.64       1.0  T
  45   -180.2960316 -0.531765E-02  0.316E-01    0.69       1.0  T
  46   -180.3000755 -0.404391E-02  0.260E-01    0.75       1.0  T
  47   -180.3017392 -0.166366E-02  0.226E-01    0.77       1.0  T
  48   -180.3024932 -0.754039E-03  0.190E-01    0.75       1.0  T
  49   -180.3030793 -0.586072E-03  0.144E-01    0.74       1.0  T
  50   -180.3033878 -0.308493E-03  0.125E-01    0.73       1.0  T
  51   -180.3033140  0.738075E-04  0.121E-01    0.72       1.0  T
  52   -180.3035549 -0.240907E-03  0.108E-01    0.71       1.0  T
  53   -180.3035059  0.489191E-04  0.103E-01    0.71       1.0  T
  54   -180.3035942 -0.882789E-04  0.966E-02    0.71       1.0  T
  55   -180.3037247 -0.130442E-03  0.862E-02    0.70       1.0  T
  56   -180.3037965 -0.718436E-04  0.817E-02    0.70       1.0  T
  57   -180.3038785 -0.819657E-04  0.753E-02    0.69       1.0  T
  58   -180.3039582 -0.797024E-04  0.684E-02    0.69       1.0  T
  59   -180.3040085 -0.503410E-04  0.632E-02    0.69       1.0  T
  60   -180.3040590 -0.504944E-04  0.561E-02    0.68       1.0  T
  61   -180.3041360 -0.769971E-04  0.448E-02    0.68       1.0  T
  62   -180.3041636 -0.276272E-04  0.399E-02    0.67       1.0  T
  63   -180.3042180 -0.543961E-04  0.282E-02    0.66       1.0  T
  64   -180.3042532 -0.351287E-04  0.165E-02    0.65       1.0  T
  65   -180.3042677 -0.145681E-04  0.647E-03    0.64       1.6  T
  66   -180.3042696 -0.186115E-05  0.222E-03    0.63       4.7  T
  67   -180.3042696 -0.181906E-07  0.192E-03    0.63       5.5  T
  68   -180.3042696 -0.293713E-07  0.175E-03    0.63       6.0  T
  69   -180.3042696  0.299758E-07  0.183E-03    0.63       5.7  T
  70   -180.3042697 -0.549847E-07  0.160E-03    0.63       6.6  T
  71   -180.3042696  0.537734E-07  0.180E-03    0.63       5.9  T
  72   -180.3042696 -0.519265E-10  0.173E-03    0.63       6.1  T
  73   -180.3042697 -0.118175E-06  0.103E-03    0.63      10.2  T
  74   -180.3042698 -0.333574E-07  0.770E-04    0.63      13.7  T
  75   -180.3042698 -0.311422E-07  0.422E-04    0.63      25.0  T

   *** convergence criteria satisfied after 75 iterations ***

         #    Occupation            Energy/Eh            Energy/eV
      -------------------------------------------------------------
         1        2.0000           -0.8204805             -22.3264
       ...           ...                  ...                  ...
       152        2.0000           -0.3571960              -9.7198
       153        2.0000           -0.3510278              -9.5520
       154        2.0000           -0.3499722              -9.5232
       155        2.0000           -0.3449981              -9.3879
       156        2.0000           -0.3381078              -9.2004
       157        2.0000           -0.3230553              -8.7908
       158        2.0000           -0.3084185              -8.3925 (HOMO)
       159        0.0000           -0.2853149              -7.7638 (LUMO)
       160        0.0000           -0.2849500              -7.7539
       161        0.0000           -0.2835056              -7.7146
       162        0.0000           -0.2822936              -7.6816
       163                         -0.2794133              -7.6032
       ...                                ...                  ...
       336                         13.3434056             363.0925
      -------------------------------------------------------------
                  HL-Gap            0.0231036 Eh            0.6287 eV
             Fermi-level           -0.2971649 Eh           -8.0863 eV

 SCC (total)                   0 d,  0 h,  0 min,  2.016 sec
 SCC setup                      ...        0 min,  0.000 sec (  0.000%)
 Dispersion                     ...        0 min,  0.004 sec (  0.198%)
 classical contributions        ...        0 min,  0.000 sec (  0.000%)
 integral evaluation            ...        0 min,  0.022 sec (  1.091%)
 iterations                     ...        0 min,  1.939 sec ( 96.181%)
 molecular gradient             ...        0 min,  0.049 sec (  2.431%)
 printout                       ...        0 min,  0.002 sec (  0.099%)

         :::::::::::::::::::::::::::::::::::::::::::::::::::::
         ::                     SUMMARY                     ::
         :::::::::::::::::::::::::::::::::::::::::::::::::::::
         :: total energy            -178.601803608799 Eh    ::
         :: gradient norm              0.093574262062 Eh/a0 ::
         :: HOMO-LUMO gap              0.628681217132 eV    ::
         ::.................................................::
         :: SCC energy              -180.301408267434 Eh    ::
         :: -> isotropic ES            1.027548403257 Eh    ::
         :: -> anisotropic ES         -0.378373721229 Eh    ::
         :: -> anisotropic XC         -0.011822206172 Eh    ::
         :: -> dispersion             -0.151859149434 Eh    ::
         :: repulsion energy           1.699604658636 Eh    ::
         :: add. restraining           0.000000000000 Eh    ::
         :: total charge              -0.000000000023 e     ::
         :::::::::::::::::::::::::::::::::::::::::::::::::::::

      ----------------------------------------------------------- 
     |                   =====================                   |
     |                        A N C O P T                        |
     |                   =====================                   |
     |               Approximate Normal Coordinate               |
     |                Rational Function Optimizer                |
      ----------------------------------------------------------- 
      ----------------------------------------------------------- 
     |                   =====================                   |
     |                        A N C O P T                        |
     |                   =====================                   |
     |               Approximate Normal Coordinate               |
     |                Rational Function Optimizer                |
      ----------------------------------------------------------- 

          ...................................................
          :                      SETUP                      :
          :.................................................:
          :   optimization level             loose          :
          :   max. optcycles                   400          :
          :   ANC micro-cycles                  20          :
          :   degrees of freedom               264          :
          :.................................................:
          :   RF solver                   davidson          :
          :   write xtbopt.log                true          :
          :   linear?                        false          :
          :   energy convergence         0.5000000E-04 Eh   :
          :   grad. convergence          0.4000000E-02 Eh/α :
          :   maxmium RF displ.          1.0000000          :
          :   Hlow (freq-cutoff)         0.1000000E-01      :
          :   Hmax (freq-cutoff)         5.0000000          :
          :   S6 in model hess.         20.0000000          :
          ...................................................

generating ANC from exact Hessian ...
Using Lindh-Hessian (1995)
 Shifting diagonal of input Hessian by   1.791459480252956E-002
 Lowest  eigenvalues of input Hessian
    0.010000    0.017289    0.017394    0.017430    0.000000    0.000000
    0.000000    0.000000    0.000000    0.000000    0.017937    0.017951
    0.017974    0.018197    0.018355    0.018356    0.018542    0.018602
 Highest eigenvalues
    2.136164    2.175013    2.186722    2.237820    2.253638    2.262055
 

........................................................................
.............................. CYCLE    1 ..............................
........................................................................

 iter      E             dE          RMSdq      gap      omega  full diag
   1   -180.3042698 -0.180304E+03  0.281E-04    0.63       0.0  T
   2   -180.3042698 -0.353035E-08  0.386E-04    0.63      27.3  T
   3   -180.3042698 -0.118328E-08  0.278E-04    0.63      38.0  T
     SCC iter.                  ...        0 min,  0.069 sec
     gradient                   ...        0 min,  0.046 sec
 * total energy  :  -178.6018036 Eh     change       -0.1303587E-07 Eh
   gradient norm :     0.0935642 Eh/α   predicted     0.0000000E+00 (-100.00%)
   displ. norm   :     0.3605704 α      lambda       -0.1767706E-01
   maximum displ.:     0.0972591 α      in ANC's #123, #109, #34, ...

........................................................................
.............................. CYCLE    2 ..............................
........................................................................

 iter      E             dE          RMSdq      gap      omega  full diag
   1   -180.3339007 -0.180334E+03  0.175E-01    0.63       0.0  T
   2   -180.3342582 -0.357486E-03  0.108E-01    0.62       1.0  T
   3   -180.3342011  0.571030E-04  0.768E-02    0.63       1.0  T
   4   -180.3340309  0.170210E-03  0.827E-02    0.61       1.0  T
   5   -180.3344306 -0.399705E-03  0.188E-02    0.63       1.0  T
   6   -180.3344482 -0.175741E-04  0.731E-03    0.62       1.4  T
   7   -180.3344483 -0.166602E-06  0.621E-03    0.62       1.7  T
   8   -180.3344505 -0.218174E-05  0.266E-03    0.63       4.0  T
   9   -180.3344506 -0.310681E-07  0.202E-03    0.62       5.2  T
  10   -180.3344506 -0.468109E-07  0.134E-03    0.63       7.9  T
  11   -180.3344506 -0.286652E-07  0.965E-04    0.63      10.9  T
  12   -180.3344506 -0.145808E-07  0.735E-04    0.63      14.3  T
     SCC iter.                  ...        0 min,  0.247 sec
     gradient                   ...        0 min,  0.044 sec
 * total energy  :  -178.6145746 Eh     change       -0.1277101E-01 Eh
   gradient norm :     0.0395557 Eh/α   predicted    -0.9996581E-02 ( -21.72%)
   displ. norm   :     0.4446327 α      lambda       -0.8744494E-02
   maximum displ.:     0.1467875 α      in ANC's #34, #37, #48, ...

........................................................................
.............................. CYCLE    3 ..............................
........................................................................

 iter      E             dE          RMSdq      gap      omega  full diag
   1   -180.3581515 -0.180358E+03  0.179E-01    0.62       0.0  T
   2   -180.3584995 -0.348032E-03  0.103E-01    0.62       1.0  T
   3   -180.3583762  0.123304E-03  0.816E-02    0.63       1.0  T
   4   -180.3583266  0.495839E-04  0.792E-02    0.61       1.0  T
   5   -180.3587028 -0.376143E-03  0.212E-02    0.62       1.0  T
   6   -180.3587088 -0.599046E-05  0.137E-02    0.62       1.0  T
   7   -180.3587145 -0.573500E-05  0.757E-03    0.62       1.4  T
   8   -180.3587166 -0.206756E-05  0.336E-03    0.62       3.1  T
   9   -180.3587165  0.530948E-07  0.239E-03    0.62       4.4  T
  10   -180.3587166 -0.615450E-07  0.168E-03    0.62       6.3  T
  11   -180.3587167 -0.122179E-06  0.710E-04    0.62      14.8  T
  12   -180.3587167 -0.530366E-08  0.459E-04    0.62      22.9  T
     SCC iter.                  ...        0 min,  0.257 sec
     gradient                   ...        0 min,  0.044 sec
 * total energy  :  -178.6203210 Eh     change       -0.5746395E-02 Eh
   gradient norm :     0.0204939 Eh/α   predicted    -0.5239959E-02 (  -8.81%)
   displ. norm   :     0.5513749 α      lambda       -0.5430949E-02
   maximum displ.:     0.2564006 α      in ANC's #1, #34, #48, ...

........................................................................
.............................. CYCLE    4 ..............................
........................................................................

 iter      E             dE          RMSdq      gap      omega  full diag
   1   -180.3644048 -0.180364E+03  0.459E-01    0.59       0.0  T
   2   -180.3651895 -0.784676E-03  0.245E-01    0.65       1.0  T
   3   -180.3654042 -0.214727E-03  0.125E-01    0.62       1.0  T
   4   -180.3652523  0.151918E-03  0.106E-01    0.66       1.0  T
   5   -180.3655714 -0.319114E-03  0.692E-02    0.63       1.0  T
   6   -180.3657070 -0.135595E-03  0.332E-02    0.63       1.0  T
   7   -180.3657121 -0.512359E-05  0.272E-02    0.63       1.0  T
   8   -180.3657465 -0.344010E-04  0.108E-02    0.63       1.0  T
   9   -180.3657463  0.256982E-06  0.876E-03    0.63       1.2  T
  10   -180.3657481 -0.185707E-05  0.593E-03    0.63       1.8  T
  11   -180.3657488 -0.738398E-06  0.353E-03    0.63       3.0  T
  12   -180.3657492 -0.323948E-06  0.189E-03    0.63       5.6  T
  13   -180.3657492 -0.122047E-07  0.147E-03    0.63       7.2  T
  14   -180.3657492 -0.108140E-07  0.113E-03    0.63       9.3  T
  15   -180.3657492 -0.326216E-07  0.770E-04    0.63      13.7  T
  16   -180.3657492 -0.164430E-07  0.417E-04    0.63      25.3  T
     SCC iter.                  ...        0 min,  0.338 sec
     gradient                   ...        0 min,  0.045 sec
 * total energy  :  -178.6211218 Eh     change       -0.8007378E-03 Eh
   gradient norm :     0.0429160 Eh/α   predicted    -0.3541034E-02 ( 342.22%)
   displ. norm   :     0.4608168 α      lambda       -0.7145312E-02
   maximum displ.:     0.2406744 α      in ANC's #1, #34, #48, ...

........................................................................
.............................. CYCLE    5 ..............................
........................................................................

 iter      E             dE          RMSdq      gap      omega  full diag
   1   -180.3703815 -0.180370E+03  0.369E-01    0.64       0.0  T
   2   -180.3707551 -0.373614E-03  0.174E-01    0.59       1.0  T
   3   -180.3707155  0.396075E-04  0.108E-01    0.64       1.0  T
   4   -180.3707020  0.134554E-04  0.893E-02    0.59       1.0  T
   5   -180.3708869 -0.184848E-03  0.567E-02    0.62       1.0  T
   6   -180.3709366 -0.497175E-04  0.318E-02    0.62       1.0  T
   7   -180.3709660 -0.293645E-04  0.208E-02    0.62       1.0  T
   8   -180.3709852 -0.192330E-04  0.801E-03    0.62       1.3  T
   9   -180.3709853 -0.137786E-06  0.611E-03    0.62       1.7  T
  10   -180.3709862 -0.867276E-06  0.421E-03    0.62       2.5  T
  11   -180.3709866 -0.419632E-06  0.217E-03    0.62       4.9  T
  12   -180.3709867 -0.795889E-07  0.128E-03    0.62       8.3  T
  13   -180.3709867 -0.103716E-07  0.105E-03    0.62      10.0  T
  14   -180.3709867 -0.289853E-07  0.677E-04    0.62      15.6  T
  15   -180.3709868 -0.101580E-07  0.399E-04    0.62      26.4  T
     SCC iter.                  ...        0 min,  0.351 sec
     gradient                   ...        0 min,  0.046 sec
 * total energy  :  -178.6255833 Eh     change       -0.4461496E-02 Eh
   gradient norm :     0.0391878 Eh/α   predicted    -0.4331323E-02 (  -2.92%)
   displ. norm   :     0.3806346 α      lambda       -0.4755847E-02
   maximum displ.:     0.1245360 α      in ANC's #19, #6, #27, ...

........................................................................
.............................. CYCLE    6 ..............................
........................................................................

 iter      E             dE          RMSdq      gap      omega  full diag
   1   -180.3755313 -0.180376E+03  0.301E-01    0.59       0.0  T
   2   -180.3756068 -0.755225E-04  0.133E-01    0.58       1.0  T
   3   -180.3749912  0.615665E-03  0.124E-01    0.58       1.0  T
   4   -180.3754449 -0.453675E-03  0.816E-02    0.59       1.0  T
   5   -180.3758194 -0.374507E-03  0.364E-02    0.59       1.0  T
   6   -180.3758249 -0.553739E-05  0.280E-02    0.58       1.0  T
   7   -180.3758498 -0.249470E-04  0.115E-02    0.59       1.0  T
   8   -180.3758515 -0.163100E-05  0.579E-03    0.59       1.8  T
   9   -180.3758513  0.147812E-06  0.472E-03    0.59       2.2  T
  10   -180.3758521 -0.783975E-06  0.272E-03    0.59       3.9  T
  11   -180.3758522 -0.116264E-06  0.147E-03    0.59       7.2  T
  12   -180.3758522  0.168995E-09  0.113E-03    0.59       9.3  T
  13   -180.3758523 -0.449910E-07  0.722E-04    0.59      14.6  T
  14   -180.3758523 -0.101090E-07  0.454E-04    0.59      23.2  T
     SCC iter.                  ...        0 min,  0.314 sec
     gradient                   ...        0 min,  0.044 sec
 * total energy  :  -178.6272853 Eh     change       -0.1701999E-02 Eh
   gradient norm :     0.0356594 Eh/α   predicted    -0.2722447E-02 (  59.96%)
   displ. norm   :     0.4461735 α      lambda       -0.7408019E-02
   maximum displ.:     0.1485962 α      in ANC's #6, #27, #18, ...

........................................................................
.............................. CYCLE    7 ..............................
........................................................................

 iter      E             dE          RMSdq      gap      omega  full diag
   1   -180.3807246 -0.180381E+03  0.388E-01    0.60       0.0  T
   2   -180.3809374 -0.212761E-03  0.159E-01    0.65       1.0  T
   3   -180.3804637  0.473690E-03  0.136E-01    0.60       1.0  T
   4   -180.3806679 -0.204167E-03  0.107E-01    0.65       1.0  T
   5   -180.3811714 -0.503590E-03  0.464E-02    0.63       1.0  T
   6   -180.3811944 -0.229384E-04  0.290E-02    0.63       1.0  T
   7   -180.3812087 -0.143273E-04  0.208E-02    0.63       1.0  T
   8   -180.3812265 -0.178301E-04  0.775E-03    0.63       1.4  T
   9   -180.3812267 -0.188663E-06  0.522E-03    0.63       2.0  T
  10   -180.3812270 -0.294125E-06  0.359E-03    0.63       2.9  T
  11   -180.3812271 -0.114928E-06  0.276E-03    0.63       3.8  T
  12   -180.3812274 -0.262484E-06  0.165E-03    0.63       6.4  T
  13   -180.3812274 -0.447575E-07  0.112E-03    0.63       9.4  T
  14   -180.3812274  0.497437E-08  0.839E-04    0.63      12.6  T
  15   -180.3812275 -0.217230E-07  0.513E-04    0.63      20.6  T
     SCC iter.                  ...        0 min,  0.334 sec
     gradient                   ...        0 min,  0.045 sec
 * total energy  :  -178.6291940 Eh     change       -0.1908759E-02 Eh
   gradient norm :     0.0280755 Eh/α   predicted    -0.4441371E-02 ( 132.68%)
   displ. norm   :     0.4950726 α      lambda       -0.6410399E-02
   maximum displ.:     0.1734351 α      in ANC's #60, #18, #6, ...

........................................................................
.............................. CYCLE    8 ..............................
........................................................................

 iter      E             dE          RMSdq      gap      omega  full diag
   1   -180.3769725 -0.180377E+03  0.361E-01    0.64       0.0  T
   2   -180.3771329 -0.160358E-03  0.149E-01    0.60       1.0  T
   3   -180.3764214  0.711499E-03  0.133E-01    0.65       1.0  T
   4   -180.3771193 -0.697964E-03  0.684E-02    0.62       1.0  T
   5   -180.3772960 -0.176612E-03  0.449E-02    0.62       1.0  T
   6   -180.3773410 -0.450576E-04  0.310E-02    0.63       1.0  T
   7   -180.3773743 -0.332435E-04  0.135E-02    0.62       1.0  T
   8   -180.3773761 -0.187084E-05  0.789E-03    0.62       1.3  T
   9   -180.3773771 -0.935532E-06  0.569E-03    0.62       1.9  T
  10   -180.3773775 -0.408441E-06  0.416E-03    0.62       2.5  T
  11   -180.3773779 -0.423260E-06  0.242E-03    0.62       4.3  T
  12   -180.3773780 -0.768316E-07  0.168E-03    0.62       6.3  T
  13   -180.3773780 -0.118257E-07  0.135E-03    0.62       7.8  T
  14   -180.3773780 -0.450984E-07  0.100E-03    0.62      10.5  T
  15   -180.3773780 -0.171486E-07  0.539E-04    0.62      19.6  T
  16   -180.3773781 -0.780412E-08  0.291E-04    0.62      36.2  T
     SCC iter.                  ...        0 min,  0.371 sec
     gradient                   ...        0 min,  0.047 sec
 * total energy  :  -178.6318322 Eh     change       -0.2638218E-02 Eh
   gradient norm :     0.0381261 Eh/α   predicted    -0.3990790E-02 (  51.27%)
   displ. norm   :     0.2922533 α      lambda       -0.2908016E-02
   maximum displ.:     0.1487034 α      in ANC's #6, #18, #8, ...

........................................................................
.............................. CYCLE    9 ..............................
........................................................................

 iter      E             dE          RMSdq      gap      omega  full diag
   1   -180.3848287 -0.180385E+03  0.104E-01    0.63       0.0  T
   2   -180.3848415 -0.128322E-04  0.473E-02    0.62       1.0  T
   3   -180.3848083  0.331946E-04  0.368E-02    0.63       1.0  T
   4   -180.3848256 -0.172720E-04  0.250E-02    0.62       1.0  T
   5   -180.3848554 -0.298534E-04  0.939E-03    0.62       1.1  T
   6   -180.3848559 -0.521352E-06  0.732E-03    0.62       1.4  T
   7   -180.3848582 -0.220712E-05  0.379E-03    0.62       2.8  T
   8   -180.3848587 -0.518598E-06  0.184E-03    0.62       5.7  T
   9   -180.3848587 -0.731768E-08  0.135E-03    0.62       7.8  T
  10   -180.3848587 -0.577947E-08  0.970E-04    0.62      10.9  T
  11   -180.3848587 -0.193521E-07  0.748E-04    0.62      14.1  T
     SCC iter.                  ...        0 min,  0.227 sec
     gradient                   ...        0 min,  0.045 sec
 * total energy  :  -178.6340439 Eh     change       -0.2211613E-02 Eh
   gradient norm :     0.0190529 Eh/α   predicted    -0.1578206E-02 ( -28.64%)
   displ. norm   :     0.6664822 α      lambda       -0.4575497E-02
   maximum displ.:     0.3332210 α      in ANC's #6, #18, #8, ...

........................................................................
.............................. CYCLE   10 ..............................
........................................................................

 iter      E             dE          RMSdq      gap      omega  full diag
   1   -180.3926668 -0.180393E+03  0.270E-01    0.60       0.0  T
   2   -180.3927452 -0.783946E-04  0.992E-02    0.63       1.0  T
   3   -180.3923444  0.400811E-03  0.105E-01    0.59       1.0  T
   4   -180.3928196 -0.475237E-03  0.376E-02    0.62       1.0  T
   5   -180.3928137  0.592969E-05  0.282E-02    0.62       1.0  T
   6   -180.3928307 -0.170047E-04  0.245E-02    0.61       1.0  T
   7   -180.3928585 -0.278198E-04  0.761E-03    0.62       1.4  T
   8   -180.3928595 -0.954440E-06  0.455E-03    0.62       2.3  T
   9   -180.3928596 -0.967815E-07  0.343E-03    0.62       3.1  T
  10   -180.3928599 -0.292942E-06  0.203E-03    0.62       5.2  T
  11   -180.3928600 -0.756429E-07  0.121E-03    0.62       8.7  T
  12   -180.3928600 -0.533328E-07  0.750E-04    0.62      14.1  T
  13   -180.3928600 -0.894630E-08  0.572E-04    0.62      18.4  T
     SCC iter.                  ...        0 min,  0.285 sec
     gradient                   ...        0 min,  0.045 sec
 * total energy  :  -178.6374060 Eh     change       -0.3362131E-02 Eh
   gradient norm :     0.0150559 Eh/α   predicted    -0.3303967E-02 (  -1.73%)
   displ. norm   :     0.6585409 α      lambda       -0.3791725E-02
   maximum displ.:     0.3555138 α      in ANC's #6, #8, #18, ...

........................................................................
.............................. CYCLE   11 ..............................
........................................................................

 iter      E             dE          RMSdq      gap      omega  full diag
   1   -180.3951321 -0.180395E+03  0.231E-01    0.62       0.0  T
   2   -180.3952845 -0.152418E-03  0.859E-02    0.59       1.0  T
   3   -180.3952372  0.472953E-04  0.485E-02    0.61       1.0  T
   4   -180.3951912  0.459982E-04  0.468E-02    0.60       1.0  T
   5   -180.3952938 -0.102550E-03  0.284E-02    0.60       1.0  T
   6   -180.3953182 -0.243925E-04  0.148E-02    0.60       1.0  T
   7   -180.3953272 -0.901118E-05  0.821E-03    0.60       1.3  T
   8   -180.3953287 -0.150834E-05  0.475E-03    0.60       2.2  T
   9   -180.3953288 -0.698931E-07  0.390E-03    0.60       2.7  T
  10   -180.3953289 -0.154635E-06  0.264E-03    0.60       4.0  T
  11   -180.3953291 -0.166778E-06  0.152E-03    0.60       6.9  T
  12   -180.3953291 -0.320634E-07  0.111E-03    0.60       9.5  T
  13   -180.3953291 -0.198337E-07  0.816E-04    0.60      12.9  T
  14   -180.3953291 -0.399177E-08  0.672E-04    0.60      15.7  T
     SCC iter.                  ...        0 min,  0.307 sec
     gradient                   ...        0 min,  0.047 sec
 * total energy  :  -178.6404277 Eh     change       -0.3021721E-02 Eh
   gradient norm :     0.0185863 Eh/α   predicted    -0.2718056E-02 ( -10.05%)
   displ. norm   :     0.6687429 α      lambda       -0.3077990E-02
   maximum displ.:     0.3823901 α      in ANC's #6, #8, #18, ...

........................................................................
.............................. CYCLE   12 ..............................
........................................................................

 iter      E             dE          RMSdq      gap      omega  full diag
   1   -180.3915170 -0.180392E+03  0.238E-01    0.65       0.0  T
   2   -180.3915342 -0.172010E-04  0.106E-01    0.59       1.0  T
   3   -180.3913300  0.204123E-03  0.107E-01    0.64       1.0  T
   4   -180.3917590 -0.428949E-03  0.395E-02    0.60       1.0  T
   5   -180.3918046 -0.455625E-04  0.191E-02    0.61       1.0  T
   6   -180.3918096 -0.503263E-05  0.108E-02    0.61       1.0  T
   7   -180.3918066  0.300027E-05  0.123E-02    0.61       1.0  T
   8   -180.3918149 -0.835353E-05  0.465E-03    0.61       2.3  T
   9   -180.3918150 -0.385430E-07  0.367E-03    0.61       2.9  T
  10   -180.3918151 -0.155826E-06  0.271E-03    0.61       3.9  T
  11   -180.3918153 -0.161252E-06  0.157E-03    0.61       6.7  T
  12   -180.3918153 -0.181760E-07  0.129E-03    0.61       8.2  T
  13   -180.3918153 -0.262169E-07  0.907E-04    0.61      11.6  T
  14   -180.3918153 -0.374501E-08  0.670E-04    0.61      15.7  T
     SCC iter.                  ...        0 min,  0.296 sec
     gradient                   ...        0 min,  0.048 sec
 * total energy  :  -178.6425513 Eh     change       -0.2123594E-02 Eh
   gradient norm :     0.0255237 Eh/α   predicted    -0.2227267E-02 (   4.88%)
   displ. norm   :     0.5531959 α      lambda       -0.2946531E-02
   maximum displ.:     0.3454005 α      in ANC's #6, #8, #12, ...

........................................................................
.............................. CYCLE   13 ..............................
........................................................................

 iter      E             dE          RMSdq      gap      omega  full diag
   1   -180.3938849 -0.180394E+03  0.219E-01    0.61       0.0  T
   2   -180.3939448 -0.599605E-04  0.754E-02    0.61       1.0  T
   3   -180.3937444  0.200443E-03  0.748E-02    0.59       1.0  T
   4   -180.3938904 -0.146067E-03  0.492E-02    0.61       1.0  T
   5   -180.3939830 -0.926107E-04  0.225E-02    0.61       1.0  T
   6   -180.3939909 -0.790024E-05  0.149E-02    0.60       1.0  T
   7   -180.3940025 -0.115874E-04  0.621E-03    0.60       1.7  T
   8   -180.3940033 -0.734820E-06  0.406E-03    0.60       2.6  T
   9   -180.3940033 -0.236332E-07  0.317E-03    0.60       3.3  T
  10   -180.3940036 -0.302745E-06  0.185E-03    0.60       5.7  T
  11   -180.3940037 -0.106148E-06  0.882E-04    0.60      12.0  T
  12   -180.3940037 -0.755227E-08  0.603E-04    0.60      17.5  T
     SCC iter.                  ...        0 min,  0.293 sec
     gradient                   ...        0 min,  0.047 sec
 * total energy  :  -178.6444388 Eh     change       -0.1887495E-02 Eh
   gradient norm :     0.0161754 Eh/α   predicted    -0.1924124E-02 (   1.94%)
   displ. norm   :     0.6252443 α      lambda       -0.2502741E-02
   maximum displ.:     0.4097247 α      in ANC's #6, #8, #12, ...

........................................................................
.............................. CYCLE   14 ..............................
........................................................................

 iter      E             dE          RMSdq      gap      omega  full diag
   1   -180.3918137 -0.180392E+03  0.192E-01    0.62       0.0  T
   2   -180.3919009 -0.872396E-04  0.716E-02    0.61       1.0  T
   3   -180.3918460  0.549600E-04  0.519E-02    0.62       1.0  T
   4   -180.3918753 -0.293298E-04  0.362E-02    0.61       1.0  T
   5   -180.3919043 -0.290449E-04  0.236E-02    0.61       1.0  T
   6   -180.3919285 -0.241745E-04  0.154E-02    0.61       1.0  T
   7   -180.3919369 -0.842064E-05  0.665E-03    0.61       1.6  T
   8   -180.3919374 -0.480450E-06  0.407E-03    0.61       2.6  T
   9   -180.3919379 -0.458290E-06  0.233E-03    0.61       4.5  T
  10   -180.3919379 -0.402070E-07  0.149E-03    0.61       7.1  T
  11   -180.3919380 -0.469664E-07  0.107E-03    0.61       9.8  T
  12   -180.3919380 -0.551876E-07  0.552E-04    0.61      19.1  T
  13   -180.3919380 -0.489990E-08  0.399E-04    0.61      26.4  T
     SCC iter.                  ...        0 min,  0.293 sec
     gradient                   ...        0 min,  0.046 sec
 * total energy  :  -178.6459841 Eh     change       -0.1545335E-02 Eh
   gradient norm :     0.0239400 Eh/α   predicted    -0.1740576E-02 (  12.63%)
   displ. norm   :     0.4643343 α      lambda       -0.2401377E-02
   maximum displ.:     0.3289104 α      in ANC's #6, #8, #12, ...

........................................................................
.............................. CYCLE   15 ..............................
........................................................................

 iter      E             dE          RMSdq      gap      omega  full diag
   1   -180.4030933 -0.180403E+03  0.217E-01    0.67       0.0  T
   2   -180.4029733  0.120013E-03  0.104E-01    0.61       1.0  T
   3   -180.4027478  0.225431E-03  0.111E-01    0.68       1.0  T
   4   -180.4032037 -0.455893E-03  0.415E-02    0.63       1.0  T
   5   -180.4032276 -0.238510E-04  0.273E-02    0.64       1.0  T
   6   -180.4032373 -0.968593E-05  0.169E-02    0.64       1.0  T
   7   -180.4032546 -0.173109E-04  0.793E-03    0.64       1.3  T
   8   -180.4032572 -0.259925E-05  0.407E-03    0.64       2.6  T
   9   -180.4032573 -0.690110E-07  0.315E-03    0.64       3.3  T
  10   -180.4032574 -0.139811E-06  0.220E-03    0.64       4.8  T
  11   -180.4032576 -0.167749E-06  0.138E-03    0.64       7.7  T
  12   -180.4032576 -0.314587E-07  0.844E-04    0.64      12.5  T
  13   -180.4032576  0.149839E-08  0.748E-04    0.64      14.1  T
     SCC iter.                  ...        0 min,  0.279 sec
     gradient                   ...        0 min,  0.045 sec
 * total energy  :  -178.6475592 Eh     change       -0.1575084E-02 Eh
   gradient norm :     0.0144197 Eh/α   predicted    -0.1459572E-02 (  -7.33%)
   displ. norm   :     0.6070885 α      lambda       -0.1926633E-02
   maximum displ.:     0.4493327 α      in ANC's #6, #8, #12, ...

........................................................................
.............................. CYCLE   16 ..............................
........................................................................

 iter      E             dE          RMSdq      gap      omega  full diag
   1   -180.4066638 -0.180407E+03  0.189E-01    0.61       0.0  T
   2   -180.4066859 -0.221071E-04  0.658E-02    0.62       1.0  T
   3   -180.4065600  0.125928E-03  0.564E-02    0.61       1.0  T
   4   -180.4066422 -0.822333E-04  0.383E-02    0.62       1.0  T
   5   -180.4066898 -0.475741E-04  0.248E-02    0.62       1.0  T
   6   -180.4067167 -0.269091E-04  0.112E-02    0.62       1.0  T
   7   -180.4067204 -0.370048E-05  0.571E-03    0.62       1.8  T
   8   -180.4067209 -0.448719E-06  0.360E-03    0.62       2.9  T
   9   -180.4067210 -0.969160E-07  0.243E-03    0.62       4.3  T
  10   -180.4067210 -0.570836E-07  0.169E-03    0.62       6.2  T
  11   -180.4067211 -0.105548E-06  0.779E-04    0.62      13.5  T
  12   -180.4067212 -0.140198E-07  0.487E-04    0.62      21.6  T
     SCC iter.                  ...        0 min,  0.252 sec
     gradient                   ...        0 min,  0.047 sec
 * total energy  :  -178.6491579 Eh     change       -0.1598657E-02 Eh
   gradient norm :     0.0136075 Eh/α   predicted    -0.1318355E-02 ( -17.53%)
   displ. norm   :     0.6974830 α      lambda       -0.2339726E-02
   maximum displ.:     0.5171763 α      in ANC's #6, #8, #12, ...

........................................................................
.............................. CYCLE   17 ..............................
........................................................................

 iter      E             dE          RMSdq      gap      omega  full diag
   1   -180.4130693 -0.180413E+03  0.226E-01    0.60       0.0  T
   2   -180.4130590  0.103900E-04  0.896E-02    0.59       1.0  T
   3   -180.4125012  0.557722E-03  0.106E-01    0.61       1.0  T
   4   -180.4130721 -0.570874E-03  0.454E-02    0.59       1.0  T
   5   -180.4131295 -0.573786E-04  0.262E-02    0.60       1.0  T
   6   -180.4131556 -0.261161E-04  0.145E-02    0.60       1.0  T
   7   -180.4131647 -0.912470E-05  0.713E-03    0.60       1.5  T
   8   -180.4131658 -0.107193E-05  0.408E-03    0.60       2.6  T
   9   -180.4131658 -0.304849E-07  0.280E-03    0.60       3.8  T
  10   -180.4131658 -0.176203E-07  0.205E-03    0.60       5.1  T
  11   -180.4131660 -0.171300E-06  0.855E-04    0.60      12.3  T
  12   -180.4131660 -0.137665E-07  0.514E-04    0.60      20.5  T
     SCC iter.                  ...        0 min,  0.286 sec
     gradient                   ...        0 min,  0.046 sec
 * total energy  :  -178.6510288 Eh     change       -0.1870930E-02 Eh
   gradient norm :     0.0141482 Eh/α   predicted    -0.1738989E-02 (  -7.05%)
   displ. norm   :     0.7339648 α      lambda       -0.2159875E-02
   maximum displ.:     0.5513950 α      in ANC's #6, #8, #12, ...

........................................................................
.............................. CYCLE   18 ..............................
........................................................................

 iter      E             dE          RMSdq      gap      omega  full diag
   1   -180.4127425 -0.180413E+03  0.234E-01    0.61       0.0  T
   2   -180.4126912  0.512923E-04  0.954E-02    0.57       1.0  T
   3   -180.4120789  0.612276E-03  0.124E-01    0.63       1.0  T
   4   -180.4127952 -0.716217E-03  0.385E-02    0.59       1.0  T
   5   -180.4127945  0.651005E-06  0.317E-02    0.59       1.0  T
   6   -180.4128448 -0.503433E-04  0.139E-02    0.60       1.0  T
   7   -180.4128496 -0.477879E-05  0.753E-03    0.59       1.4  T
   8   -180.4128508 -0.117096E-05  0.417E-03    0.59       2.5  T
   9   -180.4128507  0.117944E-06  0.349E-03    0.59       3.0  T
  10   -180.4128509 -0.241571E-06  0.233E-03    0.59       4.5  T
  11   -180.4128511 -0.157533E-06  0.114E-03    0.59       9.2  T
  12   -180.4128511 -0.313099E-07  0.726E-04    0.59      14.5  T
  13   -180.4128511 -0.275659E-08  0.584E-04    0.59      18.0  T
     SCC iter.                  ...        0 min,  0.274 sec
     gradient                   ...        0 min,  0.047 sec
 * total energy  :  -178.6527859 Eh     change       -0.1757095E-02 Eh
   gradient norm :     0.0108385 Eh/α   predicted    -0.1661711E-02 (  -5.43%)
   displ. norm   :     0.7522256 α      lambda       -0.1932326E-02
   maximum displ.:     0.5757022 α      in ANC's #6, #8, #2, ...

........................................................................
.............................. CYCLE   19 ..............................
........................................................................

 iter      E             dE          RMSdq      gap      omega  full diag
   1   -180.4132085 -0.180413E+03  0.213E-01    0.61       0.0  T
   2   -180.4131704  0.380781E-04  0.884E-02    0.57       1.0  T
   3   -180.4126848  0.485644E-03  0.113E-01    0.63       1.0  T
   4   -180.4132624 -0.577602E-03  0.347E-02    0.59       1.0  T
   5   -180.4132573  0.503072E-05  0.307E-02    0.59       1.0  T
   6   -180.4132939 -0.365540E-04  0.151E-02    0.59       1.0  T
   7   -180.4133010 -0.715702E-05  0.803E-03    0.59       1.3  T
   8   -180.4133024 -0.136954E-05  0.444E-03    0.59       2.4  T
   9   -180.4133023  0.119999E-06  0.379E-03    0.59       2.8  T
  10   -180.4133026 -0.262438E-06  0.245E-03    0.59       4.3  T
  11   -180.4133028 -0.213059E-06  0.129E-03    0.59       8.2  T
  12   -180.4133028 -0.398553E-07  0.876E-04    0.59      12.0  T
  13   -180.4133028 -0.365077E-09  0.700E-04    0.59      15.1  T
     SCC iter.                  ...        0 min,  0.273 sec
     gradient                   ...        0 min,  0.045 sec
 * total energy  :  -178.6544636 Eh     change       -0.1677746E-02 Eh
   gradient norm :     0.0147950 Eh/α   predicted    -0.1512864E-02 (  -9.83%)
   displ. norm   :     0.7538187 α      lambda       -0.2245447E-02
   maximum displ.:     0.5325825 α      in ANC's #6, #18, #2, ...

........................................................................
.............................. CYCLE   20 ..............................
........................................................................

 iter      E             dE          RMSdq      gap      omega  full diag
   1   -180.4209063 -0.180421E+03  0.227E-01    0.60       0.0  T
   2   -180.4208714  0.349548E-04  0.993E-02    0.57       1.0  T
   3   -180.4203227  0.548723E-03  0.115E-01    0.61       1.0  T
   4   -180.4209207 -0.598048E-03  0.497E-02    0.58       1.0  T
   5   -180.4210104 -0.896800E-04  0.286E-02    0.59       1.0  T
   6   -180.4210212 -0.107697E-04  0.192E-02    0.59       1.0  T
   7   -180.4210391 -0.179272E-04  0.810E-03    0.59       1.3  T
   8   -180.4210403 -0.117909E-05  0.512E-03    0.59       2.1  T
   9   -180.4210402  0.104597E-06  0.400E-03    0.59       2.6  T
  10   -180.4210404 -0.265922E-06  0.240E-03    0.59       4.4  T
  11   -180.4210405 -0.840219E-07  0.167E-03    0.59       6.3  T
  12   -180.4210406 -0.670846E-07  0.111E-03    0.59       9.5  T
  13   -180.4210406 -0.940418E-08  0.787E-04    0.59      13.4  T
  14   -180.4210406 -0.993009E-08  0.463E-04    0.59      22.8  T
     SCC iter.                  ...        0 min,  0.390 sec
     gradient                   ...        0 min,  0.049 sec
 * total energy  :  -178.6558047 Eh     change       -0.1341110E-02 Eh
   gradient norm :     0.0274032 Eh/α   predicted    -0.1760706E-02 (  31.29%)
   displ. norm   :     0.6986782 α      lambda       -0.2584151E-02
   maximum displ.:     0.5672743 α      in ANC's #6, #8, #2, ...
 * RMSD in coord.:     0.9009095 α      energy gain  -0.5400114E-01 Eh

generating ANC from exact Hessian ...
Using Lindh-Hessian (1995)
 Shifting diagonal of input Hessian by   1.770772033766152E-002
 Lowest  eigenvalues of input Hessian
    0.010000    0.017118    0.017202    0.017234    0.000000    0.000000
    0.000000    0.000000    0.000000    0.000000    0.017739    0.017775
    0.017813    0.018049    0.018187    0.018329    0.018391    0.018465
 Highest eigenvalues
    2.187290    2.238912    2.263502    2.269208    2.280953    2.312355
 

........................................................................
.............................. CYCLE   21 ..............................
........................................................................

 iter      E             dE          RMSdq      gap      omega  full diag
   1   -180.4183495 -0.180418E+03  0.187E-01    0.63       0.0  T
   2   -180.4183136  0.358740E-04  0.769E-02    0.59       1.0  T
   3   -180.4178701  0.443442E-03  0.104E-01    0.64       1.0  T
   4   -180.4183906 -0.520450E-03  0.316E-02    0.61       1.0  T
   5   -180.4184065 -0.158768E-04  0.215E-02    0.61       1.0  T
   6   -180.4184119 -0.540804E-05  0.145E-02    0.61       1.0  T
   7   -180.4184220 -0.101666E-04  0.603E-03    0.61       1.7  T
   8   -180.4184222 -0.170737E-06  0.414E-03    0.61       2.5  T
   9   -180.4184225 -0.285375E-06  0.308E-03    0.61       3.4  T
  10   -180.4184226 -0.910283E-07  0.218E-03    0.61       4.8  T
  11   -180.4184228 -0.188133E-06  0.123E-03    0.61       8.5  T
  12   -180.4184228 -0.383477E-07  0.843E-04    0.61      12.5  T
  13   -180.4184228  0.122171E-08  0.669E-04    0.61      15.8  T
     SCC iter.                  ...        0 min,  0.287 sec
     gradient                   ...        0 min,  0.049 sec
 * total energy  :  -178.6576631 Eh     change       -0.1858319E-02 Eh
   gradient norm :     0.0184442 Eh/α   predicted     0.0000000E+00 (-100.00%)
   displ. norm   :     0.2898399 α      lambda       -0.2412128E-02
   maximum displ.:     0.1004543 α      in ANC's #1, #33, #27, ...

........................................................................
.............................. CYCLE   22 ..............................
........................................................................

 iter      E             dE          RMSdq      gap      omega  full diag
   1   -180.4162737 -0.180416E+03  0.371E-01    0.55       0.0  T
   2   -180.4165445 -0.270815E-03  0.192E-01    0.65       1.0  T
   3   -180.4163044  0.240174E-03  0.133E-01    0.58       1.0  T
   4   -180.4162764  0.280151E-04  0.127E-01    0.65       1.0  T
   5   -180.4170193 -0.742926E-03  0.410E-02    0.62       1.0  T
   6   -180.4169994  0.199151E-04  0.335E-02    0.61       1.0  T
   7   -180.4170504 -0.510213E-04  0.152E-02    0.62       1.0  T
   8   -180.4170571 -0.667793E-05  0.680E-03    0.61       1.6  T
   9   -180.4170569  0.122009E-06  0.513E-03    0.61       2.1  T
  10   -180.4170577 -0.782413E-06  0.329E-03    0.61       3.2  T
  11   -180.4170579 -0.182986E-06  0.191E-03    0.61       5.5  T
  12   -180.4170579 -0.313905E-07  0.123E-03    0.61       8.6  T
  13   -180.4170580 -0.108342E-07  0.893E-04    0.61      11.8  T
  14   -180.4170580 -0.168333E-07  0.631E-04    0.61      16.7  T
     SCC iter.                  ...        0 min,  0.306 sec
     gradient                   ...        0 min,  0.053 sec
 * total energy  :  -178.6575946 Eh     change        0.6842011E-04 Eh
   gradient norm :     0.0163030 Eh/α   predicted    -0.1307414E-02 (*******%)
   displ. norm   :     0.3375684 α      lambda       -0.2907393E-02
   maximum displ.:     0.2359582 α      in ANC's #1, #7, #6, ...

........................................................................
.............................. CYCLE   23 ..............................
........................................................................

 iter      E             dE          RMSdq      gap      omega  full diag
   1   -180.4197179 -0.180420E+03  0.375E-01    0.62       0.0  T
   2   -180.4199775 -0.259569E-03  0.158E-01    0.58       1.0  T
   3   -180.4197461  0.231417E-03  0.113E-01    0.62       1.0  T
   4   -180.4197152  0.308483E-04  0.100E-01    0.58       1.0  T
   5   -180.4200841 -0.368862E-03  0.536E-02    0.60       1.0  T
   6   -180.4201207 -0.366359E-04  0.291E-02    0.60       1.0  T
   7   -180.4201455 -0.247435E-04  0.183E-02    0.60       1.0  T
   8   -180.4201590 -0.134806E-04  0.796E-03    0.60       1.3  T
   9   -180.4201590 -0.282082E-07  0.630E-03    0.60       1.7  T
  10   -180.4201597 -0.731811E-06  0.455E-03    0.60       2.3  T
  11   -180.4201603 -0.537439E-06  0.219E-03    0.60       4.8  T
  12   -180.4201603 -0.601394E-07  0.130E-03    0.60       8.1  T
  13   -180.4201603  0.126752E-08  0.108E-03    0.60       9.7  T
  14   -180.4201603 -0.107154E-07  0.776E-04    0.60      13.6  T
  15   -180.4201603 -0.140976E-07  0.494E-04    0.60      21.3  T
     SCC iter.                  ...        0 min,  0.337 sec
     gradient                   ...        0 min,  0.045 sec
 * total energy  :  -178.6577009 Eh     change       -0.1062618E-03 Eh
   gradient norm :     0.0234577 Eh/α   predicted    -0.1619349E-02 (1423.92%)
   displ. norm   :     0.3423228 α      lambda       -0.4852009E-02
   maximum displ.:     0.1470904 α      in ANC's #1, #26, #7, ...

........................................................................
.............................. CYCLE   24 ..............................
........................................................................

 iter      E             dE          RMSdq      gap      omega  full diag
   1   -180.4234767 -0.180423E+03  0.468E-01    0.60       0.0  T
   2   -180.4232807  0.195956E-03  0.155E-01    0.58       1.0  T
   3   -180.4213694  0.191132E-02  0.216E-01    0.64       1.0  T
   4   -180.4236477 -0.227832E-02  0.715E-02    0.59       1.0  T
   5   -180.4236346  0.130477E-04  0.561E-02    0.59       1.0  T
   6   -180.4236878 -0.531803E-04  0.382E-02    0.60       1.0  T
   7   -180.4237467 -0.588733E-04  0.174E-02    0.59       1.0  T
   8   -180.4237546 -0.787980E-05  0.715E-03    0.60       1.5  T
   9   -180.4237551 -0.557837E-06  0.540E-03    0.60       2.0  T
  10   -180.4237554 -0.306290E-06  0.410E-03    0.60       2.6  T
  11   -180.4237559 -0.443334E-06  0.239E-03    0.60       4.4  T
  12   -180.4237560 -0.672518E-07  0.143E-03    0.60       7.4  T
  13   -180.4237560 -0.768964E-08  0.125E-03    0.60       8.5  T
  14   -180.4237560 -0.369587E-07  0.799E-04    0.60      13.2  T
  15   -180.4237560 -0.799113E-08  0.516E-04    0.60      20.4  T
     SCC iter.                  ...        0 min,  0.329 sec
     gradient                   ...        0 min,  0.048 sec
 * total energy  :  -178.6596201 Eh     change       -0.1919161E-02 Eh
   gradient norm :     0.0187915 Eh/α   predicted    -0.2710296E-02 (  41.22%)
   displ. norm   :     0.2185063 α      lambda       -0.1713292E-02
   maximum displ.:     0.0970085 α      in ANC's #7, #6, #8, ...

........................................................................
.............................. CYCLE   25 ..............................
........................................................................

 iter      E             dE          RMSdq      gap      omega  full diag
   1   -180.4204407 -0.180420E+03  0.237E-01    0.56       0.0  T
   2   -180.4204529 -0.122459E-04  0.778E-02    0.60       1.0  T
   3   -180.4202333  0.219681E-03  0.822E-02    0.55       1.0  T
   4   -180.4204645 -0.231211E-03  0.448E-02    0.59       1.0  T
   5   -180.4205359 -0.714086E-04  0.205E-02    0.58       1.0  T
   6   -180.4205387 -0.287787E-05  0.142E-02    0.58       1.0  T
   7   -180.4205470 -0.820764E-05  0.772E-03    0.58       1.4  T
   8   -180.4205479 -0.948906E-06  0.489E-03    0.58       2.2  T
   9   -180.4205485 -0.621163E-06  0.325E-03    0.58       3.2  T
  10   -180.4205487 -0.158847E-06  0.242E-03    0.58       4.4  T
  11   -180.4205489 -0.169284E-06  0.138E-03    0.58       7.6  T
  12   -180.4205489 -0.182392E-07  0.855E-04    0.58      12.3  T
  13   -180.4205489 -0.996337E-08  0.610E-04    0.58      17.3  T
     SCC iter.                  ...        0 min,  0.291 sec
     gradient                   ...        0 min,  0.047 sec
 * total energy  :  -178.6606043 Eh     change       -0.9842345E-03 Eh
   gradient norm :     0.0110748 Eh/α   predicted    -0.8975477E-03 (  -8.81%)
   displ. norm   :     0.4027804 α      lambda       -0.1505230E-02
   maximum displ.:     0.2215080 α      in ANC's #7, #6, #8, ...

........................................................................
.............................. CYCLE   26 ..............................
........................................................................

 iter      E             dE          RMSdq      gap      omega  full diag
   1   -180.4182278 -0.180418E+03  0.191E-01    0.58       0.0  T
   2   -180.4182632 -0.353951E-04  0.608E-02    0.59       1.0  T
   3   -180.4182492  0.140655E-04  0.384E-02    0.59       1.0  T
   4   -180.4182343  0.149026E-04  0.332E-02    0.59       1.0  T
   5   -180.4182703 -0.359802E-04  0.202E-02    0.59       1.0  T
   6   -180.4182777 -0.742822E-05  0.130E-02    0.59       1.0  T
   7   -180.4182813 -0.365200E-05  0.922E-03    0.59       1.1  T
   8   -180.4182851 -0.377053E-05  0.356E-03    0.59       3.0  T
   9   -180.4182851 -0.250461E-07  0.268E-03    0.59       3.9  T
  10   -180.4182853 -0.184297E-06  0.164E-03    0.59       6.4  T
  11   -180.4182854 -0.496540E-07  0.112E-03    0.59       9.4  T
  12   -180.4182854 -0.218010E-07  0.765E-04    0.59      13.8  T
  13   -180.4182854  0.635140E-08  0.704E-04    0.59      15.0  T
     SCC iter.                  ...        0 min,  0.298 sec
     gradient                   ...        0 min,  0.046 sec
 * total energy  :  -178.6617936 Eh     change       -0.1189268E-02 Eh
   gradient norm :     0.0098972 Eh/α   predicted    -0.8747190E-03 ( -26.45%)
   displ. norm   :     0.7299992 α      lambda       -0.2212740E-02
   maximum displ.:     0.4139593 α      in ANC's #7, #6, #8, ...

........................................................................
.............................. CYCLE   27 ..............................
........................................................................

 iter      E             dE          RMSdq      gap      omega  full diag
   1   -180.4153451 -0.180415E+03  0.240E-01    0.57       0.0  T
   2   -180.4153451  0.647555E-07  0.839E-02    0.59       1.0  T
   3   -180.4150199  0.325157E-03  0.901E-02    0.56       1.0  T
   4   -180.4153522 -0.332282E-03  0.418E-02    0.58       1.0  T
   5   -180.4153894 -0.372686E-04  0.324E-02    0.59       1.0  T
   6   -180.4154249 -0.354888E-04  0.195E-02    0.58       1.0  T
   7   -180.4154316 -0.665607E-05  0.970E-03    0.58       1.1  T
   8   -180.4154351 -0.351638E-05  0.513E-03    0.58       2.1  T
   9   -180.4154357 -0.604843E-06  0.338E-03    0.58       3.1  T
  10   -180.4154357 -0.261059E-07  0.250E-03    0.58       4.2  T
  11   -180.4154360 -0.215460E-06  0.164E-03    0.58       6.4  T
  12   -180.4154360 -0.589287E-07  0.113E-03    0.58       9.4  T
  13   -180.4154360 -0.313293E-08  0.938E-04    0.58      11.2  T
  14   -180.4154360 -0.130750E-07  0.627E-04    0.58      16.8  T
     SCC iter.                  ...        0 min,  0.334 sec
     gradient                   ...        0 min,  0.047 sec
 * total energy  :  -178.6636700 Eh     change       -0.1876475E-02 Eh
   gradient norm :     0.0134998 Eh/α   predicted    -0.1695955E-02 (  -9.62%)
   displ. norm   :     0.7595376 α      lambda       -0.2175808E-02
   maximum displ.:     0.4393748 α      in ANC's #7, #6, #8, ...

........................................................................
.............................. CYCLE   28 ..............................
........................................................................

 iter      E             dE          RMSdq      gap      omega  full diag
   1   -180.4159927 -0.180416E+03  0.245E-01    0.58       0.0  T
   2   -180.4159864  0.631392E-05  0.762E-02    0.58       1.0  T
   3   -180.4156206  0.365777E-03  0.978E-02    0.60       1.0  T
   4   -180.4160110 -0.390350E-03  0.384E-02    0.58       1.0  T
   5   -180.4160542 -0.431767E-04  0.210E-02    0.58       1.0  T
   6   -180.4160490  0.519086E-05  0.183E-02    0.59       1.0  T
   7   -180.4160674 -0.184413E-04  0.815E-03    0.58       1.3  T
   8   -180.4160691 -0.163981E-05  0.436E-03    0.58       2.4  T
   9   -180.4160692 -0.177117E-06  0.290E-03    0.58       3.6  T
  10   -180.4160692  0.138795E-07  0.225E-03    0.58       4.7  T
  11   -180.4160694 -0.140928E-06  0.166E-03    0.58       6.3  T
  12   -180.4160694 -0.652062E-07  0.102E-03    0.58      10.3  T
  13   -180.4160694 -0.256381E-08  0.750E-04    0.58      14.1  T
  14   -180.4160695 -0.118590E-07  0.443E-04    0.58      23.8  T
     SCC iter.                  ...        0 min,  0.305 sec
     gradient                   ...        0 min,  0.047 sec
 * total energy  :  -178.6654976 Eh     change       -0.1827569E-02 Eh
   gradient norm :     0.0166693 Eh/α   predicted    -0.1715516E-02 (  -6.13%)
   displ. norm   :     0.8011289 α      lambda       -0.2124099E-02
   maximum displ.:     0.4678698 α      in ANC's #7, #6, #8, ...

........................................................................
.............................. CYCLE   29 ..............................
........................................................................

 iter      E             dE          RMSdq      gap      omega  full diag
   1   -180.4176809 -0.180418E+03  0.275E-01    0.58       0.0  T
   2   -180.4176982 -0.173013E-04  0.878E-02    0.61       1.0  T
   3   -180.4173325  0.365732E-03  0.946E-02    0.60       1.0  T
   4   -180.4176274 -0.294922E-03  0.538E-02    0.59       1.0  T
   5   -180.4177789 -0.151555E-03  0.230E-02    0.61       1.0  T
   6   -180.4177811 -0.220217E-05  0.183E-02    0.60       1.0  T
   7   -180.4177885 -0.736663E-05  0.914E-03    0.60       1.2  T
   8   -180.4177922 -0.369030E-05  0.464E-03    0.60       2.3  T
   9   -180.4177926 -0.444544E-06  0.301E-03    0.60       3.5  T
  10   -180.4177927 -0.975953E-07  0.211E-03    0.60       5.0  T
  11   -180.4177928 -0.546806E-07  0.157E-03    0.60       6.7  T
  12   -180.4177929 -0.704958E-07  0.996E-04    0.60      10.6  T
  13   -180.4177929 -0.403082E-08  0.788E-04    0.60      13.4  T
     SCC iter.                  ...        0 min,  0.301 sec
     gradient                   ...        0 min,  0.045 sec
 * total energy  :  -178.6673735 Eh     change       -0.1875851E-02 Eh
   gradient norm :     0.0136196 Eh/α   predicted    -0.1743682E-02 (  -7.05%)
   displ. norm   :     0.7764562 α      lambda       -0.2395262E-02
   maximum displ.:     0.4542787 α      in ANC's #7, #6, #8, ...

........................................................................
.............................. CYCLE   30 ..............................
........................................................................

 iter      E             dE          RMSdq      gap      omega  full diag
   1   -180.4280787 -0.180428E+03  0.293E-01    0.58       0.0  T
   2   -180.4280849 -0.613764E-05  0.901E-02    0.61       1.0  T
   3   -180.4276209  0.463932E-03  0.105E-01    0.61       1.0  T
   4   -180.4280504 -0.429489E-03  0.506E-02    0.60       1.0  T
   5   -180.4281871 -0.136644E-03  0.201E-02    0.61       1.0  T
   6   -180.4281890 -0.189350E-05  0.163E-02    0.60       1.0  T
   7   -180.4281944 -0.542080E-05  0.896E-03    0.61       1.2  T
   8   -180.4281968 -0.240976E-05  0.526E-03    0.60       2.0  T
   9   -180.4281976 -0.791668E-06  0.327E-03    0.61       3.2  T
  10   -180.4281977 -0.981922E-07  0.246E-03    0.61       4.3  T
  11   -180.4281978 -0.156542E-06  0.156E-03    0.61       6.8  T
  12   -180.4281979 -0.574097E-07  0.895E-04    0.61      11.8  T
  13   -180.4281979 -0.594628E-08  0.631E-04    0.61      16.7  T
     SCC iter.                  ...        0 min,  0.288 sec
     gradient                   ...        0 min,  0.049 sec
 * total energy  :  -178.6693844 Eh     change       -0.2010965E-02 Eh
   gradient norm :     0.0183976 Eh/α   predicted    -0.1919668E-02 (  -4.54%)
   displ. norm   :     0.8320787 α      lambda       -0.2486631E-02
   maximum displ.:     0.4833738 α      in ANC's #7, #6, #3, ...

........................................................................
.............................. CYCLE   31 ..............................
........................................................................

 iter      E             dE          RMSdq      gap      omega  full diag
   1   -180.4286247 -0.180429E+03  0.369E-01    0.58       0.0  T
   2   -180.4287673 -0.142562E-03  0.107E-01    0.60       1.0  T
   3   -180.4285857  0.181578E-03  0.925E-02    0.62       1.0  T
   4   -180.4286299 -0.441765E-04  0.703E-02    0.59       1.0  T
   5   -180.4288499 -0.219977E-03  0.276E-02    0.61       1.0  T
   6   -180.4288389  0.109825E-04  0.254E-02    0.61       1.0  T
   7   -180.4288726 -0.336681E-04  0.123E-02    0.60       1.0  T
   8   -180.4288745 -0.194780E-05  0.627E-03    0.61       1.7  T
   9   -180.4288750 -0.456443E-06  0.398E-03    0.61       2.7  T
  10   -180.4288752 -0.190501E-06  0.264E-03    0.61       4.0  T
  11   -180.4288753 -0.911268E-07  0.178E-03    0.61       5.9  T
  12   -180.4288753 -0.391678E-07  0.136E-03    0.61       7.7  T
  13   -180.4288753 -0.439281E-07  0.934E-04    0.61      11.3  T
  14   -180.4288753 -0.128584E-07  0.657E-04    0.61      16.0  T
     SCC iter.                  ...        0 min,  0.304 sec
     gradient                   ...        0 min,  0.047 sec
 * total energy  :  -178.6716412 Eh     change       -0.2256769E-02 Eh
   gradient norm :     0.0186681 Eh/α   predicted    -0.2104142E-02 (  -6.76%)
   displ. norm   :     0.7802817 α      lambda       -0.2977272E-02
   maximum displ.:     0.4317574 α      in ANC's #7, #6, #3, ...

........................................................................
.............................. CYCLE   32 ..............................
........................................................................

 iter      E             dE          RMSdq      gap      omega  full diag
   1   -180.4321187 -0.180432E+03  0.406E-01    0.59       0.0  T
   2   -180.4323423 -0.223607E-03  0.110E-01    0.62       1.0  T
   3   -180.4323372  0.516980E-05  0.609E-02    0.61       1.0  T
   4   -180.4322697  0.674609E-04  0.489E-02    0.61       1.0  T
   5   -180.4323874 -0.117726E-03  0.309E-02    0.61       1.0  T
   6   -180.4324027 -0.152264E-04  0.215E-02    0.62       1.0  T
   7   -180.4324136 -0.109744E-04  0.144E-02    0.61       1.0  T
   8   -180.4324199 -0.624423E-05  0.685E-03    0.61       1.5  T
   9   -180.4324204 -0.501773E-06  0.437E-03    0.61       2.4  T
  10   -180.4324205 -0.152185E-06  0.238E-03    0.61       4.4  T
  11   -180.4324205  0.168353E-07  0.179E-03    0.61       5.9  T
  12   -180.4324206 -0.111327E-06  0.126E-03    0.61       8.4  T
  13   -180.4324207 -0.282161E-07  0.885E-04    0.61      11.9  T
  14   -180.4324207 -0.133341E-07  0.539E-04    0.61      19.5  T
     SCC iter.                  ...        0 min,  0.328 sec
     gradient                   ...        0 min,  0.047 sec
 * total energy  :  -178.6743103 Eh     change       -0.2669105E-02 Eh
   gradient norm :     0.0232260 Eh/α   predicted    -0.2394981E-02 ( -10.27%)
   displ. norm   :     0.7684729 α      lambda       -0.3343815E-02
   maximum displ.:     0.4110997 α      in ANC's #7, #6, #3, ...

........................................................................
.............................. CYCLE   33 ..............................
........................................................................

 iter      E             dE          RMSdq      gap      omega  full diag
   1   -180.4342546 -0.180434E+03  0.413E-01    0.58       0.0  T
   2   -180.4344308 -0.176197E-03  0.111E-01    0.61       1.0  T
   3   -180.4343371  0.936875E-04  0.724E-02    0.60       1.0  T
   4   -180.4343028  0.342950E-04  0.620E-02    0.60       1.0  T
   5   -180.4344941 -0.191314E-03  0.320E-02    0.60       1.0  T
   6   -180.4344942 -0.126574E-06  0.265E-02    0.60       1.0  T
   7   -180.4345170 -0.227579E-04  0.155E-02    0.60       1.0  T
   8   -180.4345240 -0.701053E-05  0.811E-03    0.60       1.3  T
   9   -180.4345248 -0.840110E-06  0.508E-03    0.60       2.1  T
  10   -180.4345248  0.407236E-07  0.311E-03    0.60       3.4  T
  11   -180.4345250 -0.184064E-06  0.204E-03    0.60       5.2  T
  12   -180.4345251 -0.129943E-06  0.111E-03    0.60       9.5  T
  13   -180.4345251 -0.113136E-07  0.739E-04    0.60      14.3  T
  14   -180.4345251 -0.182339E-08  0.533E-04    0.60      19.8  T
     SCC iter.                  ...        0 min,  0.295 sec
     gradient                   ...        0 min,  0.047 sec
 * total energy  :  -178.6771719 Eh     change       -0.2861636E-02 Eh
   gradient norm :     0.0218134 Eh/α   predicted    -0.2659257E-02 (  -7.07%)
   displ. norm   :     0.8203241 α      lambda       -0.3631565E-02
   maximum displ.:     0.4321633 α      in ANC's #7, #6, #3, ...

........................................................................
.............................. CYCLE   34 ..............................
........................................................................

 iter      E             dE          RMSdq      gap      omega  full diag
   1   -180.4289941 -0.180429E+03  0.507E-01    0.56       0.0  T
   2   -180.4293958 -0.401691E-03  0.130E-01    0.60       1.0  T
   3   -180.4294032 -0.737940E-05  0.766E-02    0.58       1.0  T
   4   -180.4292948  0.108404E-03  0.623E-02    0.59       1.0  T
   5   -180.4294215 -0.126766E-03  0.454E-02    0.58       1.0  T
   6   -180.4294764 -0.548820E-04  0.275E-02    0.59       1.0  T
   7   -180.4294914 -0.149705E-04  0.182E-02    0.58       1.0  T
   8   -180.4295019 -0.105570E-04  0.958E-03    0.59       1.1  T
   9   -180.4295032 -0.120782E-05  0.613E-03    0.59       1.7  T
  10   -180.4295030  0.181847E-06  0.442E-03    0.59       2.4  T
  11   -180.4295036 -0.646446E-06  0.265E-03    0.59       4.0  T
  12   -180.4295038 -0.157616E-06  0.164E-03    0.59       6.4  T
  13   -180.4295038  0.583597E-08  0.129E-03    0.59       8.2  T
  14   -180.4295038 -0.323897E-07  0.916E-04    0.59      11.5  T
  15   -180.4295038 -0.153213E-07  0.677E-04    0.59      15.6  T
     SCC iter.                  ...        0 min,  0.337 sec
     gradient                   ...        0 min,  0.047 sec
 * total energy  :  -178.6802904 Eh     change       -0.3118457E-02 Eh
   gradient norm :     0.0370890 Eh/α   predicted    -0.3037684E-02 (  -2.59%)
   displ. norm   :     0.6829356 α      lambda       -0.4707105E-02
   maximum displ.:     0.3314709 α      in ANC's #6, #7, #3, ...

........................................................................
.............................. CYCLE   35 ..............................
........................................................................

 iter      E             dE          RMSdq      gap      omega  full diag
   1   -180.4319771 -0.180432E+03  0.468E-01    0.60       0.0  T
   2   -180.4322106 -0.233486E-03  0.135E-01    0.57       1.0  T
   3   -180.4318502  0.360389E-03  0.117E-01    0.60       1.0  T
   4   -180.4322323 -0.382097E-03  0.645E-02    0.58       1.0  T
   5   -180.4323235 -0.911645E-04  0.500E-02    0.58       1.0  T
   6   -180.4324010 -0.774635E-04  0.332E-02    0.59       1.0  T
   7   -180.4324397 -0.387443E-04  0.166E-02    0.58       1.0  T
   8   -180.4324421 -0.243031E-05  0.937E-03    0.58       1.1  T
   9   -180.4324421  0.213199E-07  0.701E-03    0.58       1.5  T
  10   -180.4324426 -0.492515E-06  0.538E-03    0.58       2.0  T
  11   -180.4324434 -0.809297E-06  0.292E-03    0.58       3.6  T
  12   -180.4324435 -0.138845E-06  0.218E-03    0.58       4.8  T
  13   -180.4324436 -0.921393E-07  0.157E-03    0.58       6.7  T
  14   -180.4324437 -0.211853E-07  0.119E-03    0.58       8.8  T
  15   -180.4324437 -0.364509E-07  0.680E-04    0.58      15.5  T
  16   -180.4324437 -0.686376E-08  0.439E-04    0.58      24.0  T
     SCC iter.                  ...        0 min,  0.360 sec
     gradient                   ...        0 min,  0.047 sec
 * total energy  :  -178.6838121 Eh     change       -0.3521736E-02 Eh
   gradient norm :     0.0414959 Eh/α   predicted    -0.3451260E-02 (  -2.00%)
   displ. norm   :     0.7220706 α      lambda       -0.5167299E-02
   maximum displ.:     0.3897098 α      in ANC's #7, #6, #3, ...

........................................................................
.............................. CYCLE   36 ..............................
........................................................................

 iter      E             dE          RMSdq      gap      omega  full diag
   1   -180.4361722 -0.180436E+03  0.418E-01    0.52       0.0  T
   2   -180.4361603  0.119620E-04  0.131E-01    0.55       1.0  T
   3   -180.4347092  0.145109E-02  0.180E-01    0.56       1.0  T
   4   -180.4363574 -0.164818E-02  0.613E-02    0.54       1.0  T
   5   -180.4364537 -0.963142E-04  0.362E-02    0.55       1.0  T
   6   -180.4364923 -0.386399E-04  0.216E-02    0.54       1.0  T
   7   -180.4365012 -0.891825E-05  0.140E-02    0.55       1.0  T
   8   -180.4365070 -0.581958E-05  0.801E-03    0.55       1.3  T
   9   -180.4365075 -0.440220E-06  0.549E-03    0.55       1.9  T
  10   -180.4365074  0.794086E-07  0.466E-03    0.55       2.3  T
  11   -180.4365082 -0.837674E-06  0.257E-03    0.55       4.1  T
  12   -180.4365083 -0.994802E-07  0.178E-03    0.55       5.9  T
  13   -180.4365084 -0.260225E-07  0.129E-03    0.55       8.1  T
  14   -180.4365084 -0.395551E-08  0.100E-03    0.55      10.5  T
  15   -180.4365084 -0.272068E-07  0.639E-04    0.55      16.5  T
  16   -180.4365084 -0.110830E-07  0.395E-04    0.55      26.7  T
     SCC iter.                  ...        0 min,  0.372 sec
     gradient                   ...        0 min,  0.048 sec
 * total energy  :  -178.6886120 Eh     change       -0.4799876E-02 Eh
   gradient norm :     0.0448112 Eh/α   predicted    -0.3930730E-02 ( -18.11%)
   displ. norm   :     0.6550251 α      lambda       -0.8855609E-02
   maximum displ.:     0.2536134 α      in ANC's #6, #7, #3, ...

........................................................................
.............................. CYCLE   37 ..............................
........................................................................

 iter      E             dE          RMSdq      gap      omega  full diag
   1   -180.4577508 -0.180458E+03  0.538E-01    0.48       0.0  T
   2   -180.4566297  0.112117E-02  0.245E-01    0.48       1.0  T
   3   -180.4523579  0.427181E-02  0.338E-01    0.57       1.0  T
   4   -180.4584736 -0.611572E-02  0.725E-02    0.50       1.0  T
   5   -180.4584662  0.734659E-05  0.554E-02    0.50       1.0  T
   6   -180.4586278 -0.161591E-03  0.359E-02    0.51       1.0  T
   7   -180.4586702 -0.424261E-04  0.204E-02    0.50       1.0  T
   8   -180.4586778 -0.756937E-05  0.109E-02    0.50       1.0  T
   9   -180.4586780 -0.210885E-06  0.755E-03    0.50       1.4  T
  10   -180.4586781 -0.105064E-06  0.567E-03    0.50       1.9  T
  11   -180.4586788 -0.699470E-06  0.415E-03    0.50       2.5  T
  12   -180.4586792 -0.370134E-06  0.279E-03    0.50       3.8  T
  13   -180.4586792 -0.304479E-07  0.232E-03    0.50       4.6  T
  14   -180.4586793 -0.188892E-07  0.174E-03    0.50       6.1  T
  15   -180.4586794 -0.109910E-06  0.866E-04    0.50      12.2  T
  16   -180.4586794 -0.165880E-07  0.522E-04    0.50      20.2  T
     SCC iter.                  ...        0 min,  0.393 sec
     gradient                   ...        0 min,  0.051 sec
 * total energy  :  -178.6951631 Eh     change       -0.6551109E-02 Eh
   gradient norm :     0.0426241 Eh/α   predicted    -0.6327598E-02 (  -3.41%)
   displ. norm   :     0.8161976 α      lambda       -0.8757021E-02
   maximum displ.:     0.3322981 α      in ANC's #20, #6, #14, ...

........................................................................
.............................. CYCLE   38 ..............................
........................................................................

 iter      E             dE          RMSdq      gap      omega  full diag
   1   -180.4549873 -0.180455E+03  0.810E-01    0.35       0.0  T
   2   -180.4547476  0.239744E-03  0.297E-01    0.38       1.0  T
   3   -180.4492191  0.552854E-02  0.379E-01    0.44       1.0  T
   4   -180.4560544 -0.683532E-02  0.132E-01    0.37       1.0  T
   5   -180.4564090 -0.354606E-03  0.833E-02    0.39       1.0  T
   6   -180.4566809 -0.271915E-03  0.480E-02    0.39       1.0  T
   7   -180.4567124 -0.314986E-04  0.376E-02    0.38       1.0  T
   8   -180.4567613 -0.488648E-04  0.170E-02    0.39       1.0  T
   9   -180.4567608  0.415746E-06  0.117E-02    0.39       1.0  T
  10   -180.4567619 -0.110523E-05  0.800E-03    0.39       1.3  T
  11   -180.4567636 -0.161207E-05  0.462E-03    0.39       2.3  T
  12   -180.4567642 -0.648200E-06  0.272E-03    0.39       3.9  T
  13   -180.4567643 -0.126731E-06  0.174E-03    0.39       6.0  T
  14   -180.4567643 -0.854357E-10  0.128E-03    0.39       8.2  T
  15   -180.4567644 -0.204682E-07  0.996E-04    0.39      10.6  T
  16   -180.4567644 -0.356959E-07  0.580E-04    0.39      18.2  T
     SCC iter.                  ...        0 min,  0.339 sec
     gradient                   ...        0 min,  0.046 sec
 * total energy  :  -178.7021225 Eh     change       -0.6959358E-02 Eh
   gradient norm :     0.0689713 Eh/α   predicted    -0.7295380E-02 (   4.83%)
   displ. norm   :     0.6218583 α      lambda       -0.1211890E-01
   maximum displ.:     0.3426979 α      in ANC's #20, #247, #3, ...

........................................................................
.............................. CYCLE   39 ..............................
........................................................................

 iter      E             dE          RMSdq      gap      omega  full diag
   1   -180.4538677 -0.180454E+03  0.727E-01    0.22       0.0  T
   2   -180.4533794  0.488285E-03  0.300E-01    0.20       1.0  T
   3   -180.4479563  0.542303E-02  0.374E-01    0.28       1.0  T
   4   -180.4541871 -0.623073E-02  0.163E-01    0.17       1.0  T
   5   -180.4547277 -0.540593E-03  0.135E-01    0.33       1.0  T
   6   -180.4557909 -0.106327E-02  0.649E-02    0.22       1.0  T
   7   -180.4559334 -0.142473E-03  0.384E-02    0.22       1.0  T
   8   -180.4559238  0.957952E-05  0.282E-02    0.21       1.0  T
   9   -180.4559433 -0.195078E-04  0.175E-02    0.21       1.0  T
  10   -180.4559468 -0.342862E-05  0.136E-02    0.21       1.0  T
  11   -180.4559515 -0.476787E-05  0.745E-03    0.21       1.4  T
  12   -180.4559520 -0.420306E-06  0.554E-03    0.21       1.9  T
  13   -180.4559530 -0.103499E-05  0.363E-03    0.21       2.9  T
  14   -180.4559533 -0.342252E-06  0.219E-03    0.21       4.8  T
  15   -180.4559533  0.317991E-07  0.189E-03    0.21       5.6  T
  16   -180.4559533  0.448364E-07  0.175E-03    0.21       6.0  T
  17   -180.4559535 -0.200811E-06  0.641E-04    0.21      16.4  T
  18   -180.4559535 -0.439624E-08  0.426E-04    0.21      24.7  T
     SCC iter.                  ...        0 min,  0.398 sec
     gradient                   ...        0 min,  0.047 sec
 * total energy  :  -178.7114914 Eh     change       -0.9368875E-02 Eh
   gradient norm :     0.0662027 Eh/α   predicted    -0.8402696E-02 ( -10.31%)
   displ. norm   :     0.5829535 α      lambda       -0.1616253E-01
   maximum displ.:     0.2247373 α      in ANC's #20, #10, #247, ...

........................................................................
.............................. CYCLE   40 ..............................
........................................................................

 iter      E             dE          RMSdq      gap      omega  full diag
   1   -180.4592519 -0.180459E+03  0.815E-01    0.14       0.0  T
   2   -180.4512840  0.796787E-02  0.430E-01    0.45       1.0  T
   3   -179.6476763  0.803608E+00  0.350E+00    0.02       1.0  T
   4   -180.2707179 -0.623042E+00  0.163E+00    0.02       1.0  T
   5   -180.4603344 -0.189616E+00  0.213E-01    0.24       1.0  T
   6   -180.4608597 -0.525291E-03  0.189E-01    0.25       1.0  T
   7   -180.4617356 -0.875870E-03  0.163E-01    0.22       1.0  T
   8   -180.4616444  0.911830E-04  0.152E-01    0.22       1.0  T
   9   -180.4623085 -0.664159E-03  0.120E-01    0.20       1.0  T
  10   -180.4625660 -0.257467E-03  0.962E-02    0.19       1.0  T
  11   -180.4630846 -0.518630E-03  0.467E-02    0.17       1.0  T
  12   -180.4631869 -0.102278E-03  0.218E-02    0.17       1.0  T
  13   -180.4632096 -0.227028E-04  0.991E-03    0.16       1.1  T
  14   -180.4632132 -0.362196E-05  0.362E-03    0.16       2.9  T
  15   -180.4632110  0.220108E-05  0.626E-03    0.16       1.7  T
  16   -180.4632123 -0.121955E-05  0.485E-03    0.16       2.2  T
  17   -180.4632135 -0.129830E-05  0.205E-03    0.16       5.1  T
  18   -180.4632136 -0.869498E-07  0.110E-03    0.16       9.6  T
  19   -180.4632137 -0.516911E-07  0.581E-04    0.16      18.2  T
  20   -180.4632137 -0.137794E-08  0.521E-04    0.16      20.2  T
     SCC iter.                  ...        0 min,  0.450 sec
     gradient                   ...        0 min,  0.047 sec
 * total energy  :  -178.7233241 Eh     change       -0.1183276E-01 Eh
   gradient norm :     0.0570319 Eh/α   predicted    -0.1082757E-01 (  -8.49%)
   displ. norm   :     0.5974299 α      lambda       -0.1351995E-01
   maximum displ.:     0.2132186 α      in ANC's #247, #20, #10, ...

........................................................................
.............................. CYCLE   41 ..............................
........................................................................

 iter      E             dE          RMSdq      gap      omega  full diag
   1   -180.4461138 -0.180446E+03  0.106E+00    0.08       0.0  T
   2   -180.4097384  0.363754E-01  0.940E-01    1.11       1.0  T
   3   -180.3998204  0.991796E-02  0.892E-01    0.06       1.0  T
   4   -180.4431866 -0.433661E-01  0.584E-01    0.73       1.0  T
   5   -180.4532932 -0.101067E-01  0.500E-01    0.49       1.0  T
   6   -180.4552936 -0.200035E-02  0.454E-01    0.40       1.0  T
   7   -180.4652089 -0.991537E-02  0.180E-01    0.11       1.0  T
   8   -180.4649969  0.212070E-03  0.190E-01    0.17       1.0  T
   9   -180.3215442  0.143453E+00  0.148E+00    0.02       1.0  T
  10   -180.4664273 -0.144883E+00  0.108E-01    0.12       1.0  T
  11   -180.4671496 -0.722291E-03  0.346E-02    0.13       1.0  T
  12   -180.4661058  0.104387E-02  0.131E-01    0.11       1.0  T
  13   -180.4637607  0.234508E-02  0.225E-01    0.10       1.0  T
  14   -180.4654844 -0.172371E-02  0.157E-01    0.11       1.0  T
  15   -180.4665632 -0.107880E-02  0.954E-02    0.12       1.0  T
  16   -180.4671528 -0.589584E-03  0.264E-02    0.13       1.0  T
  17   -180.4671972 -0.443826E-04  0.569E-03    0.13       1.9  T
  18   -180.4671991 -0.196131E-05  0.203E-03    0.13       5.2  T
  19   -180.4671991 -0.968353E-08  0.162E-03    0.13       6.5  T
  20   -180.4671980  0.116944E-05  0.441E-03    0.13       2.4  T
  21   -180.4671975  0.424648E-06  0.506E-03    0.13       2.1  T
  22   -180.4671971  0.473555E-06  0.569E-03    0.13       1.9  T
  23   -180.4671983 -0.120648E-05  0.379E-03    0.13       2.8  T
  24   -180.4671990 -0.722304E-06  0.194E-03    0.13       5.4  T
  25   -180.4671992 -0.176478E-06  0.108E-03    0.13       9.8  T
  26   -180.4671992 -0.695092E-07  0.373E-04    0.13      28.3  T
  27   -180.4671992 -0.911055E-08  0.564E-05    0.13     186.8  T
     SCC iter.                  ...        0 min,  0.623 sec
     gradient                   ...        0 min,  0.050 sec
 * total energy  :  -178.7288938 Eh     change       -0.5569690E-02 Eh
   gradient norm :     0.0605331 Eh/α   predicted    -0.9172774E-02 (  64.69%)
   displ. norm   :     0.5533754 α      lambda       -0.1508822E-01
   maximum displ.:     0.2470168 α      in ANC's #20, #14, #32, ...

........................................................................
.............................. CYCLE   42 ..............................
........................................................................

 iter      E             dE          RMSdq      gap      omega  full diag
   1   -180.4747346 -0.180475E+03  0.710E-01    0.47       0.0  T
   2   -179.6435062  0.831228E+00  0.346E+00    0.02       1.0  T
   3   -180.4690648 -0.825559E+00  0.465E-01    0.78       1.0  T
   4   -180.4759731 -0.690833E-02  0.423E-01    0.61       1.0  T
   5   -180.4738755  0.209762E-02  0.375E-01    0.67       1.0  T
   6   -180.4759703 -0.209480E-02  0.340E-01    0.62       1.0  T
   7   -180.4768413 -0.871015E-03  0.291E-01    0.55       1.0  T
   8   -180.4775438 -0.702440E-03  0.262E-01    0.49       1.0  T
   9   -180.4781694 -0.625618E-03  0.230E-01    0.43       1.0  T
  10   -180.4791545 -0.985139E-03  0.186E-01    0.34       1.0  T
  11   -180.4798410 -0.686461E-03  0.142E-01    0.28       1.0  T
  12   -180.4807726 -0.931641E-03  0.718E-02    0.22       1.0  T
  13   -180.4809349 -0.162292E-03  0.394E-02    0.17       1.0  T
  14   -180.4808284  0.106545E-03  0.566E-02    0.17       1.0  T
  15   -180.4809672 -0.138849E-03  0.311E-02    0.18       1.0  T
  16   -180.4810021 -0.348675E-04  0.205E-02    0.18       1.0  T
  17   -180.4810241 -0.220313E-04  0.817E-03    0.19       1.3  T
  18   -180.4810277 -0.352708E-05  0.203E-03    0.19       5.2  T
  19   -180.4810277 -0.671146E-07  0.156E-03    0.19       6.7  T
  20   -180.4810278 -0.636831E-07  0.109E-03    0.19       9.7  T
  21   -180.4810278  0.966392E-08  0.107E-03    0.19       9.9  T
  22   -180.4810278 -0.311389E-07  0.768E-04    0.19      13.7  T
  23   -180.4810278 -0.235369E-07  0.401E-04    0.19      26.3  T
     SCC iter.                  ...        0 min,  0.514 sec
     gradient                   ...        0 min,  0.047 sec
 * total energy  :  -178.7261608 Eh     change        0.2733052E-02 Eh
   gradient norm :     0.0877577 Eh/α   predicted    -0.9854303E-02 (-460.56%)
   displ. norm   :     0.3907684 α      lambda       -0.2354378E-01
   maximum displ.:     0.1822728 α      in ANC's #14, #20, #1, ...
 * RMSD in coord.:     1.0632919 α      energy gain  -0.7035600E-01 Eh

generating ANC from exact Hessian ...
Using Lindh-Hessian (1995)
 Shifting diagonal of input Hessian by   1.062432470502997E-002
 Lowest  eigenvalues of input Hessian
    0.010000    0.010145    0.010200    0.000000    0.000000    0.000000
    0.000000    0.000000    0.000000    0.010678    0.010742    0.010809
    0.011126    0.011151    0.011344    0.011476    0.011546    0.011644
 Highest eigenvalues
    2.169566    2.235276    2.252635    2.255984    2.272771    2.301963
 

........................................................................
.............................. CYCLE   43 ..............................
........................................................................

 iter      E             dE          RMSdq      gap      omega  full diag
   1   -179.7704800 -0.179770E+03  0.334E+00    0.02       0.0  T
   2   -176.4675708  0.330291E+01  0.683E+00    0.15       1.0  T
   3   -180.2178603 -0.375029E+01  0.243E+00    0.82       1.0  T
   4   -180.4374636 -0.219603E+00  0.146E+00    0.91       1.0  T
   5   -180.4313057  0.615783E-02  0.111E+00    0.93       1.0  T
   6   -180.4588479 -0.275422E-01  0.846E-01    0.81       1.0  T
   7   -180.4693687 -0.105208E-01  0.671E-01    0.73       1.0  T
   8   -180.4732431 -0.387434E-02  0.488E-01    0.68       1.0  T
   9   -180.4818122 -0.856917E-02  0.274E-01    0.25       1.0  T
  10   -180.4863934 -0.458118E-02  0.158E-01    0.14       1.0  T
  11   -180.4857465  0.646873E-03  0.145E-01    0.18       1.0  T
  12   -180.4867255 -0.978967E-03  0.868E-02    0.14       1.0  T
  13   -180.4867488 -0.233270E-04  0.670E-02    0.16       1.0  T
  14   -180.4869626 -0.213771E-03  0.322E-02    0.15       1.0  T
  15   -180.4777401  0.922254E-02  0.369E-01    0.10       1.0  T
  16   -180.4866655 -0.892543E-02  0.742E-02    0.13       1.0  T
  17   -180.4870122 -0.346727E-03  0.153E-02    0.14       1.0  T
  18   -180.4868766  0.135575E-03  0.459E-02    0.14       1.0  T
  19   -180.4870185 -0.141809E-03  0.101E-02    0.14       1.0  T
  20   -180.4870133  0.514269E-05  0.129E-02    0.14       1.0  T
  21   -180.4870201 -0.681545E-05  0.842E-03    0.14       1.3  T
  22   -180.4870233 -0.317864E-05  0.462E-03    0.14       2.3  T
  23   -180.4870246 -0.128947E-05  0.120E-03    0.14       8.8  T
  24   -180.4870229  0.166700E-05  0.507E-03    0.15       2.1  T
  25   -180.4870245 -0.157884E-05  0.163E-03    0.14       6.5  T
  26   -180.4870246 -0.936006E-07  0.105E-03    0.14      10.0  T
  27   -180.4870247 -0.809607E-07  0.112E-04    0.14      93.9  T
  28   -180.4870247  0.219013E-07  0.564E-04    0.14      18.7  T
     SCC iter.                  ...        0 min,  0.653 sec
     gradient                   ...        0 min,  0.044 sec
 * total energy  :  -178.7347361 Eh     change       -0.8575318E-02 Eh
   gradient norm :     0.0492252 Eh/α   predicted     0.0000000E+00 (-100.00%)
   displ. norm   :     0.3397933 α      lambda       -0.5028975E-02
   maximum displ.:     0.1555930 α      in ANC's #6, #16, #10, ...

........................................................................
.............................. CYCLE   44 ..............................
........................................................................

 iter      E             dE          RMSdq      gap      omega  full diag
   1   -180.4566248 -0.180457E+03  0.633E-01    0.07       0.0  T
   2   -180.4182610  0.383638E-01  0.106E+00    1.19       1.0  T
   3   -180.4670713 -0.488103E-01  0.550E-01    0.73       1.0  T
   4   -180.4724973 -0.542608E-02  0.434E-01    0.47       1.0  T
   5   -180.4774603 -0.496298E-02  0.348E-01    0.29       1.0  T
   6   -180.0744304  0.403030E+00  0.253E+00    0.02       1.0  T
   7   -180.4776320 -0.403202E+00  0.314E-01    0.27       1.0  T
   8   -180.4803366 -0.270464E-02  0.242E-01    0.21       1.0  T
   9   -180.4815274 -0.119078E-02  0.200E-01    0.19       1.0  T
  10   -180.4831498 -0.162237E-02  0.126E-01    0.17       1.0  T
  11   -180.4840278 -0.878041E-03  0.550E-02    0.15       1.0  T
  12   -180.4842212 -0.193373E-03  0.106E-02    0.14       1.0  T
  13   -180.4841433  0.778331E-04  0.355E-02    0.14       1.0  T
  14   -180.4841996 -0.562982E-04  0.202E-02    0.14       1.0  T
  15   -180.4842254 -0.257868E-04  0.529E-03    0.14       2.0  T
  16   -180.4842256 -0.189999E-06  0.485E-03    0.14       2.2  T
  17   -180.4842272 -0.160635E-05  0.578E-04    0.14      18.2  T
  18   -180.4842247  0.247686E-05  0.600E-03    0.14       1.8  T
  19   -180.4842264 -0.162810E-05  0.355E-03    0.14       3.0  T
  20   -180.4842271 -0.694421E-06  0.155E-03    0.14       6.8  T
  21   -180.4842272 -0.140077E-06  0.552E-04    0.14      19.1  T
  22   -180.4842272 -0.156179E-07  0.301E-04    0.14      35.1  T
     SCC iter.                  ...        0 min,  0.528 sec
     gradient                   ...        0 min,  0.047 sec
 * total energy  :  -178.7380581 Eh     change       -0.3322025E-02 Eh
   gradient norm :     0.0256407 Eh/α   predicted    -0.2805756E-02 ( -15.54%)
   displ. norm   :     0.5121860 α      lambda       -0.5308982E-02
   maximum displ.:     0.2940976 α      in ANC's #6, #14, #41, ...

........................................................................
.............................. CYCLE   45 ..............................
........................................................................

 iter      E             dE          RMSdq      gap      omega  full diag
   1   -180.4852747 -0.180485E+03  0.411E-01    0.16       0.0  T
   2   -179.7541506  0.731124E+00  0.334E+00    0.02       1.0  T
   3   -180.4845626 -0.730412E+00  0.189E-01    0.17       1.0  T
   4   -180.4852165 -0.653843E-03  0.133E-01    0.12       1.0  T
   5   -180.4847434  0.473051E-03  0.146E-01    0.17       1.0  T
   6   -180.4862911 -0.154764E-02  0.514E-02    0.14       1.0  T
   7   -180.4863704 -0.792876E-04  0.308E-02    0.14       1.0  T
   8   -180.4864107 -0.403606E-04  0.147E-02    0.14       1.0  T
   9   -180.4864210 -0.102669E-04  0.934E-03    0.13       1.1  T
  10   -180.4864108  0.102211E-04  0.145E-02    0.13       1.0  T
  11   -180.4864188 -0.800843E-05  0.995E-03    0.13       1.1  T
  12   -180.4864227 -0.396096E-05  0.585E-03    0.13       1.8  T
  13   -180.4864234 -0.661619E-06  0.451E-03    0.13       2.3  T
  14   -180.4864246 -0.123705E-05  0.191E-03    0.13       5.5  T
  15   -180.4864248 -0.179150E-06  0.937E-04    0.13      11.2  T
  16   -180.4864249 -0.549908E-07  0.230E-04    0.13      45.7  T
     SCC iter.                  ...        0 min,  0.369 sec
     gradient                   ...        0 min,  0.046 sec
 * total energy  :  -178.7403771 Eh     change       -0.2318959E-02 Eh
   gradient norm :     0.0262060 Eh/α   predicted    -0.3350860E-02 (  44.50%)
   displ. norm   :     0.4493361 α      lambda       -0.3507526E-02
   maximum displ.:     0.2727373 α      in ANC's #6, #10, #1, ...

........................................................................
.............................. CYCLE   46 ..............................
........................................................................

 iter      E             dE          RMSdq      gap      omega  full diag
   1   -180.4882751 -0.180488E+03  0.329E-01    0.15       0.0  T
   2   -179.7626882  0.725587E+00  0.332E+00    0.02       1.0  T
   3   -180.4891799 -0.726492E+00  0.989E-02    0.13       1.0  T
   4   -180.4876069  0.157303E-02  0.150E-01    0.15       1.0  T
   5   -180.4892425 -0.163559E-02  0.403E-02    0.13       1.0  T
   6   -180.4891485  0.939579E-04  0.474E-02    0.12       1.0  T
   7   -180.4892742 -0.125715E-03  0.238E-02    0.13       1.0  T
   8   -180.4892787 -0.450682E-05  0.229E-02    0.13       1.0  T
   9   -180.4892869 -0.819809E-05  0.197E-02    0.13       1.0  T
  10   -180.4893070 -0.200894E-04  0.105E-02    0.13       1.0  T
  11   -180.4893105 -0.341514E-05  0.743E-03    0.13       1.4  T
  12   -180.4893121 -0.161467E-05  0.476E-03    0.13       2.2  T
  13   -180.4893135 -0.138999E-05  0.169E-03    0.13       6.2  T
  14   -180.4893134  0.101858E-06  0.196E-03    0.13       5.4  T
  15   -180.4893136 -0.201887E-06  0.744E-04    0.13      14.2  T
  16   -180.4893136 -0.203701E-08  0.628E-04    0.13      16.8  T
     SCC iter.                  ...        0 min,  0.372 sec
     gradient                   ...        0 min,  0.046 sec
 * total energy  :  -178.7424341 Eh     change       -0.2057047E-02 Eh
   gradient norm :     0.0260706 Eh/α   predicted    -0.2107861E-02 (   2.47%)
   displ. norm   :     0.4815934 α      lambda       -0.3002063E-02
   maximum displ.:     0.3177952 α      in ANC's #6, #16, #8, ...

........................................................................
.............................. CYCLE   47 ..............................
........................................................................

 iter      E             dE          RMSdq      gap      omega  full diag
   1   -180.4080767 -0.180408E+03  0.107E+00    0.04       0.0  T
   2   -180.3323564  0.757203E-01  0.176E+00    1.03       1.0  T
   3   -180.4510210 -0.118665E+00  0.849E-01    0.91       1.0  T
   4   -180.4685347 -0.175138E-01  0.648E-01    0.75       1.0  T
   5   -180.4770137 -0.847896E-02  0.547E-01    0.54       1.0  T
   6   -180.4850675 -0.805378E-02  0.352E-01    0.22       1.0  T
   7   -180.1693164  0.315751E+00  0.222E+00    0.02       1.0  T
   8   -180.4867181 -0.317402E+00  0.329E-01    0.21       1.0  T
   9   -180.4922181 -0.549999E-02  0.164E-01    0.15       1.0  T
  10   -180.4907205  0.149765E-02  0.219E-01    0.17       1.0  T
  11   -180.4931122 -0.239172E-02  0.117E-01    0.14       1.0  T
  12   -180.4939538 -0.841543E-03  0.340E-02    0.13       1.0  T
  13   -180.4938569  0.968482E-04  0.497E-02    0.13       1.0  T
  14   -180.4939852 -0.128339E-03  0.255E-02    0.13       1.0  T
  15   -180.4940285 -0.432744E-04  0.209E-03    0.12       5.1  T
  16   -180.4940140  0.145641E-04  0.147E-02    0.12       1.0  T
  17   -180.4940135  0.447893E-06  0.149E-02    0.12       1.0  T
  18   -180.4940231 -0.956819E-05  0.908E-03    0.12       1.2  T
  19   -180.4940274 -0.433964E-05  0.444E-03    0.12       2.4  T
  20   -180.4940277 -0.294377E-06  0.385E-03    0.12       2.7  T
  21   -180.4940287 -0.101470E-05  0.542E-04    0.12      19.4  T
  22   -180.4940287 -0.136526E-07  0.273E-04    0.12      38.7  T
  23   -180.4940287 -0.430131E-08  0.119E-04    0.12      88.4  T
     SCC iter.                  ...        0 min,  0.509 sec
     gradient                   ...        0 min,  0.049 sec
 * total energy  :  -178.7443567 Eh     change       -0.1922610E-02 Eh
   gradient norm :     0.0150273 Eh/α   predicted    -0.1849171E-02 (  -3.82%)
   displ. norm   :     0.5525670 α      lambda       -0.2678454E-02
   maximum displ.:     0.3904010 α      in ANC's #6, #8, #1, ...

........................................................................
.............................. CYCLE   48 ..............................
........................................................................

 iter      E             dE          RMSdq      gap      omega  full diag
   1   -180.4970008 -0.180497E+03  0.334E-01    0.15       0.0  T
   2   -179.7467420  0.750259E+00  0.331E+00    0.03       1.0  T
   3   -180.4909660 -0.744224E+00  0.353E-01    0.22       1.0  T
   4   -180.4936255 -0.265944E-02  0.279E-01    0.18       1.0  T
   5   -180.4979437 -0.431819E-02  0.151E-01    0.15       1.0  T
   6   -180.4977249  0.218782E-03  0.151E-01    0.15       1.0  T
   7   -180.4992338 -0.150888E-02  0.402E-02    0.13       1.0  T
   8   -180.4992098  0.239878E-04  0.454E-02    0.12       1.0  T
   9   -180.4992711 -0.613246E-04  0.361E-02    0.12       1.0  T
  10   -180.4993524 -0.813365E-04  0.125E-02    0.12       1.0  T
  11   -180.4993613 -0.882858E-05  0.471E-03    0.12       2.2  T
  12   -180.4993618 -0.515238E-06  0.292E-03    0.12       3.6  T
  13   -180.4993605  0.132607E-05  0.500E-03    0.12       2.1  T
  14   -180.4993611 -0.593291E-06  0.393E-03    0.12       2.7  T
  15   -180.4993620 -0.938977E-06  0.130E-03    0.12       8.1  T
  16   -180.4993620  0.267278E-07  0.130E-03    0.12       8.1  T
  17   -180.4993620 -0.792741E-07  0.779E-04    0.12      13.5  T
  18   -180.4993621 -0.212113E-07  0.502E-04    0.12      21.0  T
     SCC iter.                  ...        0 min,  0.396 sec
     gradient                   ...        0 min,  0.047 sec
 * total energy  :  -178.7463228 Eh     change       -0.1966116E-02 Eh
   gradient norm :     0.0134399 Eh/α   predicted    -0.1748134E-02 ( -11.09%)
   displ. norm   :     0.6310409 α      lambda       -0.2638540E-02
   maximum displ.:     0.4506070 α      in ANC's #6, #8, #1, ...

........................................................................
.............................. CYCLE   49 ..............................
........................................................................

 iter      E             dE          RMSdq      gap      omega  full diag
   1   -180.4957667 -0.180496E+03  0.382E-01    0.09       0.0  T
   2   -180.4660171  0.297495E-01  0.661E-01    0.80       1.0  T
   3   -180.4960094 -0.299923E-01  0.377E-01    0.18       1.0  T
   4   -180.4959222  0.871737E-04  0.261E-01    0.09       1.0  T
   5   -180.4902522  0.567007E-02  0.401E-01    0.24       1.0  T
   6   -180.4956670 -0.541485E-02  0.295E-01    0.18       1.0  T
   7   -180.5014424 -0.577543E-02  0.398E-02    0.12       1.0  T
   8   -180.5012894  0.153083E-03  0.646E-02    0.11       1.0  T
   9   -180.5015361 -0.246744E-03  0.218E-02    0.12       1.0  T
  10   -180.5015535 -0.173859E-04  0.134E-02    0.12       1.0  T
  11   -180.5015631 -0.958080E-05  0.514E-03    0.12       2.1  T
  12   -180.5015625  0.604890E-06  0.533E-03    0.12       2.0  T
  13   -180.5015633 -0.827216E-06  0.336E-03    0.12       3.1  T
  14   -180.5015638 -0.497754E-06  0.178E-03    0.12       5.9  T
  15   -180.5015635  0.291754E-06  0.267E-03    0.12       3.9  T
  16   -180.5015621  0.144221E-05  0.513E-03    0.12       2.1  T
  17   -180.5015634 -0.131296E-05  0.282E-03    0.12       3.7  T
  18   -180.5015639 -0.538446E-06  0.269E-04    0.12      39.2  T
  19   -180.5015639  0.441077E-09  0.211E-04    0.12      50.0  T
     SCC iter.                  ...        0 min,  0.425 sec
     gradient                   ...        0 min,  0.048 sec
 * total energy  :  -178.7484622 Eh     change       -0.2139412E-02 Eh
   gradient norm :     0.0195053 Eh/α   predicted    -0.1844621E-02 ( -13.78%)
   displ. norm   :     0.6701475 α      lambda       -0.2529475E-02
   maximum displ.:     0.4903162 α      in ANC's #6, #8, #1, ...

........................................................................
.............................. CYCLE   50 ..............................
........................................................................

 iter      E             dE          RMSdq      gap      omega  full diag
   1   -180.4993018 -0.180499E+03  0.340E-01    0.16       0.0  T
   2   -179.4564157  0.104289E+01  0.388E+00    0.03       1.0  T
   3   -180.4936189 -0.103720E+01  0.357E-01    0.21       1.0  T
   4   -180.4986074 -0.498854E-02  0.240E-01    0.16       1.0  T
   5   -180.5005432 -0.193584E-02  0.174E-01    0.15       1.0  T
   6   -180.5018061 -0.126281E-02  0.114E-01    0.14       1.0  T
   7   -180.5027920 -0.985985E-03  0.210E-02    0.12       1.0  T
   8   -180.5026723  0.119763E-03  0.470E-02    0.11       1.0  T
   9   -180.5026977 -0.253899E-04  0.422E-02    0.11       1.0  T
  10   -180.5027819 -0.842272E-04  0.211E-02    0.12       1.0  T
  11   -180.5027842 -0.228847E-05  0.149E-02    0.12       1.0  T
  12   -180.5027980 -0.138621E-04  0.797E-03    0.12       1.3  T
  13   -180.5027986 -0.560130E-06  0.553E-03    0.12       1.9  T
  14   -180.5027963  0.234683E-05  0.631E-03    0.12       1.7  T
  15   -180.5027943  0.198481E-05  0.775E-03    0.12       1.4  T
  16   -180.5027988 -0.449635E-05  0.307E-03    0.12       3.4  T
  17   -180.5027988 -0.594269E-07  0.180E-03    0.12       5.9  T
  18   -180.5027987  0.175288E-06  0.190E-03    0.12       5.6  T
  19   -180.5027989 -0.256988E-06  0.584E-04    0.12      18.1  T
  20   -180.5027989 -0.102400E-07  0.280E-04    0.12      37.7  T
     SCC iter.                  ...        0 min,  0.458 sec
     gradient                   ...        0 min,  0.046 sec
 * total energy  :  -178.7507341 Eh     change       -0.2271874E-02 Eh
   gradient norm :     0.0175687 Eh/α   predicted    -0.1832727E-02 ( -19.33%)
   displ. norm   :     0.7056615 α      lambda       -0.2749503E-02
   maximum displ.:     0.5301505 α      in ANC's #6, #8, #7, ...

........................................................................
.............................. CYCLE   51 ..............................
........................................................................

 iter      E             dE          RMSdq      gap      omega  full diag
   1   -180.5031617 -0.180503E+03  0.243E-01    0.12       0.0  T
   2   -180.5014149  0.174685E-02  0.191E-01    0.14       1.0  T
   3   -179.8059913  0.695424E+00  0.324E+00    0.03       1.0  T
   4   -180.4999142 -0.693923E+00  0.211E-01    0.15       1.0  T
   5   -180.5032233 -0.330910E-02  0.385E-02    0.12       1.0  T
   6   -180.5030758  0.147417E-03  0.576E-02    0.13       1.0  T
   7   -180.5031426 -0.667497E-04  0.441E-02    0.12       1.0  T
   8   -180.5032399 -0.973096E-04  0.272E-02    0.11       1.0  T
   9   -180.5032444 -0.448153E-05  0.266E-02    0.11       1.0  T
  10   -180.5032835 -0.390699E-04  0.122E-02    0.12       1.0  T
  11   -180.5032872 -0.378213E-05  0.869E-03    0.12       1.2  T
  12   -180.5032918 -0.453945E-05  0.255E-03    0.12       4.1  T
  13   -180.5032905  0.126600E-05  0.484E-03    0.12       2.2  T
  14   -180.5032904  0.124480E-06  0.476E-03    0.12       2.2  T
  15   -180.5032920 -0.158013E-05  0.717E-04    0.12      14.7  T
  16   -180.5032920 -0.108810E-07  0.509E-04    0.12      20.7  T
  17   -180.5032920 -0.976254E-08  0.270E-04    0.12      39.0  T
     SCC iter.                  ...        0 min,  0.400 sec
     gradient                   ...        0 min,  0.049 sec
 * total energy  :  -178.7531990 Eh     change       -0.2464885E-02 Eh
   gradient norm :     0.0132293 Eh/α   predicted    -0.2059322E-02 ( -16.45%)
   displ. norm   :     0.7482754 α      lambda       -0.2743315E-02
   maximum displ.:     0.5722086 α      in ANC's #6, #8, #2, ...

........................................................................
.............................. CYCLE   52 ..............................
........................................................................

 iter      E             dE          RMSdq      gap      omega  full diag
   1   -180.5042343 -0.180504E+03  0.274E-01    0.12       0.0  T
   2   -180.3393316  0.164903E+00  0.153E+00    0.01       1.0  T
   3   -180.4893441 -0.150013E+00  0.437E-01    0.30       1.0  T
   4   -180.5024689 -0.131247E-01  0.213E-01    0.15       1.0  T
   5   -180.4966275  0.584140E-02  0.330E-01    0.19       1.0  T
   6   -180.4996993 -0.307182E-02  0.263E-01    0.17       1.0  T
   7   -180.5037994 -0.410015E-02  0.981E-02    0.13       1.0  T
   8   -180.5044387 -0.639306E-03  0.173E-02    0.12       1.0  T
   9   -180.5043968  0.419897E-04  0.303E-02    0.11       1.0  T
  10   -180.5044077 -0.109594E-04  0.264E-02    0.11       1.0  T
  11   -180.5044360 -0.282732E-04  0.164E-02    0.12       1.0  T
  12   -180.5044537 -0.177424E-04  0.390E-03    0.12       2.7  T
  13   -180.5044493  0.438515E-05  0.855E-03    0.12       1.2  T
  14   -180.5044541 -0.477862E-05  0.218E-03    0.12       4.8  T
  15   -180.5044541 -0.264333E-07  0.201E-03    0.12       5.2  T
  16   -180.5044540  0.191890E-06  0.252E-03    0.12       4.2  T
  17   -180.5044539  0.682031E-07  0.267E-03    0.12       3.9  T
  18   -180.5044543 -0.421881E-06  0.943E-04    0.12      11.2  T
  19   -180.5044544 -0.583854E-07  0.221E-04    0.12      47.8  T
     SCC iter.                  ...        0 min,  0.438 sec
     gradient                   ...        0 min,  0.046 sec
 * total energy  :  -178.7556208 Eh     change       -0.2421820E-02 Eh
   gradient norm :     0.0131809 Eh/α   predicted    -0.2139673E-02 ( -11.65%)
   displ. norm   :     0.7514172 α      lambda       -0.2677258E-02
   maximum displ.:     0.5763142 α      in ANC's #6, #8, #2, ...

........................................................................
.............................. CYCLE   53 ..............................
........................................................................

 iter      E             dE          RMSdq      gap      omega  full diag
   1   -180.5012226 -0.180501E+03  0.317E-01    0.09       0.0  T
   2   -180.4735228  0.276997E-01  0.624E-01    0.60       1.0  T
   3   -180.4968942 -0.233713E-01  0.410E-01    0.20       1.0  T
   4   -180.5052111 -0.831698E-02  0.102E-01    0.13       1.0  T
   5   -180.5047219  0.489221E-03  0.113E-01    0.10       1.0  T
   6   -180.5049867 -0.264813E-03  0.874E-02    0.13       1.0  T
   7   -180.5033678  0.161897E-02  0.179E-01    0.10       1.0  T
   8   -180.5055340 -0.216620E-02  0.173E-02    0.12       1.0  T
   9   -180.5054710  0.629993E-04  0.341E-02    0.12       1.0  T
  10   -180.5055212 -0.502658E-04  0.213E-02    0.12       1.0  T
  11   -180.5055126  0.861041E-05  0.236E-02    0.11       1.0  T
  12   -180.5055407 -0.280343E-04  0.119E-02    0.12       1.0  T
  13   -180.5055488 -0.816662E-05  0.522E-03    0.12       2.0  T
  14   -180.5055472  0.163644E-05  0.687E-03    0.12       1.5  T
  15   -180.5055504 -0.317787E-05  0.128E-03    0.12       8.2  T
  16   -180.5055504 -0.278055E-07  0.914E-04    0.12      11.5  T
  17   -180.5055500  0.418647E-06  0.258E-03    0.12       4.1  T
  18   -180.5055504 -0.442421E-06  0.640E-04    0.12      16.5  T
     SCC iter.                  ...        0 min,  0.413 sec
     gradient                   ...        0 min,  0.049 sec
 * total energy  :  -178.7579713 Eh     change       -0.2350454E-02 Eh
   gradient norm :     0.0141891 Eh/α   predicted    -0.2094459E-02 ( -10.89%)
   displ. norm   :     0.7334059 α      lambda       -0.2520753E-02
   maximum displ.:     0.5666648 α      in ANC's #6, #2, #8, ...

........................................................................
.............................. CYCLE   54 ..............................
........................................................................

 iter      E             dE          RMSdq      gap      omega  full diag
   1   -180.5053957 -0.180505E+03  0.281E-01    0.09       0.0  T
   2   -180.4788067  0.265891E-01  0.585E-01    0.52       1.0  T
   3   -180.5075899 -0.287833E-01  0.185E-01    0.13       1.0  T
   4   -180.5081436 -0.553728E-03  0.756E-02    0.11       1.0  T
   5   -180.5066576  0.148603E-02  0.164E-01    0.14       1.0  T
   6   -180.5043783  0.227929E-02  0.242E-01    0.09       1.0  T
   7   -180.5074219 -0.304355E-02  0.124E-01    0.10       1.0  T
   8   -180.5084037 -0.981836E-03  0.296E-02    0.11       1.0  T
   9   -180.5084591 -0.554270E-04  0.902E-03    0.12       1.2  T
  10   -180.5084300  0.290945E-04  0.221E-02    0.12       1.0  T
  11   -180.5084615 -0.314508E-04  0.432E-03    0.11       2.4  T
  12   -180.5084616 -0.877421E-07  0.350E-03    0.11       3.0  T
  13   -180.5084606  0.999690E-06  0.484E-03    0.12       2.2  T
  14   -180.5084578  0.272737E-05  0.794E-03    0.11       1.3  T
  15   -180.5084621 -0.427329E-05  0.108E-03    0.11       9.8  T
  16   -180.5084621 -0.637289E-08  0.773E-04    0.11      13.6  T
  17   -180.5084620  0.120880E-06  0.153E-03    0.11       6.9  T
  18   -180.5084621 -0.129350E-06  0.702E-04    0.11      15.0  T
     SCC iter.                  ...        0 min,  0.403 sec
     gradient                   ...        0 min,  0.050 sec
 * total energy  :  -178.7603040 Eh     change       -0.2332765E-02 Eh
   gradient norm :     0.0127991 Eh/α   predicted    -0.1938319E-02 ( -16.91%)
   displ. norm   :     0.7313482 α      lambda       -0.2525695E-02
   maximum displ.:     0.5635660 α      in ANC's #6, #2, #8, ...

........................................................................
.............................. CYCLE   55 ..............................
........................................................................

 iter      E             dE          RMSdq      gap      omega  full diag
   1   -180.5092244 -0.180509E+03  0.294E-01    0.09       0.0  T
   2   -180.4823119  0.269125E-01  0.582E-01    0.48       1.0  T
   3   -180.5029634 -0.206515E-01  0.320E-01    0.08       1.0  T
   4   -180.4973604  0.560297E-02  0.466E-01    0.25       1.0  T
   5   -180.5002404 -0.288005E-02  0.410E-01    0.21       1.0  T
   6   -180.5056250 -0.538458E-02  0.298E-01    0.17       1.0  T
   7   -180.5034377  0.218738E-02  0.354E-01    0.08       1.0  T
   8   -180.5103934 -0.695576E-02  0.157E-01    0.14       1.0  T
   9   -180.5119440 -0.155054E-02  0.426E-02    0.11       1.0  T
  10   -180.5119022  0.417534E-04  0.478E-02    0.12       1.0  T
  11   -180.5120439 -0.141721E-03  0.153E-02    0.12       1.0  T
  12   -180.5120508 -0.691858E-05  0.113E-02    0.11       1.0  T
  13   -180.5120441  0.678262E-05  0.148E-02    0.12       1.0  T
  14   -180.5120586 -0.145378E-04  0.179E-03    0.11       5.9  T
  15   -180.5120494  0.917106E-05  0.118E-02    0.11       1.0  T
  16   -180.5120579 -0.847953E-05  0.352E-03    0.11       3.0  T
  17   -180.5120560  0.190063E-05  0.622E-03    0.11       1.7  T
  18   -180.5120583 -0.233082E-05  0.223E-03    0.11       4.7  T
  19   -180.5120587 -0.319102E-06  0.577E-04    0.11      18.3  T
  20   -180.5120586  0.798707E-08  0.656E-04    0.11      16.1  T
     SCC iter.                  ...        0 min,  0.461 sec
     gradient                   ...        0 min,  0.048 sec
 * total energy  :  -178.7626449 Eh     change       -0.2340882E-02 Eh
   gradient norm :     0.0108720 Eh/α   predicted    -0.1938312E-02 ( -17.20%)
   displ. norm   :     0.7547867 α      lambda       -0.2528558E-02
   maximum displ.:     0.5763694 α      in ANC's #6, #2, #8, ...

........................................................................
.............................. CYCLE   56 ..............................
........................................................................

 iter      E             dE          RMSdq      gap      omega  full diag
   1   -180.5137550 -0.180514E+03  0.291E-01    0.09       0.0  T
   2   -180.4869396  0.268154E-01  0.571E-01    0.43       1.0  T
   3   -180.4394604  0.474792E-01  0.100E+00    0.04       1.0  T
   4   -180.5067017 -0.672414E-01  0.436E-01    0.20       1.0  T
   5   -180.5011409  0.556086E-02  0.469E-01    0.25       1.0  T
   6   -180.5034665 -0.232563E-02  0.433E-01    0.22       1.0  T
   7   -180.5107543 -0.728778E-02  0.280E-01    0.16       1.0  T
   8   -180.5151328 -0.437849E-02  0.123E-01    0.13       1.0  T
   9   -180.5160694 -0.936609E-03  0.298E-02    0.11       1.0  T
  10   -180.5161070 -0.376488E-04  0.165E-02    0.11       1.0  T
  11   -180.5161038  0.318209E-05  0.158E-02    0.11       1.0  T
  12   -180.5161207 -0.168476E-04  0.372E-03    0.11       2.8  T
  13   -180.5161148  0.586333E-05  0.989E-03    0.11       1.1  T
  14   -180.5161211 -0.624404E-05  0.222E-03    0.11       4.7  T
  15   -180.5161212 -0.183551E-06  0.154E-03    0.11       6.8  T
  16   -180.5161209  0.376667E-06  0.286E-03    0.11       3.7  T
  17   -180.5161193  0.154742E-05  0.541E-03    0.11       1.9  T
  18   -180.5161213 -0.198862E-05  0.545E-04    0.11      19.3  T
  19   -180.5161212  0.100419E-06  0.132E-03    0.11       8.0  T
  20   -180.5161213 -0.110123E-06  0.363E-04    0.11      29.1  T
  21   -180.5161213 -0.816868E-08  0.667E-05    0.11     158.0  T
     SCC iter.                  ...        0 min,  0.471 sec
     gradient                   ...        0 min,  0.048 sec
 * total energy  :  -178.7649741 Eh     change       -0.2329229E-02 Eh
   gradient norm :     0.0106277 Eh/α   predicted    -0.1984548E-02 ( -14.80%)
   displ. norm   :     0.7715764 α      lambda       -0.2466871E-02
   maximum displ.:     0.5831734 α      in ANC's #6, #2, #3, ...

........................................................................
.............................. CYCLE   57 ..............................
........................................................................

 iter      E             dE          RMSdq      gap      omega  full diag
   1   -180.5158392 -0.180516E+03  0.320E-01    0.09       0.0  T
   2   -180.4871078  0.287314E-01  0.600E-01    0.43       1.0  T
   3   -180.4721593  0.149485E-01  0.760E-01    0.05       1.0  T
   4   -180.5037598 -0.316005E-01  0.517E-01    0.25       1.0  T
   5   -180.5019714  0.178842E-02  0.496E-01    0.27       1.0  T
   6   -180.5047339 -0.276248E-02  0.454E-01    0.23       1.0  T
   7   -180.5157812 -0.110474E-01  0.211E-01    0.14       1.0  T
   8   -180.5185632 -0.278196E-02  0.592E-02    0.11       1.0  T
   9   -180.5187751 -0.211913E-03  0.217E-02    0.11       1.0  T
  10   -180.5187955 -0.204100E-04  0.106E-02    0.11       1.0  T
  11   -180.5187051  0.904633E-04  0.388E-02    0.12       1.0  T
  12   -180.5188001 -0.950785E-04  0.530E-03    0.11       2.0  T
  13   -180.5187858  0.143127E-04  0.155E-02    0.11       1.0  T
  14   -180.5188013 -0.154274E-04  0.302E-03    0.11       3.5  T
  15   -180.5187995  0.173203E-05  0.603E-03    0.11       1.7  T
  16   -180.5187970  0.254261E-05  0.848E-03    0.11       1.2  T
  17   -180.5188011 -0.410431E-05  0.326E-03    0.11       3.2  T
  18   -180.5188017 -0.606275E-06  0.151E-03    0.11       7.0  T
  19   -180.5188017 -0.280343E-07  0.122E-03    0.11       8.6  T
  20   -180.5188018 -0.103246E-06  0.171E-04    0.11      61.8  T
  21   -180.5188018  0.307466E-07  0.664E-04    0.11      15.9  T
     SCC iter.                  ...        0 min,  0.446 sec
     gradient                   ...        0 min,  0.045 sec
 * total energy  :  -178.7672751 Eh     change       -0.2300952E-02 Eh
   gradient norm :     0.0122084 Eh/α   predicted    -0.1967741E-02 ( -14.48%)
   displ. norm   :     0.7879731 α      lambda       -0.2466385E-02
   maximum displ.:     0.5864862 α      in ANC's #6, #2, #3, ...

........................................................................
.............................. CYCLE   58 ..............................
........................................................................

 iter      E             dE          RMSdq      gap      omega  full diag
   1   -180.5187520 -0.180519E+03  0.280E-01    0.10       0.0  T
   2   -180.5006081  0.181439E-01  0.471E-01    0.28       1.0  T
   3   -179.8542465  0.646362E+00  0.316E+00    0.02       1.0  T
   4   -180.5185784 -0.664332E+00  0.119E-01    0.11       1.0  T
   5   -180.5104398  0.813856E-02  0.354E-01    0.18       1.0  T
   6   -180.5120362 -0.159637E-02  0.321E-01    0.17       1.0  T
   7   -180.5167883 -0.475207E-02  0.189E-01    0.14       1.0  T
   8   -180.5184791 -0.169082E-02  0.102E-01    0.13       1.0  T
   9   -180.5191221 -0.642982E-03  0.322E-02    0.12       1.0  T
  10   -180.5191746 -0.525254E-04  0.141E-02    0.11       1.0  T
  11   -180.5190789  0.956393E-04  0.393E-02    0.11       1.0  T
  12   -180.5191300 -0.510152E-04  0.287E-02    0.11       1.0  T
  13   -180.5191819 -0.519605E-04  0.725E-03    0.11       1.5  T
  14   -180.5191850 -0.310853E-05  0.227E-03    0.11       4.6  T
  15   -180.5191849  0.108303E-06  0.232E-03    0.11       4.5  T
  16   -180.5191828  0.213134E-05  0.583E-03    0.11       1.8  T
  17   -180.5191849 -0.211090E-05  0.214E-03    0.11       4.9  T
  18   -180.5191847  0.203147E-06  0.270E-03    0.11       3.9  T
  19   -180.5191846  0.683274E-07  0.290E-03    0.11       3.6  T
  20   -180.5191852 -0.557106E-06  0.718E-04    0.11      14.7  T
  21   -180.5191852 -0.300305E-07  0.181E-04    0.11      58.3  T
     SCC iter.                  ...        0 min,  0.469 sec
     gradient                   ...        0 min,  0.050 sec
 * total energy  :  -178.7696270 Eh     change       -0.2351900E-02 Eh
   gradient norm :     0.0133993 Eh/α   predicted    -0.1998882E-02 ( -15.01%)
   displ. norm   :     0.8176405 α      lambda       -0.2628719E-02
   maximum displ.:     0.6049821 α      in ANC's #6, #2, #3, ...

........................................................................
.............................. CYCLE   59 ..............................
........................................................................

 iter      E             dE          RMSdq      gap      omega  full diag
   1   -180.5171347 -0.180517E+03  0.320E-01    0.10       0.0  T
   2   -180.4908970  0.262378E-01  0.565E-01    0.35       1.0  T
   3   -180.2437953  0.247102E+00  0.196E+00    0.01       1.0  T
   4   -180.5117062 -0.267911E+00  0.423E-01    0.16       1.0  T
   5   -180.5014123  0.102939E-01  0.502E-01    0.28       1.0  T
   6   -180.5035118 -0.209946E-02  0.479E-01    0.25       1.0  T
   7   -180.5067950 -0.328322E-02  0.439E-01    0.20       1.0  T
   8   -180.5099073 -0.311230E-02  0.375E-01    0.19       1.0  T
   9   -180.5124986 -0.259134E-02  0.314E-01    0.17       1.0  T
  10   -180.5161853 -0.368668E-02  0.211E-01    0.14       1.0  T
  11   -180.5189964 -0.281106E-02  0.538E-02    0.12       1.0  T
  12   -180.5189474  0.489489E-04  0.572E-02    0.11       1.0  T
  13   -180.5189576 -0.101366E-04  0.563E-02    0.11       1.0  T
  14   -180.5191692 -0.211676E-03  0.119E-02    0.11       1.0  T
  15   -180.5191656  0.367734E-05  0.139E-02    0.11       1.0  T
  16   -180.5191784 -0.128296E-04  0.182E-03    0.11       5.8  T
  17   -180.5191771  0.132920E-05  0.462E-03    0.11       2.3  T
  18   -180.5191785 -0.146881E-05  0.964E-04    0.11      10.9  T
  19   -180.5191780  0.573166E-06  0.308E-03    0.11       3.4  T
  20   -180.5191781 -0.193512E-06  0.244E-03    0.11       4.3  T
  21   -180.5191786 -0.424943E-06  0.238E-04    0.11      44.2  T
  22   -180.5191786  0.130479E-07  0.477E-04    0.11      22.1  T
     SCC iter.                  ...        0 min,  0.526 sec
     gradient                   ...        0 min,  0.049 sec
 * total energy  :  -178.7721540 Eh     change       -0.2526984E-02 Eh
   gradient norm :     0.0126126 Eh/α   predicted    -0.2193064E-02 ( -13.21%)
   displ. norm   :     0.8622758 α      lambda       -0.2867915E-02
   maximum displ.:     0.6359304 α      in ANC's #6, #2, #3, ...

........................................................................
.............................. CYCLE   60 ..............................
........................................................................

 iter      E             dE          RMSdq      gap      omega  full diag
   1   -180.5178774 -0.180518E+03  0.329E-01    0.11       0.0  T
   2   -180.5007019  0.171756E-01  0.464E-01    0.24       1.0  T
   3   -179.8253046  0.675397E+00  0.322E+00    0.02       1.0  T
   4   -180.5179185 -0.692614E+00  0.132E-01    0.11       1.0  T
   5   -180.5088262  0.909238E-02  0.363E-01    0.19       1.0  T
   6   -180.5116206 -0.279442E-02  0.316E-01    0.17       1.0  T
   7   -180.5148263 -0.320572E-02  0.220E-01    0.15       1.0  T
   8   -180.5178584 -0.303208E-02  0.831E-02    0.12       1.0  T
   9   -180.5182290 -0.370629E-03  0.376E-02    0.12       1.0  T
  10   -180.5182919 -0.629455E-04  0.145E-02    0.11       1.0  T
  11   -180.5182870  0.497040E-05  0.192E-02    0.11       1.0  T
  12   -180.5182785  0.849636E-05  0.213E-02    0.11       1.0  T
  13   -180.5182892 -0.106799E-04  0.167E-02    0.11       1.0  T
  14   -180.5183012 -0.120052E-04  0.983E-03    0.11       1.1  T
  15   -180.5183071 -0.593380E-05  0.284E-03    0.11       3.7  T
  16   -180.5183052  0.193013E-05  0.576E-03    0.11       1.8  T
  17   -180.5183068 -0.158788E-05  0.340E-03    0.11       3.1  T
  18   -180.5183075 -0.787264E-06  0.849E-04    0.11      12.4  T
  19   -180.5183066  0.992344E-06  0.379E-03    0.11       2.8  T
  20   -180.5183074 -0.852281E-06  0.160E-03    0.11       6.6  T
  21   -180.5183075 -0.138254E-06  0.719E-04    0.11      14.7  T
     SCC iter.                  ...        0 min,  0.445 sec
     gradient                   ...        0 min,  0.047 sec
 * total energy  :  -178.7749225 Eh     change       -0.2768522E-02 Eh
   gradient norm :     0.0120976 Eh/α   predicted    -0.2500135E-02 (  -9.69%)
   displ. norm   :     0.8987849 α      lambda       -0.3109697E-02
   maximum displ.:     0.6661675 α      in ANC's #6, #3, #2, ...

........................................................................
.............................. CYCLE   61 ..............................
........................................................................

 iter      E             dE          RMSdq      gap      omega  full diag
   1   -180.5156116 -0.180516E+03  0.367E-01    0.10       0.0  T
   2   -180.4895806  0.260310E-01  0.557E-01    0.38       1.0  T
   3   -179.9642935  0.525287E+00  0.284E+00    0.02       1.0  T
   4   -180.5083031 -0.544010E+00  0.427E-01    0.11       1.0  T
   5   -180.4997936  0.850946E-02  0.502E-01    0.29       1.0  T
   6   -180.5018799 -0.208627E-02  0.475E-01    0.29       1.0  T
   7   -180.5039365 -0.205658E-02  0.460E-01    0.24       1.0  T
   8   -180.5050023 -0.106585E-02  0.447E-01    0.20       1.0  T
   9   -180.5064448 -0.144245E-02  0.421E-01    0.18       1.0  T
  10   -180.5088806 -0.243581E-02  0.369E-01    0.19       1.0  T
  11   -180.5110649 -0.218437E-02  0.320E-01    0.17       1.0  T
  12   -180.5136019 -0.253695E-02  0.252E-01    0.16       1.0  T
  13   -180.5167760 -0.317412E-02  0.125E-01    0.13       1.0  T
  14   -180.5170242 -0.248245E-03  0.105E-01    0.10       1.0  T
  15   -180.5177082 -0.683912E-03  0.374E-02    0.11       1.0  T
  16   -180.5177877 -0.795819E-04  0.167E-02    0.11       1.0  T
  17   -180.5177238  0.639708E-04  0.349E-02    0.11       1.0  T
  18   -180.5178048 -0.810712E-04  0.375E-03    0.11       2.8  T
  19   -180.5178043  0.566201E-06  0.446E-03    0.11       2.4  T
  20   -180.5178047 -0.405718E-06  0.358E-03    0.11       2.9  T
  21   -180.5178055 -0.828277E-06  0.813E-04    0.11      13.0  T
  22   -180.5178054  0.794927E-07  0.135E-03    0.11       7.8  T
  23   -180.5178056 -0.118717E-06  0.318E-04    0.11      33.1  T
     SCC iter.                  ...        0 min,  0.491 sec
     gradient                   ...        0 min,  0.049 sec
 * total energy  :  -178.7779360 Eh     change       -0.3013507E-02 Eh
   gradient norm :     0.0118963 Eh/α   predicted    -0.2810884E-02 (  -6.72%)
   displ. norm   :     0.9222152 α      lambda       -0.3327296E-02
   maximum displ.:     0.6839635 α      in ANC's #6, #3, #2, ...

........................................................................
.............................. CYCLE   62 ..............................
........................................................................

 iter      E             dE          RMSdq      gap      omega  full diag
   1   -180.5172110 -0.180517E+03  0.375E-01    0.10       0.0  T
   2   -180.4954045  0.218065E-01  0.500E-01    0.39       1.0  T
   3   -179.8131039  0.682301E+00  0.324E+00    0.02       1.0  T
   4   -180.4986920 -0.685588E+00  0.386E-01    0.07       1.0  T
   5   -180.5069430 -0.825102E-02  0.404E-01    0.21       1.0  T
   6   -180.5069826 -0.396103E-04  0.392E-01    0.22       1.0  T
   7   -180.5100087 -0.302611E-02  0.349E-01    0.19       1.0  T
   8   -180.5118623 -0.185358E-02  0.316E-01    0.18       1.0  T
   9   -180.5132442 -0.138189E-02  0.286E-01    0.14       1.0  T
  10   -180.5156219 -0.237773E-02  0.214E-01    0.15       1.0  T
  11   -180.5179909 -0.236904E-02  0.102E-01    0.13       1.0  T
  12   -180.5184761 -0.485158E-03  0.545E-02    0.12       1.0  T
  13   -180.5186536 -0.177524E-03  0.118E-02    0.11       1.0  T
  14   -180.5185832  0.703797E-04  0.336E-02    0.11       1.0  T
  15   -180.5186609 -0.776357E-04  0.491E-03    0.12       2.1  T
  16   -180.5186617 -0.833735E-06  0.263E-03    0.12       4.0  T
  17   -180.5186620 -0.321605E-06  0.161E-03    0.12       6.6  T
  18   -180.5186617  0.356547E-06  0.269E-03    0.12       3.9  T
  19   -180.5186621 -0.454110E-06  0.724E-04    0.12      14.6  T
  20   -180.5186621  0.435785E-07  0.105E-03    0.12      10.0  T
  21   -180.5186619  0.164390E-06  0.184E-03    0.12       5.7  T
  22   -180.5186621 -0.196642E-06  0.775E-04    0.12      13.6  T
     SCC iter.                  ...        0 min,  0.478 sec
     gradient                   ...        0 min,  0.048 sec
 * total energy  :  -178.7811557 Eh     change       -0.3219658E-02 Eh
   gradient norm :     0.0126445 Eh/α   predicted    -0.3078551E-02 (  -4.38%)
   displ. norm   :     0.9291620 α      lambda       -0.3470093E-02
   maximum displ.:     0.6799285 α      in ANC's #6, #3, #2, ...

........................................................................
.............................. CYCLE   63 ..............................
........................................................................

 iter      E             dE          RMSdq      gap      omega  full diag
   1   -180.5173895 -0.180517E+03  0.393E-01    0.11       0.0  T
   2   -180.5002300  0.171594E-01  0.465E-01    0.24       1.0  T
   3   -179.7877791  0.712451E+00  0.331E+00    0.02       1.0  T
   4   -180.5137056 -0.725926E+00  0.337E-01    0.09       1.0  T
   5   -180.5161032 -0.239763E-02  0.189E-01    0.10       1.0  T
   6   -180.5195693 -0.346607E-02  0.114E-01    0.13       1.0  T
   7   -180.5201684 -0.599094E-03  0.847E-02    0.13       1.0  T
   8   -180.5205048 -0.336416E-03  0.572E-02    0.12       1.0  T
   9   -180.5205933 -0.885376E-04  0.412E-02    0.11       1.0  T
  10   -180.5205793  0.139642E-04  0.443E-02    0.12       1.0  T
  11   -180.5206060 -0.266690E-04  0.407E-02    0.12       1.0  T
  12   -180.5207141 -0.108034E-03  0.990E-03    0.12       1.1  T
  13   -180.5207186 -0.450624E-05  0.438E-03    0.12       2.4  T
  14   -180.5207166  0.197980E-05  0.625E-03    0.12       1.7  T
  15   -180.5207189 -0.232824E-05  0.323E-03    0.12       3.3  T
  16   -180.5207195 -0.611288E-06  0.202E-03    0.12       5.2  T
  17   -180.5207197 -0.200427E-06  0.850E-04    0.12      12.4  T
  18   -180.5207197  0.335021E-07  0.106E-03    0.12       9.9  T
  19   -180.5207196  0.567823E-07  0.118E-03    0.12       8.9  T
  20   -180.5207197 -0.114280E-06  0.381E-04    0.12      27.7  T
     SCC iter.                  ...        0 min,  0.451 sec
     gradient                   ...        0 min,  0.047 sec
 * total energy  :  -178.7844957 Eh     change       -0.3340006E-02 Eh
   gradient norm :     0.0136102 Eh/α   predicted    -0.3232987E-02 (  -3.20%)
   displ. norm   :     0.9338407 α      lambda       -0.3518559E-02
   maximum displ.:     0.6693180 α      in ANC's #6, #3, #8, ...

........................................................................
.............................. CYCLE   64 ..............................
........................................................................

 iter      E             dE          RMSdq      gap      omega  full diag
   1   -180.5166223 -0.180517E+03  0.406E-01    0.10       0.0  T
   2   -180.5120226  0.459972E-02  0.377E-01    0.10       1.0  T
   3   -180.5096566  0.236598E-02  0.408E-01    0.26       1.0  T
   4   -179.8998598  0.609797E+00  0.305E+00    0.02       1.0  T
   5   -180.4833862 -0.583526E+00  0.497E-01    0.06       1.0  T
   6   -180.5196239 -0.362377E-01  0.133E-01    0.13       1.0  T
   7   -180.5187807  0.843242E-03  0.164E-01    0.15       1.0  T
   8   -180.5202989 -0.151818E-02  0.103E-01    0.13       1.0  T
   9   -180.5206738 -0.374958E-03  0.957E-02    0.11       1.0  T
  10   -180.5207769 -0.103105E-03  0.914E-02    0.11       1.0  T
  11   -180.5205776  0.199276E-03  0.109E-01    0.11       1.0  T
  12   -180.5211415 -0.563903E-03  0.584E-02    0.11       1.0  T
  13   -180.5213334 -0.191876E-03  0.215E-02    0.12       1.0  T
  14   -180.5213582 -0.247346E-04  0.752E-03    0.12       1.4  T
  15   -180.5213609 -0.272535E-05  0.234E-03    0.12       4.5  T
  16   -180.5213607  0.157073E-06  0.307E-03    0.12       3.4  T
  17   -180.5213611 -0.382086E-06  0.201E-03    0.12       5.2  T
  18   -180.5213611 -0.388405E-07  0.168E-03    0.12       6.3  T
  19   -180.5213614 -0.208012E-06  0.417E-04    0.12      25.3  T
  20   -180.5213613  0.827365E-07  0.110E-03    0.12       9.6  T
  21   -180.5213613 -0.688806E-07  0.670E-04    0.12      15.7  T
     SCC iter.                  ...        0 min,  0.438 sec
     gradient                   ...        0 min,  0.048 sec
 * total energy  :  -178.7879032 Eh     change       -0.3407502E-02 Eh
   gradient norm :     0.0152151 Eh/α   predicted    -0.3293481E-02 (  -3.35%)
   displ. norm   :     0.9194709 α      lambda       -0.3668646E-02
   maximum displ.:     0.6350610 α      in ANC's #6, #3, #8, ...

........................................................................
.............................. CYCLE   65 ..............................
........................................................................

 iter      E             dE          RMSdq      gap      omega  full diag
   1   -180.5182863 -0.180518E+03  0.404E-01    0.11       0.0  T
   2   -179.9843851  0.533901E+00  0.294E+00    0.02       1.0  T
   3   -180.4946183 -0.510233E+00  0.533E-01    0.37       1.0  T
   4   -180.4913320  0.328631E-02  0.670E-01    0.06       1.0  T
   5   -180.4843312  0.700077E-02  0.499E-01    0.06       1.0  T
   6   -180.5178480 -0.335168E-01  0.265E-01    0.17       1.0  T
   7   -180.5176569  0.191076E-03  0.265E-01    0.18       1.0  T
   8   -180.5208076 -0.315070E-02  0.180E-01    0.15       1.0  T
   9   -180.5222192 -0.141158E-02  0.121E-01    0.14       1.0  T
  10   -180.5228242 -0.604922E-03  0.864E-02    0.13       1.0  T
  11   -180.5234014 -0.577281E-03  0.489E-02    0.13       1.0  T
  12   -180.5235709 -0.169517E-03  0.297E-02    0.12       1.0  T
  13   -180.5236660 -0.950661E-04  0.966E-03    0.12       1.1  T
  14   -180.5236585  0.746930E-05  0.149E-02    0.13       1.0  T
  15   -180.5236705 -0.119404E-04  0.623E-03    0.12       1.7  T
  16   -180.5236732 -0.272745E-05  0.218E-03    0.12       4.8  T
  17   -180.5236734 -0.201629E-06  0.931E-04    0.12      11.3  T
  18   -180.5236734 -0.296812E-07  0.685E-04    0.12      15.4  T
     SCC iter.                  ...        0 min,  0.394 sec
     gradient                   ...        0 min,  0.048 sec
 * total energy  :  -178.7914079 Eh     change       -0.3504744E-02 Eh
   gradient norm :     0.0159630 Eh/α   predicted    -0.3385115E-02 (  -3.41%)
   displ. norm   :     0.9086676 α      lambda       -0.3786336E-02
   maximum displ.:     0.6189527 α      in ANC's #6, #3, #8, ...

........................................................................
.............................. CYCLE   66 ..............................
........................................................................

 iter      E             dE          RMSdq      gap      omega  full diag
   1   -180.5206568 -0.180521E+03  0.372E-01    0.12       0.0  T
   2   -179.8493639  0.671293E+00  0.329E+00    0.02       1.0  T
   3   -180.5020327 -0.652669E+00  0.459E-01    0.29       1.0  T
   4   -180.4483024  0.537303E-01  0.954E-01    0.05       1.0  T
   5   -180.5222608 -0.739584E-01  0.160E-01    0.15       1.0  T
   6   -180.5232114 -0.950616E-03  0.150E-01    0.15       1.0  T
   7   -180.5237517 -0.540286E-03  0.990E-02    0.14       1.0  T
   8   -180.5230130  0.738675E-03  0.125E-01    0.15       1.0  T
   9   -180.5236131 -0.600043E-03  0.921E-02    0.14       1.0  T
  10   -180.5238214 -0.208388E-03  0.710E-02    0.14       1.0  T
  11   -180.5241566 -0.335141E-03  0.233E-02    0.13       1.0  T
  12   -180.5241840 -0.274478E-04  0.102E-02    0.13       1.0  T
  13   -180.5241909 -0.687067E-05  0.377E-03    0.13       2.8  T
  14   -180.5241859  0.505205E-05  0.895E-03    0.13       1.2  T
  15   -180.5241888 -0.295394E-05  0.611E-03    0.13       1.7  T
  16   -180.5241917 -0.284644E-05  0.896E-04    0.13      11.8  T
  17   -180.5241916  0.640958E-07  0.116E-03    0.13       9.1  T
  18   -180.5241914  0.176249E-06  0.177E-03    0.13       5.9  T
  19   -180.5241917 -0.254537E-06  0.522E-04    0.13      20.2  T
  20   -180.5241917 -0.852538E-08  0.354E-04    0.13      29.8  T
     SCC iter.                  ...        0 min,  0.423 sec
     gradient                   ...        0 min,  0.050 sec
 * total energy  :  -178.7949796 Eh     change       -0.3571699E-02 Eh
   gradient norm :     0.0179746 Eh/α   predicted    -0.3456318E-02 (  -3.23%)
   displ. norm   :     0.8583746 α      lambda       -0.4054767E-02
   maximum displ.:     0.5457390 α      in ANC's #6, #3, #8, ...
 * RMSD in coord.:     1.6523033 α      energy gain  -0.6881887E-01 Eh

generating ANC from exact Hessian ...
Using Lindh-Hessian (1995)
 Shifting diagonal of input Hessian by   1.058006909108915E-002
 Lowest  eigenvalues of input Hessian
    0.010000    0.010096    0.010308    0.000000    0.000000    0.000000
    0.000000    0.000000    0.000000    0.010741    0.010794    0.011168
    0.011195    0.011250    0.011392    0.011500    0.011684    0.011861
 Highest eigenvalues
    2.129117    2.191738    2.215004    2.225485    2.231831    2.261171
 

........................................................................
.............................. CYCLE   67 ..............................
........................................................................

 iter      E             dE          RMSdq      gap      omega  full diag
   1   -180.5219997 -0.180522E+03  0.349E-01    0.15       0.0  T
   2   -179.8071542  0.714845E+00  0.337E+00    0.02       1.0  T
   3   -180.5149898 -0.707836E+00  0.301E-01    0.18       1.0  T
   4   -180.2739444  0.241045E+00  0.137E+00    0.07       1.0  T
   5   -180.5043259 -0.230382E+00  0.543E-01    0.07       1.0  T
   6   -180.5232360 -0.189100E-01  0.106E-01    0.13       1.0  T
   7   -180.5231236  0.112417E-03  0.105E-01    0.14       1.0  T
   8   -180.5237210 -0.597476E-03  0.808E-02    0.13       1.0  T
   9   -180.5237340 -0.129556E-04  0.688E-02    0.13       1.0  T
  10   -180.5239576 -0.223630E-03  0.524E-02    0.13       1.0  T
  11   -180.5241360 -0.178417E-03  0.365E-02    0.13       1.0  T
  12   -180.5242269 -0.908273E-04  0.235E-02    0.13       1.0  T
  13   -180.5242646 -0.377643E-04  0.149E-02    0.13       1.0  T
  14   -180.5242853 -0.206437E-04  0.445E-03    0.13       2.4  T
  15   -180.5242859 -0.671815E-06  0.237E-03    0.13       4.4  T
  16   -180.5242862 -0.299315E-06  0.199E-03    0.13       5.3  T
  17   -180.5242865 -0.255072E-06  0.901E-04    0.13      11.7  T
  18   -180.5242865 -0.421053E-07  0.547E-04    0.13      19.3  T
     SCC iter.                  ...        0 min,  0.394 sec
     gradient                   ...        0 min,  0.050 sec
 * total energy  :  -178.7983717 Eh     change       -0.3392092E-02 Eh
   gradient norm :     0.0239229 Eh/α   predicted     0.0000000E+00 (-100.00%)
   displ. norm   :     0.2963927 α      lambda       -0.1771552E-02
   maximum displ.:     0.1421097 α      in ANC's #5, #3, #7, ...

........................................................................
.............................. CYCLE   68 ..............................
........................................................................

 iter      E             dE          RMSdq      gap      omega  full diag
   1   -180.5280106 -0.180528E+03  0.158E-01    0.11       0.0  T
   2   -180.5104095  0.176010E-01  0.433E-01    0.29       1.0  T
   3   -180.5258441 -0.154346E-01  0.166E-01    0.12       1.0  T
   4   -180.5277426 -0.189844E-02  0.110E-01    0.14       1.0  T
   5   -180.5290816 -0.133901E-02  0.336E-02    0.13       1.0  T
   6   -180.5285271  0.554474E-03  0.920E-02    0.12       1.0  T
   7   -180.5290947 -0.567529E-03  0.271E-02    0.13       1.0  T
   8   -180.5291186 -0.239545E-04  0.128E-02    0.13       1.0  T
   9   -180.5291211 -0.246880E-05  0.124E-02    0.13       1.0  T
  10   -180.5291060  0.150960E-04  0.193E-02    0.13       1.0  T
  11   -180.5291174 -0.113850E-04  0.144E-02    0.13       1.0  T
  12   -180.5291302 -0.128729E-04  0.265E-03    0.13       4.0  T
  13   -180.5291266  0.359114E-05  0.792E-03    0.13       1.3  T
  14   -180.5291307 -0.404824E-05  0.114E-03    0.13       9.2  T
  15   -180.5291307  0.409605E-07  0.125E-03    0.13       8.5  T
  16   -180.5291307 -0.539511E-07  0.815E-04    0.13      12.9  T
  17   -180.5291306  0.664064E-07  0.124E-03    0.13       8.5  T
  18   -180.5291307 -0.653831E-07  0.761E-04    0.13      13.8  T
     SCC iter.                  ...        0 min,  0.394 sec
     gradient                   ...        0 min,  0.050 sec
 * total energy  :  -178.7999152 Eh     change       -0.1543485E-02 Eh
   gradient norm :     0.0118021 Eh/α   predicted    -0.9636979E-03 ( -37.56%)
   displ. norm   :     0.7340474 α      lambda       -0.3445132E-02
   maximum displ.:     0.3477982 α      in ANC's #5, #3, #6, ...

........................................................................
.............................. CYCLE   69 ..............................
........................................................................

 iter      E             dE          RMSdq      gap      omega  full diag
   1   -180.5274666 -0.180527E+03  0.308E-01    0.10       0.0  T
   2   -180.4949500  0.325166E-01  0.610E-01    0.52       1.0  T
   3   -180.5289653 -0.340152E-01  0.262E-01    0.15       1.0  T
   4   -180.5161597  0.128055E-01  0.462E-01    0.08       1.0  T
   5   -180.5255254 -0.936570E-02  0.310E-01    0.16       1.0  T
   6   -180.5285266 -0.300119E-02  0.233E-01    0.17       1.0  T
   7   -180.5304988 -0.197217E-02  0.133E-01    0.15       1.0  T
   8   -180.5309764 -0.477583E-03  0.936E-02    0.14       1.0  T
   9   -180.5316533 -0.676949E-03  0.206E-02    0.13       1.0  T
  10   -180.5316673 -0.140282E-04  0.167E-02    0.13       1.0  T
  11   -180.5316598  0.756477E-05  0.163E-02    0.13       1.0  T
  12   -180.5316815 -0.217089E-04  0.521E-03    0.13       2.0  T
  13   -180.5316805  0.100771E-05  0.470E-03    0.13       2.2  T
  14   -180.5316781  0.240667E-05  0.761E-03    0.13       1.4  T
  15   -180.5316809 -0.279426E-05  0.475E-03    0.13       2.2  T
  16   -180.5316799  0.936653E-06  0.564E-03    0.13       1.9  T
  17   -180.5316820 -0.210607E-05  0.155E-03    0.13       6.8  T
  18   -180.5316813  0.693637E-06  0.359E-03    0.13       2.9  T
  19   -180.5316821 -0.765593E-06  0.543E-04    0.13      19.4  T
  20   -180.5316821 -0.144860E-07  0.332E-04    0.13      31.8  T
     SCC iter.                  ...        0 min,  0.444 sec
     gradient                   ...        0 min,  0.049 sec
 * total energy  :  -178.8027441 Eh     change       -0.2828863E-02 Eh
   gradient norm :     0.0211019 Eh/α   predicted    -0.2650733E-02 (  -6.30%)
   displ. norm   :     0.8085769 α      lambda       -0.3302430E-02
   maximum displ.:     0.3813683 α      in ANC's #5, #3, #6, ...

........................................................................
.............................. CYCLE   70 ..............................
........................................................................

 iter      E             dE          RMSdq      gap      omega  full diag
   1   -180.4578777 -0.180458E+03  0.954E-01    0.05       0.0  T
   2   -180.3466041  0.111274E+00  0.167E+00    0.76       1.0  T
   3   -180.4841037 -0.137500E+00  0.765E-01    0.54       1.0  T
   4   -180.5105081 -0.264044E-01  0.581E-01    0.26       1.0  T
   5   -180.5133853 -0.287721E-02  0.487E-01    0.26       1.0  T
   6   -180.5227789 -0.939359E-02  0.315E-01    0.18       1.0  T
   7   -180.4639199  0.588590E-01  0.101E+00    0.04       1.0  T
   8   -180.5275152 -0.635953E-01  0.904E-02    0.12       1.0  T
   9   -180.5248364  0.267885E-02  0.229E-01    0.18       1.0  T
  10   -180.5283999 -0.356352E-02  0.443E-02    0.13       1.0  T
  11   -180.5282813  0.118622E-03  0.573E-02    0.14       1.0  T
  12   -180.5280667  0.214554E-03  0.806E-02    0.14       1.0  T
  13   -180.5282529 -0.186162E-03  0.591E-02    0.14       1.0  T
  14   -180.5284847 -0.231810E-03  0.984E-03    0.13       1.1  T
  15   -180.5284628  0.218558E-04  0.208E-02    0.13       1.0  T
  16   -180.5284745 -0.116853E-04  0.151E-02    0.13       1.0  T
  17   -180.5284828 -0.832802E-05  0.111E-02    0.13       1.0  T
  18   -180.5284872 -0.438405E-05  0.696E-03    0.13       1.5  T
  19   -180.5284840  0.319255E-05  0.101E-02    0.13       1.0  T
  20   -180.5284901 -0.609470E-05  0.302E-03    0.13       3.5  T
  21   -180.5284907 -0.575070E-06  0.386E-04    0.13      27.3  T
  22   -180.5284907  0.557492E-09  0.312E-04    0.13      33.8  T
     SCC iter.                  ...        0 min,  0.463 sec
     gradient                   ...        0 min,  0.048 sec
 * total energy  :  -178.8053131 Eh     change       -0.2569026E-02 Eh
   gradient norm :     0.0255406 Eh/α   predicted    -0.2730786E-02 (   6.30%)
   displ. norm   :     0.7775303 α      lambda       -0.3233337E-02
   maximum displ.:     0.3677334 α      in ANC's #5, #3, #6, ...

........................................................................
.............................. CYCLE   71 ..............................
........................................................................

 iter      E             dE          RMSdq      gap      omega  full diag
   1   -180.5166695 -0.180517E+03  0.362E-01    0.11       0.0  T
   2   -180.4650243  0.516452E-01  0.761E-01    0.73       1.0  T
   3   -180.5201088 -0.550845E-01  0.245E-01    0.15       1.0  T
   4   -180.4647000  0.554088E-01  0.868E-01    0.05       1.0  T
   5   -180.4928976 -0.281976E-01  0.506E-01    0.12       1.0  T
   6   -180.5150596 -0.221620E-01  0.332E-01    0.21       1.0  T
   7   -180.5195828 -0.452321E-02  0.253E-01    0.18       1.0  T
   8   -180.5200898 -0.506950E-03  0.233E-01    0.18       1.0  T
   9   -180.5214337 -0.134394E-02  0.192E-01    0.17       1.0  T
  10   -180.5223507 -0.916994E-03  0.146E-01    0.16       1.0  T
  11   -180.5235117 -0.116101E-02  0.614E-02    0.14       1.0  T
  12   -180.5236584 -0.146731E-03  0.351E-02    0.12       1.0  T
  13   -180.5237183 -0.598810E-04  0.242E-02    0.13       1.0  T
  14   -180.5237554 -0.370741E-04  0.589E-03    0.13       1.8  T
  15   -180.5237530  0.236296E-05  0.710E-03    0.13       1.5  T
  16   -180.5237482  0.481908E-05  0.109E-02    0.13       1.0  T
  17   -180.5237549 -0.674182E-05  0.578E-03    0.13       1.8  T
  18   -180.5237564 -0.141342E-05  0.336E-03    0.13       3.1  T
  19   -180.5237572 -0.870084E-06  0.924E-04    0.13      11.4  T
  20   -180.5237571  0.130383E-06  0.163E-03    0.13       6.4  T
  21   -180.5237571 -0.165764E-07  0.159E-03    0.13       6.6  T
  22   -180.5237573 -0.169243E-06  0.391E-04    0.13      27.0  T
     SCC iter.                  ...        0 min,  0.477 sec
     gradient                   ...        0 min,  0.048 sec
 * total energy  :  -178.8080793 Eh     change       -0.2766189E-02 Eh
   gradient norm :     0.0243069 Eh/α   predicted    -0.2594039E-02 (  -6.22%)
   displ. norm   :     0.7621312 α      lambda       -0.3626211E-02
   maximum displ.:     0.3668246 α      in ANC's #5, #3, #6, ...

........................................................................
.............................. CYCLE   72 ..............................
........................................................................

 iter      E             dE          RMSdq      gap      omega  full diag
   1   -180.5135185 -0.180514E+03  0.425E-01    0.13       0.0  T
   2   -180.4516572  0.618613E-01  0.850E-01    0.40       1.0  T
   3   -179.9256265  0.526031E+00  0.308E+00    0.02       1.0  T
   4   -180.5119858 -0.586359E+00  0.368E-01    0.19       1.0  T
   5   -180.5035966  0.838923E-02  0.400E-01    0.12       1.0  T
   6   -180.5204440 -0.168474E-01  0.237E-01    0.15       1.0  T
   7   -180.5223638 -0.191976E-02  0.175E-01    0.14       1.0  T
   8   -180.5233101 -0.946366E-03  0.139E-01    0.14       1.0  T
   9   -180.5248171 -0.150699E-02  0.617E-02    0.13       1.0  T
  10   -180.5250416 -0.224444E-03  0.262E-02    0.13       1.0  T
  11   -180.5250312  0.103695E-04  0.321E-02    0.14       1.0  T
  12   -180.5250713 -0.400731E-04  0.231E-02    0.13       1.0  T
  13   -180.5250944 -0.231546E-04  0.136E-02    0.13       1.0  T
  14   -180.5251024 -0.802376E-05  0.792E-03    0.13       1.3  T
  15   -180.5251061 -0.370060E-05  0.222E-03    0.13       4.7  T
  16   -180.5251062 -0.109492E-06  0.136E-03    0.13       7.8  T
  17   -180.5251061  0.163226E-06  0.185E-03    0.13       5.7  T
  18   -180.5251062 -0.742956E-07  0.159E-03    0.13       6.6  T
  19   -180.5251063 -0.160525E-06  0.920E-04    0.13      11.5  T
  20   -180.5251063  0.564519E-07  0.998E-04    0.13      10.6  T
     SCC iter.                  ...        0 min,  0.437 sec
     gradient                   ...        0 min,  0.049 sec
 * total energy  :  -178.8111273 Eh     change       -0.3048043E-02 Eh
   gradient norm :     0.0207453 Eh/α   predicted    -0.2866237E-02 (  -5.96%)
   displ. norm   :     0.7712134 α      lambda       -0.3717930E-02
   maximum displ.:     0.3764797 α      in ANC's #5, #3, #6, ...

........................................................................
.............................. CYCLE   73 ..............................
........................................................................

 iter      E             dE          RMSdq      gap      omega  full diag
   1   -180.4756412 -0.180476E+03  0.734E-01    0.11       0.0  T
   2   -180.3424888  0.133152E+00  0.145E+00    0.26       1.0  T
   3   -180.4819927 -0.139504E+00  0.630E-01    0.15       1.0  T
   4   -180.4980415 -0.160488E-01  0.745E-01    0.06       1.0  T
   5   -180.5127088 -0.146674E-01  0.455E-01    0.26       1.0  T
   6   -180.5033037  0.940517E-02  0.609E-01    0.07       1.0  T
   7   -180.5216153 -0.183117E-01  0.342E-01    0.19       1.0  T
   8   -180.5221353 -0.519933E-03  0.335E-01    0.18       1.0  T
   9   -180.5243979 -0.226269E-02  0.297E-01    0.16       1.0  T
  10   -180.5249826 -0.584683E-03  0.264E-01    0.17       1.0  T
  11   -180.5273594 -0.237679E-02  0.182E-01    0.16       1.0  T
  12   -180.5295740 -0.221454E-02  0.781E-02    0.14       1.0  T
  13   -180.5298432 -0.269261E-03  0.461E-02    0.13       1.0  T
  14   -180.5298910 -0.477976E-04  0.357E-02    0.13       1.0  T
  15   -180.5299576 -0.665961E-04  0.137E-02    0.13       1.0  T
  16   -180.5299745 -0.169289E-04  0.564E-03    0.13       1.9  T
  17   -180.5299735  0.103020E-05  0.689E-03    0.13       1.5  T
  18   -180.5299725  0.990354E-06  0.800E-03    0.13       1.3  T
  19   -180.5299752 -0.271246E-05  0.434E-03    0.13       2.4  T
  20   -180.5299763 -0.111199E-05  0.108E-03    0.13       9.7  T
  21   -180.5299764 -0.705665E-07  0.361E-04    0.13      29.2  T
  22   -180.5299764  0.594113E-08  0.363E-04    0.13      29.0  T
     SCC iter.                  ...        0 min,  0.490 sec
     gradient                   ...        0 min,  0.047 sec
 * total energy  :  -178.8140712 Eh     change       -0.2943895E-02 Eh
   gradient norm :     0.0187374 Eh/α   predicted    -0.2964621E-02 (   0.70%)
   displ. norm   :     0.7961363 α      lambda       -0.3190237E-02
   maximum displ.:     0.4021231 α      in ANC's #5, #3, #6, ...

........................................................................
.............................. CYCLE   74 ..............................
........................................................................

 iter      E             dE          RMSdq      gap      omega  full diag
   1   -180.5038025 -0.180504E+03  0.556E-01    0.10       0.0  T
   2   -180.3917651  0.112037E+00  0.116E+00    0.44       1.0  T
   3   -180.4177560 -0.259909E-01  0.130E+00    0.03       1.0  T
   4   -180.4957848 -0.780288E-01  0.588E-01    0.35       1.0  T
   5   -180.5122848 -0.165000E-01  0.407E-01    0.10       1.0  T
   6   -180.5223142 -0.100294E-01  0.372E-01    0.17       1.0  T
   7   -180.5205552  0.175900E-02  0.332E-01    0.18       1.0  T
   8   -180.5288176 -0.826241E-02  0.113E-01    0.14       1.0  T
   9   -180.5289550 -0.137430E-03  0.109E-01    0.11       1.0  T
  10   -180.5295657 -0.610720E-03  0.427E-02    0.12       1.0  T
  11   -180.5292472  0.318507E-03  0.836E-02    0.14       1.0  T
  12   -180.5294431 -0.195844E-03  0.591E-02    0.14       1.0  T
  13   -180.5296727 -0.229649E-03  0.144E-02    0.13       1.0  T
  14   -180.5296711  0.160341E-05  0.165E-02    0.13       1.0  T
  15   -180.5296896 -0.185116E-04  0.728E-03    0.13       1.4  T
  16   -180.5296918 -0.216862E-05  0.432E-03    0.13       2.4  T
  17   -180.5296916  0.156526E-06  0.399E-03    0.13       2.6  T
  18   -180.5296929 -0.125013E-05  0.114E-03    0.13       9.3  T
  19   -180.5296929 -0.237175E-07  0.107E-03    0.13       9.9  T
  20   -180.5296929  0.381330E-07  0.119E-03    0.13       8.9  T
  21   -180.5296930 -0.755800E-07  0.756E-04    0.13      13.9  T
  22   -180.5296930 -0.581178E-07  0.166E-04    0.13      63.6  T
     SCC iter.                  ...        0 min,  0.500 sec
     gradient                   ...        0 min,  0.048 sec
 * total energy  :  -178.8166691 Eh     change       -0.2597868E-02 Eh
   gradient norm :     0.0167336 Eh/α   predicted    -0.2606156E-02 (   0.32%)
   displ. norm   :     0.6728815 α      lambda       -0.2972730E-02
   maximum displ.:     0.3621019 α      in ANC's #5, #6, #3, ...

........................................................................
.............................. CYCLE   75 ..............................
........................................................................

 iter      E             dE          RMSdq      gap      omega  full diag
   1   -180.5119139 -0.180512E+03  0.619E-01    0.08       0.0  T
   2   -180.3961328  0.115781E+00  0.125E+00    0.90       1.0  T
   3   -180.5122227 -0.116090E+00  0.580E-01    0.24       1.0  T
   4   -180.3222808  0.189942E+00  0.161E+00    0.02       1.0  T
   5   -180.4101898 -0.879090E-01  0.109E+00    0.09       1.0  T
   6   -180.5179598 -0.107770E+00  0.540E-01    0.19       1.0  T
   7   -180.5164933  0.146656E-02  0.510E-01    0.20       1.0  T
   8   -180.5196729 -0.317966E-02  0.458E-01    0.18       1.0  T
   9   -180.5244587 -0.478575E-02  0.396E-01    0.16       1.0  T
  10   -180.5267782 -0.231948E-02  0.360E-01    0.15       1.0  T
  11   -180.5302274 -0.344919E-02  0.287E-01    0.13       1.0  T
  12   -180.5328162 -0.258884E-02  0.211E-01    0.13       1.0  T
  13   -180.5356366 -0.282041E-02  0.175E-02    0.12       1.0  T
  14   -180.5342280  0.140862E-02  0.146E-01    0.10       1.0  T
  15   -180.5356130 -0.138498E-02  0.226E-02    0.12       1.0  T
  16   -180.5356034  0.957240E-05  0.276E-02    0.12       1.0  T
  17   -180.5356434 -0.399932E-04  0.130E-02    0.12       1.0  T
  18   -180.5356435 -0.102625E-06  0.111E-02    0.12       1.0  T
  19   -180.5356479 -0.445076E-05  0.874E-03    0.12       1.2  T
  20   -180.5356541 -0.613473E-05  0.162E-03    0.12       6.5  T
  21   -180.5356523  0.173910E-05  0.480E-03    0.12       2.2  T
  22   -180.5356505  0.184757E-05  0.679E-03    0.12       1.6  T
  23   -180.5356540 -0.347783E-05  0.191E-03    0.12       5.5  T
  24   -180.5356540 -0.782601E-07  0.132E-03    0.12       8.0  T
  25   -180.5356541 -0.844413E-07  0.775E-04    0.12      13.6  T
  26   -180.5356542 -0.320020E-07  0.240E-04    0.12      43.9  T
     SCC iter.                  ...        0 min,  0.596 sec
     gradient                   ...        0 min,  0.048 sec
 * total energy  :  -178.8189607 Eh     change       -0.2291662E-02 Eh
   gradient norm :     0.0180976 Eh/α   predicted    -0.2159348E-02 (  -5.77%)
   displ. norm   :     0.7783880 α      lambda       -0.2918383E-02
   maximum displ.:     0.4135112 α      in ANC's #5, #6, #3, ...

........................................................................
.............................. CYCLE   76 ..............................
........................................................................

 iter      E             dE          RMSdq      gap      omega  full diag
   1   -180.5050417 -0.180505E+03  0.765E-01    0.07       0.0  T
   2   -180.3974712  0.107571E+00  0.132E+00    0.74       1.0  T
   3   -180.4313708 -0.338997E-01  0.118E+00    0.07       1.0  T
   4   -180.4871226 -0.557518E-01  0.685E-01    0.38       1.0  T
   5   -180.5085372 -0.214146E-01  0.531E-01    0.07       1.0  T
   6   -180.5176087 -0.907152E-02  0.476E-01    0.13       1.0  T
   7   -180.5192920 -0.168326E-02  0.420E-01    0.13       1.0  T
   8   -180.5216942 -0.240224E-02  0.351E-01    0.11       1.0  T
   9   -180.5246974 -0.300313E-02  0.295E-01    0.10       1.0  T
  10   -180.5294389 -0.474151E-02  0.627E-02    0.11       1.0  T
  11   -180.5208764  0.856251E-02  0.377E-01    0.08       1.0  T
  12   -180.5292487 -0.837238E-02  0.760E-02    0.11       1.0  T
  13   -180.5293842 -0.135501E-03  0.534E-02    0.11       1.0  T
  14   -180.5293001  0.841744E-04  0.599E-02    0.11       1.0  T
  15   -180.5295148 -0.214767E-03  0.225E-02    0.11       1.0  T
  16   -180.5295190 -0.415217E-05  0.236E-02    0.11       1.0  T
  17   -180.5295235 -0.447808E-05  0.203E-02    0.11       1.0  T
  18   -180.5295504 -0.269406E-04  0.320E-03    0.11       3.3  T
  19   -180.5295420  0.837127E-05  0.120E-02    0.11       1.0  T
  20   -180.5295508 -0.873494E-05  0.148E-03    0.11       7.1  T
  21   -180.5295505  0.298181E-06  0.258E-03    0.11       4.1  T
  22   -180.5295504  0.683954E-07  0.273E-03    0.11       3.9  T
  23   -180.5295508 -0.388321E-06  0.105E-03    0.11      10.1  T
  24   -180.5295508 -0.643482E-08  0.897E-04    0.11      11.7  T
  25   -180.5295508 -0.847487E-08  0.795E-04    0.11      13.3  T
     SCC iter.                  ...        0 min,  0.543 sec
     gradient                   ...        0 min,  0.045 sec
 * total energy  :  -178.8214485 Eh     change       -0.2487761E-02 Eh
   gradient norm :     0.0188326 Eh/α   predicted    -0.2343318E-02 (  -5.81%)
   displ. norm   :     0.7392753 α      lambda       -0.3697103E-02
   maximum displ.:     0.3777696 α      in ANC's #5, #6, #8, ...

........................................................................
.............................. CYCLE   77 ..............................
........................................................................

 iter      E             dE          RMSdq      gap      omega  full diag
   1   -180.5168941 -0.180517E+03  0.100E+00    0.13       0.0  T
   2   -179.7871540  0.729740E+00  0.348E+00    0.02       1.0  T
   3   -180.4681643 -0.681010E+00  0.110E+00    0.22       1.0  T
   4   -180.1458304  0.322334E+00  0.304E+00    0.18       1.0  T
   5   -180.5271527 -0.381322E+00  0.337E-01    0.12       1.0  T
   6   -180.5185156  0.863714E-02  0.465E-01    0.07       1.0  T
   7   -180.5244715 -0.595595E-02  0.330E-01    0.10       1.0  T
   8   -180.5276484 -0.317686E-02  0.278E-01    0.09       1.0  T
   9   -180.5232695  0.437888E-02  0.355E-01    0.08       1.0  T
  10   -180.5285792 -0.530976E-02  0.162E-01    0.09       1.0  T
  11   -180.5302440 -0.166481E-02  0.369E-02    0.11       1.0  T
  12   -180.5302157  0.283213E-04  0.515E-02    0.11       1.0  T
  13   -180.5301266  0.891559E-04  0.648E-02    0.11       1.0  T
  14   -180.5301233  0.327377E-05  0.607E-02    0.11       1.0  T
  15   -180.5302383 -0.115000E-03  0.351E-02    0.11       1.0  T
  16   -180.5302817 -0.434383E-04  0.194E-02    0.11       1.0  T
  17   -180.5302900 -0.829854E-05  0.993E-03    0.10       1.1  T
  18   -180.5302941 -0.402989E-05  0.928E-03    0.10       1.1  T
  19   -180.5302940  0.398715E-07  0.111E-02    0.10       1.0  T
  20   -180.5302944 -0.373243E-06  0.859E-03    0.10       1.2  T
  21   -180.5302967 -0.233933E-05  0.371E-03    0.10       2.8  T
  22   -180.5302972 -0.453216E-06  0.217E-03    0.10       4.9  T
  23   -180.5302973 -0.968172E-07  0.196E-03    0.10       5.4  T
  24   -180.5302974 -0.891390E-07  0.107E-03    0.10       9.8  T
  25   -180.5302974 -0.676108E-07  0.405E-04    0.10      26.0  T
  26   -180.5302974  0.930237E-08  0.562E-04    0.10      18.7  T
     SCC iter.                  ...        0 min,  0.610 sec
     gradient                   ...        0 min,  0.049 sec
 * total energy  :  -178.8241860 Eh     change       -0.2737499E-02 Eh
   gradient norm :     0.0288018 Eh/α   predicted    -0.2858843E-02 (   4.43%)
   displ. norm   :     0.7574910 α      lambda       -0.3885530E-02
   maximum displ.:     0.3870445 α      in ANC's #5, #6, #8, ...

........................................................................
.............................. CYCLE   78 ..............................
........................................................................

 iter      E             dE          RMSdq      gap      omega  full diag
   1   -180.4941720 -0.180494E+03  0.934E-01    0.06       0.0  T
   2   -180.3969062  0.972658E-01  0.130E+00    0.56       1.0  T
   3   -180.2298991  0.167007E+00  0.311E+00    0.08       1.0  T
   4   -180.4965105 -0.266611E+00  0.897E-01    0.28       1.0  T
   5   -180.3626829  0.133828E+00  0.162E+00    0.01       1.0  T
   6   -180.5045443 -0.141861E+00  0.759E-01    0.17       1.0  T
   7   -180.5021461  0.239827E-02  0.741E-01    0.20       1.0  T
   8   -180.5056117 -0.346560E-02  0.615E-01    0.17       1.0  T
   9   -180.5111140 -0.550234E-02  0.498E-01    0.14       1.0  T
  10   -180.5127956 -0.168160E-02  0.457E-01    0.13       1.0  T
  11   -180.5167990 -0.400342E-02  0.365E-01    0.11       1.0  T
  12   -180.5204027 -0.360370E-02  0.282E-01    0.11       1.0  T
  13   -180.5177002  0.270252E-02  0.393E-01    0.08       1.0  T
  14   -180.5250283 -0.732806E-02  0.125E-01    0.10       1.0  T
  15   -180.5256062 -0.577903E-03  0.406E-02    0.09       1.0  T
  16   -180.5255109  0.952429E-04  0.466E-02    0.09       1.0  T
  17   -180.5256140 -0.103033E-03  0.312E-02    0.09       1.0  T
  18   -180.5256485 -0.345422E-04  0.235E-02    0.09       1.0  T
  19   -180.5256613 -0.127882E-04  0.692E-03    0.09       1.5  T
  20   -180.5256617 -0.421025E-06  0.784E-03    0.10       1.3  T
  21   -180.5256605  0.117648E-05  0.824E-03    0.09       1.3  T
  22   -180.5256556  0.497601E-05  0.120E-02    0.09       1.0  T
  23   -180.5256615 -0.591640E-05  0.526E-03    0.09       2.0  T
  24   -180.5256631 -0.159989E-05  0.202E-03    0.09       5.2  T
  25   -180.5256632 -0.112933E-06  0.161E-03    0.09       6.6  T
  26   -180.5256633 -0.126868E-06  0.127E-04    0.09      82.7  T
  27   -180.5256633  0.239551E-07  0.595E-04    0.09      17.7  T
     SCC iter.                  ...        0 min,  0.639 sec
     gradient                   ...        0 min,  0.049 sec
 * total energy  :  -178.8280002 Eh     change       -0.3814211E-02 Eh
   gradient norm :     0.0370937 Eh/α   predicted    -0.3057512E-02 ( -19.84%)
   displ. norm   :     0.7264994 α      lambda       -0.6734631E-02
   maximum displ.:     0.2515849 α      in ANC's #5, #32, #6, ...

........................................................................
.............................. CYCLE   79 ..............................
........................................................................

 iter      E             dE          RMSdq      gap      omega  full diag
   1   -180.4247371 -0.180425E+03  0.153E+00    0.04       0.0  T
   2   -180.2198028  0.204934E+00  0.239E+00    0.49       1.0  T
   3   -180.4695994 -0.249797E+00  0.148E+00    0.61       1.0  T
   4   -180.4773836 -0.778429E-02  0.116E+00    0.38       1.0  T
   5   -180.2638684  0.213515E+00  0.202E+00    0.01       1.0  T
   6   -180.5037693 -0.239901E+00  0.693E-01    0.07       1.0  T
   7   -180.5216516 -0.178823E-01  0.344E-01    0.09       1.0  T
   8   -180.5211167  0.534955E-03  0.356E-01    0.09       1.0  T
   9   -180.4914927  0.296240E-01  0.105E+00    0.05       1.0  T
  10   -180.5230632 -0.315705E-01  0.250E-01    0.11       1.0  T
  11   -180.5241962 -0.113305E-02  0.207E-01    0.11       1.0  T
  12   -180.5225612  0.163504E-02  0.285E-01    0.12       1.0  T
  13   -180.5255246 -0.296343E-02  0.148E-01    0.11       1.0  T
  14   -180.5258685 -0.343855E-03  0.132E-01    0.11       1.0  T
  15   -180.5267961 -0.927644E-03  0.291E-02    0.10       1.0  T
  16   -180.5266549  0.141249E-03  0.491E-02    0.10       1.0  T
  17   -180.5267960 -0.141128E-03  0.360E-02    0.10       1.0  T
  18   -180.5268242 -0.282219E-04  0.597E-03    0.10       1.8  T
  19   -180.5268225  0.171895E-05  0.884E-03    0.10       1.2  T
  20   -180.5268225  0.367717E-07  0.649E-03    0.10       1.6  T
  21   -180.5268205  0.193443E-05  0.118E-02    0.10       1.0  T
  22   -180.5268249 -0.434904E-05  0.237E-03    0.10       4.5  T
  23   -180.5268239  0.969366E-06  0.436E-03    0.10       2.4  T
  24   -180.5268249 -0.102890E-05  0.154E-03    0.10       6.9  T
  25   -180.5268250 -0.110397E-07  0.162E-03    0.10       6.5  T
  26   -180.5268250 -0.889634E-07  0.806E-04    0.10      13.1  T
  27   -180.5268250  0.946528E-09  0.713E-04    0.10      14.8  T
     SCC iter.                  ...        0 min,  0.650 sec
     gradient                   ...        0 min,  0.051 sec
 * total energy  :  -178.8298645 Eh     change       -0.1864241E-02 Eh
   gradient norm :     0.0523763 Eh/α   predicted    -0.5144582E-02 ( 175.96%)
   displ. norm   :     0.3468664 α      lambda       -0.8079467E-02
   maximum displ.:     0.1177138 α      in ANC's #19, #29, #32, ...

........................................................................
.............................. CYCLE   80 ..............................
........................................................................

 iter      E             dE          RMSdq      gap      omega  full diag
   1   -180.5169732 -0.180517E+03  0.567E-01    0.10       0.0  T
   2   -179.9833102  0.533663E+00  0.463E+00    0.39       1.0  T
   3   -180.3851087 -0.401799E+00  0.235E+00    0.04       1.0  T
   4   -179.9480242  0.437084E+00  0.297E+00    0.02       1.0  T
   5   -180.5081068 -0.560083E+00  0.679E-01    0.19       1.0  T
   6   -180.4994251  0.868173E-02  0.766E-01    0.26       1.0  T
   7   -180.5064459 -0.702089E-02  0.703E-01    0.21       1.0  T
   8   -180.5095097 -0.306373E-02  0.621E-01    0.18       1.0  T
   9   -180.5147401 -0.523042E-02  0.494E-01    0.15       1.0  T
  10   -180.5195139 -0.477383E-02  0.390E-01    0.12       1.0  T
  11   -180.5196577 -0.143757E-03  0.381E-01    0.12       1.0  T
  12   -180.5237746 -0.411689E-02  0.327E-01    0.10       1.0  T
  13   -180.5245867 -0.812170E-03  0.285E-01    0.10       1.0  T
  14   -180.5279645 -0.337781E-02  0.165E-01    0.10       1.0  T
  15   -180.5292740 -0.130947E-02  0.678E-02    0.10       1.0  T
  16   -180.5295385 -0.264447E-03  0.109E-02    0.10       1.0  T
  17   -180.5294472  0.912760E-04  0.478E-02    0.10       1.0  T
  18   -180.5295331 -0.858842E-04  0.135E-02    0.10       1.0  T
  19   -180.5295375 -0.447373E-05  0.795E-03    0.10       1.3  T
  20   -180.5295394 -0.181045E-05  0.741E-03    0.10       1.4  T
  21   -180.5295301  0.926591E-05  0.151E-02    0.10       1.0  T
  22   -180.5295379 -0.777615E-05  0.774E-03    0.10       1.4  T
  23   -180.5295412 -0.333240E-05  0.293E-03    0.10       3.6  T
  24   -180.5295415 -0.273502E-06  0.749E-04    0.10      14.1  T
  25   -180.5295414  0.332128E-07  0.855E-04    0.10      12.3  T
     SCC iter.                  ...        0 min,  0.619 sec
     gradient                   ...        0 min,  0.048 sec
 * total energy  :  -178.8315201 Eh     change       -0.1655681E-02 Eh
   gradient norm :     0.0428305 Eh/α   predicted    -0.4525784E-02 ( 173.35%)
   displ. norm   :     0.4488486 α      lambda       -0.6427220E-02
   maximum displ.:     0.1970871 α      in ANC's #5, #6, #4, ...

........................................................................
.............................. CYCLE   81 ..............................
........................................................................

 iter      E             dE          RMSdq      gap      omega  full diag
   1   -180.5170229 -0.180517E+03  0.459E-01    0.10       0.0  T
   2   -178.5889875  0.192804E+01  0.567E+00    0.06       1.0  T
   3   -180.5013982 -0.191241E+01  0.683E-01    0.20       1.0  T
   4   -180.2949961  0.206402E+00  0.280E+00    0.07       1.0  T
   5   -180.5185378 -0.223542E+00  0.415E-01    0.11       1.0  T
   6   -180.5166499  0.188785E-02  0.419E-01    0.14       1.0  T
   7   -180.5200920 -0.344210E-02  0.330E-01    0.12       1.0  T
   8   -180.5210630 -0.970926E-03  0.256E-01    0.11       1.0  T
   9   -180.5226232 -0.156019E-02  0.637E-02    0.10       1.0  T
  10   -180.5226065  0.166989E-04  0.628E-02    0.09       1.0  T
  11   -180.5227621 -0.155671E-03  0.175E-02    0.10       1.0  T
  12   -180.5227615  0.599365E-06  0.169E-02    0.10       1.0  T
  13   -180.5227724 -0.108886E-04  0.734E-03    0.10       1.4  T
  14   -180.5227693  0.315411E-05  0.122E-02    0.10       1.0  T
  15   -180.5227699 -0.603707E-06  0.140E-02    0.10       1.0  T
  16   -180.5227744 -0.455305E-05  0.357E-03    0.10       3.0  T
  17   -180.5227748 -0.343288E-06  0.233E-03    0.10       4.5  T
  18   -180.5227747  0.520723E-07  0.200E-03    0.10       5.3  T
  19   -180.5227750 -0.251153E-06  0.811E-04    0.10      13.0  T
  20   -180.5227749  0.204168E-07  0.776E-04    0.10      13.6  T
     SCC iter.                  ...        0 min,  0.439 sec
     gradient                   ...        0 min,  0.047 sec
 * total energy  :  -178.8342196 Eh     change       -0.2699459E-02 Eh
   gradient norm :     0.0247820 Eh/α   predicted    -0.3861029E-02 (  43.03%)
   displ. norm   :     0.3338696 α      lambda       -0.3597343E-02
   maximum displ.:     0.1450872 α      in ANC's #2, #12, #23, ...

........................................................................
.............................. CYCLE   82 ..............................
........................................................................

 iter      E             dE          RMSdq      gap      omega  full diag
   1   -180.4919247 -0.180492E+03  0.111E+00    0.05       0.0  T
   2   -180.3752907  0.116634E+00  0.164E+00    0.37       1.0  T
   3   -179.8343085  0.540982E+00  0.336E+00    0.02       1.0  T
   4   -180.4946158 -0.660307E+00  0.103E+00    0.31       1.0  T
   5   -180.5036814 -0.906558E-02  0.787E-01    0.19       1.0  T
   6   -180.5195413 -0.158599E-01  0.396E-01    0.08       1.0  T
   7   -180.5240181 -0.447686E-02  0.249E-01    0.12       1.0  T
   8   -180.5239220  0.961026E-04  0.229E-01    0.10       1.0  T
   9   -180.5140309  0.989110E-02  0.576E-01    0.07       1.0  T
  10   -180.5254356 -0.114047E-01  0.857E-02    0.09       1.0  T
  11   -180.5247264  0.709241E-03  0.125E-01    0.11       1.0  T
  12   -180.5248904 -0.163956E-03  0.116E-01    0.11       1.0  T
  13   -180.5256890 -0.798635E-03  0.290E-02    0.10       1.0  T
  14   -180.5256231  0.658470E-04  0.556E-02    0.11       1.0  T
  15   -180.5256788 -0.556215E-04  0.371E-02    0.10       1.0  T
  16   -180.5257161 -0.373626E-04  0.124E-02    0.10       1.0  T
  17   -180.5257244 -0.825784E-05  0.605E-03    0.10       1.7  T
  18   -180.5257245 -0.156537E-06  0.664E-03    0.10       1.6  T
  19   -180.5257258 -0.127516E-05  0.658E-03    0.10       1.6  T
  20   -180.5257256  0.188493E-06  0.701E-03    0.10       1.5  T
  21   -180.5257268 -0.116146E-05  0.204E-03    0.10       5.2  T
  22   -180.5257268  0.106438E-07  0.208E-03    0.10       5.1  T
  23   -180.5257269 -0.105218E-06  0.664E-04    0.10      15.9  T
  24   -180.5257269  0.101787E-07  0.610E-04    0.10      17.3  T
     SCC iter.                  ...        0 min,  0.517 sec
     gradient                   ...        0 min,  0.049 sec
 * total energy  :  -178.8370193 Eh     change       -0.2799719E-02 Eh
   gradient norm :     0.0209452 Eh/α   predicted    -0.1999173E-02 ( -28.59%)
   displ. norm   :     0.6270902 α      lambda       -0.5038382E-02
   maximum displ.:     0.2494874 α      in ANC's #2, #32, #5, ...

........................................................................
.............................. CYCLE   83 ..............................
........................................................................

 iter      E             dE          RMSdq      gap      omega  full diag
   1   -180.5039185 -0.180504E+03  0.111E+00    0.06       0.0  T
   2   -180.4371355  0.667829E-01  0.111E+00    0.37       1.0  T
   3   -180.0044878  0.432648E+00  0.420E+00    0.20       1.0  T
   4   -180.1664305 -0.161943E+00  0.332E+00    0.09       1.0  T
   5   -180.4961057 -0.329675E+00  0.736E-01    0.35       1.0  T
   6   -180.4815631  0.145426E-01  0.901E-01    0.05       1.0  T
   7   -180.5043702 -0.228070E-01  0.648E-01    0.27       1.0  T
   8   -180.5049405 -0.570275E-03  0.636E-01    0.26       1.0  T
   9   -180.5087212 -0.378071E-02  0.593E-01    0.24       1.0  T
  10   -180.5175200 -0.879887E-02  0.479E-01    0.18       1.0  T
  11   -180.5224269 -0.490685E-02  0.387E-01    0.16       1.0  T
  12   -180.5303648 -0.793791E-02  0.225E-01    0.09       1.0  T
  13   -180.5328583 -0.249345E-02  0.989E-02    0.12       1.0  T
  14   -180.5331358 -0.277583E-03  0.557E-02    0.12       1.0  T
  15   -180.5332779 -0.142032E-03  0.182E-02    0.11       1.0  T
  16   -180.5332268  0.510704E-04  0.365E-02    0.12       1.0  T
  17   -180.5332664 -0.396051E-04  0.167E-02    0.11       1.0  T
  18   -180.5332683 -0.190047E-05  0.196E-02    0.11       1.0  T
  19   -180.5332774 -0.905191E-05  0.109E-02    0.11       1.0  T
  20   -180.5332509  0.264670E-04  0.235E-02    0.11       1.0  T
  21   -180.5332840 -0.331040E-04  0.532E-03    0.11       2.0  T
  22   -180.5332785  0.548565E-05  0.931E-03    0.11       1.1  T
  23   -180.5332844 -0.589556E-05  0.341E-03    0.11       3.1  T
  24   -180.5332846 -0.174552E-06  0.265E-03    0.11       4.0  T
  25   -180.5332847 -0.102995E-06  0.223E-03    0.11       4.7  T
  26   -180.5332850 -0.304436E-06  0.132E-03    0.11       8.0  T
  27   -180.5332850 -0.423365E-07  0.909E-04    0.11      11.6  T
  28   -180.5332850 -0.198319E-07  0.372E-04    0.11      28.4  T
     SCC iter.                  ...        0 min,  0.607 sec
     gradient                   ...        0 min,  0.051 sec
 * total energy  :  -178.8404009 Eh     change       -0.3381616E-02 Eh
   gradient norm :     0.0473522 Eh/α   predicted    -0.3509845E-02 (   3.79%)
   displ. norm   :     0.4809934 α      lambda       -0.5116542E-02
   maximum displ.:     0.2148741 α      in ANC's #2, #12, #38, ...

........................................................................
.............................. CYCLE   84 ..............................
........................................................................

 iter      E             dE          RMSdq      gap      omega  full diag
   1   -180.5417097 -0.180542E+03  0.690E-01    0.10       0.0  T
   2   -180.5245233  0.171865E-01  0.535E-01    0.20       1.0  T
   3   -178.9982139  0.152631E+01  0.488E+00    0.02       1.0  T
   4   -180.5287513 -0.153054E+01  0.517E-01    0.24       1.0  T
   5   -180.5318038 -0.305248E-02  0.471E-01    0.17       1.0  T
   6   -180.5213617  0.104421E-01  0.510E-01    0.29       1.0  T
   7   -180.5296999 -0.833817E-02  0.449E-01    0.22       1.0  T
   8   -180.5339700 -0.427018E-02  0.384E-01    0.20       1.0  T
   9   -180.5370600 -0.308996E-02  0.326E-01    0.18       1.0  T
  10   -180.5391564 -0.209638E-02  0.272E-01    0.17       1.0  T
  11   -180.5408319 -0.167557E-02  0.226E-01    0.15       1.0  T
  12   -180.5411993 -0.367319E-03  0.214E-01    0.15       1.0  T
  13   -180.5439151 -0.271580E-02  0.337E-02    0.12       1.0  T
  14   -180.5432789  0.636169E-03  0.992E-02    0.11       1.0  T
  15   -180.5439055 -0.626616E-03  0.278E-02    0.11       1.0  T
  16   -180.5438604  0.451010E-04  0.388E-02    0.11       1.0  T
  17   -180.5439503 -0.898849E-04  0.136E-02    0.12       1.0  T
  18   -180.5439550 -0.471187E-05  0.863E-03    0.12       1.2  T
  19   -180.5439507  0.426114E-05  0.124E-02    0.12       1.0  T
  20   -180.5439492  0.156718E-05  0.130E-02    0.12       1.0  T
  21   -180.5439566 -0.743318E-05  0.772E-03    0.12       1.4  T
  22   -180.5439586 -0.195843E-05  0.520E-03    0.12       2.0  T
  23   -180.5439603 -0.175400E-05  0.490E-04    0.12      21.5  T
  24   -180.5439600  0.292728E-06  0.221E-03    0.12       4.8  T
  25   -180.5439603 -0.304240E-06  0.247E-04    0.12      42.7  T
  26   -180.5439603 -0.275176E-08  0.631E-05    0.12     167.0  T
     SCC iter.                  ...        0 min,  0.594 sec
     gradient                   ...        0 min,  0.051 sec
 * total energy  :  -178.8442439 Eh     change       -0.3842999E-02 Eh
   gradient norm :     0.0516495 Eh/α   predicted    -0.3150143E-02 ( -18.03%)
   displ. norm   :     0.4224367 α      lambda       -0.8594573E-02
   maximum displ.:     0.1445679 α      in ANC's #2, #4, #38, ...

........................................................................
.............................. CYCLE   85 ..............................
........................................................................

 iter      E             dE          RMSdq      gap      omega  full diag
   1   -180.5466083 -0.180547E+03  0.615E-01    0.16       0.0  T
   2   -178.0514301  0.249518E+01  0.649E+00    0.15       1.0  T
   3   -180.4978460 -0.244642E+01  0.813E-01    0.07       1.0  T
   4   -180.5122231 -0.143771E-01  0.652E-01    0.42       1.0  T
   5   -180.5424058 -0.301827E-01  0.416E-01    0.18       1.0  T
   6   -180.5407393  0.166655E-02  0.395E-01    0.20       1.0  T
   7   -180.5480289 -0.728962E-02  0.286E-01    0.16       1.0  T
   8   -180.5535576 -0.552876E-02  0.141E-01    0.13       1.0  T
   9   -180.5544789 -0.921234E-03  0.104E-01    0.13       1.0  T
  10   -180.5549830 -0.504108E-03  0.683E-02    0.12       1.0  T
  11   -180.5542956  0.687408E-03  0.124E-01    0.13       1.0  T
  12   -180.5550361 -0.740488E-03  0.484E-02    0.12       1.0  T
  13   -180.5550947 -0.586783E-04  0.217E-02    0.12       1.0  T
  14   -180.5551000 -0.523212E-05  0.193E-02    0.12       1.0  T
  15   -180.5551154 -0.154058E-04  0.107E-02    0.12       1.0  T
  16   -180.5551178 -0.237559E-05  0.733E-03    0.12       1.4  T
  17   -180.5551172  0.523716E-06  0.676E-03    0.12       1.6  T
  18   -180.5551202 -0.293036E-05  0.349E-03    0.12       3.0  T
  19   -180.5551202 -0.502206E-07  0.244E-03    0.12       4.3  T
  20   -180.5551203 -0.130564E-06  0.176E-03    0.12       6.0  T
  21   -180.5551204 -0.693509E-07  0.121E-03    0.12       8.7  T
  22   -180.5551200  0.388016E-06  0.263E-03    0.12       4.0  T
  23   -180.5551203 -0.263096E-06  0.154E-03    0.12       6.9  T
  24   -180.5551204 -0.136952E-06  0.103E-03    0.12      10.2  T
  25   -180.5551205 -0.435606E-07  0.363E-04    0.12      29.1  T
  26   -180.5551205  0.771252E-09  0.358E-04    0.12      29.4  T
     SCC iter.                  ...        0 min,  0.567 sec
     gradient                   ...        0 min,  0.050 sec
 * total energy  :  -178.8477199 Eh     change       -0.3475937E-02 Eh
   gradient norm :     0.0413157 Eh/α   predicted    -0.5064165E-02 (  45.69%)
   displ. norm   :     0.4573148 α      lambda       -0.5671967E-02
   maximum displ.:     0.1680075 α      in ANC's #2, #12, #38, ...

........................................................................
.............................. CYCLE   86 ..............................
........................................................................

 iter      E             dE          RMSdq      gap      omega  full diag
   1   -180.5470339 -0.180547E+03  0.849E-01    0.09       0.0  T
   2   -180.4951702  0.518638E-01  0.841E-01    0.73       1.0  T
   3   -179.8159327  0.679237E+00  0.329E+00    0.02       1.0  T
   4   -180.3962297 -0.580297E+00  0.113E+00    0.13       1.0  T
   5   -180.5146462 -0.118417E+00  0.709E-01    0.51       1.0  T
   6   -180.5266548 -0.120086E-01  0.612E-01    0.46       1.0  T
   7   -180.5326194 -0.596453E-02  0.580E-01    0.39       1.0  T
   8   -180.5348409 -0.222150E-02  0.557E-01    0.36       1.0  T
   9   -180.5406955 -0.585458E-02  0.498E-01    0.28       1.0  T
  10   -180.5434467 -0.275128E-02  0.457E-01    0.24       1.0  T
  11   -180.5472222 -0.377548E-02  0.381E-01    0.21       1.0  T
  12   -180.5528974 -0.567522E-02  0.221E-01    0.15       1.0  T
  13   -180.5552996 -0.240221E-02  0.749E-02    0.12       1.0  T
  14   -180.5551532  0.146434E-03  0.981E-02    0.13       1.0  T
  15   -180.5556364 -0.483219E-03  0.259E-02    0.11       1.0  T
  16   -180.5556905 -0.540888E-04  0.561E-03    0.12       1.9  T
  17   -180.5556478  0.426970E-04  0.247E-02    0.12       1.0  T
  18   -180.5556612 -0.134278E-04  0.195E-02    0.12       1.0  T
  19   -180.5556912 -0.299149E-04  0.230E-03    0.12       4.6  T
  20   -180.5556901  0.108793E-05  0.416E-03    0.12       2.5  T
  21   -180.5556913 -0.122170E-05  0.102E-03    0.12      10.3  T
  22   -180.5556904  0.846679E-06  0.329E-03    0.12       3.2  T
  23   -180.5556911 -0.689691E-06  0.193E-03    0.12       5.5  T
  24   -180.5556913 -0.181857E-06  0.628E-04    0.12      16.8  T
  25   -180.5556913 -0.186857E-07  0.296E-04    0.12      35.7  T
     SCC iter.                  ...        0 min,  0.537 sec
     gradient                   ...        0 min,  0.050 sec
 * total energy  :  -178.8503068 Eh     change       -0.2586902E-02 Eh
   gradient norm :     0.0373775 Eh/α   predicted    -0.3429096E-02 (  32.56%)
   displ. norm   :     0.3082750 α      lambda       -0.4626546E-02
   maximum displ.:     0.0942597 α      in ANC's #31, #8, #51, ...

........................................................................
.............................. CYCLE   87 ..............................
........................................................................

 iter      E             dE          RMSdq      gap      omega  full diag
   1   -180.5579003 -0.180558E+03  0.332E-01    0.13       0.0  T
   2   -179.8946696  0.663231E+00  0.328E+00    0.02       1.0  T
   3   -180.5481536 -0.653484E+00  0.405E-01    0.08       1.0  T
   4   -180.5508280 -0.267442E-02  0.300E-01    0.16       1.0  T
   5   -180.5574347 -0.660664E-02  0.143E-01    0.10       1.0  T
   6   -180.5589115 -0.147689E-02  0.469E-02    0.12       1.0  T
   7   -180.5590270 -0.115423E-03  0.278E-02    0.12       1.0  T
   8   -180.5589944  0.326077E-04  0.287E-02    0.11       1.0  T
   9   -180.5590550 -0.606176E-04  0.115E-02    0.12       1.0  T
  10   -180.5590532  0.174210E-05  0.930E-03    0.12       1.1  T
  11   -180.5590418  0.114073E-04  0.154E-02    0.12       1.0  T
  12   -180.5590495 -0.767282E-05  0.120E-02    0.12       1.0  T
  13   -180.5590531 -0.358602E-05  0.925E-03    0.12       1.1  T
  14   -180.5590581 -0.505322E-05  0.332E-03    0.12       3.2  T
  15   -180.5590579  0.256980E-06  0.346E-03    0.12       3.0  T
  16   -180.5590586 -0.754997E-06  0.875E-04    0.12      12.1  T
  17   -180.5590587 -0.390776E-07  0.599E-04    0.12      17.6  T
     SCC iter.                  ...        0 min,  0.383 sec
     gradient                   ...        0 min,  0.050 sec
 * total energy  :  -178.8524837 Eh     change       -0.2176974E-02 Eh
   gradient norm :     0.0280277 Eh/α   predicted    -0.2533107E-02 (  16.36%)
   displ. norm   :     0.3515659 α      lambda       -0.3138004E-02
   maximum displ.:     0.1232513 α      in ANC's #4, #2, #31, ...

........................................................................
.............................. CYCLE   88 ..............................
........................................................................

 iter      E             dE          RMSdq      gap      omega  full diag
   1   -180.5626754 -0.180563E+03  0.314E-01    0.13       0.0  T
   2   -179.9255396  0.637136E+00  0.323E+00    0.02       1.0  T
   3   -180.5401808 -0.614641E+00  0.598E-01    0.07       1.0  T
   4   -180.5600420 -0.198612E-01  0.198E-01    0.14       1.0  T
   5   -180.5511974  0.884458E-02  0.403E-01    0.08       1.0  T
   6   -180.5633985 -0.122011E-01  0.602E-02    0.11       1.0  T
   7   -180.5635403 -0.141855E-03  0.357E-02    0.11       1.0  T
   8   -180.5631469  0.393394E-03  0.750E-02    0.11       1.0  T
   9   -180.5635971 -0.450184E-03  0.120E-02    0.12       1.0  T
  10   -180.5635940  0.316034E-05  0.138E-02    0.12       1.0  T
  11   -180.5636032 -0.927472E-05  0.850E-03    0.12       1.2  T
  12   -180.5636071 -0.384761E-05  0.372E-03    0.12       2.8  T
  13   -180.5636072 -0.122487E-06  0.303E-03    0.12       3.5  T
  14   -180.5636056  0.158541E-05  0.521E-03    0.12       2.0  T
  15   -180.5636062 -0.573382E-06  0.467E-03    0.12       2.3  T
  16   -180.5636069 -0.707566E-06  0.345E-03    0.12       3.1  T
  17   -180.5636074 -0.505703E-06  0.190E-03    0.12       5.5  T
  18   -180.5636076 -0.142363E-06  0.107E-03    0.12       9.9  T
  19   -180.5636076 -0.621712E-07  0.232E-04    0.12      45.4  T
  20   -180.5636076  0.156948E-08  0.273E-04    0.12      38.6  T
     SCC iter.                  ...        0 min,  0.458 sec
     gradient                   ...        0 min,  0.050 sec
 * total energy  :  -178.8542107 Eh     change       -0.1726972E-02 Eh
   gradient norm :     0.0157622 Eh/α   predicted    -0.1762927E-02 (   2.08%)
   displ. norm   :     0.4125620 α      lambda       -0.2115111E-02
   maximum displ.:     0.1141668 α      in ANC's #31, #12, #3, ...

........................................................................
.............................. CYCLE   89 ..............................
........................................................................

 iter      E             dE          RMSdq      gap      omega  full diag
   1   -180.5672800 -0.180567E+03  0.363E-01    0.11       0.0  T
   2   -180.5480188  0.192613E-01  0.486E-01    0.27       1.0  T
   3   -179.8937385  0.654280E+00  0.328E+00    0.02       1.0  T
   4   -180.5003374 -0.606599E+00  0.722E-01    0.08       1.0  T
   5   -180.5612955 -0.609582E-01  0.305E-01    0.16       1.0  T
   6   -180.5613767 -0.811420E-04  0.303E-01    0.17       1.0  T
   7   -180.5644695 -0.309281E-02  0.230E-01    0.15       1.0  T
   8   -180.5655386 -0.106912E-02  0.190E-01    0.15       1.0  T
   9   -180.5676979 -0.215924E-02  0.594E-02    0.12       1.0  T
  10   -180.5677593 -0.614083E-04  0.476E-02    0.12       1.0  T
  11   -180.5678800 -0.120704E-03  0.137E-02    0.12       1.0  T
  12   -180.5678743  0.564984E-05  0.164E-02    0.11       1.0  T
  13   -180.5678928 -0.184656E-04  0.505E-03    0.12       2.1  T
  14   -180.5678930 -0.217873E-06  0.445E-03    0.12       2.4  T
  15   -180.5678933 -0.328330E-06  0.305E-03    0.12       3.5  T
  16   -180.5678936 -0.283786E-06  0.201E-03    0.12       5.2  T
  17   -180.5678932  0.398021E-06  0.302E-03    0.12       3.5  T
  18   -180.5678935 -0.238173E-06  0.248E-03    0.12       4.3  T
  19   -180.5678938 -0.329129E-06  0.742E-04    0.12      14.2  T
  20   -180.5678938 -0.194065E-07  0.548E-04    0.12      19.2  T
     SCC iter.                  ...        0 min,  0.451 sec
     gradient                   ...        0 min,  0.050 sec
 * total energy  :  -178.8553259 Eh     change       -0.1115200E-02 Eh
   gradient norm :     0.0169740 Eh/α   predicted    -0.1237562E-02 (  10.97%)
   displ. norm   :     0.3520175 α      lambda       -0.1101161E-02
   maximum displ.:     0.1485799 α      in ANC's #5, #6, #8, ...

........................................................................
.............................. CYCLE   90 ..............................
........................................................................

 iter      E             dE          RMSdq      gap      omega  full diag
   1   -180.5609545 -0.180561E+03  0.271E-01    0.14       0.0  T
   2   -179.8889686  0.671986E+00  0.331E+00    0.02       1.0  T
   3   -180.5576374 -0.668669E+00  0.241E-01    0.15       1.0  T
   4   -180.5224538  0.351836E-01  0.642E-01    0.07       1.0  T
   5   -180.5616496 -0.391958E-01  0.970E-02    0.13       1.0  T
   6   -180.5621373 -0.487663E-03  0.684E-02    0.13       1.0  T
   7   -180.5624900 -0.352772E-03  0.190E-02    0.12       1.0  T
   8   -180.5624859  0.408125E-05  0.149E-02    0.12       1.0  T
   9   -180.5624632  0.227085E-04  0.212E-02    0.12       1.0  T
  10   -180.5624980 -0.347288E-04  0.630E-03    0.12       1.7  T
  11   -180.5624995 -0.156956E-05  0.406E-03    0.12       2.6  T
  12   -180.5624977  0.184894E-05  0.612E-03    0.12       1.7  T
  13   -180.5624999 -0.225351E-05  0.207E-03    0.12       5.1  T
  14   -180.5625000 -0.388672E-07  0.171E-03    0.12       6.2  T
  15   -180.5625000 -0.542595E-07  0.133E-03    0.12       7.9  T
  16   -180.5625001 -0.814741E-07  0.733E-04    0.12      14.4  T
  17   -180.5625001  0.711577E-08  0.715E-04    0.12      14.7  T
     SCC iter.                  ...        0 min,  0.374 sec
     gradient                   ...        0 min,  0.052 sec
 * total energy  :  -178.8558382 Eh     change       -0.5122558E-03 Eh
   gradient norm :     0.0151796 Eh/α   predicted    -0.6188119E-03 (  20.80%)
   displ. norm   :     0.2695401 α      lambda       -0.8272740E-03
   maximum displ.:     0.1487515 α      in ANC's #3, #12, #1, ...

........................................................................
.............................. CYCLE   91 ..............................
........................................................................

 iter      E             dE          RMSdq      gap      omega  full diag
   1   -180.5661171 -0.180566E+03  0.179E-01    0.13       0.0  T
   2   -179.9812924  0.584825E+00  0.307E+00    0.02       1.0  T
   3   -180.5633672 -0.582075E+00  0.219E-01    0.15       1.0  T
   4   -180.5662067 -0.283946E-02  0.715E-02    0.12       1.0  T
   5   -180.5642207  0.198596E-02  0.178E-01    0.15       1.0  T
   6   -180.5663577 -0.213699E-02  0.673E-02    0.13       1.0  T
   7   -180.5660718  0.285886E-03  0.882E-02    0.13       1.0  T
   8   -180.5664096 -0.337815E-03  0.548E-02    0.13       1.0  T
   9   -180.5665545 -0.144806E-03  0.279E-02    0.12       1.0  T
  10   -180.5665859 -0.313990E-04  0.160E-02    0.12       1.0  T
  11   -180.5665940 -0.811901E-05  0.105E-02    0.12       1.0  T
  12   -180.5666013 -0.732630E-05  0.182E-03    0.12       5.8  T
  13   -180.5665988  0.245655E-05  0.632E-03    0.12       1.7  T
  14   -180.5666000 -0.116563E-05  0.468E-03    0.12       2.3  T
  15   -180.5666012 -0.119825E-05  0.194E-03    0.12       5.4  T
  16   -180.5666014 -0.188650E-06  0.924E-04    0.12      11.4  T
  17   -180.5666013  0.121564E-06  0.168E-03    0.12       6.3  T
  18   -180.5666013 -0.132019E-07  0.161E-03    0.12       6.5  T
  19   -180.5666014 -0.140537E-06  0.629E-04    0.12      16.8  T
     SCC iter.                  ...        0 min,  0.474 sec
     gradient                   ...        0 min,  0.051 sec
 * total energy  :  -178.8562898 Eh     change       -0.4516355E-03 Eh
   gradient norm :     0.0102309 Eh/α   predicted    -0.4436877E-03 (  -1.76%)
   displ. norm   :     0.3368784 α      lambda       -0.5883626E-03
   maximum displ.:     0.1838808 α      in ANC's #5, #6, #8, ...

........................................................................
.............................. CYCLE   92 ..............................
........................................................................

 iter      E             dE          RMSdq      gap      omega  full diag
   1   -180.5684197 -0.180568E+03  0.148E-01    0.13       0.0  T
   2   -179.9382881  0.630132E+00  0.319E+00    0.02       1.0  T
   3   -180.5659559 -0.627668E+00  0.208E-01    0.15       1.0  T
   4   -180.5676805 -0.172460E-02  0.127E-01    0.13       1.0  T
   5   -180.5671036  0.576888E-03  0.159E-01    0.14       1.0  T
   6   -180.5689551 -0.185146E-02  0.498E-02    0.12       1.0  T
   7   -180.5686818  0.273294E-03  0.762E-02    0.13       1.0  T
   8   -180.5690162 -0.334422E-03  0.307E-02    0.12       1.0  T
   9   -180.5690604 -0.442427E-04  0.126E-02    0.12       1.0  T
  10   -180.5690672 -0.681388E-05  0.632E-03    0.12       1.7  T
  11   -180.5690698 -0.251113E-05  0.256E-03    0.12       4.1  T
  12   -180.5690660  0.373654E-05  0.774E-03    0.12       1.4  T
  13   -180.5690674 -0.140405E-05  0.627E-03    0.12       1.7  T
  14   -180.5690696 -0.216320E-05  0.287E-03    0.12       3.7  T
  15   -180.5690700 -0.388438E-06  0.152E-03    0.12       7.0  T
  16   -180.5690701 -0.122563E-06  0.427E-04    0.12      24.7  T
  17   -180.5690701  0.169383E-07  0.672E-04    0.12      15.7  T
     SCC iter.                  ...        0 min,  0.396 sec
     gradient                   ...        0 min,  0.052 sec
 * total energy  :  -178.8566451 Eh     change       -0.3552593E-03 Eh
   gradient norm :     0.0093525 Eh/α   predicted    -0.3275722E-03 (  -7.79%)
   displ. norm   :     0.2777899 α      lambda       -0.4318122E-03
   maximum displ.:     0.1204156 α      in ANC's #6, #5, #3, ...
 * RMSD in coord.:     0.9890009 α      energy gain  -0.6166545E-01 Eh

generating ANC from exact Hessian ...
Using Lindh-Hessian (1995)
 Shifting diagonal of input Hessian by   1.035670364285074E-002
 Lowest  eigenvalues of input Hessian
    0.010000    0.010066    0.000000    0.000000    0.000000    0.000000
    0.000000    0.000000    0.010555    0.010861    0.010927    0.011034
    0.011159    0.011258    0.011486    0.011538    0.011877    0.012328
 Highest eigenvalues
    2.085769    2.091682    2.125255    2.205869    2.212988    2.248972
 

........................................................................
.............................. CYCLE   93 ..............................
........................................................................

 iter      E             dE          RMSdq      gap      omega  full diag
   1   -180.5701847 -0.180570E+03  0.117E-01    0.11       0.0  T
   2   -180.5520997  0.180850E-01  0.464E-01    0.31       1.0  T
   3   -180.5704721 -0.183724E-01  0.421E-02    0.12       1.0  T
   4   -180.5680978  0.237427E-02  0.170E-01    0.14       1.0  T
   5   -180.5705334 -0.243553E-02  0.248E-02    0.12       1.0  T
   6   -180.5701488  0.384566E-03  0.774E-02    0.11       1.0  T
   7   -180.5705597 -0.410953E-03  0.178E-02    0.12       1.0  T
   8   -180.5705317  0.279978E-04  0.297E-02    0.12       1.0  T
   9   -180.5705756 -0.438867E-04  0.128E-02    0.12       1.0  T
  10   -180.5705779 -0.227172E-05  0.120E-02    0.12       1.0  T
  11   -180.5705857 -0.776797E-05  0.382E-03    0.12       2.8  T
  12   -180.5705831  0.255539E-05  0.678E-03    0.12       1.6  T
  13   -180.5705789  0.417195E-05  0.107E-02    0.12       1.0  T
  14   -180.5705858 -0.685420E-05  0.270E-03    0.12       3.9  T
  15   -180.5705859 -0.135954E-06  0.230E-03    0.12       4.6  T
  16   -180.5705863 -0.314749E-06  0.596E-04    0.12      17.7  T
  17   -180.5705863 -0.439417E-08  0.505E-04    0.12      20.9  T
     SCC iter.                  ...        0 min,  0.380 sec
     gradient                   ...        0 min,  0.046 sec
 * total energy  :  -178.8569783 Eh     change       -0.3332715E-03 Eh
   gradient norm :     0.0088178 Eh/α   predicted     0.0000000E+00 (-100.00%)
   displ. norm   :     0.1107790 α      lambda       -0.2770278E-03
   maximum displ.:     0.0489914 α      in ANC's #3, #6, #5, ...

........................................................................
.............................. CYCLE   94 ..............................
........................................................................

 iter      E             dE          RMSdq      gap      omega  full diag
   1   -180.5695267 -0.180570E+03  0.102E-01    0.11       0.0  T
   2   -180.5526521  0.168745E-01  0.457E-01    0.32       1.0  T
   3   -180.5668554 -0.142032E-01  0.181E-01    0.10       1.0  T
   4   -180.5679188 -0.106345E-02  0.166E-01    0.14       1.0  T
   5   -180.5680472 -0.128411E-03  0.156E-01    0.14       1.0  T
   6   -180.5696434 -0.159617E-02  0.602E-02    0.13       1.0  T
   7   -180.5698456 -0.202189E-03  0.450E-02    0.11       1.0  T
   8   -180.5699673 -0.121684E-03  0.990E-03    0.12       1.1  T
   9   -180.5699683 -0.106399E-05  0.723E-03    0.12       1.5  T
  10   -180.5699713 -0.293165E-05  0.438E-03    0.12       2.4  T
  11   -180.5699706  0.634021E-06  0.506E-03    0.12       2.1  T
  12   -180.5699722 -0.157744E-05  0.132E-03    0.12       8.0  T
  13   -180.5699722  0.147722E-07  0.129E-03    0.12       8.2  T
  14   -180.5699720  0.188736E-06  0.210E-03    0.12       5.0  T
  15   -180.5699723 -0.234502E-06  0.942E-04    0.12      11.2  T
  16   -180.5699723 -0.308677E-07  0.597E-04    0.12      17.7  T
     SCC iter.                  ...        0 min,  0.346 sec
     gradient                   ...        0 min,  0.048 sec
 * total energy  :  -178.8571904 Eh     change       -0.2120224E-03 Eh
   gradient norm :     0.0046281 Eh/α   predicted    -0.1402143E-03 ( -33.87%)
   displ. norm   :     0.3425048 α      lambda       -0.5641851E-03
   maximum displ.:     0.1609668 α      in ANC's #3, #6, #5, ...

........................................................................
.............................. CYCLE   95 ..............................
........................................................................

 iter      E             dE          RMSdq      gap      omega  full diag
   1   -180.5653928 -0.180565E+03  0.239E-01    0.09       0.0  T
   2   -180.5331450  0.322478E-01  0.617E-01    0.48       1.0  T
   3   -180.5644833 -0.313383E-01  0.288E-01    0.16       1.0  T
   4   -180.5653456 -0.862272E-03  0.210E-01    0.15       1.0  T
   5   -180.5680534 -0.270785E-02  0.787E-02    0.11       1.0  T
   6   -180.5684442 -0.390825E-03  0.317E-02    0.12       1.0  T
   7   -180.5683938  0.504607E-04  0.419E-02    0.12       1.0  T
   8   -180.5683396  0.542038E-04  0.496E-02    0.11       1.0  T
   9   -180.5684786 -0.138988E-03  0.235E-02    0.12       1.0  T
  10   -180.5685143 -0.357735E-04  0.504E-03    0.12       2.1  T
  11   -180.5685143  0.914264E-08  0.451E-03    0.12       2.3  T
  12   -180.5685131  0.127675E-05  0.619E-03    0.12       1.7  T
  13   -180.5685152 -0.218822E-05  0.266E-03    0.12       4.0  T
  14   -180.5685144  0.842226E-06  0.437E-03    0.12       2.4  T
  15   -180.5685156 -0.118063E-05  0.790E-04    0.12      13.3  T
  16   -180.5685155  0.686660E-07  0.130E-03    0.12       8.1  T
  17   -180.5685155  0.716031E-08  0.125E-03    0.12       8.5  T
  18   -180.5685155 -0.383265E-07  0.904E-04    0.12      11.7  T
  19   -180.5685156 -0.443096E-07  0.411E-04    0.12      25.6  T
     SCC iter.                  ...        0 min,  0.406 sec
     gradient                   ...        0 min,  0.047 sec
 * total energy  :  -178.8575420 Eh     change       -0.3515932E-03 Eh
   gradient norm :     0.0087409 Eh/α   predicted    -0.3153051E-03 ( -10.32%)
   displ. norm   :     0.4100169 α      lambda       -0.5170452E-03
   maximum displ.:     0.1863960 α      in ANC's #3, #6, #5, ...

........................................................................
.............................. CYCLE   96 ..............................
........................................................................

 iter      E             dE          RMSdq      gap      omega  full diag
   1   -180.5658167 -0.180566E+03  0.142E-01    0.12       0.0  T
   2   -180.4694612  0.963555E-01  0.119E+00    0.03       1.0  T
   3   -180.5656975 -0.962363E-01  0.784E-02    0.13       1.0  T
   4   -180.5643789  0.131868E-02  0.132E-01    0.13       1.0  T
   5   -180.5658827 -0.150381E-02  0.269E-02    0.12       1.0  T
   6   -180.5657070  0.175661E-03  0.530E-02    0.12       1.0  T
   7   -180.5659187 -0.211671E-03  0.116E-02    0.12       1.0  T
   8   -180.5659174  0.129794E-05  0.124E-02    0.12       1.0  T
   9   -180.5659239 -0.650750E-05  0.814E-03    0.12       1.3  T
  10   -180.5659277 -0.376746E-05  0.360E-03    0.12       2.9  T
  11   -180.5659280 -0.340233E-06  0.293E-03    0.12       3.6  T
  12   -180.5659272  0.752576E-06  0.430E-03    0.12       2.4  T
  13   -180.5659269  0.338623E-06  0.466E-03    0.12       2.3  T
  14   -180.5659284 -0.146400E-05  0.104E-03    0.12      10.2  T
  15   -180.5659284 -0.228424E-07  0.602E-04    0.12      17.5  T
  16   -180.5659284 -0.144692E-08  0.526E-04    0.12      20.0  T
     SCC iter.                  ...        0 min,  0.351 sec
     gradient                   ...        0 min,  0.049 sec
 * total energy  :  -178.8578042 Eh     change       -0.2622988E-03 Eh
   gradient norm :     0.0120735 Eh/α   predicted    -0.3019842E-03 (  15.13%)
   displ. norm   :     0.4163161 α      lambda       -0.6097125E-03
   maximum displ.:     0.1987424 α      in ANC's #3, #6, #5, ...

........................................................................
.............................. CYCLE   97 ..............................
........................................................................

 iter      E             dE          RMSdq      gap      omega  full diag
   1   -180.5635719 -0.180564E+03  0.191E-01    0.10       0.0  T
   2   -180.5384248  0.251471E-01  0.539E-01    0.43       1.0  T
   3   -180.5596878 -0.212630E-01  0.232E-01    0.09       1.0  T
   4   -180.5553961  0.429169E-02  0.365E-01    0.19       1.0  T
   5   -180.5569710 -0.157495E-02  0.323E-01    0.18       1.0  T
   6   -180.5632331 -0.626203E-02  0.143E-01    0.14       1.0  T
   7   -180.5648400 -0.160695E-02  0.164E-02    0.12       1.0  T
   8   -180.5640288  0.811164E-03  0.110E-01    0.10       1.0  T
   9   -180.5643473 -0.318484E-03  0.908E-02    0.13       1.0  T
  10   -180.5648155 -0.468214E-03  0.248E-02    0.12       1.0  T
  11   -180.5648316 -0.160417E-04  0.181E-02    0.12       1.0  T
  12   -180.5648521 -0.205144E-04  0.350E-03    0.12       3.0  T
  13   -180.5648514  0.666802E-06  0.465E-03    0.12       2.3  T
  14   -180.5648525 -0.105563E-05  0.229E-03    0.12       4.6  T
  15   -180.5648528 -0.287388E-06  0.710E-04    0.12      14.8  T
  16   -180.5648528 -0.104470E-07  0.518E-04    0.12      20.3  T
     SCC iter.                  ...        0 min,  0.383 sec
     gradient                   ...        0 min,  0.053 sec
 * total energy  :  -178.8582369 Eh     change       -0.4326999E-03 Eh
   gradient norm :     0.0111317 Eh/α   predicted    -0.3576938E-03 ( -17.33%)
   displ. norm   :     0.4596189 α      lambda       -0.7688691E-03
   maximum displ.:     0.2140350 α      in ANC's #5, #3, #6, ...

........................................................................
.............................. CYCLE   98 ..............................
........................................................................

 iter      E             dE          RMSdq      gap      omega  full diag
   1   -180.5651886 -0.180565E+03  0.153E-01    0.12       0.0  T
   2   -180.5526663  0.125223E-01  0.409E-01    0.08       1.0  T
   3   -180.5520238  0.642487E-03  0.412E-01    0.24       1.0  T
   4   -180.5639281 -0.119043E-01  0.148E-01    0.14       1.0  T
   5   -180.5631471  0.781023E-03  0.175E-01    0.15       1.0  T
   6   -180.5634035 -0.256428E-03  0.156E-01    0.14       1.0  T
   7   -180.5652247 -0.182118E-02  0.177E-02    0.12       1.0  T
   8   -180.5648563  0.368431E-03  0.769E-02    0.11       1.0  T
   9   -180.5651366 -0.280288E-03  0.386E-02    0.11       1.0  T
  10   -180.5652293 -0.926903E-04  0.166E-02    0.12       1.0  T
  11   -180.5652328 -0.357811E-05  0.147E-02    0.12       1.0  T
  12   -180.5652448 -0.119281E-04  0.582E-03    0.12       1.8  T
  13   -180.5652471 -0.230236E-05  0.997E-04    0.12      10.6  T
  14   -180.5652470  0.100745E-07  0.991E-04    0.12      10.6  T
  15   -180.5652471 -0.274750E-07  0.768E-04    0.12      13.7  T
     SCC iter.                  ...        0 min,  0.319 sec
     gradient                   ...        0 min,  0.049 sec
 * total energy  :  -178.8588059 Eh     change       -0.5689856E-03 Eh
   gradient norm :     0.0092937 Eh/α   predicted    -0.4656470E-03 ( -18.16%)
   displ. norm   :     0.6043945 α      lambda       -0.7619071E-03
   maximum displ.:     0.2911324 α      in ANC's #5, #3, #6, ...

........................................................................
.............................. CYCLE   99 ..............................
........................................................................

 iter      E             dE          RMSdq      gap      omega  full diag
   1   -180.5637269 -0.180564E+03  0.162E-01    0.13       0.0  T
   2   -180.3999007  0.163826E+00  0.158E+00    0.01       1.0  T
   3   -180.5600300 -0.160129E+00  0.223E-01    0.15       1.0  T
   4   -180.5518196  0.821034E-02  0.344E-01    0.09       1.0  T
   5   -180.5632009 -0.113813E-01  0.993E-02    0.13       1.0  T
   6   -180.5631253  0.755810E-04  0.104E-01    0.13       1.0  T
   7   -180.5637833 -0.658003E-03  0.455E-02    0.12       1.0  T
   8   -180.5638410 -0.576841E-04  0.315E-02    0.12       1.0  T
   9   -180.5638892 -0.482329E-04  0.158E-02    0.12       1.0  T
  10   -180.5638677  0.215770E-04  0.224E-02    0.12       1.0  T
  11   -180.5638951 -0.274539E-04  0.112E-02    0.12       1.0  T
  12   -180.5639036 -0.851974E-05  0.194E-03    0.12       5.4  T
  13   -180.5639037 -0.332890E-07  0.143E-03    0.12       7.4  T
  14   -180.5639035  0.126944E-06  0.185E-03    0.12       5.7  T
  15   -180.5639035  0.339582E-07  0.193E-03    0.12       5.5  T
  16   -180.5639036 -0.913279E-07  0.148E-03    0.12       7.1  T
  17   -180.5639037 -0.134482E-06  0.424E-04    0.12      24.9  T
  18   -180.5639037  0.366258E-07  0.810E-04    0.12      13.0  T
     SCC iter.                  ...        0 min,  0.383 sec
     gradient                   ...        0 min,  0.048 sec
 * total energy  :  -178.8594383 Eh     change       -0.6323679E-03 Eh
   gradient norm :     0.0101750 Eh/α   predicted    -0.5201162E-03 ( -17.75%)
   displ. norm   :     0.6500785 α      lambda       -0.8403088E-03
   maximum displ.:     0.3250013 α      in ANC's #5, #6, #3, ...

........................................................................
.............................. CYCLE  100 ..............................
........................................................................

 iter      E             dE          RMSdq      gap      omega  full diag
   1   -180.5640997 -0.180564E+03  0.158E-01    0.12       0.0  T
   2   -180.5585943  0.550537E-02  0.265E-01    0.17       1.0  T
   3   -180.3032574  0.255337E+00  0.199E+00    0.01       1.0  T
   4   -180.5528108 -0.249553E+00  0.320E-01    0.09       1.0  T
   5   -180.5628709 -0.100601E-01  0.135E-01    0.14       1.0  T
   6   -180.5629642 -0.932256E-04  0.132E-01    0.14       1.0  T
   7   -180.5637270 -0.762807E-03  0.865E-02    0.13       1.0  T
   8   -180.5639688 -0.241857E-03  0.601E-02    0.13       1.0  T
   9   -180.5641447 -0.175852E-03  0.300E-02    0.12       1.0  T
  10   -180.5641032  0.414471E-04  0.372E-02    0.12       1.0  T
  11   -180.5641605 -0.572245E-04  0.233E-02    0.12       1.0  T
  12   -180.5641914 -0.309197E-04  0.929E-03    0.12       1.1  T
  13   -180.5641955 -0.415652E-05  0.455E-03    0.12       2.3  T
  14   -180.5641969 -0.130832E-05  0.105E-03    0.12      10.0  T
  15   -180.5641964  0.422502E-06  0.268E-03    0.12       3.9  T
  16   -180.5641965 -0.893522E-07  0.236E-03    0.12       4.5  T
  17   -180.5641969 -0.370087E-06  0.364E-04    0.12      28.9  T
  18   -180.5641968  0.513316E-07  0.903E-04    0.12      11.7  T
     SCC iter.                  ...        0 min,  0.411 sec
     gradient                   ...        0 min,  0.050 sec
 * total energy  :  -178.8601685 Eh     change       -0.7302130E-03 Eh
   gradient norm :     0.0107131 Eh/α   predicted    -0.5977151E-03 ( -18.15%)
   displ. norm   :     0.7185603 α      lambda       -0.9883795E-03
   maximum displ.:     0.3647145 α      in ANC's #5, #6, #3, ...

........................................................................
.............................. CYCLE  101 ..............................
........................................................................

 iter      E             dE          RMSdq      gap      omega  full diag
   1   -180.5656994 -0.180566E+03  0.207E-01    0.14       0.0  T
   2   -179.8989606  0.666739E+00  0.326E+00    0.02       1.0  T
   3   -180.5646386 -0.665678E+00  0.171E-01    0.15       1.0  T
   4   -180.5637739  0.864632E-03  0.158E-01    0.11       1.0  T
   5   -180.5652735 -0.149957E-02  0.132E-01    0.14       1.0  T
   6   -180.5661766 -0.903111E-03  0.810E-02    0.13       1.0  T
   7   -180.5665359 -0.359247E-03  0.401E-02    0.13       1.0  T
   8   -180.5665570 -0.211340E-04  0.339E-02    0.13       1.0  T
   9   -180.5666327 -0.757075E-04  0.570E-03    0.12       1.8  T
  10   -180.5666288  0.391866E-05  0.971E-03    0.12       1.1  T
  11   -180.5666315 -0.271801E-05  0.684E-03    0.12       1.5  T
  12   -180.5666348 -0.327252E-05  0.186E-03    0.12       5.7  T
  13   -180.5666342  0.628119E-06  0.348E-03    0.12       3.0  T
  14   -180.5666349 -0.720329E-06  0.133E-03    0.12       7.9  T
  15   -180.5666349 -0.213221E-07  0.112E-03    0.12       9.4  T
  16   -180.5666349 -0.305199E-07  0.795E-04    0.12      13.3  T
  17   -180.5666349  0.576278E-07  0.114E-03    0.12       9.2  T
  18   -180.5666350 -0.892509E-07  0.337E-04    0.12      31.3  T
     SCC iter.                  ...        0 min,  0.480 sec
     gradient                   ...        0 min,  0.049 sec
 * total energy  :  -178.8610277 Eh     change       -0.8591491E-03 Eh
   gradient norm :     0.0102628 Eh/α   predicted    -0.7493555E-03 ( -12.78%)
   displ. norm   :     0.8080255 α      lambda       -0.1075456E-02
   maximum displ.:     0.4123161 α      in ANC's #5, #6, #3, ...

........................................................................
.............................. CYCLE  102 ..............................
........................................................................

 iter      E             dE          RMSdq      gap      omega  full diag
   1   -180.5641177 -0.180564E+03  0.222E-01    0.10       0.0  T
   2   -180.5385523  0.255654E-01  0.544E-01    0.43       1.0  T
   3   -180.5644774 -0.259251E-01  0.125E-01    0.12       1.0  T
   4   -180.5591898  0.528759E-02  0.279E-01    0.16       1.0  T
   5   -180.5650926 -0.590274E-02  0.869E-02    0.12       1.0  T
   6   -180.5654089 -0.316307E-03  0.754E-02    0.11       1.0  T
   7   -180.5657414 -0.332539E-03  0.331E-02    0.12       1.0  T
   8   -180.5651292  0.612230E-03  0.979E-02    0.11       1.0  T
   9   -180.5656823 -0.553161E-03  0.445E-02    0.13       1.0  T
  10   -180.5657926 -0.110296E-03  0.161E-02    0.12       1.0  T
  11   -180.5658076 -0.149929E-04  0.375E-03    0.12       2.8  T
  12   -180.5658062  0.143358E-05  0.516E-03    0.12       2.0  T
  13   -180.5658071 -0.918629E-06  0.430E-03    0.12       2.4  T
  14   -180.5658069  0.177090E-06  0.428E-03    0.12       2.5  T
  15   -180.5658081 -0.118238E-05  0.115E-03    0.12       9.2  T
  16   -180.5658082 -0.442617E-07  0.598E-04    0.12      17.6  T
  17   -180.5658076  0.591966E-06  0.303E-03    0.12       3.5  T
  18   -180.5658080 -0.444894E-06  0.160E-03    0.12       6.6  T
  19   -180.5658082 -0.136841E-06  0.672E-04    0.12      15.7  T
     SCC iter.                  ...        0 min,  0.424 sec
     gradient                   ...        0 min,  0.050 sec
 * total energy  :  -178.8619735 Eh     change       -0.9457876E-03 Eh
   gradient norm :     0.0095888 Eh/α   predicted    -0.8888179E-03 (  -6.02%)
   displ. norm   :     0.7903853 α      lambda       -0.1154992E-02
   maximum displ.:     0.4123648 α      in ANC's #5, #3, #6, ...

........................................................................
.............................. CYCLE  103 ..............................
........................................................................

 iter      E             dE          RMSdq      gap      omega  full diag
   1   -180.5695350 -0.180570E+03  0.200E-01    0.13       0.0  T
   2   -180.0499926  0.519542E+00  0.286E+00    0.02       1.0  T
   3   -180.5646516 -0.514659E+00  0.271E-01    0.18       1.0  T
   4   -180.5691941 -0.454252E-02  0.863E-02    0.12       1.0  T
   5   -180.5663581  0.283604E-02  0.215E-01    0.16       1.0  T
   6   -180.5689181 -0.255998E-02  0.131E-01    0.14       1.0  T
   7   -180.5686918  0.226257E-03  0.134E-01    0.14       1.0  T
   8   -180.5695995 -0.907704E-03  0.757E-02    0.13       1.0  T
   9   -180.5698777 -0.278157E-03  0.378E-02    0.13       1.0  T
  10   -180.5698896 -0.119282E-04  0.335E-02    0.13       1.0  T
  11   -180.5699319 -0.422770E-04  0.210E-02    0.12       1.0  T
  12   -180.5699622 -0.303638E-04  0.299E-03    0.12       3.5  T
  13   -180.5699600  0.218782E-05  0.633E-03    0.12       1.7  T
  14   -180.5699614 -0.139110E-05  0.462E-03    0.12       2.3  T
  15   -180.5699622 -0.802443E-06  0.286E-03    0.12       3.7  T
  16   -180.5699628 -0.531915E-06  0.514E-04    0.12      20.5  T
  17   -180.5699627  0.310187E-07  0.812E-04    0.12      13.0  T
     SCC iter.                  ...        0 min,  0.427 sec
     gradient                   ...        0 min,  0.048 sec
 * total energy  :  -178.8629458 Eh     change       -0.9723888E-03 Eh
   gradient norm :     0.0088148 Eh/α   predicted    -0.9382639E-03 (  -3.51%)
   displ. norm   :     0.8856182 α      lambda       -0.1128397E-02
   maximum displ.:     0.4529362 α      in ANC's #5, #3, #6, ...

........................................................................
.............................. CYCLE  104 ..............................
........................................................................

 iter      E             dE          RMSdq      gap      omega  full diag
   1   -180.5638384 -0.180564E+03  0.193E-01    0.13       0.0  T
   2   -180.3899346  0.173904E+00  0.160E+00    0.01       1.0  T
   3   -180.5580281 -0.168093E+00  0.290E-01    0.19       1.0  T
   4   -180.5636397 -0.561164E-02  0.845E-02    0.13       1.0  T
   5   -180.5608751  0.276458E-02  0.206E-01    0.16       1.0  T
   6   -180.5629180 -0.204286E-02  0.134E-01    0.15       1.0  T
   7   -180.5626396  0.278408E-03  0.137E-01    0.14       1.0  T
   8   -180.5637742 -0.113463E-02  0.638E-02    0.13       1.0  T
   9   -180.5639896 -0.215353E-03  0.272E-02    0.13       1.0  T
  10   -180.5640166 -0.270590E-04  0.168E-02    0.13       1.0  T
  11   -180.5640316 -0.149409E-04  0.623E-03    0.12       1.7  T
  12   -180.5640271  0.448718E-05  0.107E-02    0.12       1.0  T
  13   -180.5640274 -0.369415E-06  0.102E-02    0.12       1.0  T
  14   -180.5640330 -0.558289E-05  0.490E-03    0.12       2.2  T
  15   -180.5640346 -0.152768E-05  0.102E-03    0.12      10.3  T
  16   -180.5640343  0.209795E-06  0.204E-03    0.12       5.2  T
  17   -180.5640342  0.111298E-06  0.240E-03    0.12       4.4  T
  18   -180.5640344 -0.196231E-06  0.163E-03    0.12       6.5  T
  19   -180.5640346 -0.180620E-06  0.144E-04    0.12      73.4  T
  20   -180.5640346  0.501191E-08  0.313E-04    0.12      33.6  T
     SCC iter.                  ...        0 min,  0.475 sec
     gradient                   ...        0 min,  0.048 sec
 * total energy  :  -178.8639541 Eh     change       -0.1008213E-02 Eh
   gradient norm :     0.0107812 Eh/α   predicted    -0.1006716E-02 (  -0.15%)
   displ. norm   :     0.7151626 α      lambda       -0.1556301E-02
   maximum displ.:     0.3615308 α      in ANC's #5, #3, #6, ...

........................................................................
.............................. CYCLE  105 ..............................
........................................................................

 iter      E             dE          RMSdq      gap      omega  full diag
   1   -180.5783404 -0.180578E+03  0.241E-01    0.12       0.0  T
   2   -180.5771394  0.120100E-02  0.140E-01    0.11       1.0  T
   3   -180.5567848  0.203546E-01  0.480E-01    0.32       1.0  T
   4   -180.5731119 -0.163271E-01  0.276E-01    0.09       1.0  T
   5   -180.5770032 -0.389122E-02  0.163E-01    0.15       1.0  T
   6   -180.5773868 -0.383607E-03  0.128E-01    0.14       1.0  T
   7   -180.5785027 -0.111594E-02  0.259E-02    0.12       1.0  T
   8   -180.5784855  0.172258E-04  0.331E-02    0.12       1.0  T
   9   -180.5785258 -0.403144E-04  0.216E-02    0.12       1.0  T
  10   -180.5785517 -0.258644E-04  0.107E-02    0.12       1.0  T
  11   -180.5785453  0.633794E-05  0.129E-02    0.13       1.0  T
  12   -180.5785560 -0.106504E-04  0.535E-03    0.12       2.0  T
  13   -180.5785528  0.319845E-05  0.830E-03    0.12       1.3  T
  14   -180.5785574 -0.465748E-05  0.168E-03    0.12       6.3  T
  15   -180.5785569  0.517034E-06  0.330E-03    0.12       3.2  T
  16   -180.5785576 -0.669334E-06  0.708E-04    0.12      14.9  T
  17   -180.5785572  0.412694E-06  0.258E-03    0.12       4.1  T
  18   -180.5785574 -0.262355E-06  0.153E-03    0.12       6.9  T
  19   -180.5785576 -0.152498E-06  0.420E-04    0.12      25.1  T
     SCC iter.                  ...        0 min,  0.424 sec
     gradient                   ...        0 min,  0.049 sec
 * total energy  :  -178.8644517 Eh     change       -0.4976920E-03 Eh
   gradient norm :     0.0168867 Eh/α   predicted    -0.1176144E-02 ( 136.32%)
   displ. norm   :     0.6239527 α      lambda       -0.1653144E-02
   maximum displ.:     0.3209504 α      in ANC's #5, #3, #6, ...

........................................................................
.............................. CYCLE  106 ..............................
........................................................................

 iter      E             dE          RMSdq      gap      omega  full diag
   1   -180.5669201 -0.180567E+03  0.199E-01    0.13       0.0  T
   2   -180.5566355  0.102846E-01  0.387E-01    0.08       1.0  T
   3   -180.5518813  0.475412E-02  0.416E-01    0.30       1.0  T
   4   -180.5651889 -0.133075E-01  0.124E-01    0.12       1.0  T
   5   -180.5635832  0.160569E-02  0.214E-01    0.16       1.0  T
   6   -180.5652295 -0.164634E-02  0.160E-01    0.15       1.0  T
   7   -180.5668117 -0.158221E-02  0.540E-02    0.13       1.0  T
   8   -180.5658863  0.925452E-03  0.129E-01    0.11       1.0  T
   9   -180.5669743 -0.108804E-02  0.283E-02    0.12       1.0  T
  10   -180.5670190 -0.446482E-04  0.145E-02    0.13       1.0  T
  11   -180.5670279 -0.897083E-05  0.904E-03    0.12       1.2  T
  12   -180.5670326 -0.462282E-05  0.217E-03    0.12       4.9  T
  13   -180.5670323  0.220982E-06  0.235E-03    0.12       4.5  T
  14   -180.5670323  0.592417E-07  0.273E-03    0.12       3.9  T
  15   -180.5670323 -0.596639E-07  0.244E-03    0.12       4.3  T
  16   -180.5670327 -0.334463E-06  0.100E-03    0.12      10.5  T
  17   -180.5670327 -0.395546E-07  0.674E-04    0.12      15.6  T
  18   -180.5670327 -0.253259E-07  0.224E-04    0.12      47.1  T
     SCC iter.                  ...        0 min,  0.399 sec
     gradient                   ...        0 min,  0.050 sec
 * total energy  :  -178.8656615 Eh     change       -0.1209753E-02 Eh
   gradient norm :     0.0113090 Eh/α   predicted    -0.1148371E-02 (  -5.07%)
   displ. norm   :     0.7597294 α      lambda       -0.1122320E-02
   maximum displ.:     0.4050393 α      in ANC's #5, #3, #6, ...

........................................................................
.............................. CYCLE  107 ..............................
........................................................................

 iter      E             dE          RMSdq      gap      omega  full diag
   1   -180.5631905 -0.180563E+03  0.173E-01    0.13       0.0  T
   2   -180.5371650  0.260255E-01  0.607E-01    0.07       1.0  T
   3   -180.5537130 -0.165480E-01  0.346E-01    0.22       1.0  T
   4   -180.5619666 -0.825359E-02  0.104E-01    0.12       1.0  T
   5   -180.5604065  0.156004E-02  0.195E-01    0.16       1.0  T
   6   -180.5615803 -0.117374E-02  0.156E-01    0.15       1.0  T
   7   -180.5627100 -0.112977E-02  0.899E-02    0.14       1.0  T
   8   -180.5632475 -0.537440E-03  0.207E-02    0.12       1.0  T
   9   -180.5631881  0.594088E-04  0.360E-02    0.12       1.0  T
  10   -180.5632785 -0.904541E-04  0.540E-03    0.12       2.0  T
  11   -180.5632793 -0.737272E-06  0.371E-03    0.12       2.8  T
  12   -180.5632794 -0.108819E-06  0.342E-03    0.12       3.1  T
  13   -180.5632791  0.242905E-06  0.371E-03    0.12       2.8  T
  14   -180.5632799 -0.812000E-06  0.881E-04    0.12      12.0  T
  15   -180.5632798  0.132903E-06  0.160E-03    0.12       6.6  T
  16   -180.5632797  0.736727E-07  0.179E-03    0.12       5.9  T
  17   -180.5632799 -0.153997E-06  0.103E-03    0.12      10.2  T
  18   -180.5632799 -0.561215E-07  0.492E-04    0.12      21.4  T
     SCC iter.                  ...        0 min,  0.407 sec
     gradient                   ...        0 min,  0.051 sec
 * total energy  :  -178.8666543 Eh     change       -0.9927980E-03 Eh
   gradient norm :     0.0115220 Eh/α   predicted    -0.8850574E-03 ( -10.85%)
   displ. norm   :     0.6638200 α      lambda       -0.1436477E-02
   maximum displ.:     0.3558176 α      in ANC's #5, #3, #6, ...

........................................................................
.............................. CYCLE  108 ..............................
........................................................................

 iter      E             dE          RMSdq      gap      omega  full diag
   1   -180.5710579 -0.180571E+03  0.215E-01    0.13       0.0  T
   2   -180.1215105  0.449547E+00  0.264E+00    0.02       1.0  T
   3   -180.5710954 -0.449585E+00  0.978E-02    0.13       1.0  T
   4   -180.5673569  0.373848E-02  0.213E-01    0.15       1.0  T
   5   -180.5712359 -0.387900E-02  0.481E-02    0.12       1.0  T
   6   -180.5711504  0.855108E-04  0.612E-02    0.13       1.0  T
   7   -180.5713545 -0.204160E-03  0.363E-02    0.13       1.0  T
   8   -180.5714171 -0.625549E-04  0.177E-02    0.13       1.0  T
   9   -180.5714344 -0.172903E-04  0.625E-03    0.12       1.7  T
  10   -180.5714162  0.182204E-04  0.164E-02    0.13       1.0  T
  11   -180.5714329 -0.167197E-04  0.725E-03    0.13       1.5  T
  12   -180.5714357 -0.277514E-05  0.287E-03    0.12       3.7  T
  13   -180.5714358 -0.160306E-06  0.218E-03    0.12       4.8  T
  14   -180.5714361 -0.237681E-06  0.109E-03    0.12       9.7  T
  15   -180.5714360  0.832009E-07  0.141E-03    0.12       7.5  T
  16   -180.5714359  0.424845E-07  0.152E-03    0.12       6.9  T
  17   -180.5714360 -0.819153E-07  0.105E-03    0.12      10.0  T
  18   -180.5714361 -0.660292E-07  0.447E-04    0.12      23.6  T
  19   -180.5714361 -0.213643E-08  0.372E-04    0.12      28.3  T
     SCC iter.                  ...        0 min,  0.455 sec
     gradient                   ...        0 min,  0.049 sec
 * total energy  :  -178.8675792 Eh     change       -0.9248751E-03 Eh
   gradient norm :     0.0114483 Eh/α   predicted    -0.1034742E-02 (  11.88%)
   displ. norm   :     0.8287158 α      lambda       -0.1417760E-02
   maximum displ.:     0.4401416 α      in ANC's #5, #3, #6, ...

........................................................................
.............................. CYCLE  109 ..............................
........................................................................

 iter      E             dE          RMSdq      gap      omega  full diag
   1   -180.5655434 -0.180566E+03  0.199E-01    0.12       0.0  T
   2   -180.5558409  0.970254E-02  0.361E-01    0.24       1.0  T
   3   -180.2554515  0.300389E+00  0.216E+00    0.01       1.0  T
   4   -180.5650819 -0.309630E+00  0.135E-01    0.14       1.0  T
   5   -180.5592730  0.580890E-02  0.293E-01    0.19       1.0  T
   6   -180.5624404 -0.316741E-02  0.229E-01    0.17       1.0  T
   7   -180.5622488  0.191554E-03  0.224E-01    0.17       1.0  T
   8   -180.5645935 -0.234469E-02  0.135E-01    0.15       1.0  T
   9   -180.5651837 -0.590160E-03  0.954E-02    0.14       1.0  T
  10   -180.5654172 -0.233495E-03  0.723E-02    0.14       1.0  T
  11   -180.5656644 -0.247193E-03  0.374E-02    0.13       1.0  T
  12   -180.5657500 -0.856432E-04  0.109E-02    0.12       1.0  T
  13   -180.5657344  0.155604E-04  0.185E-02    0.12       1.0  T
  14   -180.5657459 -0.114788E-04  0.134E-02    0.12       1.0  T
  15   -180.5657554 -0.951180E-05  0.597E-03    0.12       1.8  T
  16   -180.5657577 -0.227386E-05  0.818E-04    0.12      12.9  T
  17   -180.5657572  0.511089E-06  0.282E-03    0.12       3.7  T
  18   -180.5657576 -0.404469E-06  0.141E-03    0.12       7.5  T
  19   -180.5657577 -0.853058E-07  0.818E-04    0.12      12.9  T
  20   -180.5657576  0.702349E-07  0.131E-03    0.12       8.0  T
  21   -180.5657577 -0.617464E-07  0.904E-04    0.12      11.7  T
     SCC iter.                  ...        0 min,  0.532 sec
     gradient                   ...        0 min,  0.053 sec
 * total energy  :  -178.8688548 Eh     change       -0.1275650E-02 Eh
   gradient norm :     0.0113222 Eh/α   predicted    -0.1195724E-02 (  -6.27%)
   displ. norm   :     0.6740206 α      lambda       -0.1655778E-02
   maximum displ.:     0.3424973 α      in ANC's #5, #3, #6, ...

........................................................................
.............................. CYCLE  110 ..............................
........................................................................

 iter      E             dE          RMSdq      gap      omega  full diag
   1   -180.5672149 -0.180567E+03  0.386E-01    0.09       0.0  T
   2   -180.5315130  0.357019E-01  0.681E-01    0.55       1.0  T
   3   -180.5639778 -0.324648E-01  0.400E-01    0.18       1.0  T
   4   -180.5678521 -0.387434E-02  0.291E-01    0.16       1.0  T
   5   -180.5694115 -0.155944E-02  0.228E-01    0.10       1.0  T
   6   -180.5665807  0.283081E-02  0.317E-01    0.20       1.0  T
   7   -180.5726676 -0.608685E-02  0.128E-01    0.14       1.0  T
   8   -180.5733553 -0.687716E-03  0.584E-02    0.12       1.0  T
   9   -180.5734234 -0.681214E-04  0.541E-02    0.12       1.0  T
  10   -180.5735872 -0.163780E-03  0.162E-02    0.12       1.0  T
  11   -180.5734706  0.116654E-03  0.434E-02    0.12       1.0  T
  12   -180.5735911 -0.120566E-03  0.125E-02    0.13       1.0  T
  13   -180.5735939 -0.277482E-05  0.104E-02    0.12       1.0  T
  14   -180.5735952 -0.128280E-05  0.952E-03    0.12       1.1  T
  15   -180.5736005 -0.535566E-05  0.258E-03    0.12       4.1  T
  16   -180.5736006 -0.738277E-07  0.229E-03    0.12       4.6  T
  17   -180.5735998  0.760382E-06  0.400E-03    0.12       2.6  T
  18   -180.5736005 -0.635731E-06  0.256E-03    0.12       4.1  T
  19   -180.5736009 -0.414072E-06  0.550E-04    0.12      19.2  T
  20   -180.5736007  0.162398E-06  0.164E-03    0.12       6.4  T
  21   -180.5736009 -0.132585E-06  0.815E-04    0.12      12.9  T
     SCC iter.                  ...        0 min,  0.494 sec
     gradient                   ...        0 min,  0.048 sec
 * total energy  :  -178.8698516 Eh     change       -0.9967636E-03 Eh
   gradient norm :     0.0107038 Eh/α   predicted    -0.1204007E-02 (  20.79%)
   displ. norm   :     0.8368559 α      lambda       -0.1501525E-02
   maximum displ.:     0.4499723 α      in ANC's #5, #3, #6, ...

........................................................................
.............................. CYCLE  111 ..............................
........................................................................

 iter      E             dE          RMSdq      gap      omega  full diag
   1   -180.5664720 -0.180566E+03  0.217E-01    0.13       0.0  T
   2   -180.2099546  0.356517E+00  0.233E+00    0.02       1.0  T
   3   -180.5653178 -0.355363E+00  0.164E-01    0.15       1.0  T
   4   -180.5609936  0.432421E-02  0.255E-01    0.16       1.0  T
   5   -180.5667074 -0.571382E-02  0.478E-02    0.13       1.0  T
   6   -180.5658485  0.858885E-03  0.113E-01    0.14       1.0  T
   7   -180.5667307 -0.882227E-03  0.327E-02    0.13       1.0  T
   8   -180.5666907  0.400066E-04  0.369E-02    0.13       1.0  T
   9   -180.5667585 -0.677250E-04  0.210E-02    0.13       1.0  T
  10   -180.5667634 -0.496132E-05  0.181E-02    0.13       1.0  T
  11   -180.5667848 -0.213845E-04  0.540E-03    0.12       2.0  T
  12   -180.5667849 -0.107405E-06  0.476E-03    0.12       2.2  T
  13   -180.5667856 -0.633770E-06  0.379E-03    0.12       2.8  T
  14   -180.5667858 -0.204306E-06  0.330E-03    0.12       3.2  T
  15   -180.5667860 -0.252106E-06  0.245E-03    0.12       4.3  T
  16   -180.5667864 -0.373618E-06  0.863E-04    0.12      12.2  T
  17   -180.5667864 -0.435612E-07  0.343E-04    0.12      30.7  T
     SCC iter.                  ...        0 min,  0.363 sec
     gradient                   ...        0 min,  0.048 sec
 * total energy  :  -178.8711490 Eh     change       -0.1297392E-02 Eh
   gradient norm :     0.0115731 Eh/α   predicted    -0.1276547E-02 (  -1.61%)
   displ. norm   :     0.6953639 α      lambda       -0.1494298E-02
   maximum displ.:     0.3706369 α      in ANC's #5, #3, #6, ...

........................................................................
.............................. CYCLE  112 ..............................
........................................................................

 iter      E             dE          RMSdq      gap      omega  full diag
   1   -180.5708489 -0.180571E+03  0.207E-01    0.13       0.0  T
   2   -180.4137745  0.157074E+00  0.152E+00    0.02       1.0  T
   3   -180.5697072 -0.155933E+00  0.153E-01    0.15       1.0  T
   4   -180.5675028  0.220443E-02  0.195E-01    0.14       1.0  T
   5   -180.5708738 -0.337100E-02  0.503E-02    0.12       1.0  T
   6   -180.5706939  0.179848E-03  0.698E-02    0.13       1.0  T
   7   -180.5710468 -0.352897E-03  0.149E-02    0.12       1.0  T
   8   -180.5710546 -0.775030E-05  0.966E-03    0.12       1.1  T
   9   -180.5710576 -0.302821E-05  0.678E-03    0.12       1.6  T
  10   -180.5710520  0.559102E-05  0.983E-03    0.12       1.1  T
  11   -180.5710574 -0.540019E-05  0.550E-03    0.12       1.9  T
  12   -180.5710589 -0.145820E-05  0.368E-03    0.12       2.9  T
  13   -180.5710591 -0.197198E-06  0.307E-03    0.12       3.4  T
  14   -180.5710596 -0.571949E-06  0.121E-03    0.12       8.7  T
  15   -180.5710596  0.318931E-08  0.102E-03    0.12      10.3  T
  16   -180.5710596 -0.440068E-08  0.915E-04    0.12      11.5  T
  17   -180.5710597 -0.541731E-07  0.302E-04    0.12      34.9  T
     SCC iter.                  ...        0 min,  0.387 sec
     gradient                   ...        0 min,  0.049 sec
 * total energy  :  -178.8723146 Eh     change       -0.1165577E-02 Eh
   gradient norm :     0.0107034 Eh/α   predicted    -0.1108424E-02 (  -4.90%)
   displ. norm   :     0.8592271 α      lambda       -0.1461094E-02
   maximum displ.:     0.4520119 α      in ANC's #5, #3, #6, ...

........................................................................
.............................. CYCLE  113 ..............................
........................................................................

 iter      E             dE          RMSdq      gap      omega  full diag
   1   -180.5695042 -0.180570E+03  0.233E-01    0.11       0.0  T
   2   -180.5528304  0.166738E-01  0.446E-01    0.35       1.0  T
   3   -180.2990789  0.253752E+00  0.199E+00    0.01       1.0  T
   4   -180.5673426 -0.268264E+00  0.204E-01    0.14       1.0  T
   5   -180.5594982  0.784447E-02  0.382E-01    0.21       1.0  T
   6   -180.5616954 -0.219726E-02  0.354E-01    0.22       1.0  T
   7   -180.5638197 -0.212430E-02  0.315E-01    0.20       1.0  T
   8   -180.5664165 -0.259679E-02  0.245E-01    0.17       1.0  T
   9   -180.5682361 -0.181962E-02  0.174E-01    0.15       1.0  T
  10   -180.5688746 -0.638429E-03  0.141E-01    0.15       1.0  T
  11   -180.5697709 -0.896317E-03  0.795E-02    0.14       1.0  T
  12   -180.5701607 -0.389772E-03  0.120E-02    0.12       1.0  T
  13   -180.5701317  0.289351E-04  0.234E-02    0.12       1.0  T
  14   -180.5701249  0.685256E-05  0.258E-02    0.12       1.0  T
  15   -180.5701594 -0.345481E-04  0.117E-02    0.12       1.0  T
  16   -180.5701677 -0.824805E-05  0.327E-03    0.12       3.2  T
  17   -180.5701682 -0.532107E-06  0.107E-03    0.12       9.8  T
  18   -180.5701682 -0.426100E-07  0.693E-04    0.12      15.2  T
  19   -180.5701682  0.135971E-07  0.742E-04    0.12      14.2  T
     SCC iter.                  ...        0 min,  0.393 sec
     gradient                   ...        0 min,  0.047 sec
 * total energy  :  -178.8736666 Eh     change       -0.1352060E-02 Eh
   gradient norm :     0.0108696 Eh/α   predicted    -0.1269895E-02 (  -6.08%)
   displ. norm   :     0.6890837 α      lambda       -0.2048004E-02
   maximum displ.:     0.2990617 α      in ANC's #5, #1, #3, ...

........................................................................
.............................. CYCLE  114 ..............................
........................................................................

 iter      E             dE          RMSdq      gap      omega  full diag
   1   -180.5916323 -0.180592E+03  0.367E-01    0.09       0.0  T
   2   -180.5574490  0.341833E-01  0.640E-01    0.53       1.0  T
   3   -180.5832575 -0.258085E-01  0.325E-01    0.10       1.0  T
   4   -180.5817612  0.149630E-02  0.431E-01    0.21       1.0  T
   5   -180.5913964 -0.963519E-02  0.245E-01    0.15       1.0  T
   6   -180.5961275 -0.473104E-02  0.614E-02    0.12       1.0  T
   7   -180.5963561 -0.228618E-03  0.292E-02    0.12       1.0  T
   8   -180.5962088  0.147293E-03  0.516E-02    0.12       1.0  T
   9   -180.5960976  0.111180E-03  0.639E-02    0.13       1.0  T
  10   -180.5959508  0.146766E-03  0.806E-02    0.11       1.0  T
  11   -180.5963842 -0.433358E-03  0.941E-03    0.12       1.1  T
  12   -180.5963870 -0.282476E-05  0.612E-03    0.12       1.7  T
  13   -180.5963654  0.216309E-04  0.188E-02    0.12       1.0  T
  14   -180.5963853 -0.199163E-04  0.776E-03    0.12       1.4  T
  15   -180.5963865 -0.117886E-05  0.632E-03    0.12       1.7  T
  16   -180.5963886 -0.208910E-05  0.227E-03    0.12       4.6  T
  17   -180.5963864  0.222657E-05  0.620E-03    0.12       1.7  T
  18   -180.5963877 -0.130397E-05  0.427E-03    0.12       2.5  T
  19   -180.5963889 -0.121812E-05  0.583E-04    0.12      18.1  T
  20   -180.5963885  0.337526E-06  0.232E-03    0.12       4.5  T
  21   -180.5963889 -0.340217E-06  0.437E-04    0.12      24.1  T
  22   -180.5963888  0.352404E-07  0.841E-04    0.12      12.5  T
     SCC iter.                  ...        0 min,  0.453 sec
     gradient                   ...        0 min,  0.048 sec
 * total energy  :  -178.8745186 Eh     change       -0.8520345E-03 Eh
   gradient norm :     0.0177765 Eh/α   predicted    -0.1510240E-02 (  77.25%)
   displ. norm   :     0.7378653 α      lambda       -0.1987736E-02
   maximum displ.:     0.3939563 α      in ANC's #5, #3, #6, ...

........................................................................
.............................. CYCLE  115 ..............................
........................................................................

 iter      E             dE          RMSdq      gap      omega  full diag
   1   -180.5796899 -0.180580E+03  0.191E-01    0.12       0.0  T
   2   -180.5719523  0.773753E-02  0.328E-01    0.21       1.0  T
   3   -180.2273701  0.344582E+00  0.232E+00    0.02       1.0  T
   4   -180.5786741 -0.351304E+00  0.137E-01    0.14       1.0  T
   5   -180.5780581  0.615967E-03  0.171E-01    0.15       1.0  T
   6   -180.5757890  0.226910E-02  0.231E-01    0.17       1.0  T
   7   -180.5787324 -0.294343E-02  0.135E-01    0.14       1.0  T
   8   -180.5793201 -0.587689E-03  0.904E-02    0.14       1.0  T
   9   -180.5796212 -0.301058E-03  0.605E-02    0.13       1.0  T
  10   -180.5797076 -0.863792E-04  0.467E-02    0.13       1.0  T
  11   -180.5798126 -0.104989E-03  0.237E-02    0.13       1.0  T
  12   -180.5798452 -0.326920E-04  0.896E-03    0.12       1.2  T
  13   -180.5798425  0.274387E-05  0.109E-02    0.12       1.0  T
  14   -180.5798468 -0.425268E-05  0.766E-03    0.12       1.4  T
  15   -180.5798501 -0.338981E-05  0.287E-03    0.12       3.7  T
  16   -180.5798506 -0.483482E-06  0.637E-04    0.12      16.5  T
  17   -180.5798505  0.159181E-06  0.160E-03    0.12       6.6  T
  18   -180.5798506 -0.171146E-06  0.245E-04    0.12      43.1  T
     SCC iter.                  ...        0 min,  0.384 sec
     gradient                   ...        0 min,  0.051 sec
 * total energy  :  -178.8759185 Eh     change       -0.1399860E-02 Eh
   gradient norm :     0.0106131 Eh/α   predicted    -0.1534979E-02 (   9.65%)
   displ. norm   :     0.8105463 α      lambda       -0.1473821E-02
   maximum displ.:     0.4024089 α      in ANC's #5, #3, #1, ...

........................................................................
.............................. CYCLE  116 ..............................
........................................................................

 iter      E             dE          RMSdq      gap      omega  full diag
   1   -180.5729681 -0.180573E+03  0.212E-01    0.12       0.0  T
   2   -180.5403130  0.326551E-01  0.668E-01    0.06       1.0  T
   3   -180.5621732 -0.218602E-01  0.372E-01    0.24       1.0  T
   4   -180.5722212 -0.100480E-01  0.116E-01    0.13       1.0  T
   5   -180.5716714  0.549817E-03  0.152E-01    0.15       1.0  T
   6   -180.5703659  0.130543E-02  0.188E-01    0.16       1.0  T
   7   -180.5730141 -0.264822E-02  0.371E-02    0.13       1.0  T
   8   -180.5729328  0.813826E-04  0.505E-02    0.12       1.0  T
   9   -180.5729747 -0.419055E-04  0.413E-02    0.12       1.0  T
  10   -180.5730943 -0.119635E-03  0.640E-03    0.12       1.6  T
  11   -180.5730921  0.220145E-05  0.811E-03    0.12       1.3  T
  12   -180.5730922 -0.958285E-07  0.786E-03    0.12       1.3  T
  13   -180.5730960 -0.381209E-05  0.201E-03    0.12       5.3  T
  14   -180.5730959  0.785796E-07  0.220E-03    0.12       4.8  T
  15   -180.5730954  0.542378E-06  0.350E-03    0.12       3.0  T
  16   -180.5730951  0.234098E-06  0.378E-03    0.12       2.8  T
  17   -180.5730961 -0.100097E-05  0.630E-04    0.12      16.7  T
  18   -180.5730961  0.251034E-07  0.895E-04    0.12      11.8  T
  19   -180.5730962 -0.462167E-07  0.355E-04    0.12      29.7  T
     SCC iter.                  ...        0 min,  0.441 sec
     gradient                   ...        0 min,  0.050 sec
 * total energy  :  -178.8769538 Eh     change       -0.1035264E-02 Eh
   gradient norm :     0.0134119 Eh/α   predicted    -0.1221057E-02 (  17.95%)
   displ. norm   :     0.7813628 α      lambda       -0.1298660E-02
   maximum displ.:     0.3944368 α      in ANC's #5, #3, #1, ...

........................................................................
.............................. CYCLE  117 ..............................
........................................................................

 iter      E             dE          RMSdq      gap      omega  full diag
   1   -180.5744379 -0.180574E+03  0.223E-01    0.11       0.0  T
   2   -180.5576058  0.168320E-01  0.445E-01    0.33       1.0  T
   3   -180.3050394  0.252566E+00  0.199E+00    0.01       1.0  T
   4   -180.5688682 -0.263829E+00  0.232E-01    0.13       1.0  T
   5   -180.5668160  0.205221E-02  0.339E-01    0.19       1.0  T
   6   -180.5672425 -0.426472E-03  0.336E-01    0.20       1.0  T
   7   -180.5695178 -0.227535E-02  0.291E-01    0.19       1.0  T
   8   -180.5716377 -0.211986E-02  0.229E-01    0.17       1.0  T
   9   -180.5736761 -0.203839E-02  0.144E-01    0.15       1.0  T
  10   -180.5740572 -0.381130E-03  0.120E-01    0.14       1.0  T
  11   -180.5747102 -0.653006E-03  0.659E-02    0.13       1.0  T
  12   -180.5749540 -0.243827E-03  0.196E-02    0.12       1.0  T
  13   -180.5749687 -0.146217E-04  0.109E-02    0.12       1.0  T
  14   -180.5749505  0.181347E-04  0.200E-02    0.12       1.0  T
  15   -180.5749665 -0.159581E-04  0.124E-02    0.12       1.0  T
  16   -180.5749754 -0.889521E-05  0.441E-03    0.12       2.4  T
  17   -180.5749764 -0.101169E-05  0.139E-03    0.12       7.6  T
  18   -180.5749764 -0.851688E-08  0.141E-03    0.12       7.5  T
  19   -180.5749765 -0.118576E-06  0.377E-04    0.12      27.9  T
  20   -180.5749764  0.980493E-07  0.116E-03    0.12       9.1  T
  21   -180.5749765 -0.410572E-07  0.925E-04    0.12      11.4  T
     SCC iter.                  ...        0 min,  0.453 sec
     gradient                   ...        0 min,  0.048 sec
 * total energy  :  -178.8780052 Eh     change       -0.1051457E-02 Eh
   gradient norm :     0.0128814 Eh/α   predicted    -0.1045769E-02 (  -0.54%)
   displ. norm   :     0.5919698 α      lambda       -0.1486638E-02
   maximum displ.:     0.2941172 α      in ANC's #1, #5, #3, ...

........................................................................
.............................. CYCLE  118 ..............................
........................................................................

 iter      E             dE          RMSdq      gap      omega  full diag
   1   -180.5899811 -0.180590E+03  0.202E-01    0.11       0.0  T
   2   -180.5707035  0.192776E-01  0.465E-01    0.36       1.0  T
   3   -180.5011928  0.695107E-01  0.111E+00    0.04       1.0  T
   4   -180.5872561 -0.860633E-01  0.202E-01    0.13       1.0  T
   5   -180.5832032  0.405293E-02  0.323E-01    0.18       1.0  T
   6   -180.5844904 -0.128730E-02  0.304E-01    0.19       1.0  T
   7   -180.5867815 -0.229108E-02  0.247E-01    0.17       1.0  T
   8   -180.5896520 -0.287051E-02  0.128E-01    0.14       1.0  T
   9   -180.5905264 -0.874328E-03  0.477E-02    0.13       1.0  T
  10   -180.5906404 -0.114000E-03  0.213E-02    0.12       1.0  T
  11   -180.5906642 -0.238339E-04  0.700E-03    0.12       1.5  T
  12   -180.5906581  0.612359E-05  0.121E-02    0.12       1.0  T
  13   -180.5906645 -0.641386E-05  0.691E-03    0.12       1.5  T
  14   -180.5906672 -0.274582E-05  0.153E-03    0.12       6.9  T
  15   -180.5906669  0.335045E-06  0.268E-03    0.12       3.9  T
  16   -180.5906665  0.414191E-06  0.362E-03    0.12       2.9  T
  17   -180.5906672 -0.746890E-06  0.132E-03    0.12       8.0  T
  18   -180.5906672  0.765147E-07  0.158E-03    0.12       6.7  T
  19   -180.5906673 -0.123510E-06  0.922E-04    0.12      11.4  T
  20   -180.5906673 -0.474887E-07  0.395E-04    0.12      26.7  T
     SCC iter.                  ...        0 min,  0.403 sec
     gradient                   ...        0 min,  0.048 sec
 * total energy  :  -178.8788232 Eh     change       -0.8179285E-03 Eh
   gradient norm :     0.0122547 Eh/α   predicted    -0.1003797E-02 (  22.72%)
   displ. norm   :     0.7408419 α      lambda       -0.1300296E-02
   maximum displ.:     0.3517213 α      in ANC's #5, #3, #1, ...

........................................................................
.............................. CYCLE  119 ..............................
........................................................................

 iter      E             dE          RMSdq      gap      omega  full diag
   1   -180.5844574 -0.180584E+03  0.198E-01    0.13       0.0  T
   2   -180.4410242  0.143433E+00  0.145E+00    0.02       1.0  T
   3   -180.5801759 -0.139152E+00  0.252E-01    0.17       1.0  T
   4   -180.5833462 -0.317027E-02  0.124E-01    0.13       1.0  T
   5   -180.5843192 -0.972993E-03  0.669E-02    0.13       1.0  T
   6   -180.5828225  0.149667E-02  0.151E-01    0.15       1.0  T
   7   -180.5843864 -0.156389E-02  0.606E-02    0.13       1.0  T
   8   -180.5845950 -0.208591E-03  0.211E-02    0.12       1.0  T
   9   -180.5846194 -0.243796E-04  0.700E-03    0.12       1.5  T
  10   -180.5846210 -0.158582E-05  0.469E-03    0.12       2.2  T
  11   -180.5846188  0.215462E-05  0.707E-03    0.12       1.5  T
  12   -180.5846188  0.550551E-08  0.675E-03    0.12       1.6  T
  13   -180.5846209 -0.207651E-05  0.383E-03    0.12       2.8  T
  14   -180.5846218 -0.865782E-06  0.141E-03    0.12       7.5  T
  15   -180.5846217  0.297904E-07  0.149E-03    0.12       7.1  T
  16   -180.5846217  0.605957E-08  0.152E-03    0.12       6.9  T
  17   -180.5846217  0.656359E-07  0.176E-03    0.12       6.0  T
  18   -180.5846218 -0.175219E-06  0.639E-04    0.12      16.5  T
  19   -180.5846218  0.718273E-08  0.669E-04    0.12      15.8  T
     SCC iter.                  ...        0 min,  0.410 sec
     gradient                   ...        0 min,  0.049 sec
 * total energy  :  -178.8798766 Eh     change       -0.1053394E-02 Eh
   gradient norm :     0.0085018 Eh/α   predicted    -0.1006998E-02 (  -4.40%)
   displ. norm   :     0.7896001 α      lambda       -0.1088222E-02
   maximum displ.:     0.3547680 α      in ANC's #1, #5, #3, ...

........................................................................
.............................. CYCLE  120 ..............................
........................................................................

 iter      E             dE          RMSdq      gap      omega  full diag
   1   -180.5796484 -0.180580E+03  0.228E-01    0.14       0.0  T
   2   -179.9745630  0.605085E+00  0.309E+00    0.02       1.0  T
   3   -180.5768528 -0.602290E+00  0.225E-01    0.17       1.0  T
   4   -180.5791656 -0.231280E-02  0.121E-01    0.14       1.0  T
   5   -180.5796519 -0.486333E-03  0.824E-02    0.13       1.0  T
   6   -180.5784522  0.119977E-02  0.151E-01    0.15       1.0  T
   7   -180.5799324 -0.148028E-02  0.617E-02    0.13       1.0  T
   8   -180.5801353 -0.202881E-03  0.293E-02    0.13       1.0  T
   9   -180.5801474 -0.121225E-04  0.232E-02    0.13       1.0  T
  10   -180.5801773 -0.298502E-04  0.999E-03    0.12       1.1  T
  11   -180.5801810 -0.373926E-05  0.475E-03    0.12       2.2  T
  12   -180.5801791  0.190367E-05  0.740E-03    0.12       1.4  T
  13   -180.5801814 -0.229947E-05  0.469E-03    0.12       2.2  T
  14   -180.5801820 -0.526439E-06  0.352E-03    0.12       3.0  T
  15   -180.5801827 -0.773271E-06  0.102E-03    0.12      10.3  T
  16   -180.5801827  0.315503E-07  0.119E-03    0.12       8.9  T
  17   -180.5801826  0.137037E-06  0.184E-03    0.12       5.7  T
  18   -180.5801826 -0.541143E-07  0.157E-03    0.12       6.7  T
  19   -180.5801828 -0.159822E-06  0.287E-04    0.12      36.8  T
  20   -180.5801828 -0.150681E-08  0.158E-04    0.12      66.9  T
     SCC iter.                  ...        0 min,  0.445 sec
     gradient                   ...        0 min,  0.049 sec
 * total energy  :  -178.8806454 Eh     change       -0.7688285E-03 Eh
   gradient norm :     0.0121521 Eh/α   predicted    -0.8833484E-03 (  14.90%)
   displ. norm   :     0.6391800 α      lambda       -0.1097206E-02
   maximum displ.:     0.3383786 α      in ANC's #1, #3, #5, ...
 * RMSD in coord.:     1.7605897 α      energy gain  -0.2400032E-01 Eh

generating ANC from exact Hessian ...
Using Lindh-Hessian (1995)
 Shifting diagonal of input Hessian by   1.031920793885171E-002
 Lowest  eigenvalues of input Hessian
    0.010000    0.010031    0.000000    0.000000    0.000000    0.000000
    0.000000    0.000000    0.010596    0.010717    0.010965    0.011076
    0.011173    0.011297    0.011544    0.011560    0.011881    0.012117
 Highest eigenvalues
    2.070972    2.109837    2.117669    2.202754    2.208095    2.246277
 

........................................................................
.............................. CYCLE  121 ..............................
........................................................................

 iter      E             dE          RMSdq      gap      omega  full diag
   1   -180.5843934 -0.180584E+03  0.212E-01    0.14       0.0  T
   2   -180.0012765  0.583117E+00  0.303E+00    0.02       1.0  T
   3   -180.5812799 -0.580003E+00  0.224E-01    0.17       1.0  T
   4   -180.5838764 -0.259651E-02  0.100E-01    0.11       1.0  T
   5   -180.5832441  0.632347E-03  0.143E-01    0.15       1.0  T
   6   -180.5845913 -0.134718E-02  0.711E-02    0.13       1.0  T
   7   -180.5843252  0.266078E-03  0.880E-02    0.14       1.0  T
   8   -180.5847925 -0.467290E-03  0.410E-02    0.13       1.0  T
   9   -180.5848993 -0.106827E-03  0.105E-02    0.12       1.0  T
  10   -180.5848984  0.926848E-06  0.991E-03    0.13       1.1  T
  11   -180.5849022 -0.387655E-05  0.563E-03    0.12       1.9  T
  12   -180.5849011  0.116329E-05  0.707E-03    0.12       1.5  T
  13   -180.5849018 -0.686322E-06  0.615E-03    0.12       1.7  T
  14   -180.5849038 -0.205473E-05  0.277E-03    0.12       3.8  T
  15   -180.5849042 -0.381294E-06  0.115E-03    0.12       9.2  T
  16   -180.5849041  0.100005E-06  0.166E-03    0.12       6.4  T
  17   -180.5849040  0.112733E-06  0.212E-03    0.12       5.0  T
  18   -180.5849041 -0.109999E-06  0.164E-03    0.12       6.4  T
  19   -180.5849043 -0.175294E-06  0.264E-04    0.12      39.9  T
  20   -180.5849043 -0.193728E-08  0.129E-04    0.12      82.0  T
     SCC iter.                  ...        0 min,  0.411 sec
     gradient                   ...        0 min,  0.047 sec
 * total energy  :  -178.8813678 Eh     change       -0.7223769E-03 Eh
   gradient norm :     0.0140377 Eh/α   predicted     0.0000000E+00 (-100.00%)
   displ. norm   :     0.1397472 α      lambda       -0.6670328E-03
   maximum displ.:     0.0502342 α      in ANC's #6, #7, #20, ...

........................................................................
.............................. CYCLE  122 ..............................
........................................................................

 iter      E             dE          RMSdq      gap      omega  full diag
   1   -180.5876215 -0.180588E+03  0.871E-02    0.12       0.0  T
   2   -180.5797296  0.789199E-02  0.309E-01    0.20       1.0  T
   3   -180.5757702  0.395934E-02  0.403E-01    0.08       1.0  T
   4   -180.5871050 -0.113348E-01  0.710E-02    0.12       1.0  T
   5   -180.5870289  0.760236E-04  0.957E-02    0.14       1.0  T
   6   -180.5872583 -0.229387E-03  0.821E-02    0.14       1.0  T
   7   -180.5873881 -0.129779E-03  0.655E-02    0.13       1.0  T
   8   -180.5876908 -0.302703E-03  0.132E-02    0.12       1.0  T
   9   -180.5876910 -0.137411E-06  0.131E-02    0.12       1.0  T
  10   -180.5877015 -0.105498E-04  0.424E-03    0.12       2.5  T
  11   -180.5877025 -0.101138E-05  0.142E-03    0.12       7.4  T
  12   -180.5877024  0.111484E-06  0.195E-03    0.12       5.4  T
  13   -180.5877023  0.152022E-06  0.232E-03    0.12       4.5  T
  14   -180.5877024 -0.181799E-06  0.155E-03    0.12       6.8  T
  15   -180.5877026 -0.168051E-06  0.283E-04    0.12      37.3  T
  16   -180.5877026  0.150828E-07  0.521E-04    0.12      20.2  T
     SCC iter.                  ...        0 min,  0.356 sec
     gradient                   ...        0 min,  0.050 sec
 * total energy  :  -178.8818022 Eh     change       -0.4344524E-03 Eh
   gradient norm :     0.0069758 Eh/α   predicted    -0.3400319E-03 ( -21.73%)
   displ. norm   :     0.2816521 α      lambda       -0.7393195E-03
   maximum displ.:     0.1124402 α      in ANC's #6, #7, #17, ...

........................................................................
.............................. CYCLE  123 ..............................
........................................................................

 iter      E             dE          RMSdq      gap      omega  full diag
   1   -180.5918830 -0.180592E+03  0.123E-01    0.12       0.0  T
   2   -180.5789980  0.128851E-01  0.391E-01    0.25       1.0  T
   3   -180.5738046  0.519336E-02  0.496E-01    0.07       1.0  T
   4   -180.5911832 -0.173786E-01  0.104E-01    0.13       1.0  T
   5   -180.5892137  0.196948E-02  0.197E-01    0.15       1.0  T
   6   -180.5898176 -0.603895E-03  0.180E-01    0.15       1.0  T
   7   -180.5912211 -0.140355E-02  0.112E-01    0.14       1.0  T
   8   -180.5920799 -0.858799E-03  0.767E-03    0.12       1.4  T
   9   -180.5920388  0.411210E-04  0.255E-02    0.12       1.0  T
  10   -180.5920752 -0.363537E-04  0.108E-02    0.12       1.0  T
  11   -180.5920818 -0.659033E-05  0.390E-03    0.12       2.7  T
  12   -180.5920799  0.185394E-05  0.657E-03    0.12       1.6  T
  13   -180.5920801 -0.212732E-06  0.592E-03    0.12       1.8  T
  14   -180.5920814 -0.129791E-05  0.371E-03    0.12       2.8  T
  15   -180.5920824 -0.967990E-06  0.942E-04    0.12      11.2  T
  16   -180.5920823  0.357382E-07  0.108E-03    0.12       9.8  T
  17   -180.5920824 -0.134257E-07  0.959E-04    0.12      11.0  T
     SCC iter.                  ...        0 min,  0.369 sec
     gradient                   ...        0 min,  0.047 sec
 * total energy  :  -178.8821622 Eh     change       -0.3600168E-03 Eh
   gradient norm :     0.0096718 Eh/α   predicted    -0.3989855E-03 (  10.82%)
   displ. norm   :     0.3276182 α      lambda       -0.6569648E-03
   maximum displ.:     0.1350254 α      in ANC's #6, #7, #4, ...

........................................................................
.............................. CYCLE  124 ..............................
........................................................................

 iter      E             dE          RMSdq      gap      omega  full diag
   1   -180.5893499 -0.180589E+03  0.236E-01    0.16       0.0  T
   2   -179.0726289  0.151672E+01  0.484E+00    0.02       1.0  T
   3   -180.5860257 -0.151340E+01  0.277E-01    0.10       1.0  T
   4   -180.5878267 -0.180109E-02  0.225E-01    0.15       1.0  T
   5   -180.5926108 -0.478403E-02  0.502E-02    0.12       1.0  T
   6   -180.5924682  0.142600E-03  0.594E-02    0.12       1.0  T
   7   -180.5927354 -0.267178E-03  0.195E-02    0.12       1.0  T
   8   -180.5927238  0.115379E-04  0.226E-02    0.13       1.0  T
   9   -180.5927007  0.230936E-04  0.280E-02    0.13       1.0  T
  10   -180.5927407 -0.399705E-04  0.178E-02    0.13       1.0  T
  11   -180.5927594 -0.187413E-04  0.929E-03    0.13       1.1  T
  12   -180.5927650 -0.558647E-05  0.424E-03    0.12       2.5  T
  13   -180.5927655 -0.499526E-06  0.302E-03    0.12       3.5  T
  14   -180.5927652  0.347142E-06  0.308E-03    0.12       3.4  T
  15   -180.5927651  0.443211E-07  0.293E-03    0.12       3.6  T
  16   -180.5927657 -0.528155E-06  0.185E-03    0.12       5.7  T
  17   -180.5927657 -0.929162E-07  0.132E-03    0.12       8.0  T
  18   -180.5927658 -0.647643E-07  0.474E-04    0.12      22.2  T
  19   -180.5927658 -0.280417E-08  0.324E-04    0.12      32.6  T
     SCC iter.                  ...        0 min,  0.397 sec
     gradient                   ...        0 min,  0.052 sec
 * total energy  :  -178.8825185 Eh     change       -0.3562944E-03 Eh
   gradient norm :     0.0124572 Eh/α   predicted    -0.3637473E-03 (   2.09%)
   displ. norm   :     0.4682718 α      lambda       -0.9811439E-03
   maximum displ.:     0.2065933 α      in ANC's #6, #7, #4, ...

........................................................................
.............................. CYCLE  125 ..............................
........................................................................

 iter      E             dE          RMSdq      gap      omega  full diag
   1   -180.5905494 -0.180591E+03  0.164E-01    0.13       0.0  T
   2   -180.3806250  0.209924E+00  0.177E+00    0.01       1.0  T
   3   -180.5896775 -0.209052E+00  0.130E-01    0.15       1.0  T
   4   -180.5905551 -0.877667E-03  0.536E-02    0.12       1.0  T
   5   -180.5903125  0.242645E-03  0.788E-02    0.14       1.0  T
   6   -180.5902541  0.583717E-04  0.796E-02    0.14       1.0  T
   7   -180.5907103 -0.456236E-03  0.235E-02    0.13       1.0  T
   8   -180.5906340  0.763148E-04  0.392E-02    0.13       1.0  T
   9   -180.5907032 -0.691553E-04  0.257E-02    0.13       1.0  T
  10   -180.5907145 -0.112748E-04  0.214E-02    0.13       1.0  T
  11   -180.5907419 -0.274526E-04  0.810E-03    0.13       1.3  T
  12   -180.5907453 -0.334686E-05  0.300E-03    0.13       3.5  T
  13   -180.5907458 -0.504424E-06  0.118E-03    0.12       8.9  T
  14   -180.5907456  0.147110E-06  0.184E-03    0.12       5.7  T
  15   -180.5907456 -0.134571E-07  0.167E-03    0.12       6.3  T
  16   -180.5907458 -0.139092E-06  0.874E-04    0.12      12.1  T
  17   -180.5907458 -0.472012E-07  0.303E-04    0.12      34.8  T
     SCC iter.                  ...        0 min,  0.385 sec
     gradient                   ...        0 min,  0.051 sec
 * total energy  :  -178.8831897 Eh     change       -0.6711361E-03 Eh
   gradient norm :     0.0110209 Eh/α   predicted    -0.5981468E-03 ( -10.88%)
   displ. norm   :     0.5159603 α      lambda       -0.9008818E-03
   maximum displ.:     0.2333737 α      in ANC's #6, #7, #4, ...

........................................................................
.............................. CYCLE  126 ..............................
........................................................................

 iter      E             dE          RMSdq      gap      omega  full diag
   1   -180.5849646 -0.180585E+03  0.209E-01    0.11       0.0  T
   2   -180.5610866  0.238780E-01  0.521E-01    0.42       1.0  T
   3   -180.5842718 -0.231852E-01  0.142E-01    0.12       1.0  T
   4   -180.5806247  0.364714E-02  0.263E-01    0.16       1.0  T
   5   -180.5852934 -0.466869E-02  0.113E-01    0.14       1.0  T
   6   -180.5856996 -0.406275E-03  0.110E-01    0.11       1.0  T
   7   -180.5864416 -0.741997E-03  0.421E-02    0.13       1.0  T
   8   -180.5859627  0.478932E-03  0.901E-02    0.11       1.0  T
   9   -180.5863825 -0.419792E-03  0.497E-02    0.13       1.0  T
  10   -180.5865434 -0.160940E-03  0.963E-03    0.13       1.1  T
  11   -180.5865473 -0.385756E-05  0.493E-03    0.12       2.1  T
  12   -180.5865479 -0.562798E-06  0.350E-03    0.12       3.0  T
  13   -180.5865484 -0.507702E-06  0.223E-03    0.12       4.7  T
  14   -180.5865485 -0.110050E-06  0.148E-03    0.12       7.1  T
  15   -180.5865482  0.245906E-06  0.250E-03    0.12       4.2  T
  16   -180.5865485 -0.314582E-06  0.865E-04    0.12      12.2  T
  17   -180.5865483  0.204544E-06  0.195E-03    0.12       5.4  T
  18   -180.5865484 -0.182573E-07  0.185E-03    0.12       5.7  T
  19   -180.5865485 -0.136277E-06  0.115E-03    0.12       9.1  T
  20   -180.5865485  0.196716E-07  0.126E-03    0.12       8.4  T
  21   -180.5865486 -0.103724E-06  0.184E-04    0.12      57.3  T
     SCC iter.                  ...        0 min,  0.493 sec
     gradient                   ...        0 min,  0.052 sec
 * total energy  :  -178.8837683 Eh     change       -0.5786687E-03 Eh
   gradient norm :     0.0112214 Eh/α   predicted    -0.5703561E-03 (  -1.44%)
   displ. norm   :     0.4559417 α      lambda       -0.7688526E-03
   maximum displ.:     0.2248115 α      in ANC's #6, #4, #7, ...

........................................................................
.............................. CYCLE  127 ..............................
........................................................................

 iter      E             dE          RMSdq      gap      omega  full diag
   1   -180.5844421 -0.180584E+03  0.232E-01    0.16       0.0  T
   2   -179.6377431  0.946699E+00  0.378E+00    0.02       1.0  T
   3   -180.5869401 -0.949197E+00  0.588E-02    0.13       1.0  T
   4   -180.5837859  0.315418E-02  0.185E-01    0.15       1.0  T
   5   -180.5869861 -0.320022E-02  0.312E-02    0.13       1.0  T
   6   -180.5869896 -0.352231E-05  0.225E-02    0.13       1.0  T
   7   -180.5870098 -0.202031E-04  0.154E-02    0.13       1.0  T
   8   -180.5870125 -0.263443E-05  0.136E-02    0.12       1.0  T
   9   -180.5870217 -0.923040E-05  0.766E-03    0.12       1.4  T
  10   -180.5870228 -0.106309E-05  0.583E-03    0.12       1.8  T
  11   -180.5870242 -0.146626E-05  0.344E-03    0.13       3.1  T
  12   -180.5870230  0.119280E-05  0.504E-03    0.13       2.1  T
  13   -180.5870222  0.842500E-06  0.582E-03    0.13       1.8  T
  14   -180.5870240 -0.176851E-05  0.338E-03    0.13       3.1  T
  15   -180.5870248 -0.794792E-06  0.118E-03    0.13       9.0  T
  16   -180.5870248 -0.416583E-08  0.105E-03    0.13      10.1  T
  17   -180.5870247  0.668500E-07  0.136E-03    0.13       7.7  T
  18   -180.5870248 -0.101631E-06  0.759E-04    0.13      13.9  T
  19   -180.5870248 -0.304704E-07  0.358E-04    0.13      29.5  T
     SCC iter.                  ...        0 min,  0.427 sec
     gradient                   ...        0 min,  0.051 sec
 * total energy  :  -178.8842986 Eh     change       -0.5303197E-03 Eh
   gradient norm :     0.0126355 Eh/α   predicted    -0.4643493E-03 ( -12.44%)
   displ. norm   :     0.4469359 α      lambda       -0.8701827E-03
   maximum displ.:     0.2378257 α      in ANC's #6, #4, #7, ...

........................................................................
.............................. CYCLE  128 ..............................
........................................................................

 iter      E             dE          RMSdq      gap      omega  full diag
   1   -180.5910626 -0.180591E+03  0.124E-01    0.13       0.0  T
   2   -180.4265983  0.164464E+00  0.154E+00    0.02       1.0  T
   3   -180.5890863 -0.162488E+00  0.179E-01    0.16       1.0  T
   4   -180.5904039 -0.131763E-02  0.110E-01    0.14       1.0  T
   5   -180.5907324 -0.328509E-03  0.890E-02    0.14       1.0  T
   6   -180.5900997  0.632683E-03  0.122E-01    0.15       1.0  T
   7   -180.5910458 -0.946105E-03  0.540E-02    0.13       1.0  T
   8   -180.5910695 -0.236782E-04  0.467E-02    0.13       1.0  T
   9   -180.5911646 -0.950836E-04  0.287E-02    0.13       1.0  T
  10   -180.5912019 -0.373389E-04  0.157E-02    0.13       1.0  T
  11   -180.5912181 -0.161830E-04  0.312E-03    0.13       3.4  T
  12   -180.5912144  0.370206E-05  0.811E-03    0.12       1.3  T
  13   -180.5912126  0.185959E-05  0.943E-03    0.12       1.1  T
  14   -180.5912165 -0.392132E-05  0.566E-03    0.13       1.9  T
  15   -180.5912186 -0.216001E-05  0.766E-04    0.13      13.8  T
  16   -180.5912185  0.866927E-07  0.133E-03    0.13       7.9  T
  17   -180.5912185  0.870786E-07  0.172E-03    0.13       6.1  T
  18   -180.5912186 -0.136749E-06  0.976E-04    0.13      10.8  T
  19   -180.5912186 -0.519869E-07  0.428E-04    0.13      24.7  T
     SCC iter.                  ...        0 min,  0.445 sec
     gradient                   ...        0 min,  0.053 sec
 * total energy  :  -178.8849682 Eh     change       -0.6695174E-03 Eh
   gradient norm :     0.0104451 Eh/α   predicted    -0.5220034E-03 ( -22.03%)
   displ. norm   :     0.6776831 α      lambda       -0.1043545E-02
   maximum displ.:     0.3590616 α      in ANC's #6, #4, #7, ...

........................................................................
.............................. CYCLE  129 ..............................
........................................................................

 iter      E             dE          RMSdq      gap      omega  full diag
   1   -180.5908827 -0.180591E+03  0.157E-01    0.13       0.0  T
   2   -180.5860909  0.479185E-02  0.261E-01    0.10       1.0  T
   3   -180.5783337  0.775720E-02  0.383E-01    0.27       1.0  T
   4   -180.5904850 -0.121513E-01  0.742E-02    0.12       1.0  T
   5   -180.5890695  0.141555E-02  0.158E-01    0.15       1.0  T
   6   -180.5900007 -0.931210E-03  0.111E-01    0.14       1.0  T
   7   -180.5905215 -0.520818E-03  0.753E-02    0.12       1.0  T
   8   -180.5905253 -0.379489E-05  0.767E-02    0.12       1.0  T
   9   -180.5908341 -0.308788E-03  0.359E-02    0.12       1.0  T
  10   -180.5909069 -0.728190E-04  0.213E-02    0.13       1.0  T
  11   -180.5909171 -0.102282E-04  0.172E-02    0.13       1.0  T
  12   -180.5909359 -0.187340E-04  0.435E-03    0.13       2.4  T
  13   -180.5909365 -0.636397E-06  0.293E-03    0.13       3.6  T
  14   -180.5909365  0.180583E-07  0.309E-03    0.13       3.4  T
  15   -180.5909369 -0.434809E-06  0.154E-03    0.13       6.9  T
  16   -180.5909370 -0.783610E-07  0.109E-03    0.13       9.7  T
  17   -180.5909370  0.618232E-08  0.107E-03    0.13       9.9  T
  18   -180.5909371 -0.602097E-07  0.399E-04    0.13      26.4  T
  19   -180.5909371 -0.261454E-08  0.356E-04    0.13      29.6  T
     SCC iter.                  ...        0 min,  0.440 sec
     gradient                   ...        0 min,  0.047 sec
 * total energy  :  -178.8858485 Eh     change       -0.8803202E-03 Eh
   gradient norm :     0.0091782 Eh/α   predicted    -0.7614037E-03 ( -13.51%)
   displ. norm   :     0.7211714 α      lambda       -0.1061432E-02
   maximum displ.:     0.4029899 α      in ANC's #6, #4, #5, ...

........................................................................
.............................. CYCLE  130 ..............................
........................................................................

 iter      E             dE          RMSdq      gap      omega  full diag
   1   -180.5914392 -0.180591E+03  0.154E-01    0.12       0.0  T
   2   -180.5793227  0.121165E-01  0.372E-01    0.24       1.0  T
   3   -180.5291401  0.501826E-01  0.937E-01    0.05       1.0  T
   4   -180.5836626 -0.545224E-01  0.248E-01    0.11       1.0  T
   5   -180.5895885 -0.592592E-02  0.175E-01    0.15       1.0  T
   6   -180.5890051  0.583415E-03  0.196E-01    0.16       1.0  T
   7   -180.5901876 -0.118252E-02  0.150E-01    0.15       1.0  T
   8   -180.5913382 -0.115061E-02  0.705E-02    0.14       1.0  T
   9   -180.5915590 -0.220799E-03  0.368E-02    0.13       1.0  T
  10   -180.5915932 -0.341889E-04  0.281E-02    0.13       1.0  T
  11   -180.5916436 -0.504260E-04  0.543E-03    0.13       1.9  T
  12   -180.5916436  0.102238E-07  0.512E-03    0.12       2.1  T
  13   -180.5916430  0.586100E-06  0.579E-03    0.12       1.8  T
  14   -180.5916447 -0.163907E-05  0.279E-03    0.13       3.8  T
  15   -180.5916450 -0.348090E-06  0.143E-03    0.13       7.4  T
  16   -180.5916451 -0.615549E-07  0.111E-03    0.13       9.5  T
  17   -180.5916449  0.119328E-06  0.166E-03    0.13       6.4  T
  18   -180.5916451 -0.177269E-06  0.419E-04    0.13      25.1  T
  19   -180.5916451  0.627924E-08  0.490E-04    0.13      21.5  T
     SCC iter.                  ...        0 min,  0.439 sec
     gradient                   ...        0 min,  0.049 sec
 * total energy  :  -178.8867778 Eh     change       -0.9293314E-03 Eh
   gradient norm :     0.0089603 Eh/α   predicted    -0.8067376E-03 ( -13.19%)
   displ. norm   :     0.8092242 α      lambda       -0.1105076E-02
   maximum displ.:     0.4628235 α      in ANC's #6, #4, #5, ...

........................................................................
.............................. CYCLE  131 ..............................
........................................................................

 iter      E             dE          RMSdq      gap      omega  full diag
   1   -180.5887558 -0.180589E+03  0.170E-01    0.12       0.0  T
   2   -180.5752954  0.134604E-01  0.394E-01    0.27       1.0  T
   3   -180.5067928  0.685026E-01  0.107E+00    0.04       1.0  T
   4   -180.5822584 -0.754655E-01  0.227E-01    0.12       1.0  T
   5   -180.5852657 -0.300732E-02  0.231E-01    0.16       1.0  T
   6   -180.5849750  0.290715E-03  0.241E-01    0.18       1.0  T
   7   -180.5867157 -0.174075E-02  0.188E-01    0.16       1.0  T
   8   -180.5883043 -0.158860E-02  0.106E-01    0.14       1.0  T
   9   -180.5888209 -0.516534E-03  0.563E-02    0.13       1.0  T
  10   -180.5889060 -0.851007E-04  0.423E-02    0.13       1.0  T
  11   -180.5890167 -0.110789E-03  0.103E-02    0.13       1.0  T
  12   -180.5890208 -0.410072E-05  0.556E-03    0.12       1.9  T
  13   -180.5890177  0.310670E-05  0.868E-03    0.12       1.2  T
  14   -180.5890210 -0.329083E-05  0.505E-03    0.12       2.1  T
  15   -180.5890224 -0.133634E-05  0.210E-03    0.13       5.0  T
  16   -180.5890224 -0.804118E-07  0.182E-03    0.13       5.8  T
  17   -180.5890222  0.249425E-06  0.260E-03    0.13       4.1  T
  18   -180.5890226 -0.410927E-06  0.851E-04    0.13      12.4  T
  19   -180.5890226  0.284322E-08  0.817E-04    0.13      12.9  T
     SCC iter.                  ...        0 min,  0.405 sec
     gradient                   ...        0 min,  0.050 sec
 * total energy  :  -178.8877821 Eh     change       -0.1004330E-02 Eh
   gradient norm :     0.0109632 Eh/α   predicted    -0.9143689E-03 (  -8.96%)
   displ. norm   :     0.7490563 α      lambda       -0.1581300E-02
   maximum displ.:     0.4491892 α      in ANC's #6, #4, #5, ...

........................................................................
.............................. CYCLE  132 ..............................
........................................................................

 iter      E             dE          RMSdq      gap      omega  full diag
   1   -180.5969255 -0.180597E+03  0.408E-01    0.09       0.0  T
   2   -180.5455270  0.513985E-01  0.805E-01    0.68       1.0  T
   3   -180.5952295 -0.497025E-01  0.460E-01    0.24       1.0  T
   4   -180.5998040 -0.457451E-02  0.292E-01    0.16       1.0  T
   5   -180.6053573 -0.555331E-02  0.101E-01    0.11       1.0  T
   6   -180.6044778  0.879552E-03  0.166E-01    0.15       1.0  T
   7   -180.6061298 -0.165200E-02  0.274E-02    0.12       1.0  T
   8   -180.6054757  0.654082E-03  0.101E-01    0.11       1.0  T
   9   -180.6059811 -0.505421E-03  0.511E-02    0.13       1.0  T
  10   -180.6061441 -0.163040E-03  0.205E-02    0.12       1.0  T
  11   -180.6061325  0.115964E-04  0.234E-02    0.13       1.0  T
  12   -180.6061587 -0.261349E-04  0.140E-02    0.13       1.0  T
  13   -180.6061646 -0.592676E-05  0.907E-03    0.13       1.2  T
  14   -180.6061700 -0.539908E-05  0.211E-03    0.12       5.0  T
  15   -180.6061693  0.734135E-06  0.368E-03    0.12       2.9  T
  16   -180.6061682  0.110601E-05  0.534E-03    0.12       2.0  T
  17   -180.6061696 -0.139520E-05  0.301E-03    0.12       3.5  T
  18   -180.6061702 -0.630947E-06  0.473E-04    0.12      22.3  T
  19   -180.6061700  0.196671E-06  0.172E-03    0.12       6.1  T
  20   -180.6061701 -0.854366E-07  0.134E-03    0.12       7.9  T
  21   -180.6061702 -0.118156E-06  0.152E-04    0.12      69.3  T
     SCC iter.                  ...        0 min,  0.437 sec
     gradient                   ...        0 min,  0.051 sec
 * total energy  :  -178.8880757 Eh     change       -0.2935562E-03 Eh
   gradient norm :     0.0245131 Eh/α   predicted    -0.1234267E-02 ( 320.45%)
   displ. norm   :     0.5592943 α      lambda       -0.2202924E-02
   maximum displ.:     0.2906852 α      in ANC's #6, #4, #17, ...

........................................................................
.............................. CYCLE  133 ..............................
........................................................................

 iter      E             dE          RMSdq      gap      omega  full diag
   1   -180.5904714 -0.180590E+03  0.158E-01    0.13       0.0  T
   2   -180.4607658  0.129706E+00  0.139E+00    0.02       1.0  T
   3   -180.5896211 -0.128855E+00  0.119E-01    0.14       1.0  T
   4   -180.5759172  0.137039E-01  0.361E-01    0.10       1.0  T
   5   -180.5898373 -0.139201E-01  0.925E-02    0.14       1.0  T
   6   -180.5905978 -0.760467E-03  0.326E-02    0.13       1.0  T
   7   -180.5906066 -0.881019E-05  0.272E-02    0.13       1.0  T
   8   -180.5906461 -0.395319E-04  0.111E-02    0.13       1.0  T
   9   -180.5906264  0.197544E-04  0.206E-02    0.13       1.0  T
  10   -180.5906471 -0.207147E-04  0.122E-02    0.13       1.0  T
  11   -180.5906495 -0.242575E-05  0.979E-03    0.13       1.1  T
  12   -180.5906541 -0.458250E-05  0.584E-03    0.13       1.8  T
  13   -180.5906554 -0.136095E-05  0.366E-03    0.13       2.9  T
  14   -180.5906562 -0.763502E-06  0.151E-03    0.12       7.0  T
  15   -180.5906563 -0.131099E-06  0.782E-04    0.12      13.5  T
  16   -180.5906563  0.706060E-07  0.116E-03    0.12       9.1  T
  17   -180.5906563 -0.368108E-07  0.885E-04    0.12      11.9  T
     SCC iter.                  ...        0 min,  0.359 sec
     gradient                   ...        0 min,  0.052 sec
 * total energy  :  -178.8895147 Eh     change       -0.1439034E-02 Eh
   gradient norm :     0.0146900 Eh/α   predicted    -0.1446015E-02 (   0.49%)
   displ. norm   :     0.7269671 α      lambda       -0.1079762E-02
   maximum displ.:     0.4330434 α      in ANC's #6, #4, #5, ...

........................................................................
.............................. CYCLE  134 ..............................
........................................................................

 iter      E             dE          RMSdq      gap      omega  full diag
   1   -180.5834968 -0.180583E+03  0.158E-01    0.12       0.0  T
   2   -180.5824734  0.102336E-02  0.129E-01    0.14       1.0  T
   3   -180.0422602  0.540213E+00  0.289E+00    0.02       1.0  T
   4   -180.5824689 -0.540209E+00  0.102E-01    0.12       1.0  T
   5   -180.5817624  0.706465E-03  0.136E-01    0.14       1.0  T
   6   -180.5834440 -0.168156E-02  0.413E-02    0.13       1.0  T
   7   -180.5832787  0.165231E-03  0.584E-02    0.13       1.0  T
   8   -180.5835255 -0.246803E-03  0.139E-02    0.13       1.0  T
   9   -180.5834980  0.274792E-04  0.232E-02    0.13       1.0  T
  10   -180.5835192 -0.211027E-04  0.160E-02    0.13       1.0  T
  11   -180.5835296 -0.104049E-04  0.923E-03    0.13       1.1  T
  12   -180.5835352 -0.563215E-05  0.212E-03    0.13       5.0  T
  13   -180.5835351  0.137425E-06  0.229E-03    0.12       4.6  T
  14   -180.5835353 -0.237132E-06  0.148E-03    0.12       7.1  T
  15   -180.5835352  0.653507E-07  0.167E-03    0.12       6.3  T
  16   -180.5835353 -0.496109E-07  0.132E-03    0.12       8.0  T
  17   -180.5835354 -0.113186E-06  0.368E-04    0.13      28.7  T
  18   -180.5835354 -0.108815E-08  0.264E-04    0.13      39.9  T
     SCC iter.                  ...        0 min,  0.417 sec
     gradient                   ...        0 min,  0.050 sec
 * total energy  :  -178.8903536 Eh     change       -0.8389007E-03 Eh
   gradient norm :     0.0175586 Eh/α   predicted    -0.8252030E-03 (  -1.63%)
   displ. norm   :     0.4140126 α      lambda       -0.1631549E-02
   maximum displ.:     0.2109095 α      in ANC's #6, #4, #1, ...

........................................................................
.............................. CYCLE  135 ..............................
........................................................................

 iter      E             dE          RMSdq      gap      omega  full diag
   1   -180.5868363 -0.180587E+03  0.222E-01    0.15       0.0  T
   2   -179.8427036  0.744133E+00  0.335E+00    0.02       1.0  T
   3   -180.5753610 -0.732657E+00  0.370E-01    0.09       1.0  T
   4   -180.5780653 -0.270427E-02  0.328E-01    0.17       1.0  T
   5   -180.5871066 -0.904129E-02  0.138E-01    0.14       1.0  T
   6   -180.5887458 -0.163922E-02  0.554E-02    0.13       1.0  T
   7   -180.5889420 -0.196235E-03  0.326E-02    0.13       1.0  T
   8   -180.5889981 -0.561100E-04  0.122E-02    0.13       1.0  T
   9   -180.5889903  0.781259E-05  0.144E-02    0.13       1.0  T
  10   -180.5889980 -0.768164E-05  0.868E-03    0.13       1.2  T
  11   -180.5890005 -0.250428E-05  0.536E-03    0.13       2.0  T
  12   -180.5890013 -0.782443E-06  0.341E-03    0.13       3.1  T
  13   -180.5890006  0.629805E-06  0.399E-03    0.13       2.6  T
  14   -180.5890001  0.585577E-06  0.465E-03    0.12       2.3  T
  15   -180.5890014 -0.137239E-05  0.178E-03    0.13       5.9  T
  16   -180.5890014  0.393069E-07  0.168E-03    0.13       6.3  T
  17   -180.5890013  0.119547E-06  0.214E-03    0.13       4.9  T
  18   -180.5890014 -0.826157E-07  0.183E-03    0.13       5.8  T
  19   -180.5890016 -0.205249E-06  0.615E-04    0.13      17.1  T
  20   -180.5890015  0.329562E-07  0.796E-04    0.13      13.2  T
     SCC iter.                  ...        0 min,  0.447 sec
     gradient                   ...        0 min,  0.050 sec
 * total energy  :  -178.8911378 Eh     change       -0.7841470E-03 Eh
   gradient norm :     0.0195837 Eh/α   predicted    -0.9556082E-03 (  21.87%)
   displ. norm   :     0.5963794 α      lambda       -0.1604627E-02
   maximum displ.:     0.3441653 α      in ANC's #6, #4, #1, ...

........................................................................
.............................. CYCLE  136 ..............................
........................................................................

 iter      E             dE          RMSdq      gap      omega  full diag
   1   -180.5900399 -0.180590E+03  0.197E-01    0.12       0.0  T
   2   -180.5724407  0.175992E-01  0.437E-01    0.32       1.0  T
   3   -180.3300458  0.242395E+00  0.194E+00    0.00       1.0  T
   4   -180.5665380 -0.236492E+00  0.434E-01    0.10       1.0  T
   5   -180.5853820 -0.188440E-01  0.269E-01    0.17       1.0  T
   6   -180.5842824  0.109964E-02  0.299E-01    0.20       1.0  T
   7   -180.5862091 -0.192673E-02  0.256E-01    0.18       1.0  T
   8   -180.5875640 -0.135488E-02  0.213E-01    0.17       1.0  T
   9   -180.5884658 -0.901745E-03  0.176E-01    0.16       1.0  T
  10   -180.5892391 -0.773333E-03  0.141E-01    0.15       1.0  T
  11   -180.5900053 -0.766253E-03  0.881E-02    0.14       1.0  T
  12   -180.5903955 -0.390140E-03  0.433E-02    0.13       1.0  T
  13   -180.5904977 -0.102187E-03  0.149E-02    0.13       1.0  T
  14   -180.5905078 -0.101305E-04  0.724E-03    0.12       1.5  T
  15   -180.5905042  0.361981E-05  0.105E-02    0.12       1.0  T
  16   -180.5905101 -0.589507E-05  0.504E-03    0.12       2.1  T
  17   -180.5905116 -0.150710E-05  0.124E-03    0.13       8.5  T
  18   -180.5905115  0.102279E-06  0.160E-03    0.13       6.6  T
  19   -180.5905116 -0.134124E-06  0.823E-04    0.13      12.8  T
  20   -180.5905116  0.365191E-07  0.101E-03    0.13      10.4  T
  21   -180.5905116  0.187646E-07  0.114E-03    0.13       9.3  T
  22   -180.5905116 -0.527762E-07  0.809E-04    0.13      13.0  T
     SCC iter.                  ...        0 min,  0.595 sec
     gradient                   ...        0 min,  0.050 sec
 * total energy  :  -178.8923482 Eh     change       -0.1210429E-02 Eh
   gradient norm :     0.0161516 Eh/α   predicted    -0.1087673E-02 ( -10.14%)
   displ. norm   :     0.4825912 α      lambda       -0.1758710E-02
   maximum displ.:     0.2403737 α      in ANC's #6, #1, #4, ...

........................................................................
.............................. CYCLE  137 ..............................
........................................................................

 iter      E             dE          RMSdq      gap      omega  full diag
   1   -180.6036371 -0.180604E+03  0.174E-01    0.12       0.0  T
   2   -180.5963226  0.731444E-02  0.298E-01    0.20       1.0  T
   3   -180.1516616  0.444661E+00  0.263E+00    0.02       1.0  T
   4   -180.5926158 -0.440954E+00  0.312E-01    0.10       1.0  T
   5   -180.6027388 -0.101230E-01  0.119E-01    0.14       1.0  T
   6   -180.6019603  0.778473E-03  0.160E-01    0.15       1.0  T
   7   -180.6029093 -0.948936E-03  0.113E-01    0.14       1.0  T
   8   -180.6033638 -0.454533E-03  0.777E-02    0.14       1.0  T
   9   -180.6035942 -0.230360E-03  0.495E-02    0.13       1.0  T
  10   -180.6036202 -0.260509E-04  0.433E-02    0.13       1.0  T
  11   -180.6037410 -0.120726E-03  0.108E-02    0.13       1.0  T
  12   -180.6037464 -0.541473E-05  0.341E-03    0.12       3.1  T
  13   -180.6037421  0.431573E-05  0.849E-03    0.12       1.2  T
  14   -180.6037396  0.245435E-05  0.105E-02    0.12       1.0  T
  15   -180.6037417 -0.214086E-05  0.877E-03    0.12       1.2  T
  16   -180.6037458 -0.401759E-05  0.415E-03    0.12       2.5  T
  17   -180.6037468 -0.106857E-05  0.720E-04    0.12      14.6  T
  18   -180.6037468  0.906147E-08  0.720E-04    0.13      14.6  T
  19   -180.6037468 -0.231006E-07  0.450E-04    0.13      23.4  T
     SCC iter.                  ...        0 min,  0.409 sec
     gradient                   ...        0 min,  0.051 sec
 * total energy  :  -178.8933375 Eh     change       -0.9892632E-03 Eh
   gradient norm :     0.0126555 Eh/α   predicted    -0.1084154E-02 (   9.59%)
   displ. norm   :     0.7352214 α      lambda       -0.1550604E-02
   maximum displ.:     0.4024785 α      in ANC's #6, #4, #1, ...

........................................................................
.............................. CYCLE  138 ..............................
........................................................................

 iter      E             dE          RMSdq      gap      omega  full diag
   1   -180.5971971 -0.180597E+03  0.176E-01    0.13       0.0  T
   2   -180.5776049  0.195922E-01  0.513E-01    0.08       1.0  T
   3   -180.5904489 -0.128440E-01  0.299E-01    0.20       1.0  T
   4   -180.5962158 -0.576688E-02  0.117E-01    0.14       1.0  T
   5   -180.5968226 -0.606776E-03  0.874E-02    0.14       1.0  T
   6   -180.5954843  0.133826E-02  0.146E-01    0.15       1.0  T
   7   -180.5968494 -0.136503E-02  0.753E-02    0.14       1.0  T
   8   -180.5972407 -0.391331E-03  0.280E-02    0.12       1.0  T
   9   -180.5972743 -0.335868E-04  0.182E-02    0.12       1.0  T
  10   -180.5972920 -0.176967E-04  0.708E-03    0.12       1.5  T
  11   -180.5972856  0.640344E-05  0.115E-02    0.13       1.0  T
  12   -180.5972915 -0.596074E-05  0.730E-03    0.13       1.4  T
  13   -180.5972949 -0.339873E-05  0.206E-03    0.13       5.1  T
  14   -180.5972951 -0.151778E-06  0.108E-03    0.13       9.7  T
  15   -180.5972950  0.715659E-07  0.135E-03    0.13       7.8  T
  16   -180.5972947  0.280144E-06  0.232E-03    0.13       4.5  T
  17   -180.5972951 -0.381863E-06  0.461E-04    0.13      22.9  T
  18   -180.5972951  0.194536E-07  0.662E-04    0.13      15.9  T
     SCC iter.                  ...        0 min,  0.382 sec
     gradient                   ...        0 min,  0.047 sec
 * total energy  :  -178.8945758 Eh     change       -0.1238350E-02 Eh
   gradient norm :     0.0144469 Eh/α   predicted    -0.1194395E-02 (  -3.55%)
   displ. norm   :     0.5286266 α      lambda       -0.1783553E-02
   maximum displ.:     0.1896834 α      in ANC's #6, #1, #17, ...

........................................................................
.............................. CYCLE  139 ..............................
........................................................................

 iter      E             dE          RMSdq      gap      omega  full diag
   1   -180.5994261 -0.180599E+03  0.230E-01    0.14       0.0  T
   2   -179.9428718  0.656554E+00  0.318E+00    0.01       1.0  T
   3   -180.5974513 -0.654580E+00  0.178E-01    0.14       1.0  T
   4   -180.5838591  0.135923E-01  0.412E-01    0.20       1.0  T
   5   -180.5989471 -0.150880E-01  0.132E-01    0.14       1.0  T
   6   -180.6001736 -0.122653E-02  0.669E-02    0.13       1.0  T
   7   -180.6000325  0.141087E-03  0.744E-02    0.14       1.0  T
   8   -180.6003990 -0.366479E-03  0.237E-02    0.13       1.0  T
   9   -180.6003316  0.674483E-04  0.364E-02    0.13       1.0  T
  10   -180.6004108 -0.791962E-04  0.157E-02    0.13       1.0  T
  11   -180.6004232 -0.124489E-04  0.664E-03    0.13       1.6  T
  12   -180.6004251 -0.185878E-05  0.330E-03    0.13       3.2  T
  13   -180.6004221  0.297276E-05  0.713E-03    0.12       1.5  T
  14   -180.6004235 -0.140078E-05  0.558E-03    0.12       1.9  T
  15   -180.6004248 -0.129739E-05  0.336E-03    0.13       3.1  T
  16   -180.6004254 -0.653453E-06  0.822E-04    0.13      12.8  T
  17   -180.6004254  0.390877E-07  0.110E-03    0.13       9.6  T
  18   -180.6004253  0.737324E-07  0.152E-03    0.13       6.9  T
  19   -180.6004254 -0.876137E-07  0.105E-03    0.13      10.0  T
  20   -180.6004255 -0.569010E-07  0.452E-04    0.13      23.3  T
     SCC iter.                  ...        0 min,  0.419 sec
     gradient                   ...        0 min,  0.050 sec
 * total energy  :  -178.8955041 Eh     change       -0.9283209E-03 Eh
   gradient norm :     0.0165758 Eh/α   predicted    -0.1140981E-02 (  22.91%)
   displ. norm   :     0.6142840 α      lambda       -0.1596075E-02
   maximum displ.:     0.3069255 α      in ANC's #6, #1, #4, ...

........................................................................
.............................. CYCLE  140 ..............................
........................................................................

 iter      E             dE          RMSdq      gap      omega  full diag
   1   -180.5933079 -0.180593E+03  0.212E-01    0.13       0.0  T
   2   -180.2947681  0.298540E+00  0.211E+00    0.01       1.0  T
   3   -180.5928851 -0.298117E+00  0.124E-01    0.14       1.0  T
   4   -180.5901877  0.269740E-02  0.182E-01    0.14       1.0  T
   5   -180.5925159 -0.232818E-02  0.112E-01    0.11       1.0  T
   6   -180.5932963 -0.780383E-03  0.594E-02    0.13       1.0  T
   7   -180.5935760 -0.279725E-03  0.186E-02    0.13       1.0  T
   8   -180.5935901 -0.141672E-04  0.996E-03    0.13       1.1  T
   9   -180.5935934 -0.325817E-05  0.623E-03    0.13       1.7  T
  10   -180.5935893  0.412659E-05  0.859E-03    0.13       1.2  T
  11   -180.5935948 -0.554255E-05  0.282E-03    0.13       3.7  T
  12   -180.5935947  0.847983E-07  0.266E-03    0.13       4.0  T
  13   -180.5935951 -0.340613E-06  0.139E-03    0.13       7.6  T
  14   -180.5935950  0.113609E-06  0.174E-03    0.13       6.0  T
  15   -180.5935952 -0.188056E-06  0.612E-04    0.13      17.2  T
  16   -180.5935952 -0.163382E-08  0.503E-04    0.13      21.0  T
     SCC iter.                  ...        0 min,  0.332 sec
     gradient                   ...        0 min,  0.048 sec
 * total energy  :  -178.8964091 Eh     change       -0.9049584E-03 Eh
   gradient norm :     0.0197118 Eh/α   predicted    -0.1099178E-02 (  21.46%)
   displ. norm   :     0.3185565 α      lambda       -0.1621858E-02
   maximum displ.:     0.1070601 α      in ANC's #12, #17, #1, ...

........................................................................
.............................. CYCLE  141 ..............................
........................................................................

 iter      E             dE          RMSdq      gap      omega  full diag
   1   -180.6028632 -0.180603E+03  0.184E-01    0.12       0.0  T
   2   -180.5972229  0.564036E-02  0.255E-01    0.18       1.0  T
   3   -180.0442179  0.553005E+00  0.293E+00    0.02       1.0  T
   4   -180.5756881 -0.531470E+00  0.502E-01    0.08       1.0  T
   5   -180.6023829 -0.266948E-01  0.790E-02    0.13       1.0  T
   6   -180.6024979 -0.114980E-03  0.810E-02    0.14       1.0  T
   7   -180.6027456 -0.247690E-03  0.606E-02    0.14       1.0  T
   8   -180.6029444 -0.198767E-03  0.276E-02    0.13       1.0  T
   9   -180.6029715 -0.270835E-04  0.172E-02    0.13       1.0  T
  10   -180.6029697  0.178324E-05  0.173E-02    0.13       1.0  T
  11   -180.6029817 -0.119842E-04  0.103E-02    0.13       1.0  T
  12   -180.6029872 -0.549139E-05  0.455E-03    0.13       2.3  T
  13   -180.6029877 -0.594159E-06  0.299E-03    0.13       3.5  T
  14   -180.6029881 -0.361095E-06  0.184E-03    0.13       5.7  T
  15   -180.6029874  0.670899E-06  0.351E-03    0.13       3.0  T
  16   -180.6029878 -0.372599E-06  0.265E-03    0.13       4.0  T
  17   -180.6029881 -0.317979E-06  0.139E-03    0.13       7.6  T
  18   -180.6029882 -0.118587E-06  0.351E-04    0.13      30.1  T
  19   -180.6029882 -0.180364E-09  0.273E-04    0.13      38.6  T
     SCC iter.                  ...        0 min,  0.380 sec
     gradient                   ...        0 min,  0.049 sec
 * total energy  :  -178.8970297 Eh     change       -0.6206174E-03 Eh
   gradient norm :     0.0159260 Eh/α   predicted    -0.8932218E-03 (  43.92%)
   displ. norm   :     0.3499522 α      lambda       -0.1476206E-02
   maximum displ.:     0.1029884 α      in ANC's #42, #1, #38, ...

........................................................................
.............................. CYCLE  142 ..............................
........................................................................

 iter      E             dE          RMSdq      gap      omega  full diag
   1   -180.6084311 -0.180608E+03  0.134E-01    0.13       0.0  T
   2   -180.6081752  0.255915E-03  0.859E-02    0.12       1.0  T
   3   -180.6020918  0.608340E-02  0.298E-01    0.21       1.0  T
   4   -180.5896210  0.124708E-01  0.473E-01    0.08       1.0  T
   5   -180.6081927 -0.185717E-01  0.635E-02    0.13       1.0  T
   6   -180.6079504  0.242361E-03  0.841E-02    0.14       1.0  T
   7   -180.6082385 -0.288173E-03  0.575E-02    0.14       1.0  T
   8   -180.6084831 -0.244560E-03  0.984E-03    0.13       1.1  T
   9   -180.6084793  0.375587E-05  0.129E-02    0.13       1.0  T
  10   -180.6084861 -0.675734E-05  0.790E-03    0.13       1.3  T
  11   -180.6084875 -0.142619E-05  0.644E-03    0.13       1.6  T
  12   -180.6084883 -0.775280E-06  0.508E-03    0.13       2.1  T
  13   -180.6084901 -0.177641E-05  0.179E-03    0.13       5.9  T
  14   -180.6084902 -0.124796E-06  0.119E-03    0.13       8.8  T
  15   -180.6084902 -0.139044E-07  0.876E-04    0.13      12.0  T
  16   -180.6084902  0.267001E-07  0.102E-03    0.13      10.3  T
  17   -180.6084902 -0.141718E-07  0.851E-04    0.13      12.4  T
     SCC iter.                  ...        0 min,  0.345 sec
     gradient                   ...        0 min,  0.049 sec
 * total energy  :  -178.8976664 Eh     change       -0.6366387E-03 Eh
   gradient norm :     0.0172421 Eh/α   predicted    -0.8284976E-03 (  30.14%)
   displ. norm   :     0.5088696 α      lambda       -0.1284624E-02
   maximum displ.:     0.1963234 α      in ANC's #6, #17, #1, ...

........................................................................
.............................. CYCLE  143 ..............................
........................................................................

 iter      E             dE          RMSdq      gap      omega  full diag
   1   -180.5992516 -0.180599E+03  0.162E-01    0.14       0.0  T
   2   -180.2854479  0.313804E+00  0.217E+00    0.01       1.0  T
   3   -180.5992177 -0.313770E+00  0.898E-02    0.14       1.0  T
   4   -180.5978365  0.138120E-02  0.133E-01    0.14       1.0  T
   5   -180.5988786 -0.104215E-02  0.753E-02    0.12       1.0  T
   6   -180.5992316 -0.353031E-03  0.583E-02    0.13       1.0  T
   7   -180.5993691 -0.137487E-03  0.432E-02    0.13       1.0  T
   8   -180.5995132 -0.144087E-03  0.941E-03    0.13       1.1  T
   9   -180.5995105  0.270528E-05  0.102E-02    0.13       1.0  T
  10   -180.5995160 -0.553031E-05  0.549E-03    0.13       1.9  T
  11   -180.5995153  0.763413E-06  0.544E-03    0.13       1.9  T
  12   -180.5995169 -0.164559E-05  0.307E-03    0.13       3.4  T
  13   -180.5995175 -0.533441E-06  0.143E-03    0.13       7.4  T
  14   -180.5995175 -0.713694E-07  0.977E-04    0.13      10.8  T
  15   -180.5995176 -0.297014E-07  0.608E-04    0.13      17.3  T
     SCC iter.                  ...        0 min,  0.331 sec
     gradient                   ...        0 min,  0.048 sec
 * total energy  :  -178.8982359 Eh     change       -0.5695332E-03 Eh
   gradient norm :     0.0156814 Eh/α   predicted    -0.8086433E-03 (  41.98%)
   displ. norm   :     0.2000518 α      lambda       -0.8882111E-03
   maximum displ.:     0.0972375 α      in ANC's #5, #41, #2, ...

........................................................................
.............................. CYCLE  144 ..............................
........................................................................

 iter      E             dE          RMSdq      gap      omega  full diag
   1   -180.6035795 -0.180604E+03  0.120E-01    0.14       0.0  T
   2   -180.2078664  0.395713E+00  0.246E+00    0.01       1.0  T
   3   -180.6015603 -0.393694E+00  0.170E-01    0.16       1.0  T
   4   -180.6008048  0.755565E-03  0.159E-01    0.11       1.0  T
   5   -180.6033463 -0.254152E-02  0.805E-02    0.14       1.0  T
   6   -180.6035751 -0.228823E-03  0.665E-02    0.14       1.0  T
   7   -180.6037499 -0.174811E-03  0.460E-02    0.14       1.0  T
   8   -180.6038280 -0.780582E-04  0.304E-02    0.13       1.0  T
   9   -180.6038783 -0.503338E-04  0.140E-02    0.13       1.0  T
  10   -180.6038770  0.129102E-05  0.136E-02    0.13       1.0  T
  11   -180.6038856 -0.857829E-05  0.761E-03    0.13       1.4  T
  12   -180.6038894 -0.380736E-05  0.179E-03    0.13       5.9  T
  13   -180.6038892  0.174775E-06  0.224E-03    0.13       4.7  T
  14   -180.6038893 -0.423171E-08  0.222E-03    0.13       4.8  T
  15   -180.6038893 -0.245044E-07  0.203E-03    0.13       5.2  T
  16   -180.6038895 -0.203382E-06  0.980E-04    0.13      10.8  T
  17   -180.6038895 -0.496880E-07  0.332E-04    0.13      31.7  T
     SCC iter.                  ...        0 min,  0.354 sec
     gradient                   ...        0 min,  0.047 sec
 * total energy  :  -178.8987071 Eh     change       -0.4712414E-03 Eh
   gradient norm :     0.0123232 Eh/α   predicted    -0.4618789E-03 (  -1.99%)
   displ. norm   :     0.3810137 α      lambda       -0.8376806E-03
   maximum displ.:     0.1149233 α      in ANC's #12, #5, #1, ...

........................................................................
.............................. CYCLE  145 ..............................
........................................................................

 iter      E             dE          RMSdq      gap      omega  full diag
   1   -180.6071869 -0.180607E+03  0.147E-01    0.14       0.0  T
   2   -180.3416560  0.265531E+00  0.201E+00    0.00       1.0  T
   3   -180.6052006 -0.263545E+00  0.157E-01    0.15       1.0  T
   4   -180.5887503  0.164503E-01  0.418E-01    0.09       1.0  T
   5   -180.6071489 -0.183986E-01  0.590E-02    0.12       1.0  T
   6   -180.6073995 -0.250642E-03  0.323E-02    0.13       1.0  T
   7   -180.6074704 -0.709069E-04  0.138E-02    0.13       1.0  T
   8   -180.6074696  0.847702E-06  0.120E-02    0.13       1.0  T
   9   -180.6074780 -0.839332E-05  0.563E-03    0.13       1.9  T
  10   -180.6074751  0.290715E-05  0.793E-03    0.13       1.3  T
  11   -180.6074752 -0.827377E-07  0.741E-03    0.13       1.4  T
  12   -180.6074777 -0.249566E-05  0.448E-03    0.13       2.4  T
  13   -180.6074783 -0.660960E-06  0.307E-03    0.13       3.4  T
  14   -180.6074788 -0.437314E-06  0.150E-03    0.13       7.0  T
  15   -180.6074788 -0.879845E-07  0.882E-04    0.13      11.9  T
  16   -180.6074788  0.353475E-08  0.798E-04    0.13      13.2  T
     SCC iter.                  ...        0 min,  0.349 sec
     gradient                   ...        0 min,  0.060 sec
 * total energy  :  -178.8992627 Eh     change       -0.5555534E-03 Eh
   gradient norm :     0.0102641 Eh/α   predicted    -0.4796457E-03 ( -13.66%)
   displ. norm   :     0.4465942 α      lambda       -0.6893496E-03
   maximum displ.:     0.1301066 α      in ANC's #1, #12, #6, ...

........................................................................
.............................. CYCLE  146 ..............................
........................................................................

 iter      E             dE          RMSdq      gap      omega  full diag
   1   -180.6073439 -0.180607E+03  0.152E-01    0.14       0.0  T
   2   -180.1958690  0.411475E+00  0.253E+00    0.02       1.0  T
   3   -180.6045584 -0.408689E+00  0.180E-01    0.15       1.0  T
   4   -180.5861692  0.183893E-01  0.445E-01    0.09       1.0  T
   5   -180.6073871 -0.212179E-01  0.666E-02    0.13       1.0  T
   6   -180.6076503 -0.263168E-03  0.423E-02    0.13       1.0  T
   7   -180.6077972 -0.146900E-03  0.170E-02    0.13       1.0  T
   8   -180.6077924  0.476220E-05  0.146E-02    0.13       1.0  T
   9   -180.6078068 -0.143743E-04  0.681E-03    0.13       1.5  T
  10   -180.6078051  0.173500E-05  0.780E-03    0.13       1.4  T
  11   -180.6078061 -0.100469E-05  0.631E-03    0.13       1.7  T
  12   -180.6078070 -0.973291E-06  0.469E-03    0.13       2.2  T
  13   -180.6078072 -0.172202E-06  0.422E-03    0.13       2.5  T
  14   -180.6078083 -0.112165E-05  0.125E-03    0.13       8.4  T
  15   -180.6078084 -0.277936E-07  0.931E-04    0.13      11.3  T
  16   -180.6078084 -0.775250E-08  0.683E-04    0.13      15.4  T
     SCC iter.                  ...        0 min,  0.378 sec
     gradient                   ...        0 min,  0.052 sec
 * total energy  :  -178.8996708 Eh     change       -0.4081428E-03 Eh
   gradient norm :     0.0098402 Eh/α   predicted    -0.4134217E-03 (   1.29%)
   displ. norm   :     0.3351768 α      lambda       -0.5934009E-03
   maximum displ.:     0.1173483 α      in ANC's #5, #1, #11, ...

........................................................................
.............................. CYCLE  147 ..............................
........................................................................

 iter      E             dE          RMSdq      gap      omega  full diag
   1   -180.6108018 -0.180611E+03  0.161E-01    0.14       0.0  T
   2   -180.0611381  0.549664E+00  0.293E+00    0.02       1.0  T
   3   -180.6100649 -0.548927E+00  0.125E-01    0.15       1.0  T
   4   -180.6029612  0.710368E-02  0.268E-01    0.10       1.0  T
   5   -180.6104336 -0.747238E-02  0.953E-02    0.14       1.0  T
   6   -180.6110010 -0.567407E-03  0.611E-02    0.14       1.0  T
   7   -180.6112406 -0.239571E-03  0.282E-02    0.13       1.0  T
   8   -180.6112344  0.614525E-05  0.280E-02    0.13       1.0  T
   9   -180.6112819 -0.474415E-04  0.125E-02    0.13       1.0  T
  10   -180.6112785  0.340542E-05  0.132E-02    0.13       1.0  T
  11   -180.6112862 -0.773152E-05  0.744E-03    0.13       1.4  T
  12   -180.6112892 -0.304165E-05  0.263E-03    0.13       4.0  T
  13   -180.6112895 -0.252448E-06  0.150E-03    0.13       7.0  T
  14   -180.6112892  0.253926E-06  0.222E-03    0.13       4.7  T
  15   -180.6112895 -0.259850E-06  0.115E-03    0.13       9.2  T
  16   -180.6112895 -0.335383E-07  0.718E-04    0.13      14.7  T
  17   -180.6112896 -0.265967E-07  0.319E-04    0.13      33.1  T
     SCC iter.                  ...        0 min,  0.363 sec
     gradient                   ...        0 min,  0.050 sec
 * total energy  :  -178.8999386 Eh     change       -0.2677754E-03 Eh
   gradient norm :     0.0105503 Eh/α   predicted    -0.3300332E-03 (  23.25%)
   displ. norm   :     0.3160351 α      lambda       -0.4554172E-03
   maximum displ.:     0.1208775 α      in ANC's #6, #1, #4, ...

........................................................................
.............................. CYCLE  148 ..............................
........................................................................

 iter      E             dE          RMSdq      gap      omega  full diag
   1   -180.6050373 -0.180605E+03  0.103E-01    0.13       0.0  T
   2   -180.5888862  0.161512E-01  0.459E-01    0.08       1.0  T
   3   -180.6024030 -0.135168E-01  0.192E-01    0.17       1.0  T
   4   -180.6035736 -0.117063E-02  0.122E-01    0.14       1.0  T
   5   -180.6050437 -0.147007E-02  0.296E-02    0.13       1.0  T
   6   -180.6047117  0.331977E-03  0.691E-02    0.14       1.0  T
   7   -180.6050703 -0.358645E-03  0.190E-02    0.13       1.0  T
   8   -180.6050954 -0.250514E-04  0.467E-03    0.13       2.3  T
   9   -180.6050896  0.575868E-05  0.956E-03    0.13       1.1  T
  10   -180.6050958 -0.619908E-05  0.292E-03    0.13       3.6  T
  11   -180.6050957  0.154179E-06  0.301E-03    0.13       3.5  T
  12   -180.6050961 -0.482439E-06  0.117E-03    0.13       9.0  T
  13   -180.6050961 -0.109682E-08  0.107E-03    0.13       9.9  T
  14   -180.6050962 -0.392434E-07  0.666E-04    0.13      15.8  T
  15   -180.6050962 -0.524113E-08  0.521E-04    0.13      20.2  T
     SCC iter.                  ...        0 min,  0.346 sec
     gradient                   ...        0 min,  0.049 sec
 * total energy  :  -178.9001357 Eh     change       -0.1971151E-03 Eh
   gradient norm :     0.0112207 Eh/α   predicted    -0.2504522E-03 (  27.06%)
   displ. norm   :     0.1603944 α      lambda       -0.4891774E-03
   maximum displ.:     0.0478771 α      in ANC's #10, #11, #13, ...

........................................................................
.............................. CYCLE  149 ..............................
........................................................................

 iter      E             dE          RMSdq      gap      omega  full diag
   1   -180.6108366 -0.180611E+03  0.102E-01    0.12       0.0  T
   2   -180.6023705  0.846618E-02  0.333E-01    0.23       1.0  T
   3   -180.6028812 -0.510733E-03  0.312E-01    0.09       1.0  T
   4   -180.6072400 -0.435878E-02  0.204E-01    0.16       1.0  T
   5   -180.6101198 -0.287984E-02  0.115E-01    0.15       1.0  T
   6   -180.6101145  0.533285E-05  0.108E-01    0.15       1.0  T
   7   -180.6109714 -0.856905E-03  0.187E-02    0.13       1.0  T
   8   -180.6108964  0.750413E-04  0.372E-02    0.12       1.0  T
   9   -180.6109816 -0.852076E-04  0.157E-02    0.12       1.0  T
  10   -180.6109992 -0.176247E-04  0.279E-03    0.13       3.8  T
  11   -180.6109988  0.370466E-06  0.299E-03    0.13       3.5  T
  12   -180.6109993 -0.453180E-06  0.162E-03    0.13       6.5  T
  13   -180.6109991  0.177600E-06  0.209E-03    0.13       5.0  T
  14   -180.6109993 -0.228856E-06  0.997E-04    0.13      10.6  T
  15   -180.6109993  0.353694E-07  0.125E-03    0.13       8.4  T
  16   -180.6109993 -0.374080E-07  0.811E-04    0.13      13.0  T
     SCC iter.                  ...        0 min,  0.395 sec
     gradient                   ...        0 min,  0.054 sec
 * total energy  :  -178.9003225 Eh     change       -0.1867661E-03 Eh
   gradient norm :     0.0111216 Eh/α   predicted    -0.2508826E-03 (  34.33%)
   displ. norm   :     0.2072987 α      lambda       -0.3810045E-03
   maximum displ.:     0.1140554 α      in ANC's #6, #4, #1, ...

........................................................................
.............................. CYCLE  150 ..............................
........................................................................

 iter      E             dE          RMSdq      gap      omega  full diag
   1   -180.6059224 -0.180606E+03  0.117E-01    0.11       0.0  T
   2   -180.5878662  0.180562E-01  0.445E-01    0.33       1.0  T
   3   -180.6043313 -0.164651E-01  0.142E-01    0.11       1.0  T
   4   -180.6046325 -0.301201E-03  0.145E-01    0.14       1.0  T
   5   -180.6055871 -0.954592E-03  0.103E-01    0.14       1.0  T
   6   -180.6063781 -0.791014E-03  0.488E-02    0.12       1.0  T
   7   -180.6065164 -0.138237E-03  0.134E-02    0.13       1.0  T
   8   -180.6065210 -0.465339E-05  0.103E-02    0.13       1.0  T
   9   -180.6065267 -0.568172E-05  0.455E-03    0.13       2.3  T
  10   -180.6065271 -0.410716E-06  0.368E-03    0.13       2.9  T
  11   -180.6065258  0.136010E-05  0.562E-03    0.13       1.9  T
  12   -180.6065273 -0.153598E-05  0.261E-03    0.13       4.0  T
  13   -180.6065275 -0.223364E-06  0.182E-03    0.13       5.8  T
  14   -180.6065266  0.943140E-06  0.411E-03    0.13       2.6  T
  15   -180.6065274 -0.810566E-06  0.212E-03    0.13       5.0  T
  16   -180.6065276 -0.254838E-06  0.902E-04    0.13      11.7  T
  17   -180.6065277 -0.382132E-07  0.354E-04    0.13      29.8  T
     SCC iter.                  ...        0 min,  0.383 sec
     gradient                   ...        0 min,  0.051 sec
 * total energy  :  -178.9004698 Eh     change       -0.1472630E-03 Eh
   gradient norm :     0.0102063 Eh/α   predicted    -0.1986786E-03 (  34.91%)
   displ. norm   :     0.1598336 α      lambda       -0.3480476E-03
   maximum displ.:     0.0564321 α      in ANC's #4, #3, #1, ...
 * RMSD in coord.:     1.1644610 α      energy gain  -0.1982437E-01 Eh

generating ANC from exact Hessian ...
Using Lindh-Hessian (1995)
 Shifting diagonal of input Hessian by   1.026860803431356E-002
 Lowest  eigenvalues of input Hessian
    0.000000    0.010000    0.000000    0.000000    0.000000    0.000000
    0.000000    0.010490    0.010616    0.010659    0.010917    0.011109
    0.011168    0.011283    0.011432    0.011677    0.011938    0.012114
 Highest eigenvalues
    2.079340    2.117220    2.129709    2.201948    2.205555    2.248030
 

........................................................................
.............................. CYCLE  151 ..............................
........................................................................

 iter      E             dE          RMSdq      gap      omega  full diag
   1   -180.6069602 -0.180607E+03  0.118E-01    0.11       0.0  T
   2   -180.5868677  0.200925E-01  0.463E-01    0.35       1.0  T
   3   -180.6066219 -0.197542E-01  0.943E-02    0.12       1.0  T
   4   -180.6058936  0.728328E-03  0.135E-01    0.14       1.0  T
   5   -180.6070642 -0.117066E-02  0.797E-02    0.14       1.0  T
   6   -180.6072011 -0.136862E-03  0.828E-02    0.11       1.0  T
   7   -180.6076222 -0.421159E-03  0.105E-02    0.12       1.0  T
   8   -180.6076057  0.165201E-04  0.191E-02    0.12       1.0  T
   9   -180.6076296 -0.238884E-04  0.388E-03    0.13       2.7  T
  10   -180.6076303 -0.648779E-06  0.255E-03    0.13       4.1  T
  11   -180.6076301  0.172185E-06  0.290E-03    0.13       3.6  T
  12   -180.6076302 -0.145116E-06  0.243E-03    0.13       4.3  T
  13   -180.6076305 -0.297822E-06  0.914E-04    0.13      11.5  T
  14   -180.6076306 -0.292360E-07  0.555E-04    0.13      19.0  T
     SCC iter.                  ...        0 min,  0.344 sec
     gradient                   ...        0 min,  0.049 sec
 * total energy  :  -178.9005910 Eh     change       -0.1212280E-03 Eh
   gradient norm :     0.0084235 Eh/α   predicted     0.0000000E+00 (-100.00%)
   displ. norm   :     0.0763919 α      lambda       -0.2160954E-03
   maximum displ.:     0.0267955 α      in ANC's #28, #10, #25, ...

........................................................................
.............................. CYCLE  152 ..............................
........................................................................

 iter      E             dE          RMSdq      gap      omega  full diag
   1   -180.6084933 -0.180608E+03  0.597E-02    0.12       0.0  T
   2   -180.6071805  0.131287E-02  0.138E-01    0.15       1.0  T
   3   -180.5989632  0.821728E-02  0.354E-01    0.09       1.0  T
   4   -180.6073566 -0.839344E-02  0.111E-01    0.14       1.0  T
   5   -180.6084659 -0.110928E-02  0.278E-02    0.13       1.0  T
   6   -180.6084234  0.425633E-04  0.353E-02    0.13       1.0  T
   7   -180.6084461 -0.227116E-04  0.294E-02    0.13       1.0  T
   8   -180.6085110 -0.649402E-04  0.525E-03    0.13       2.0  T
   9   -180.6085111 -0.657487E-07  0.573E-03    0.12       1.8  T
  10   -180.6085125 -0.144235E-05  0.355E-03    0.13       3.0  T
  11   -180.6085133 -0.831609E-06  0.791E-04    0.13      13.3  T
  12   -180.6085134 -0.608188E-08  0.618E-04    0.13      17.1  T
     SCC iter.                  ...        0 min,  0.305 sec
     gradient                   ...        0 min,  0.050 sec
 * total energy  :  -178.9007286 Eh     change       -0.1376580E-03 Eh
   gradient norm :     0.0038639 Eh/α   predicted    -0.1086839E-03 ( -21.05%)
   displ. norm   :     0.1466857 α      lambda       -0.2186862E-03
   maximum displ.:     0.0653852 α      in ANC's #10, #6, #28, ...

........................................................................
.............................. CYCLE  153 ..............................
........................................................................

 iter      E             dE          RMSdq      gap      omega  full diag
   1   -180.6085929 -0.180609E+03  0.128E-01    0.11       0.0  T
   2   -180.5842133  0.243796E-01  0.507E-01    0.39       1.0  T
   3   -180.6089723 -0.247590E-01  0.120E-01    0.14       1.0  T
   4   -180.6091855 -0.213200E-03  0.774E-02    0.13       1.0  T
   5   -180.6095954 -0.409950E-03  0.322E-02    0.13       1.0  T
   6   -180.6091670  0.428402E-03  0.841E-02    0.11       1.0  T
   7   -180.6096758 -0.508799E-03  0.800E-03    0.13       1.3  T
   8   -180.6096722  0.357684E-05  0.106E-02    0.13       1.0  T
   9   -180.6096777 -0.542124E-05  0.452E-03    0.13       2.3  T
  10   -180.6096785 -0.858955E-06  0.228E-03    0.13       4.6  T
  11   -180.6096786 -0.942263E-07  0.200E-03    0.13       5.3  T
  12   -180.6096787 -0.117369E-06  0.124E-03    0.13       8.5  T
  13   -180.6096788 -0.751576E-07  0.470E-04    0.13      22.4  T
  14   -180.6096788  0.124315E-07  0.565E-04    0.13      18.7  T
     SCC iter.                  ...        0 min,  0.333 sec
     gradient                   ...        0 min,  0.051 sec
 * total energy  :  -178.9008130 Eh     change       -0.8437945E-04 Eh
   gradient norm :     0.0056350 Eh/α   predicted    -0.1116961E-03 (  32.37%)
   displ. norm   :     0.1626883 α      lambda       -0.2102818E-03
   maximum displ.:     0.0809832 α      in ANC's #10, #28, #7, ...

........................................................................
.............................. CYCLE  154 ..............................
........................................................................

 iter      E             dE          RMSdq      gap      omega  full diag
   1   -180.6088043 -0.180609E+03  0.117E-01    0.14       0.0  T
   2   -179.9799433  0.628861E+00  0.313E+00    0.02       1.0  T
   3   -180.6089436 -0.629000E+00  0.810E-02    0.12       1.0  T
   4   -180.6089206  0.230133E-04  0.661E-02    0.13       1.0  T
   5   -180.6086286  0.292023E-03  0.893E-02    0.12       1.0  T
   6   -180.6093061 -0.677527E-03  0.329E-02    0.12       1.0  T
   7   -180.6093610 -0.548471E-04  0.166E-02    0.12       1.0  T
   8   -180.6093667 -0.574517E-05  0.138E-02    0.12       1.0  T
   9   -180.6093768 -0.101191E-04  0.689E-03    0.13       1.5  T
  10   -180.6093791 -0.229977E-05  0.363E-03    0.13       2.9  T
  11   -180.6093798 -0.663985E-06  0.155E-03    0.13       6.8  T
  12   -180.6093798 -0.475501E-07  0.950E-04    0.13      11.1  T
  13   -180.6093799 -0.300395E-07  0.559E-04    0.13      18.9  T
     SCC iter.                  ...        0 min,  0.308 sec
     gradient                   ...        0 min,  0.050 sec
 * total energy  :  -178.9008731 Eh     change       -0.6008738E-04 Eh
   gradient norm :     0.0082172 Eh/α   predicted    -0.1079238E-03 (  79.61%)
   displ. norm   :     0.1178788 α      lambda       -0.2202303E-03
   maximum displ.:     0.0386750 α      in ANC's #10, #20, #9, ...

........................................................................
.............................. CYCLE  155 ..............................
........................................................................

 iter      E             dE          RMSdq      gap      omega  full diag
   1   -180.6090832 -0.180609E+03  0.770E-02    0.12       0.0  T
   2   -180.6031659  0.591739E-02  0.270E-01    0.19       1.0  T
   3   -180.6012575  0.190838E-02  0.320E-01    0.09       1.0  T
   4   -180.6090485 -0.779105E-02  0.403E-02    0.13       1.0  T
   5   -180.6084309  0.617633E-03  0.934E-02    0.14       1.0  T
   6   -180.6087571 -0.326213E-03  0.726E-02    0.14       1.0  T
   7   -180.6091017 -0.344635E-03  0.222E-02    0.13       1.0  T
   8   -180.6091239 -0.221832E-04  0.157E-02    0.12       1.0  T
   9   -180.6091254 -0.146949E-05  0.143E-02    0.12       1.0  T
  10   -180.6091396 -0.141669E-04  0.349E-03    0.13       3.0  T
  11   -180.6091401 -0.592099E-06  0.127E-03    0.13       8.3  T
  12   -180.6091402 -0.282816E-07  0.129E-03    0.13       8.1  T
  13   -180.6091400  0.171396E-06  0.202E-03    0.13       5.2  T
  14   -180.6091402 -0.198608E-06  0.977E-04    0.13      10.8  T
  15   -180.6091403 -0.657467E-07  0.113E-04    0.13      93.5  T
     SCC iter.                  ...        0 min,  0.328 sec
     gradient                   ...        0 min,  0.051 sec
 * total energy  :  -178.9010094 Eh     change       -0.1362585E-03 Eh
   gradient norm :     0.0054319 Eh/α   predicted    -0.1116453E-03 ( -18.06%)
   displ. norm   :     0.1915908 α      lambda       -0.2007156E-03
   maximum displ.:     0.0828111 α      in ANC's #10, #28, #20, ...

........................................................................
.............................. CYCLE  156 ..............................
........................................................................

 iter      E             dE          RMSdq      gap      omega  full diag
   1   -180.6064617 -0.180606E+03  0.173E-01    0.11       0.0  T
   2   -180.5801090  0.263527E-01  0.541E-01    0.41       1.0  T
   3   -180.6046467 -0.245377E-01  0.247E-01    0.17       1.0  T
   4   -180.6052040 -0.557298E-03  0.199E-01    0.16       1.0  T
   5   -180.6081910 -0.298698E-02  0.495E-02    0.13       1.0  T
   6   -180.6071530  0.103796E-02  0.127E-01    0.11       1.0  T
   7   -180.6083242 -0.117113E-02  0.120E-02    0.13       1.0  T
   8   -180.6083245 -0.371917E-06  0.848E-03    0.13       1.2  T
   9   -180.6083258 -0.127106E-05  0.755E-03    0.13       1.4  T
  10   -180.6083291 -0.331819E-05  0.384E-03    0.13       2.7  T
  11   -180.6083280  0.112742E-05  0.552E-03    0.13       1.9  T
  12   -180.6083298 -0.180522E-05  0.103E-03    0.13      10.2  T
  13   -180.6083296  0.238935E-06  0.221E-03    0.13       4.8  T
  14   -180.6083298 -0.234082E-06  0.899E-04    0.13      11.7  T
  15   -180.6083298 -0.393683E-07  0.345E-04    0.13      30.5  T
     SCC iter.                  ...        0 min,  0.326 sec
     gradient                   ...        0 min,  0.050 sec
 * total energy  :  -178.9011074 Eh     change       -0.9805555E-04 Eh
   gradient norm :     0.0039561 Eh/α   predicted    -0.1040456E-03 (   6.11%)
   displ. norm   :     0.2205616 α      lambda       -0.1448176E-03
   maximum displ.:     0.1026773 α      in ANC's #10, #21, #38, ...

........................................................................
.............................. CYCLE  157 ..............................
........................................................................

 iter      E             dE          RMSdq      gap      omega  full diag
   1   -180.6079407 -0.180608E+03  0.889E-02    0.13       0.0  T
   2   -180.4413210  0.166620E+00  0.157E+00    0.02       1.0  T
   3   -180.6077287 -0.166408E+00  0.639E-02    0.13       1.0  T
   4   -180.6028116  0.491714E-02  0.222E-01    0.11       1.0  T
   5   -180.6079988 -0.518719E-02  0.323E-02    0.13       1.0  T
   6   -180.6080403 -0.415456E-04  0.296E-02    0.12       1.0  T
   7   -180.6081057 -0.653494E-04  0.754E-03    0.13       1.4  T
   8   -180.6081028  0.283898E-05  0.944E-03    0.13       1.1  T
   9   -180.6081092 -0.639196E-05  0.326E-03    0.13       3.2  T
  10   -180.6081096 -0.326961E-06  0.219E-03    0.13       4.8  T
  11   -180.6081096 -0.864356E-07  0.149E-03    0.13       7.1  T
  12   -180.6081097 -0.777674E-07  0.746E-04    0.13      14.1  T
  13   -180.6081097 -0.112946E-07  0.561E-04    0.13      18.8  T
     SCC iter.                  ...        0 min,  0.294 sec
     gradient                   ...        0 min,  0.050 sec
 * total energy  :  -178.9011925 Eh     change       -0.8505260E-04 Eh
   gradient norm :     0.0041877 Eh/α   predicted    -0.7593255E-04 ( -10.72%)
   displ. norm   :     0.1390807 α      lambda       -0.7289600E-04
   maximum displ.:     0.0635021 α      in ANC's #10, #38, #1, ...

........................................................................
.............................. CYCLE  158 ..............................
........................................................................

 iter      E             dE          RMSdq      gap      omega  full diag
   1   -180.6086525 -0.180609E+03  0.483E-02    0.12       0.0  T
   2   -180.6048849  0.376766E-02  0.210E-01    0.17       1.0  T
   3   -180.6059663 -0.108140E-02  0.191E-01    0.10       1.0  T
   4   -180.6077438 -0.177758E-02  0.870E-02    0.12       1.0  T
   5   -180.6086342 -0.890356E-03  0.261E-02    0.13       1.0  T
   6   -180.6085806  0.535875E-04  0.362E-02    0.13       1.0  T
   7   -180.6086679 -0.872554E-04  0.116E-02    0.13       1.0  T
   8   -180.6086751 -0.727053E-05  0.601E-03    0.13       1.8  T
   9   -180.6086749  0.221544E-06  0.592E-03    0.13       1.8  T
  10   -180.6086774 -0.252779E-05  0.104E-03    0.13      10.1  T
  11   -180.6086774  0.108186E-07  0.108E-03    0.13       9.8  T
  12   -180.6086775 -0.386819E-07  0.638E-04    0.13      16.5  T
  13   -180.6086774  0.215130E-07  0.743E-04    0.13      14.2  T
     SCC iter.                  ...        0 min,  0.288 sec
     gradient                   ...        0 min,  0.055 sec
 * total energy  :  -178.9012415 Eh     change       -0.4903374E-04 Eh
   gradient norm :     0.0030885 Eh/α   predicted    -0.3716181E-04 ( -24.21%)
   displ. norm   :     0.1757113 α      lambda       -0.7618495E-04
   maximum displ.:     0.0767965 α      in ANC's #10, #38, #1, ...

   *** GEOMETRY OPTIMIZATION CONVERGED AFTER 158 ITERATIONS ***

------------------------------------------------------------------------
 total energy gain   :        -0.2994379 Eh     -187.9001 kcal/mol
 total RMSD          :         5.1609465 a0        2.7311 Å
 total power (kW/mol):        -4.9757854 (step)  -10.4649 (real)
------------------------------------------------------------------------

 ANCopt (total)                0 d,  0 h,  1 min, 15.125 sec
 optimizer setup                ...        0 min,  0.000 sec (  0.000%)
 model hessian                  ...        0 min,  0.362 sec (  0.482%)
 ANC generation                 ...        0 min,  0.078 sec (  0.104%)
 coordinate transformation      ...        0 min,  0.012 sec (  0.016%)
 single point calculation       ...        1 min, 14.389 sec ( 99.020%)
 optimization log               ...        0 min,  0.197 sec (  0.262%)
 hessian update                 ...        0 min,  0.012 sec (  0.016%)
 rational function              ...        0 min,  0.046 sec (  0.061%)

================
 final structure:
================
90
 xtb: 6.7.1pre (5071a88)
C            1.41454437711051        3.90888801670196        6.32467964551290
C            2.37540409248972        3.35219981889705        7.39269532842970
C            2.23587858367852        4.16774876909006        8.68560416911574
C            3.81769334907254        3.41556320967823        6.88136768971110
C            1.93377020169558        1.92835320650018        7.68165583518488
N            0.79507296070360        1.78866400499313        8.30145640162573
C            0.33274268353021        0.51310974201977        8.48753672101053
N            1.17981934523277       -0.56952451531225        8.36450895063116
C            2.29784526439997       -0.33287255615620        7.70982994905428
N            2.69748274385973        0.89177112753321        7.22414966852994
N            3.15036361476008       -1.37493090986624        7.57139969973939
C            4.51391912732658       -1.25259030462363        7.10530779089160
C            4.78317641420935       -2.16859934029244        5.89081100628373
O            3.82872304629937       -3.22359007361028        5.79456181550227
C            3.52318398651136       -3.72809557233196        7.08046192523713
C            2.65677392716932       -2.71456961532006        7.83994224020041
C           -1.06376230876693        0.38219662620322        8.62902807574829
C           -1.88920926885230        1.53026633831655        8.05233026735597
N           -3.26832422859548        1.28544160028030        7.93469857433012
C           -3.68848908300009        0.06042441323643        7.91134370071374
N           -4.99064383718362       -0.16305618228848        7.53879236410874
C           -5.52899289006723       -1.50811760617551        7.55377913140784
C           -6.96498542979238       -1.45691094973318        7.04124493547845
O           -7.03472621074196       -1.04345154608206        5.69167680177590
C           -6.05137582494235       -0.07868748273822        5.34185906160299
C           -5.57682038496797        0.72859194622775        6.55036042376515
N           -2.97389569994442       -1.06545653015998        8.29890119090986
C           -1.74466533810203       -0.87165687911229        8.75241491982782
N           -1.11164247591291       -1.92339576707782        9.35371534973632
H            1.57323756793514        4.97916955629105        6.20655220750681
H            0.37821587680587        3.72307346921818        6.62573296486813
H            1.59739230366298        3.40867720367401        5.35971039977710
H            2.46406640566701        5.21286247569206        8.49395500322611
H            2.91996511735734        3.79373750568923        9.44268341319273
H            1.22236746696927        4.08188434903951        9.06347560324284
H            3.91161781675786        2.89639701772719        5.91505506115011
H            4.10727071542100        4.45669268044554        6.75684319275411
H            4.49179328575271        2.95007224337368        7.59762227892347
H            4.69444060334378       -0.20893148388676        6.82351707752668
H            5.17588524276440       -1.52790466003766        7.93928727827994
H            5.78908263589589       -2.60944769858424        5.97728248551920
H            4.70305591205243       -1.60341253960478        4.95402306573320
H            4.45475331126715       -3.94201133925993        7.62633060804307
H            2.97095593129729       -4.66011779928506        6.92041809690400
H            2.66152986002810       -2.91479391288853        8.92144888259053
H            1.62014848851844       -2.77461798179680        7.46693708488356
H           -1.69589015411886        2.51963254991894        8.48801635038911
H           -4.92963479843940       -2.20602563116548        6.91239872372427
H           -5.50113657996419       -1.88224799639291        8.58125704851147
H           -7.42159290454530       -2.44954192750814        7.07403910833362
H           -7.55355032972009       -0.77733448878926        7.67339025143522
H           -6.51059467065144        0.57694840667871        4.59612077343629
H           -5.17138187891963       -0.58284087781432        4.87577386149331
H           -4.81012659520096        1.44579737540299        6.24071799943223
H           -6.41721825468336        1.27333000552642        6.99625736350360
H           -0.09873734789024       -1.85459837432860        9.32304212502972
H           -1.52326800139777       -2.83144223724236        9.15005804955448
Ti          -2.13428115091977       -2.64396637591839        5.77257911055434
Ti           0.39333914091930       -1.62521401834945        4.80908049430311
Ti           2.00114479869670       -3.59525241499509        3.25317238063240
Ti          -2.47130768373156       -0.50465904174718        3.85241143276336
Ti           2.15717114962045        0.75066706016777        5.15948079227113
Ti          -1.06699554552708        0.44163513384337        6.49005633485624
Ti          -1.65495052927744       -3.69685054058039        2.54644333564696
Ti           0.04729700286397       -1.54397238705453        1.13177369469413
Ti           2.57011971688903       -2.58854665755567        0.32853703882574
Ti          -1.54590282575270        0.93187651099730        1.13963884206264
Ti           2.68578236163905        0.10945591060302        2.23799919409062
Ti           1.21321508001429        1.00361262494621       -0.21935684415216
C           -3.59756999590780        0.62187072195043        2.58363666356148
C            4.38137570635417        0.29432997907972        3.34344254276275
C            0.59247516777949        1.89975453806193        2.90735748075345
C           -3.50607946025014        1.34514423189473        1.57736191008764
C            4.13309326373419        0.75833880506477        4.47197567846014
C           -0.56756993183460        2.08267231434924        2.40513886083578
C            1.81884154265581        1.70086844389620        3.38460505939435
O           -3.09952826836609       -2.15453798442437        4.35572732656450
O           -0.56024810356571       -1.92765612503866        6.33689277499303
O            0.56678786626432       -3.27768504185149        4.28408671302103
O           -0.77563976577754       -0.87466086789656        3.80267981902151
O            1.96690993916658       -1.01657690482483        4.85232370772727
O           -2.43408668027984        0.25419647774446        5.40992570259360
O            0.38677016401145        0.86169662678362        5.76519407911568
O           -0.25499864771235       -3.21629351630678        1.60343209065639
O            1.03168305576592       -1.82970143519465       -0.29166325020468
O            3.07397107339845       -3.14570745207226        1.93018172839805
O           -1.56210387371657       -0.91601513459158        1.29408480213106
O            1.21781461050776       -0.87528509135763        2.18022206257505
O           -0.51137500867696        1.02351756981778       -0.28769895643196
O            2.75334006781591        0.68222616170262        0.60148740507253
 
 Bond Distances (Angstroems)
 ---------------------------
C1-C2=1.5407         C1-H30=1.0884        C1-H31=1.0951        C1-H32=1.1022        C2-C1=1.5407         C2-C3=1.5350         
C2-C4=1.5316         C2-C5=1.5185         C3-C2=1.5350         C3-H33=1.0868        C3-H34=1.0868        C3-H35=1.0851        
C4-C2=1.5316         C4-H36=1.1010        C4-H37=1.0878        C4-H38=1.0882        C5-C2=1.5185         C5-N6=1.3040         
C5-N10=1.3664        C5-Ti62=2.7925       N6-C5=1.3040         N6-C7=1.3695         C7-N6=1.3695         C7-N8=1.3801         
C7-C17=1.4097        C7-Ti63=2.4401       N8-C7=1.3801         N8-C9=1.3170         C9-N8=1.3170         C9-N10=1.3767        
C9-N11=1.3535        C9-Ti62=2.7746       N10-C5=1.3664        N10-C9=1.3767        N10-Ti62=2.1389      N11-C9=1.3535        
N11-C12=1.4462       N11-C16=1.4527       C12-N11=1.4462       C12-C13=1.5449       C12-H39=1.0960       C12-H40=1.0998       
C13-C12=1.5449       C13-O14=1.4259       C13-H41=1.1017       C13-H42=1.0970       O14-C13=1.4259       O14-C15=1.4147       
C15-O14=1.4147       C15-C16=1.5345       C15-H43=1.1007       C15-H44=1.0951       C16-N11=1.4527       C16-C15=1.5345       
C16-H45=1.0999       C16-H46=1.1033       C17-C7=1.4097        C17-C18=1.5271       C17-C28=1.4321       C17-Ti63=2.1398      
C18-C17=1.5271       C18-N19=1.4056       C18-H47=1.0982       C18-Ti63=2.0741      N19-C18=1.4056       N19-C20=1.2953       
N19-Ti63=2.7649      C20-N19=1.2953       C20-N21=1.3727       C20-N27=1.3887       N21-C20=1.3727       N21-C22=1.4489       
N21-C26=1.4545       C22-N21=1.4489       C22-C23=1.5256       C22-H48=1.1215       C22-H49=1.0938       C23-C22=1.5256       
C23-O24=1.4132       C23-H50=1.0931       C23-H51=1.0990       O24-C23=1.4132       O24-C25=1.4213       C25-O24=1.4213       
C25-C26=1.5288       C25-H52=1.0940       C25-H53=1.1162       C26-N21=1.4545       C26-C25=1.5288       C26-H54=1.0946       
C26-H55=1.0963       N27-C20=1.3887       N27-C28=1.3245       C28-C17=1.4321       C28-N27=1.3245       C28-N29=1.3669       
C28-Ti63=2.7023      N29-C28=1.3669       N29-H56=1.0157       N29-H57=1.0176       H30-C1=1.0884        H31-C1=1.0951        
H32-C1=1.1022        H33-C3=1.0868        H34-C3=1.0868        H35-C3=1.0851        H36-C4=1.1010        H37-C4=1.0878        
H38-C4=1.0882        H39-C12=1.0960       H40-C12=1.0998       H41-C13=1.1017       H42-C13=1.0970       H43-C15=1.1007       
H44-C15=1.0951       H45-C16=1.0999       H46-C16=1.1033       H47-C18=1.0982       H48-C22=1.1215       H49-C22=1.0938       
H50-C23=1.0931       H51-C23=1.0990       H52-C25=1.0940       H53-C25=1.1162       H54-C26=1.0946       H55-C26=1.0963       
H56-N29=1.0157       H57-N29=1.0176       Ti58-Ti59=2.8905     Ti58-Ti61=2.8944     Ti58-Ti63=3.3429     Ti58-Ti64=3.4273     
Ti58-O77=1.7829      Ti58-O78=1.8191      Ti59-Ti58=2.8905     Ti59-Ti60=2.9811     Ti59-Ti61=3.2213     Ti59-Ti62=2.9797     
Ti59-Ti63=3.0381     Ti59-Ti64=3.6887     Ti59-Ti65=3.6944     Ti59-O78=1.8262      Ti59-O79=1.7425      Ti59-O80=1.7154      
Ti59-O81=1.6877      Ti59-O83=2.6644      Ti60-Ti59=2.9811     Ti60-Ti64=3.7252     Ti60-Ti65=3.5392     Ti60-Ti66=3.1449     
Ti60-O79=1.7947      Ti60-O86=1.7616      Ti61-Ti58=2.8944     Ti61-Ti59=3.2213     Ti61-Ti63=3.1344     Ti61-Ti64=3.5443     
Ti61-Ti67=3.2061     Ti61-C70=2.0365      Ti61-O77=1.8358      Ti61-O80=1.7363      Ti61-O82=1.7329      Ti61-O87=2.7461      
Ti62-C5=2.7925       Ti62-C9=2.7746       Ti62-N10=2.1389      Ti62-Ti59=2.9797     Ti62-Ti63=3.5016     Ti62-Ti68=3.0374     
Ti62-C74=2.0921      Ti62-C76=2.0415      Ti62-O81=1.8038      Ti62-O83=1.8744      Ti63-C7=2.4401       Ti63-C17=2.1398      
Ti63-C18=2.0741      Ti63-N19=2.7649      Ti63-C28=2.7023      Ti63-Ti58=3.3429     Ti63-Ti59=3.0381     Ti63-Ti61=3.1344     
Ti63-Ti62=3.5016     Ti63-O78=2.4277      Ti63-O82=1.7524      Ti63-O83=1.6779      Ti64-Ti58=3.4273     Ti64-Ti59=3.6887     
Ti64-Ti60=3.7252     Ti64-Ti61=3.5443     Ti64-Ti65=3.0877     Ti64-O84=1.7550      Ti65-Ti59=3.6944     Ti65-Ti60=3.5392     
Ti65-Ti64=3.0877     Ti65-Ti66=2.8462     Ti65-Ti67=2.9442     Ti65-Ti68=3.3044     Ti65-Ti69=3.1105     Ti65-O84=1.7637      
Ti65-O85=1.7541      Ti65-O87=1.7352      Ti65-O88=1.7078      Ti66-Ti60=3.1449     Ti66-Ti65=2.8462     Ti66-Ti68=3.3074     
Ti66-O85=1.8241      Ti66-O86=1.7691      Ti67-Ti61=3.2061     Ti67-Ti65=2.9442     Ti67-Ti69=3.0765     Ti67-C70=2.5280      
Ti67-C73=2.0505      Ti67-C75=1.9705      Ti67-O87=1.8544      Ti67-O89=1.7652      Ti68-Ti62=3.0374     Ti68-Ti65=3.3044     
Ti68-Ti66=3.3074     Ti68-Ti69=3.0011     Ti68-C71=2.0325      Ti68-C72=2.8346      Ti68-C74=2.7398      Ti68-C76=2.1445      
Ti68-O88=1.7686      Ti68-O90=1.7352      Ti69-Ti65=3.1105     Ti69-Ti67=3.0765     Ti69-Ti68=3.0011     Ti69-O89=1.7261      
Ti69-O90=1.7746      C70-Ti61=2.0365      C70-Ti67=2.5280      C70-C73=1.2426       C71-Ti68=2.0325      C71-C74=1.2452       
C72-Ti68=2.8346      C72-C75=1.2773       C72-C76=1.3309       C73-Ti67=2.0505      C73-C70=1.2426       C74-Ti62=2.0921      
C74-Ti68=2.7398      C74-C71=1.2452       C75-Ti67=1.9705      C75-C72=1.2773       C76-Ti62=2.0415      C76-Ti68=2.1445      
C76-C72=1.3309       O77-Ti58=1.7829      O77-Ti61=1.8358      O78-Ti58=1.8191      O78-Ti59=1.8262      O78-Ti63=2.4277      
O79-Ti59=1.7425      O79-Ti60=1.7947      O80-Ti59=1.7154      O80-Ti61=1.7363      O81-Ti59=1.6877      O81-Ti62=1.8038      
O82-Ti61=1.7329      O82-Ti63=1.7524      O83-Ti59=2.6644      O83-Ti62=1.8744      O83-Ti63=1.6779      O84-Ti64=1.7550      
O84-Ti65=1.7637      O85-Ti65=1.7541      O85-Ti66=1.8241      O86-Ti60=1.7616      O86-Ti66=1.7691      O87-Ti61=2.7461      
O87-Ti65=1.7352      O87-Ti67=1.8544      O88-Ti65=1.7078      O88-Ti68=1.7686      O89-Ti67=1.7652      O89-Ti69=1.7261      
O90-Ti68=1.7352      O90-Ti69=1.7746      
 C  H  Rav=1.0970 sigma=0.0082  Rmin=1.0851  Rmax=1.1215    26
 C  C  Rav=1.4483 sigma=0.1130  Rmin=1.2426  Rmax=1.5449    15
 N  H  Rav=1.0166 sigma=0.0009  Rmin=1.0157  Rmax=1.0176     2
 N  C  Rav=1.3778 sigma=0.0496  Rmin=1.2953  Rmax=1.4545    17
 O  C  Rav=1.4188 sigma=0.0051  Rmin=1.4132  Rmax=1.4259     4
 Ti C  Rav=2.3371 sigma=0.3241  Rmin=1.9705  Rmax=2.8346    16
 Ti N  Rav=2.4519 sigma=0.3130  Rmin=2.1389  Rmax=2.7649     2
 Ti O  Rav=1.8489 sigma=0.2575  Rmin=1.6779  Rmax=2.7461    31
 Ti Ti Rav=3.2181 sigma=0.2618  Rmin=2.8462  Rmax=3.7252    26
 
 selected bond angles (degree)
 --------------------
H30-C1-C2=109.85               H31-C1-C2=109.77               H31-C1-H30=109.55              H32-C1-C2=109.84               
H32-C1-H30=109.09              H32-C1-H31=108.70              C3-C2-C1=109.59                C4-C2-C1=109.93                
C4-C2-C3=110.17                C5-C2-C1=106.82                C5-C2-C3=108.15                C5-C2-C4=112.10                
H33-C3-C2=110.08               H34-C3-C2=110.29               H34-C3-H33=108.76              H35-C3-C2=109.64               
H35-C3-H33=109.49              H35-C3-H34=108.55              H36-C4-C2=110.72               H37-C4-C2=109.18               
H37-C4-H36=109.16              H38-C4-C2=110.24               H38-C4-H36=108.85              H38-C4-H37=108.65              
N6-C5-C2=116.42                N10-C5-C2=119.02               N10-C5-N6=124.47               Ti62-C5-C2=101.55              
Ti62-C5-N6=117.00              Ti62-C5-N10= 48.16             C7-N6-C5=117.33                N8-C7-N6=120.75                
C17-C7-N6=115.76               C17-C7-N8=122.96               Ti63-C7-N6= 96.30              Ti63-C7-N8=104.84              
Ti63-C7-C17= 60.74             C9-N8-C7=115.11                N10-C9-N8=125.56               N11-C9-N8=116.56               
N11-C9-N10=117.77              Ti62-C9-N8=118.95              Ti62-C9-N10= 48.93             Ti62-C9-N11=103.80             
C9-N10-C5=113.23               Ti62-N10-C5=103.42             Ti62-N10-C9=102.04             
 
 selected dihedral angles (degree)
 ---------------------------------
C3-C2-C1-H30= 53.14           C3-C2-C1-H31=292.61           C3-C2-C1-H32=173.13           C4-C2-C1-H30=291.91           
C4-C2-C1-H31=171.39           C4-C2-C1-H32= 51.91           C5-C2-C1-H30=170.07           C5-C2-C1-H31= 49.54           
C5-C2-C1-H32=290.06           H33-C3-C2-C1=300.86           H33-C3-C2-C4= 61.93           H33-C3-C2-C5=184.77           
H34-C3-C2-C1=180.84           H34-C3-C2-C4=301.92           H34-C3-C2-C5= 64.75           H35-C3-C2-C1= 61.37           
H35-C3-C2-C4=182.44           H35-C3-C2-C5=305.27           H36-C4-C2-C1=305.09           H36-C4-C2-C3=184.22           
H36-C4-C2-C5= 63.74           H37-C4-C2-C1= 65.29           H37-C4-C2-C3=304.42           H37-C4-C2-C5=183.94           
H38-C4-C2-C1=184.58           H38-C4-C2-C3= 63.71           H38-C4-C2-C5=303.22           N6-C5-C2-C1=290.85            
N6-C5-C2-C3= 48.73            N6-C5-C2-C4=170.38            N10-C5-C2-C1=107.39           N10-C5-C2-C3=225.27           
N10-C5-C2-C4=346.92           Ti62-C5-C2-C1= 59.09          Ti62-C5-C2-C3=176.97          Ti62-C5-C2-C4=298.62          
C7-N6-C5-C2=175.49            C7-N6-C5-N10=359.15           C7-N6-C5-Ti62= 55.22          N8-C7-N6-C5= 17.24            
C17-C7-N6-C5=205.33           Ti63-C7-N6-C5=265.80          C9-N8-C7-N6=341.63            C9-N8-C7-C17=152.95           
C9-N8-C7-Ti63= 88.47          N10-C9-N8-C7=  3.74           N11-C9-N8-C7=180.02           Ti62-C9-N8-C7=305.57          
C9-N10-C5-C2=171.29           C9-N10-C5-N6=347.54           C9-N10-C5-Ti62=250.38         Ti62-N10-C5-C2=280.91         
Ti62-N10-C5-N6= 97.15         C5-N10-C9-N8= 10.90           C5-N10-C9-N11=194.66          C5-N10-C9-Ti62=110.47         
Ti62-N10-C9-N8=260.43         Ti62-N10-C9-N11= 84.19        
 
 CMA Distance (Angstroems)
 ---------------------------
R(CMA):  4.5508
           -------------------------------------------------
          |                Final Singlepoint                |
           -------------------------------------------------

          ...................................................
          :                      SETUP                      :
          :.................................................:
          :  # basis functions                 348          :
          :  # atomic orbitals                 336          :
          :  # shells                          164          :
          :  # electrons                       316          :
          :  max. iterations                   500          :
          :  Hamiltonian                  GFN2-xTB          :
          :  restarted?                      false          :
          :  GBSA solvation                  false          :
          :  PC potential                    false          :
          :  electronic temp.          300.0000000     K    :
          :  accuracy                    1.0000000          :
          :  -> integral cutoff          0.2500000E+02      :
          :  -> integral neglect         0.1000000E-07      :
          :  -> SCF convergence          0.1000000E-05 Eh   :
          :  -> wf. convergence          0.1000000E-03 e    :
          :  Broyden damping             0.4000000          :
          :  net charge                          0          :
          :  unpaired electrons                  0          :
          ...................................................

 iter      E             dE          RMSdq      gap      omega  full diag
   1   -180.6086775 -0.180609E+03  0.253E-04    0.13       0.0  T
   2   -180.6086768  0.685377E-06  0.298E-03    0.13       3.5  T
   3   -180.6086775 -0.685257E-06  0.226E-04    0.13      46.6  T
   4   -180.6086775 -0.152380E-08  0.175E-04    0.13      60.1  T

   *** convergence criteria satisfied after 4 iterations ***

         #    Occupation            Energy/Eh            Energy/eV
      -------------------------------------------------------------
         1        2.0000           -0.7988982             -21.7391
       ...           ...                  ...                  ...
       152        2.0000           -0.3317920              -9.0285
       153        2.0000           -0.3236098              -8.8059
       154        2.0000           -0.3207143              -8.7271
       155        2.0000           -0.3078552              -8.3772
       156        2.0000           -0.3056607              -8.3175
       157        2.0000           -0.2945894              -8.0162
       158        1.8019           -0.2808757              -7.6430 (HOMO)
       159        0.1259           -0.2762129              -7.5161 (LUMO)
       160        0.0707           -0.2756372              -7.5005
       161        0.0013           -0.2718084              -7.3963
       162        0.0001           -0.2693018              -7.3281
       163        0.0000           -0.2668843              -7.2623
       ...           ...                  ...                  ...
       336                         15.8057224             430.0956
      -------------------------------------------------------------
                  HL-Gap            0.0046627 Eh            0.1269 eV
             Fermi-level           -0.2787781 Eh           -7.5859 eV

 SCC (total)                   0 d,  0 h,  0 min,  0.179 sec
 SCC setup                      ...        0 min,  0.001 sec (  0.559%)
 Dispersion                     ...        0 min,  0.001 sec (  0.559%)
 classical contributions        ...        0 min,  0.000 sec (  0.000%)
 integral evaluation            ...        0 min,  0.018 sec ( 10.056%)
 iterations                     ...        0 min,  0.108 sec ( 60.335%)
 molecular gradient             ...        0 min,  0.049 sec ( 27.374%)
 printout                       ...        0 min,  0.002 sec (  1.117%)

         :::::::::::::::::::::::::::::::::::::::::::::::::::::
         ::                     SUMMARY                     ::
         :::::::::::::::::::::::::::::::::::::::::::::::::::::
         :: total energy            -178.901241539556 Eh    ::
         :: gradient norm              0.003085720321 Eh/a0 ::
         :: HOMO-LUMO gap              0.126879227943 eV    ::
         ::.................................................::
         :: SCC energy              -180.599313382957 Eh    ::
         :: -> isotropic ES            1.148692907103 Eh    ::
         :: -> anisotropic ES         -0.552214347966 Eh    ::
         :: -> anisotropic XC         -0.044525966048 Eh    ::
         :: -> dispersion             -0.197644502568 Eh    ::
         :: repulsion energy           1.698071843400 Eh    ::
         :: add. restraining           0.000000000000 Eh    ::
         :: total charge              -0.000000000000 e     ::
         :::::::::::::::::::::::::::::::::::::::::::::::::::::

           -------------------------------------------------
          |                Property Printout                |
           -------------------------------------------------

    * Orbital Energies and Occupations

         #    Occupation            Energy/Eh            Energy/eV
      -------------------------------------------------------------
         1        2.0000           -0.7988982             -21.7391
       ...           ...                  ...                  ...
       146        2.0000           -0.3609514              -9.8220
       147        2.0000           -0.3572712              -9.7218
       148        2.0000           -0.3566789              -9.7057
       149        2.0000           -0.3469168              -9.4401
       150        2.0000           -0.3411730              -9.2838
       151        2.0000           -0.3328765              -9.0580
       152        2.0000           -0.3317920              -9.0285
       153        2.0000           -0.3236098              -8.8059
       154        2.0000           -0.3207143              -8.7271
       155        2.0000           -0.3078552              -8.3772
       156        2.0000           -0.3056607              -8.3175
       157        2.0000           -0.2945894              -8.0162
       158        1.8019           -0.2808757              -7.6430 (HOMO)
       159        0.1259           -0.2762129              -7.5161 (LUMO)
       160        0.0707           -0.2756372              -7.5005
       161        0.0013           -0.2718084              -7.3963
       162        0.0001           -0.2693018              -7.3281
       163        0.0000           -0.2668843              -7.2623
       164        0.0000           -0.2663216              -7.2470
       165                         -0.2616561              -7.1200
       166                         -0.2585874              -7.0365
       167                         -0.2535420              -6.8992
       168                         -0.2510089              -6.8303
       169                         -0.2486077              -6.7650
       ...                                ...                  ...
       336                         15.8057224             430.0956
      -------------------------------------------------------------
                  HL-Gap            0.0046627 Eh            0.1269 eV
             Fermi-level           -0.2787781 Eh           -7.5859 eV

     #   Z          covCN         q      C6AA      α(0)
     1   6 C        3.759    -0.145    23.349     6.889
     2   6 C        3.906     0.017    20.233     6.394
     3   6 C        3.761    -0.136    23.165     6.861
     4   6 C        3.756    -0.159    23.631     6.931
     5   6 C        3.148     0.190    23.718     7.967
     6   7 N        1.902    -0.291    28.402     7.901
     7   6 C        3.593     0.161    18.563     6.240
     8   7 N        1.856    -0.383    30.859     8.234
     9   6 C        3.111     0.255    22.600     7.788
    10   7 N        2.582    -0.332    28.570     7.938
    11   7 N        2.754    -0.078    22.763     7.086
    12   6 C        3.740    -0.033    21.244     6.576
    13   6 C        3.709     0.045    19.959     6.385
    14   8 O        1.700    -0.285    18.733     5.844
    15   6 C        3.713     0.055    19.770     6.353
    16   6 C        3.748    -0.014    20.888     6.519
    17   6 C        3.779    -0.114    22.708     6.789
    18   6 C        3.685    -0.080    22.248     6.753
    19   7 N        2.004    -0.291    28.342     7.896
    20   6 C        2.891     0.208    23.599     7.965
    21   7 N        2.753    -0.100    23.201     7.154
    22   6 C        3.744    -0.022    21.031     6.542
    23   6 C        3.702     0.063    19.675     6.343
    24   8 O        1.699    -0.305    19.074     5.897
    25   6 C        3.696     0.059    19.746     6.357
    26   6 C        3.751    -0.026    21.099     6.551
    27   7 N        1.879    -0.350    29.940     8.111
    28   6 C        3.173     0.180    23.819     7.972
    29   7 N        2.644    -0.270    26.995     7.717
    30   1 H        0.925     0.087     1.908     2.160
    31   1 H        0.924     0.086     1.921     2.168
    32   1 H        0.923     0.100     1.786     2.090
    33   1 H        0.925     0.066     2.135     2.285
    34   1 H        0.925     0.059     2.214     2.327
    35   1 H        0.925     0.077     2.012     2.218
    36   1 H        0.923     0.108     1.715     2.048
    37   1 H        0.925     0.083     1.953     2.185
    38   1 H        0.925     0.079     1.993     2.207
    39   1 H        0.924     0.129     1.544     1.943
    40   1 H        0.923     0.073     2.049     2.239
    41   1 H        0.923     0.064     2.154     2.295
    42   1 H        0.924     0.112     1.683     2.029
    43   1 H        0.923     0.066     2.128     2.281
    44   1 H        0.924     0.079     1.988     2.205
    45   1 H        0.923     0.070     2.085     2.258
    46   1 H        0.923     0.082     1.964     2.192
    47   1 H        0.923     0.112     1.682     2.028
    48   1 H        0.919     0.065     2.143     2.290
    49   1 H        0.924     0.080     1.981     2.201
    50   1 H        0.924     0.067     2.118     2.276
    51   1 H        0.923     0.056     2.241     2.341
    52   1 H        0.924     0.080     1.975     2.198
    53   1 H        0.921     0.065     2.140     2.288
    54   1 H        0.924     0.095     1.832     2.117
    55   1 H        0.924     0.077     2.006     2.215
    56   1 H        0.860     0.222     0.999     1.565
    57   1 H        0.860     0.204     1.085     1.632
    58  22 Ti       3.876     0.982    94.928    21.739
    59  22 Ti       6.993     1.600    83.603    14.845
    60  22 Ti       3.184     1.024   102.928    24.774
    61  22 Ti       5.891     1.396    85.520    15.014
    62  22 Ti       6.223     1.110    88.320    15.258
    63  22 Ti       6.767     1.137    88.046    15.234
    64  22 Ti       2.108     0.949   203.609    34.937
    65  22 Ti       6.717     1.558    83.995    14.880
    66  22 Ti       3.443     0.999   103.131    24.784
    67  22 Ti       5.837     1.120    88.220    15.249
    68  22 Ti       5.973     1.179    87.628    15.198
    69  22 Ti       3.671     1.002   101.962    24.433
    70   6 C        2.363    -0.297    37.540     9.971
    71   6 C        1.921    -0.281    39.649    10.169
    72   6 C        2.287    -0.025    30.401     8.946
    73   6 C        1.834    -0.226    37.858     9.940
    74   6 C        2.080    -0.279    39.364    10.136
    75   6 C        1.819    -0.360    42.699    10.558
    76   6 C        2.631    -0.399    39.739    10.312
    77   8 O        1.515    -0.863    32.548     7.695
    78   8 O        1.862    -0.930    34.555     7.938
    79   8 O        1.489    -0.949    35.470     8.030
    80   8 O        1.501    -1.028    38.300     8.346
    81   8 O        1.474    -0.931    34.857     7.959
    82   8 O        1.469    -0.842    31.973     7.622
    83   8 O        1.594    -0.877    32.892     7.740
    84   8 O        1.500    -0.873    32.889     7.733
    85   8 O        1.491    -0.892    33.533     7.808
    86   8 O        1.453    -0.814    31.155     7.522
    87   8 O        1.539    -0.948    35.350     8.021
    88   8 O        1.530    -0.990    36.859     8.189
    89   8 O        1.462    -0.811    31.037     7.509
    90   8 O        1.453    -0.802    30.797     7.479

 Mol. C6AA /au·bohr⁶  :     172688.494475
 Mol. C8AA /au·bohr⁸  :    7255727.143283
 Mol. α(0) /au        :        680.198355


Wiberg/Mayer (AO) data.
largest (>0.10) Wiberg bond orders for each atom

 ---------------------------------------------------------------------------
     #   Z sym  total        # sym  WBO       # sym  WBO       # sym  WBO
 ---------------------------------------------------------------------------
     1   6 C    3.980 --    30 H    0.977     2 C    0.969    31 H    0.948
                            32 H    0.889
     2   6 C    3.985 --     4 C    0.991     3 C    0.984     1 C    0.969
                             5 C    0.949
     3   6 C    3.981 --    34 H    0.984     2 C    0.984    33 H    0.982
                            35 H    0.978
     4   6 C    3.983 --     2 C    0.991    37 H    0.980    38 H    0.974
                            36 H    0.893
     5   6 C    3.910 --     6 N    1.481    10 N    1.191     2 C    0.949
     6   7 N    3.081 --     5 C    1.481     7 C    1.152    63 Ti   0.109
     7   6 C    3.929 --    17 C    1.226     6 N    1.152     8 N    1.122
                            63 Ti   0.202
     8   7 N    3.013 --     9 C    1.390     7 C    1.122
     9   6 C    3.962 --     8 N    1.390    11 N    1.205    10 N    1.137
    10   7 N    3.157 --     5 C    1.191     9 C    1.137    62 Ti   0.388
    11   7 N    3.468 --     9 C    1.205    12 C    0.982    16 C    0.982
    12   6 C    3.957 --    13 C    0.983    11 N    0.982    40 H    0.964
                            39 H    0.922
    13   6 C    3.927 --    12 C    0.983    41 H    0.965    14 O    0.961
                            42 H    0.922
    14   8 O    2.201 --    15 C    0.977    13 C    0.961    60 Ti   0.135
    15   6 C    3.944 --    16 C    0.991    14 O    0.977    43 H    0.964
                            44 H    0.954
    16   6 C    3.969 --    15 C    0.991    11 N    0.982    45 H    0.962
                            46 H    0.925
    17   6 C    3.916 --     7 C    1.226    28 C    1.126    18 C    0.935
                            63 Ti   0.265
    18   6 C    3.915 --    19 N    1.093    17 C    0.935    47 H    0.895
                            63 Ti   0.720
    19   7 N    3.055 --    20 C    1.498    18 C    1.093    63 Ti   0.114
                            21 N    0.103
    20   6 C    3.967 --    19 N    1.498    21 N    1.145    27 N    1.097
    21   7 N    3.383 --    20 C    1.145    22 C    0.993    26 C    0.982
                            19 N    0.103
    22   6 C    3.967 --    23 C    1.001    21 N    0.993    49 H    0.963
                            48 H    0.883
    23   6 C    3.955 --    22 C    1.001    24 O    0.985    50 H    0.968
                            51 H    0.964
    24   8 O    2.073 --    23 C    0.985    25 C    0.983
    25   6 C    3.955 --    26 C    0.996    24 O    0.983    52 H    0.961
                            53 H    0.891
    26   6 C    3.968 --    25 C    0.996    21 N    0.982    55 H    0.964
                            54 H    0.943
    27   7 N    3.034 --    28 C    1.370    20 C    1.097    58 Ti   0.134
    28   6 C    3.946 --    27 N    1.370    29 N    1.200    17 C    1.126
    29   7 N    3.287 --    28 C    1.200    57 H    0.904    56 H    0.897
    30   1 H    0.991 --     1 C    0.977
    31   1 H    0.992 --     1 C    0.948
    32   1 H    0.989 --     1 C    0.889
    33   1 H    0.994 --     3 C    0.982
    34   1 H    0.996 --     3 C    0.984
    35   1 H    0.994 --     3 C    0.978
    36   1 H    0.988 --     4 C    0.893
    37   1 H    0.993 --     4 C    0.980
    38   1 H    0.994 --     4 C    0.974
    39   1 H    0.983 --    12 C    0.922
    40   1 H    0.992 --    12 C    0.964
    41   1 H    0.995 --    13 C    0.965
    42   1 H    0.987 --    13 C    0.922
    43   1 H    0.994 --    15 C    0.964
    44   1 H    0.993 --    15 C    0.954
    45   1 H    0.994 --    16 C    0.962
    46   1 H    0.993 --    16 C    0.925
    47   1 H    0.986 --    18 C    0.895
    48   1 H    0.995 --    22 C    0.883
    49   1 H    0.993 --    22 C    0.963
    50   1 H    0.995 --    23 C    0.968
    51   1 H    0.995 --    23 C    0.964
    52   1 H    0.993 --    25 C    0.961
    53   1 H    0.995 --    25 C    0.891
    54   1 H    0.991 --    26 C    0.943
    55   1 H    0.992 --    26 C    0.964
    56   1 H    0.949 --    29 N    0.897
    57   1 H    0.957 --    29 N    0.904
    58  22 Ti   2.998 --    77 O    0.799    78 O    0.720    64 Ti   0.382
                            61 Ti   0.176    59 Ti   0.163    27 N    0.134
    59  22 Ti   3.773 --    81 O    0.797    79 O    0.744    78 O    0.602
                            80 O    0.569    60 Ti   0.197    58 Ti   0.163
                            83 O    0.106    62 Ti   0.100
    60  22 Ti   2.769 --    86 O    0.860    79 O    0.630    66 Ti   0.286
                            64 Ti   0.224    59 Ti   0.197    14 O    0.135
    61  22 Ti   3.916 --    82 O    0.878    77 O    0.702    70 C    0.674
                            80 O    0.579    67 Ti   0.187    58 Ti   0.176
                            63 Ti   0.110    87 O    0.108    64 Ti   0.107
    62  22 Ti   4.146 --    76 C    0.748    74 C    0.615    81 O    0.569
                            83 O    0.491    10 N    0.388    68 Ti   0.246
                            75 C    0.138    71 C    0.105    59 Ti   0.100
    63  22 Ti   4.264 --    83 O    0.966    18 C    0.720    82 O    0.678
                            17 C    0.265    78 O    0.208     7 C    0.202
                            19 N    0.114    61 Ti   0.110     6 N    0.109
    64  22 Ti   2.469 --    84 O    0.935    58 Ti   0.382    60 Ti   0.224
                            65 Ti   0.212    77 O    0.182    79 O    0.130
                            87 O    0.113    61 Ti   0.107
    65  22 Ti   3.839 --    85 O    0.764    87 O    0.685    88 O    0.675
                            84 O    0.637    64 Ti   0.212    66 Ti   0.197
                            69 Ti   0.137    67 Ti   0.132
    66  22 Ti   2.731 --    86 O    0.899    85 O    0.757    60 Ti   0.286
                            65 Ti   0.197    68 Ti   0.179    69 Ti   0.119
    67  22 Ti   4.093 --    75 C    0.926    89 O    0.812    73 C    0.706
                            87 O    0.566    69 Ti   0.221    61 Ti   0.187
                            70 C    0.173    76 C    0.138    65 Ti   0.132
    68  22 Ti   4.106 --    90 O    0.930    71 C    0.701    76 C    0.650
                            88 O    0.503    62 Ti   0.246    69 Ti   0.211
                            66 Ti   0.179    74 C    0.136    75 C    0.125
    69  22 Ti   2.755 --    89 O    0.888    90 O    0.762    67 Ti   0.221
                            68 Ti   0.211    85 O    0.144    65 Ti   0.137
                            66 Ti   0.119
    70   6 C    3.820 --    73 C    2.727    61 Ti   0.674    67 Ti   0.173
    71   6 C    3.762 --    74 C    2.716    68 Ti   0.701    62 Ti   0.105
    72   6 C    3.975 --    75 C    2.029    76 C    1.602
    73   6 C    3.657 --    70 C    2.727    67 Ti   0.706
    74   6 C    3.688 --    71 C    2.716    62 Ti   0.615    68 Ti   0.136
    75   6 C    3.602 --    72 C    2.029    67 Ti   0.926    62 Ti   0.138
                            68 Ti   0.125
    76   6 C    3.608 --    72 C    1.602    62 Ti   0.748    68 Ti   0.650
                            67 Ti   0.138
    77   8 O    1.910 --    58 Ti   0.799    61 Ti   0.702    64 Ti   0.182
    78   8 O    1.830 --    58 Ti   0.720    59 Ti   0.602    63 Ti   0.208
    79   8 O    1.781 --    59 Ti   0.744    60 Ti   0.630    64 Ti   0.130
    80   8 O    1.687 --    61 Ti   0.579    59 Ti   0.569
    81   8 O    1.817 --    59 Ti   0.797    62 Ti   0.569
    82   8 O    1.943 --    61 Ti   0.878    63 Ti   0.678
    83   8 O    1.901 --    63 Ti   0.966    62 Ti   0.491    59 Ti   0.106
    84   8 O    1.892 --    64 Ti   0.935    65 Ti   0.637
    85   8 O    1.878 --    65 Ti   0.764    66 Ti   0.757    69 Ti   0.144
    86   8 O    1.990 --    66 Ti   0.899    60 Ti   0.860
    87   8 O    1.799 --    65 Ti   0.685    67 Ti   0.566    64 Ti   0.113
                            61 Ti   0.108
    88   8 O    1.743 --    65 Ti   0.675    68 Ti   0.503
    89   8 O    1.994 --    69 Ti   0.888    67 Ti   0.812
    90   8 O    2.004 --    68 Ti   0.930    69 Ti   0.762
 ---------------------------------------------------------------------------

Topologies differ in total number of bonds
Writing topology from bond orders to xtbtopo.mol

molecular dipole:
                 x           y           z       tot (Debye)
 q only:        1.896      -3.881       3.633
   full:        0.390      -3.967       2.272      11.663
molecular quadrupole (traceless):
                xx          xy          yy          xz          yz          zz
 q only:      -38.451      15.839       9.082      15.718     -51.858      29.369
  q+dip:      -39.674      10.382       5.447      35.829     -56.366      34.227
   full:      -38.962      12.684       6.457      34.513     -57.310      32.505

           -------------------------------------------------
          |                Geometry Summary                 |
           -------------------------------------------------

      molecular mass/u    :     1282.9465183
   center of mass at/Å    :        0.0233188      -0.6106646       4.4034504
  moments of inertia/u·Å² :        0.1235079E+05   0.1511526E+05   0.1888373E+05
rotational constants/cm⁻¹ :        0.1364904E-02   0.1115272E-02   0.8927069E-03

 * 96 selected distances

     #   Z          #   Z                                           value/Å
     2   6 C        3   6 C                                       1.5349922
     2   6 C        4   6 C                                       1.5315579
     5   6 C        6   7 N                                       1.3039546
     6   7 N        7   6 C                                       1.3694576
     7   6 C        8   7 N                                       1.3801348
     8   7 N        9   6 C                                       1.3170387
     5   6 C       10   7 N                                       1.3664082
     9   6 C       10   7 N                                       1.3767164
     9   6 C       11   7 N                                       1.3534535
    11   7 N       12   6 C                                       1.4461995
    13   6 C       14   8 O                                       1.4259211
    14   8 O       15   6 C                                       1.4147153
    11   7 N       16   6 C                                       1.4527141
    15   6 C       16   6 C                                       1.5345071
     7   6 C       17   6 C                                       1.4097463
    17   6 C       18   6 C                                       1.5270912
    18   6 C       19   7 N                                       1.4056083
    19   7 N       20   6 C                                       1.2952804
    20   6 C       21   7 N                                       1.3727146
    21   7 N       22   6 C                                       1.4488737
    22   6 C       23   6 C                                       1.5255781
    23   6 C       24   8 O                                       1.4132045
    24   8 O       25   6 C                                       1.4213094
    21   7 N       26   6 C                                       1.4545231
    25   6 C       26   6 C                                       1.5288489
    17   6 C       28   6 C                                       1.4321321
    27   7 N       28   6 C                                       1.3244775
    28   6 C       29   7 N                                       1.3669072
     1   6 C       30   1 H                                       1.0884119
     1   6 C       31   1 H                                       1.0950512
     1   6 C       32   1 H                                       1.1021842
     3   6 C       33   1 H                                       1.0867667
     3   6 C       34   1 H                                       1.0867511
     3   6 C       35   1 H                                       1.0850643
     4   6 C       36   1 H                                       1.1009612
     4   6 C       37   1 H                                       1.0878015
     4   6 C       38   1 H                                       1.0881698
    12   6 C       39   1 H                                       1.0960009
    12   6 C       40   1 H                                       1.0997814
    13   6 C       41   1 H                                       1.1016679
    13   6 C       42   1 H                                       1.0970083
    15   6 C       43   1 H                                       1.1007062
    15   6 C       44   1 H                                       1.0950961
    16   6 C       45   1 H                                       1.0998951
    16   6 C       46   1 H                                       1.1033273
    18   6 C       47   1 H                                       1.0981987
    22   6 C       48   1 H                                       1.1214610
    22   6 C       49   1 H                                       1.0938284
    23   6 C       50   1 H                                       1.0931067
    23   6 C       51   1 H                                       1.0990181
    25   6 C       52   1 H                                       1.0940138
    25   6 C       53   1 H                                       1.1161522
    26   6 C       54   1 H                                       1.0945692
    26   6 C       55   1 H                                       1.0962812
    29   7 N       56   1 H                                       1.0157022 (min)
    29   7 N       57   1 H                                       1.0175758
    17   6 C       63  22 Ti                                      2.1398001
    18   6 C       63  22 Ti                                      2.0740911
    65  22 Ti      66  22 Ti                                      2.8462186
    65  22 Ti      67  22 Ti                                      2.9441768 (max)
    61  22 Ti      70   6 C                                       2.0364985
    68  22 Ti      71   6 C                                       2.0325405
    70   6 C       73   6 C                                       1.2426119
    71   6 C       74   6 C                                       1.2452051
    67  22 Ti      75   6 C                                       1.9705221
    72   6 C       75   6 C                                       1.2772578
    62  22 Ti      76   6 C                                       2.0414540
    72   6 C       76   6 C                                       1.3309004
    58  22 Ti      77   8 O                                       1.7828942
    61  22 Ti      77   8 O                                       1.8357803
    58  22 Ti      78   8 O                                       1.8191017
    59  22 Ti      78   8 O                                       1.8262012
    59  22 Ti      79   8 O                                       1.7425166
    60  22 Ti      79   8 O                                       1.7947183
    59  22 Ti      80   8 O                                       1.7154255
    61  22 Ti      80   8 O                                       1.7362790
    59  22 Ti      81   8 O                                       1.6877306
    62  22 Ti      81   8 O                                       1.8038006
    61  22 Ti      82   8 O                                       1.7329450
    63  22 Ti      82   8 O                                       1.7523567
    62  22 Ti      83   8 O                                       1.8744430
    63  22 Ti      83   8 O                                       1.6778892
    64  22 Ti      84   8 O                                       1.7550131
    65  22 Ti      84   8 O                                       1.7636618
    65  22 Ti      85   8 O                                       1.7540896
    66  22 Ti      85   8 O                                       1.8240840
    60  22 Ti      86   8 O                                       1.7616333
    66  22 Ti      86   8 O                                       1.7690564
    65  22 Ti      87   8 O                                       1.7351792
    67  22 Ti      87   8 O                                       1.8544056
    65  22 Ti      88   8 O                                       1.7077759
    68  22 Ti      88   8 O                                       1.7686105
    67  22 Ti      89   8 O                                       1.7652024
    69  22 Ti      89   8 O                                       1.7260586
    68  22 Ti      90   8 O                                       1.7351660
    69  22 Ti      90   8 O                                       1.7745591

 * 8 distinct bonds (by element types)

   Z      Z             #   av. dist./Å        max./Å        min./Å
   1 H    6 C          26     1.0969721     1.1214610     1.0850643
   6 C    6 C          12     1.4267024     1.5349922     1.2426119
   1 H    7 N           2     1.0166390     1.0175758     1.0157022
   6 C    7 N          16     1.3771539     1.4545231     1.2952804
   6 C    8 O           4     1.4187876     1.4259211     1.4132045
   6 C   22 Ti          6     2.0491510     2.1398001     1.9705221
   8 O   22 Ti         28     1.7670206     1.8744430     1.6778892
  22 Ti  22 Ti          2     2.8951977     2.9441768     2.8462186


optimized geometry written to: xtbopt.xyz


           -------------------------------------------------
          | TOTAL ENERGY             -178.901241539556 Eh   |
          | GRADIENT NORM               0.003085720321 Eh/α |
          | HOMO-LUMO GAP               0.126879227943 eV   |
           -------------------------------------------------

------------------------------------------------------------------------
 * finished run on 2026/09/02 at 20:09:11.279     
------------------------------------------------------------------------
 total:
 * wall-time:     0 d,  0 h,  1 min, 17.421 sec
 *  cpu-time:     0 d,  0 h,  4 min,  8.953 sec
 * ratio c/w:     3.216 speedup
 SCF:
 * wall-time:     0 d,  0 h,  0 min,  2.018 sec
 *  cpu-time:     0 d,  0 h,  0 min,  5.750 sec
 * ratio c/w:     2.849 speedup
 ANC optimizer:
 * wall-time:     0 d,  0 h,  1 min, 15.314 sec
 *  cpu-time:     0 d,  0 h,  4 min,  3.047 sec
 * ratio c/w:     3.227 speedup

