      -----------------------------------------------------------      
     |                   =====================                   |     
     |                           x T B                           |     
     |                   =====================                   |     
     |                         S. Grimme                         |     
     |          Mulliken Center for Theoretical Chemistry        |     
     |                    University of Bonn                     |     
      -----------------------------------------------------------      

   * xtb version 6.7.1pre (5071a88) compiled by 'Marcel@Raven' on 2024-07-23

   xtb is free software: you can redistribute it and/or modify it under
   the terms of the GNU Lesser General Public License as published by
   the Free Software Foundation, either version 3 of the License, or
   (at your option) any later version.
   
   xtb is distributed in the hope that it will be useful,
   but WITHOUT ANY WARRANTY; without even the implied warranty of
   MERCHANTABILITY or FITNESS FOR A PARTICULAR PURPOSE.  See the
   GNU Lesser General Public License for more details.
   
   Cite this work as:
   * C. Bannwarth, E. Caldeweyher, S. Ehlert, A. Hansen, P. Pracht,
     J. Seibert, S. Spicher, S. Grimme, WIREs Comput. Mol. Sci., 2020, 11,
     e01493. DOI: 10.1002/wcms.1493
   
   for GFN2-xTB:
   * C. Bannwarth, S. Ehlert and S. Grimme., J. Chem. Theory Comput., 2019,
     15, 1652-1671. DOI: 10.1021/acs.jctc.8b01176
   for GFN1-xTB:
   * S. Grimme, C. Bannwarth, P. Shushkov, J. Chem. Theory Comput., 2017,
     13, 1989-2009. DOI: 10.1021/acs.jctc.7b00118
   for GFN0-xTB:
   * P. Pracht, E. Caldeweyher, S. Ehlert, S. Grimme, ChemRxiv, 2019, preprint.
     DOI: 10.26434/chemrxiv.8326202.v1
   for GFN-FF:
   * S. Spicher and S. Grimme, Angew. Chem. Int. Ed., 2020, 59, 15665-15673.
     DOI: 10.1002/anie.202004239
   
   for ALPB and GBSA implicit solvation:
   * S. Ehlert, M. Stahn, S. Spicher, S. Grimme, J. Chem. Theory Comput.,
     2021, 17, 4250-4261. DOI: 10.1021/acs.jctc.1c00471
   
   for ddCOSMO and CPCM-X implicit solvation:
   * M. Stahn, S. Ehlert, S. Grimme, J. Phys. Chem. A,
     2023, XX, XXXX-XXXX. DOI: 10.1021/acs.jpca.3c04382
   
   for DFT-D4:
   * E. Caldeweyher, C. Bannwarth and S. Grimme, J. Chem. Phys., 2017,
     147, 034112. DOI: 10.1063/1.4993215
   * E. Caldeweyher, S. Ehlert, A. Hansen, H. Neugebauer, S. Spicher,
     C. Bannwarth and S. Grimme, J. Chem. Phys., 2019, 150, 154122.
     DOI: 10.1063/1.5090222
   * E. Caldeweyher, J.-M. Mewes, S. Ehlert and S. Grimme, Phys. Chem. Chem. Phys.
     2020, 22, 8499-8512. DOI: 10.1039/D0CP00502A
   
   for sTDA-xTB:
   * S. Grimme and C. Bannwarth, J. Chem. Phys., 2016, 145, 054103.
     DOI: 10.1063/1.4959605
   
   in the mass-spec context:
   * V. Asgeirsson, C. Bauer and S. Grimme, Chem. Sci., 2017, 8, 4879.
     DOI: 10.1039/c7sc00601b
   * J. Koopman and S. Grimme, ACS Omega 2019, 4, 12, 15120-15133.
     DOI: 10.1021/acsomega.9b02011
   
   for metadynamics refer to:
   * S. Grimme, J. Chem. Theory Comput., 2019, 155, 2847-2862
     DOI: 10.1021/acs.jctc.9b00143
   
   for SPH calculations refer to:
   * S. Spicher and S. Grimme, J. Chem. Theory Comput., 2021, 17, 1701-1714
     DOI: 10.1021/acs.jctc.0c01306
   
   for ONIOM refer to:
   * C. Plett, A. Katbashev, S. Ehlert, S. Grimme, M. Bursch,
     Phys. Chem. Chem. Phys., 2023, 25, 17860-17868. DOI: 10.1039/D3CP02178E
   
   for DIPRO refer to:
   * J. Kohn, N. Gildemeister, S. Grimme, D. Fazzi, A. Hansen,
     J. Chem. Phys., 2023, just accepted.
   
   for PTB refer to:
   * S. Grimme, M. Mueller, A. Hansen, J. Chem. Phys., 2023, 158, 124111.
     DOI: 10.1063/5.0137838
   
   with help from (in alphabetical order)
   P. Atkinson, C. Bannwarth, F. Bohle, G. Brandenburg, E. Caldeweyher
   M. Checinski, S. Dohm, S. Ehlert, S. Ehrlich, I. Gerasimov, C. Hölzer
   A. Katbashev, J. Kohn, J. Koopman, C. Lavigne, S. Lehtola, F. März, M. Müller,
   F. Musil, H. Neugebauer, J. Pisarek, C. Plett, P. Pracht, F. Pultar,
   J. Seibert, P. Shushkov, S. Spicher, M. Stahn, M. Steiner, T. Strunk,
   J. Stückrath, T. Rose, and J. Unsleber
   
 * started run on 2026/09/02 at 15:28:47.725     
   ID    Z sym.   atoms
    1    6 C      1-5, 7, 9, 12, 13, 15-18, 20, 22, 23, 25, 26, 28, 70-76
    2    7 N      6, 8, 10, 11, 19, 21, 27, 29
    3    8 O      14, 24, 77-90
    4    1 H      30-57
    5   22 Ti     58-69

           -------------------------------------------------
          |                Calculation Setup                |
           -------------------------------------------------

          program call               : "c:\Users\Andre\Proyectos doctorado\nano-qsar-ai-papers\kras-pancreatic-gC3N4-ai\tools\xtb\xtb-6.7.1\bin\xtb.exe" "c:\Users\Andre\Proyectos doctorado\nano-qsar-ai-papers\mxene-glioblastoma-qsar-ai\calculations\gbm\Paxalisib\Paxalisib_complex_opt_final.xyz" --gfn 2 --chrg 0 --uhf 0 --wbo --norestart
          coordinate file            : c:\Users\Andre\Proyectos doctorado\nano-qsar-ai-papers\mxene-glioblastoma-qsar-ai\calculations\gbm\Paxalisib\Paxalisib_complex_opt_final.xyz
          omp threads                :                     4


molecular fragmentation (1/2 indicates fragments):
111111111111111111111111111111111111111111111111111111111222222222222222
222222222222222222
# atoms in fragment 1/2:    57    33
 fragment masses (1/2) :      400.48      882.47
CMA distance (Bohr)    :  17.250
constraining FC (au)   :  0.0500

           -------------------------------------------------
          |                 G F N 2 - x T B                 |
           -------------------------------------------------

        Reference                      10.1021/acs.jctc.8b01176
      * Hamiltonian:
        H0-scaling (s, p, d)           1.850000    2.230000    2.230000
        zeta-weighting                 0.500000
      * Dispersion:
        s8                             2.700000
        a1                             0.520000
        a2                             5.000000
        s9                             5.000000
      * Repulsion:
        kExp                           1.500000    1.000000
        rExp                           1.000000
      * Coulomb:
        alpha                          2.000000
        third order                    shell-resolved
        anisotropic                    true
        a3                             3.000000
        a5                             4.000000
        cn-shift                       1.200000
        cn-exp                         4.000000
        max-rad                        5.000000


          ...................................................
          :                      SETUP                      :
          :.................................................:
          :  # basis functions                 348          :
          :  # atomic orbitals                 336          :
          :  # shells                          164          :
          :  # electrons                       316          :
          :  max. iterations                   250          :
          :  Hamiltonian                  GFN2-xTB          :
          :  restarted?                      false          :
          :  GBSA solvation                  false          :
          :  PC potential                    false          :
          :  electronic temp.          300.0000000     K    :
          :  accuracy                    1.0000000          :
          :  -> integral cutoff          0.2500000E+02      :
          :  -> integral neglect         0.1000000E-07      :
          :  -> SCF convergence          0.1000000E-05 Eh   :
          :  -> wf. convergence          0.1000000E-03 e    :
          :  Broyden damping             0.4000000          :
          :  net charge                          0          :
          :  unpaired electrons                  0          :
          ...................................................

 iter      E             dE          RMSdq      gap      omega  full diag
   1   -177.4006137 -0.177401E+03  0.132E+01    0.09       0.0  T
   2   -138.6741064  0.387265E+02  0.149E+01    0.04       1.0  T
   3    -27.4519584  0.111222E+03  0.262E+01    0.11       1.0  T
   4   -163.9295370 -0.136478E+03  0.115E+01    0.17       1.0  T
   5   -141.9418960  0.219876E+02  0.128E+01    0.04       1.0  T
   6   -177.8447085 -0.359028E+02  0.738E+00    0.02       1.0  T
   7   -175.1660397  0.267867E+01  0.648E+00    0.03       1.0  T
   8   -178.7063318 -0.354029E+01  0.623E+00    0.12       1.0  T
   9   -179.3803380 -0.674006E+00  0.515E+00    0.08       1.0  T
  10   -179.2789927  0.101345E+00  0.522E+00    0.09       1.0  T
  11   -179.3007899 -0.217972E-01  0.534E+00    0.09       1.0  T
  12   -179.3435913 -0.428014E-01  0.516E+00    0.01       1.0  T
  13   -179.8145570 -0.470966E+00  0.518E+00    0.07       1.0  T
  14   -179.8394288 -0.248718E-01  0.511E+00    0.10       1.0  T
  15   -178.8198506  0.101958E+01  0.628E+00    0.33       1.0  T
  16   -178.9035798 -0.837293E-01  0.641E+00    0.02       1.0  T
  17   -179.2304192 -0.326839E+00  0.561E+00    0.14       1.0  T
  18   -178.9100834  0.320336E+00  0.585E+00    0.02       1.0  T
  19   -178.7614661  0.148617E+00  0.575E+00    0.06       1.0  T
  20   -179.6605454 -0.899079E+00  0.352E+00    0.21       1.0  T
  21   -179.5094242  0.151121E+00  0.413E+00    0.14       1.0  T
  22   -179.8619857 -0.352561E+00  0.304E+00    0.19       1.0  T
  23   -179.2917387  0.570247E+00  0.365E+00    0.34       1.0  T
  24   -179.9425828 -0.650844E+00  0.251E+00    0.10       1.0  T
  25   -180.0017029 -0.591201E-01  0.228E+00    0.05       1.0  T
  26   -180.0055090 -0.380612E-02  0.244E+00    0.05       1.0  T
  27   -180.0161478 -0.106388E-01  0.228E+00    0.05       1.0  T
  28   -180.0006000  0.155479E-01  0.184E+00    0.05       1.0  T
  29   -179.9944479  0.615207E-02  0.179E+00    0.05       1.0  T
  30   -180.0046479 -0.102000E-01  0.167E+00    0.05       1.0  T
  31   -180.0288059 -0.241580E-01  0.140E+00    0.04       1.0  T
  32   -180.0341588 -0.535293E-02  0.123E+00    0.04       1.0  T
  33   -180.0325445  0.161429E-02  0.126E+00    0.04       1.0  T
  34   -179.9865996  0.459450E-01  0.110E+00    0.08       1.0  T
  35   -179.9918505 -0.525095E-02  0.113E+00    0.07       1.0  T
  36   -180.0288447 -0.369942E-01  0.844E-01    0.06       1.0  T
  37   -180.0381212 -0.927648E-02  0.551E-01    0.03       1.0  T
  38   -180.0188746  0.192466E-01  0.110E+00    0.06       1.0  T
  39   -180.0325760 -0.137014E-01  0.781E-01    0.06       1.0  T
  40   -180.0423219 -0.974591E-02  0.519E-01    0.05       1.0  T
  41   -180.0433208 -0.998940E-03  0.422E-01    0.05       1.0  T
  42   -180.0442098 -0.888970E-03  0.351E-01    0.04       1.0  T
  43   -180.0446318 -0.422048E-03  0.170E-01    0.04       1.0  T
  44   -180.0443210  0.310866E-03  0.147E-01    0.03       1.0  T
  45   -180.0444588 -0.137805E-03  0.127E-01    0.04       1.0  T
  46   -180.0425128  0.194592E-02  0.271E-01    0.03       1.0  T
  47   -180.0429303 -0.417425E-03  0.264E-01    0.05       1.0  T
  48   -180.0451149 -0.218460E-02  0.118E-01    0.04       1.0  T
  49   -180.0439888  0.112608E-02  0.170E-01    0.05       1.0  T
  50   -180.0443135 -0.324751E-03  0.133E-01    0.05       1.0  T
  51   -180.0448464 -0.532885E-03  0.899E-02    0.04       1.0  T
  52   -180.0448433  0.315308E-05  0.958E-02    0.05       1.0  T
  53   -180.0452481 -0.404839E-03  0.563E-02    0.04       1.0  T
  54   -180.0453585 -0.110399E-03  0.447E-02    0.04       1.0  T
  55   -180.0454242 -0.656711E-04  0.390E-02    0.04       1.0  T
  56   -180.0454464 -0.222165E-04  0.353E-02    0.04       1.0  T
  57   -180.0454006  0.458165E-04  0.407E-02    0.04       1.0  T
  58   -180.0454346 -0.339758E-04  0.347E-02    0.04       1.0  T
  59   -180.0454584 -0.238033E-04  0.215E-02    0.04       1.0  T
  60   -180.0454626 -0.424435E-05  0.153E-02    0.04       1.0  T
  61   -180.0454539  0.873151E-05  0.212E-02    0.04       1.0  T
  62   -180.0454601 -0.620074E-05  0.152E-02    0.04       1.0  T
  63   -180.0454684 -0.828990E-05  0.999E-03    0.04       1.1  T
  64   -180.0454662  0.213886E-05  0.651E-03    0.04       1.6  T
  65   -180.0454690 -0.279945E-05  0.433E-03    0.04       2.4  T
  66   -180.0454690 -0.463731E-08  0.271E-03    0.04       3.9  T
  67   -180.0454692 -0.197310E-06  0.247E-03    0.04       4.3  T
  68   -180.0454696 -0.339185E-06  0.133E-03    0.04       7.9  T
  69   -180.0454696  0.212885E-07  0.674E-04    0.04      15.6  T
  70   -180.0454696 -0.145351E-07  0.506E-04    0.04      20.8  T

   *** convergence criteria satisfied after 70 iterations ***

         #    Occupation            Energy/Eh            Energy/eV
      -------------------------------------------------------------
         1        2.0000           -0.8518528             -23.1801
       ...           ...                  ...                  ...
       152        2.0000           -0.3801029             -10.3431
       153        2.0000           -0.3774133             -10.2699
       154        2.0000           -0.3747535             -10.1976
       155        1.9951           -0.3679215             -10.0117
       156        1.9946           -0.3678317             -10.0092
       157        1.7958           -0.3642819              -9.9126
       158        1.4680           -0.3631807              -9.8827 (HOMO)
       159        0.7465           -0.3617239              -9.8430 (LUMO)
       160        0.0000           -0.3490367              -9.4978
       161                         -0.3455404              -9.4026
       162                         -0.3259432              -8.8694
       163                         -0.3200887              -8.7101
       ...                                ...                  ...
       336                         13.3360396             362.8921
      -------------------------------------------------------------
                  HL-Gap            0.0014568 Eh            0.0396 eV
             Fermi-level           -0.3622164 Eh           -9.8564 eV

 SCC (total)                   0 d,  0 h,  0 min,  0.882 sec
 SCC setup                      ...        0 min,  0.000 sec (  0.000%)
 Dispersion                     ...        0 min,  0.002 sec (  0.227%)
 classical contributions        ...        0 min,  0.000 sec (  0.000%)
 integral evaluation            ...        0 min,  0.011 sec (  1.247%)
 iterations                     ...        0 min,  0.837 sec ( 94.898%)
 molecular gradient             ...        0 min,  0.030 sec (  3.401%)
 printout                       ...        0 min,  0.002 sec (  0.227%)

         :::::::::::::::::::::::::::::::::::::::::::::::::::::
         ::                     SUMMARY                     ::
         :::::::::::::::::::::::::::::::::::::::::::::::::::::
         :: total energy            -178.342912250112 Eh    ::
         :: gradient norm              0.133024653903 Eh/a0 ::
         :: HOMO-LUMO gap              0.039640617419 eV    ::
         ::.................................................::
         :: SCC energy              -180.042516908675 Eh    ::
         :: -> isotropic ES            0.823825297227 Eh    ::
         :: -> anisotropic ES         -0.275446440055 Eh    ::
         :: -> anisotropic XC          0.005422483441 Eh    ::
         :: -> dispersion             -0.148341599433 Eh    ::
         :: repulsion energy           1.699604658563 Eh    ::
         :: add. restraining           0.000000000000 Eh    ::
         :: total charge               0.000000000000 e     ::
         :::::::::::::::::::::::::::::::::::::::::::::::::::::

           -------------------------------------------------
          |                Property Printout                |
           -------------------------------------------------

    * Orbital Energies and Occupations

         #    Occupation            Energy/Eh            Energy/eV
      -------------------------------------------------------------
         1        2.0000           -0.8518528             -23.1801
       ...           ...                  ...                  ...
       146        2.0000           -0.3952963             -10.7566
       147        2.0000           -0.3927858             -10.6882
       148        2.0000           -0.3875105             -10.5447
       149        2.0000           -0.3858460             -10.4994
       150        2.0000           -0.3855807             -10.4922
       151        2.0000           -0.3829308             -10.4201
       152        2.0000           -0.3801029             -10.3431
       153        2.0000           -0.3774133             -10.2699
       154        2.0000           -0.3747535             -10.1976
       155        1.9951           -0.3679215             -10.0117
       156        1.9946           -0.3678317             -10.0092
       157        1.7958           -0.3642819              -9.9126
       158        1.4680           -0.3631807              -9.8827 (HOMO)
       159        0.7465           -0.3617239              -9.8430 (LUMO)
       160        0.0000           -0.3490367              -9.4978
       161                         -0.3455404              -9.4026
       162                         -0.3259432              -8.8694
       163                         -0.3200887              -8.7101
       164                         -0.3159712              -8.5980
       165                         -0.3155593              -8.5868
       166                         -0.3135550              -8.5323
       167                         -0.3112858              -8.4705
       168                         -0.3082474              -8.3878
       169                         -0.3064188              -8.3381
       ...                                ...                  ...
       336                         13.3360396             362.8921
      -------------------------------------------------------------
                  HL-Gap            0.0014568 Eh            0.0396 eV
             Fermi-level           -0.3622164 Eh           -9.8564 eV

     #   Z          covCN         q      C6AA      α(0)
     1   6 C        3.755    -0.113    22.716     6.796
     2   6 C        3.901     0.024    20.117     6.376
     3   6 C        3.755    -0.111    22.681     6.791
     4   6 C        3.757    -0.112    22.688     6.791
     5   6 C        2.963     0.202    23.722     7.989
     6   7 N        1.839    -0.304    28.722     7.942
     7   6 C        2.972     0.196    23.835     8.008
     8   7 N        1.844    -0.338    29.615     8.065
     9   6 C        2.894     0.244    22.928     7.851
    10   7 N        1.842    -0.320    29.146     8.001
    11   7 N        2.741    -0.105    23.302     7.169
    12   6 C        3.743    -0.006    20.766     6.501
    13   6 C        3.688     0.068    19.622     6.341
    14   8 O        1.695    -0.320    19.344     5.938
    15   6 C        3.687     0.071    19.572     6.333
    16   6 C        3.740    -0.009    20.814     6.509
    17   6 C        2.965    -0.058    29.442     8.900
    18   6 C        2.924     0.072    26.396     8.425
    19   7 N        1.836    -0.288    28.325     7.887
    20   6 C        2.850     0.225    23.274     7.907
    21   7 N        2.739    -0.092    23.027     7.127
    22   6 C        3.741    -0.017    20.957     6.532
    23   6 C        3.687     0.070    19.589     6.336
    24   8 O        1.694    -0.322    19.381     5.944
    25   6 C        3.688     0.069    19.611     6.339
    26   6 C        3.745    -0.010    20.827     6.510
    27   7 N        1.845    -0.291    28.395     7.897
    28   6 C        2.893     0.180    24.141     8.056
    29   7 N        2.639    -0.333    28.584     7.940
    30   1 H        0.924     0.044     2.401     2.423
    31   1 H        0.924     0.041     2.431     2.438
    32   1 H        0.924     0.051     2.305     2.374
    33   1 H        0.924     0.044     2.396     2.421
    34   1 H        0.924     0.050     2.324     2.384
    35   1 H        0.924     0.039     2.457     2.451
    36   1 H        0.924     0.041     2.439     2.442
    37   1 H        0.924     0.054     2.273     2.358
    38   1 H        0.924     0.041     2.431     2.438
    39   1 H        0.924     0.069     2.096     2.264
    40   1 H        0.924     0.060     2.199     2.319
    41   1 H        0.924     0.060     2.195     2.317
    42   1 H        0.924     0.044     2.394     2.420
    43   1 H        0.924     0.039     2.459     2.452
    44   1 H        0.924     0.060     2.193     2.316
    45   1 H        0.924     0.065     2.137     2.286
    46   1 H        0.924     0.061     2.191     2.315
    47   1 H        0.925     0.066     2.127     2.281
    48   1 H        0.924     0.061     2.193     2.316
    49   1 H        0.924     0.082     1.954     2.186
    50   1 H        0.924     0.059     2.214     2.327
    51   1 H        0.924     0.039     2.456     2.451
    52   1 H        0.924     0.060     2.199     2.319
    53   1 H        0.924     0.043     2.413     2.429
    54   1 H        0.924     0.072     2.068     2.249
    55   1 H        0.924     0.061     2.193     2.316
    56   1 H        0.860     0.188     1.170     1.695
    57   1 H        0.860     0.169     1.279     1.772
    58  22 Ti       3.637     1.077   101.496    24.452
    59  22 Ti       6.855     1.521    84.334    14.910
    60  22 Ti       3.227     1.130   101.702    24.625
    61  22 Ti       5.860     1.372    85.745    15.034
    62  22 Ti       5.627     1.146    87.959    15.227
    63  22 Ti       3.541     1.055   102.301    24.651
    64  22 Ti       2.352     0.920   201.786    34.782
    65  22 Ti       6.011     1.303    86.415    15.092
    66  22 Ti       3.414    -0.938   130.492    27.883
    67  22 Ti       5.519     1.127    88.147    15.243
    68  22 Ti       5.687     1.218    87.240    15.164
    69  22 Ti       3.581     1.129   101.291    24.500
    70   6 C        2.246    -0.239    37.036     9.860
    71   6 C        2.142    -0.209    36.796     9.805
    72   6 C        2.248    -0.009    30.352     8.926
    73   6 C        1.838    -0.189    36.660     9.781
    74   6 C        1.894    -0.205    37.123     9.840
    75   6 C        1.821    -0.305    40.635    10.299
    76   6 C        2.631    -0.358    38.306    10.124
    77   8 O        1.554    -0.826    31.351     7.554
    78   8 O        1.464    -0.858    32.479     7.682
    79   8 O        1.557    -0.897    33.605     7.821
    80   8 O        1.523    -0.997    37.106     8.216
    81   8 O        1.523    -0.883    33.175     7.769
    82   8 O        1.458    -0.807    30.928     7.495
    83   8 O        1.455    -0.783    30.214     7.408
    84   8 O        0.727    -0.571    25.485     6.765
    85   8 O        1.453    -0.402    21.075     6.187
    86   8 O        1.476    -0.365    20.350     6.081
    87   8 O        1.603    -0.907    33.883     7.856
    88   8 O        1.547    -0.870    32.727     7.718
    89   8 O        1.700    -0.772    29.637     7.350
    90   8 O        1.453    -0.643    26.436     6.929

 Mol. C6AA /au·bohr⁶  :     172151.717330
 Mol. C8AA /au·bohr⁸  :    7275937.112402
 Mol. α(0) /au        :        696.991657


Wiberg/Mayer (AO) data.
largest (>0.10) Wiberg bond orders for each atom

 ---------------------------------------------------------------------------
     #   Z sym  total        # sym  WBO       # sym  WBO       # sym  WBO
 ---------------------------------------------------------------------------
     1   6 C    3.993 --     2 C    0.994    31 H    0.986    30 H    0.985
                            32 H    0.984
     2   6 C    3.988 --     1 C    0.994     3 C    0.992     4 C    0.976
                             5 C    0.975
     3   6 C    3.993 --     2 C    0.992    35 H    0.987    33 H    0.985
                            34 H    0.985
     4   6 C    3.984 --    38 H    0.984    37 H    0.981    36 H    0.979
                             2 C    0.976
     5   6 C    3.945 --    10 N    1.407     6 N    1.385     2 C    0.975
     6   7 N    3.033 --     5 C    1.385     7 C    1.352
     7   6 C    3.957 --     8 N    1.373     6 N    1.352    17 C    1.059
     8   7 N    3.035 --     7 C    1.373     9 C    1.304
     9   6 C    3.964 --    10 N    1.308     8 N    1.304    11 N    1.211
    10   7 N    3.025 --     5 C    1.407     9 C    1.308
    11   7 N    3.433 --     9 C    1.211    16 C    0.983    12 C    0.983
    12   6 C    3.971 --    13 C    1.003    11 N    0.983    39 H    0.967
                            40 H    0.965
    13   6 C    3.956 --    12 C    1.003    14 O    0.979    42 H    0.970
                            41 H    0.969
    14   8 O    2.055 --    15 C    0.981    13 C    0.979
    15   6 C    3.956 --    16 C    0.997    14 O    0.981    43 H    0.970
                            44 H    0.969
    16   6 C    3.972 --    15 C    0.997    11 N    0.983    46 H    0.967
                            45 H    0.966
    17   6 C    3.981 --    18 C    1.377    28 C    1.296     7 C    1.059
    18   6 C    3.968 --    19 N    1.447    17 C    1.377    47 H    0.958
    19   7 N    3.029 --    18 C    1.447    20 C    1.305
    20   6 C    3.965 --    27 N    1.306    19 N    1.305    21 N    1.212
    21   7 N    3.419 --    20 C    1.212    22 C    0.984    26 C    0.982
    22   6 C    3.969 --    23 C    0.997    21 N    0.984    48 H    0.967
                            49 H    0.964
    23   6 C    3.955 --    22 C    0.997    24 O    0.979    51 H    0.970
                            50 H    0.969
    24   8 O    2.053 --    25 C    0.980    23 C    0.979
    25   6 C    3.957 --    26 C    1.003    24 O    0.980    53 H    0.970
                            52 H    0.969
    26   6 C    3.971 --    25 C    1.003    21 N    0.982    54 H    0.966
                            55 H    0.965
    27   7 N    3.041 --    28 C    1.418    20 C    1.306
    28   6 C    3.965 --    27 N    1.418    17 C    1.296    29 N    1.067
    29   7 N    3.030 --    28 C    1.067    56 H    0.918    57 H    0.911
    30   1 H    0.998 --     1 C    0.985
    31   1 H    0.998 --     1 C    0.986
    32   1 H    0.997 --     1 C    0.984
    33   1 H    0.997 --     3 C    0.985
    34   1 H    0.998 --     3 C    0.985
    35   1 H    0.998 --     3 C    0.987
    36   1 H    0.998 --     4 C    0.979
    37   1 H    0.996 --     4 C    0.981
    38   1 H    0.997 --     4 C    0.984
    39   1 H    0.995 --    12 C    0.967
    40   1 H    0.996 --    12 C    0.965
    41   1 H    0.996 --    13 C    0.969
    42   1 H    0.998 --    13 C    0.970
    43   1 H    0.998 --    15 C    0.970
    44   1 H    0.996 --    15 C    0.969
    45   1 H    0.996 --    16 C    0.966
    46   1 H    0.994 --    16 C    0.967
    47   1 H    0.994 --    18 C    0.958
    48   1 H    0.994 --    22 C    0.967
    49   1 H    0.993 --    22 C    0.964
    50   1 H    0.996 --    23 C    0.969
    51   1 H    0.998 --    23 C    0.970
    52   1 H    0.996 --    25 C    0.969
    53   1 H    0.998 --    25 C    0.970
    54   1 H    0.994 --    26 C    0.966
    55   1 H    0.995 --    26 C    0.965
    56   1 H    0.964 --    29 N    0.918
    57   1 H    0.971 --    29 N    0.911
    58  22 Ti   2.820 --    77 O    0.849    78 O    0.802    64 Ti   0.328
                            59 Ti   0.210    61 Ti   0.200
    59  22 Ti   3.900 --    78 O    0.785    81 O    0.728    79 O    0.705
                            80 O    0.617    58 Ti   0.210    60 Ti   0.177
                            62 Ti   0.140    63 Ti   0.139
    60  22 Ti   2.958 --    86 O    1.101    79 O    0.595    66 Ti   0.346
                            59 Ti   0.177    64 Ti   0.122    68 Ti   0.119
                            81 O    0.111
    61  22 Ti   3.933 --    82 O    0.952    77 O    0.717    70 C    0.713
                            80 O    0.567    63 Ti   0.203    58 Ti   0.200
                            67 Ti   0.180    87 O    0.125
    62  22 Ti   4.019 --    83 O    0.806    76 C    0.784    74 C    0.779
                            81 O    0.641    68 Ti   0.257    63 Ti   0.179
                            71 C    0.170    59 Ti   0.140    75 C    0.103
    63  22 Ti   2.648 --    83 O    0.953    82 O    0.709    61 Ti   0.203
                            62 Ti   0.179    59 Ti   0.139    78 O    0.121
    64  22 Ti   3.772 --    84 O    2.025    65 Ti   0.574    58 Ti   0.328
                            79 O    0.152    77 O    0.147    60 Ti   0.122
                            87 O    0.106
    65  22 Ti   4.103 --    85 O    0.842    87 O    0.779    88 O    0.748
                            64 Ti   0.574    89 O    0.189    69 Ti   0.182
                            67 Ti   0.144    66 Ti   0.128
    66  22 Ti   3.409 --    85 O    1.222    86 O    1.076    60 Ti   0.346
                            69 Ti   0.182    65 Ti   0.128
    67  22 Ti   3.915 --    75 C    0.916    73 C    0.754    89 O    0.662
                            87 O    0.500    69 Ti   0.209    61 Ti   0.180
                            70 C    0.169    65 Ti   0.144    76 C    0.127
    68  22 Ti   4.076 --    90 O    1.063    71 C    0.665    76 C    0.558
                            88 O    0.497    62 Ti   0.257    69 Ti   0.243
                            86 O    0.136    60 Ti   0.119
    69  22 Ti   2.922 --    89 O    0.891    90 O    0.796    68 Ti   0.243
                            67 Ti   0.209    65 Ti   0.182    66 Ti   0.182
                            85 O    0.110
    70   6 C    3.838 --    73 C    2.733    61 Ti   0.713    67 Ti   0.169
    71   6 C    3.777 --    74 C    2.715    68 Ti   0.665    62 Ti   0.170
    72   6 C    3.969 --    75 C    1.991    76 C    1.631
    73   6 C    3.726 --    70 C    2.733    67 Ti   0.754
    74   6 C    3.766 --    71 C    2.715    62 Ti   0.779
    75   6 C    3.476 --    72 C    1.991    67 Ti   0.916    62 Ti   0.103
    76   6 C    3.513 --    72 C    1.631    62 Ti   0.784    68 Ti   0.558
                            67 Ti   0.127
    77   8 O    1.955 --    58 Ti   0.849    61 Ti   0.717    64 Ti   0.147
    78   8 O    1.917 --    58 Ti   0.802    59 Ti   0.785    63 Ti   0.121
    79   8 O    1.853 --    59 Ti   0.705    60 Ti   0.595    64 Ti   0.152
    80   8 O    1.731 --    59 Ti   0.617    61 Ti   0.567
    81   8 O    1.887 --    59 Ti   0.728    62 Ti   0.641    60 Ti   0.111
    82   8 O    1.989 --    61 Ti   0.952    63 Ti   0.709
    83   8 O    2.033 --    63 Ti   0.953    62 Ti   0.806
    84   8 O    2.228 --    64 Ti   2.025
    85   8 O    2.491 --    66 Ti   1.222    65 Ti   0.842    69 Ti   0.110
    86   8 O    2.521 --    60 Ti   1.101    66 Ti   1.076    68 Ti   0.136
    87   8 O    1.847 --    65 Ti   0.779    67 Ti   0.500    61 Ti   0.125
                            64 Ti   0.106
    88   8 O    1.911 --    65 Ti   0.748    68 Ti   0.497
    89   8 O    2.038 --    69 Ti   0.891    67 Ti   0.662    65 Ti   0.189
    90   8 O    2.213 --    68 Ti   1.063    69 Ti   0.796
 ---------------------------------------------------------------------------

Topologies differ in total number of bonds
Writing topology from bond orders to xtbtopo.mol

molecular dipole:
                 x           y           z       tot (Debye)
 q only:       -2.840       1.935       5.951
   full:       -3.277       2.310       4.986      16.263
molecular quadrupole (traceless):
                xx          xy          yy          xz          yz          zz
 q only:      -12.726      17.886      35.413      20.922     -43.885     -22.687
  q+dip:       -7.197       2.646       1.132      26.303     -37.297       6.065
   full:       -7.434       4.180       0.824      27.272     -34.957       6.609


           -------------------------------------------------
          | TOTAL ENERGY             -178.342912250112 Eh   |
          | GRADIENT NORM               0.133024653903 Eh/α |
          | HOMO-LUMO GAP               0.039640617419 eV   |
           -------------------------------------------------

------------------------------------------------------------------------
 * finished run on 2026/09/02 at 15:28:48.652     
------------------------------------------------------------------------
 total:
 * wall-time:     0 d,  0 h,  0 min,  0.926 sec
 *  cpu-time:     0 d,  0 h,  0 min,  3.672 sec
 * ratio c/w:     3.965 speedup
 SCF:
 * wall-time:     0 d,  0 h,  0 min,  0.883 sec
 *  cpu-time:     0 d,  0 h,  0 min,  3.547 sec
 * ratio c/w:     4.017 speedup

