90
 energy: -178.864257394883 gnorm: 0.001888614459 xtb: 6.7.1pre (5071a88)
C           -1.61600165163026       -4.27422775582791        8.07714839732973
C           -2.80911024052578       -3.32026359489040        8.15835244930854
C           -3.64100103356039       -3.61629168171336        9.41387005291932
C           -3.68702557295537       -3.46441090805697        6.90687400082456
C           -2.31797994339506       -1.89243703994838        8.23682241756509
N           -1.07169135075507       -1.66854378883679        8.55693989051458
C           -0.61626566344381       -0.38846707257735        8.45429800366687
N           -1.43816810814447        0.66078520668927        7.92737399840097
C           -2.72169884501429        0.26743103059338        7.66539578165726
N           -3.21976617294623       -0.93589856619872        7.90897660151215
N           -3.56699151182184        1.17062398000578        7.11964239388047
C           -4.73152163095624        0.63295036811599        6.41927310915879
C           -5.34532290496326        1.71691345632934        5.52810421457577
O           -5.47345791759592        2.93234000456709        6.22863039934721
C           -4.23610381289447        3.46154315969874        6.67249914861514
C           -3.08876491074469        2.44552838670862        6.61980897607558
C            0.77759888012412       -0.12758645497377        8.63057438578531
C            1.72118177999464       -1.16904949853527        8.83209826702037
N            2.95048501374347       -1.11159341792610        8.35666171988938
C            3.29726894622107       -0.05945118238679        7.63016039965939
N            4.44990463929246       -0.10521954989631        6.85596023882598
C            5.26418426652522        1.10601428618254        6.77772007067037
C            5.93739413334902        1.33600985026663        8.14862164155942
O            6.07437318608191        0.12615582874909        8.86295398619907
C            6.43704478800937       -0.94940188718849        8.03204997867853
C            5.29694577600644       -1.27771550628033        7.03466564131828
N            2.58030969640641        1.10862517329370        7.59163399798977
C            1.38938454361834        1.10634648508334        8.19806323233884
N            0.81072495406069        2.31683800628766        8.45099121416208
H           -1.96438478911294       -5.30560034969986        8.07911451964402
H           -0.95770262517592       -4.11540403191886        8.92598500593654
H           -1.04324432794418       -4.09330851849601        7.15030531165844
H           -4.06431749178613       -4.61643568374710        9.35750001438713
H           -4.44719910075176       -2.89359903512591        9.49892036169554
H           -3.01710290376217       -3.54708161204367       10.30090215163047
H           -3.14411610841702       -3.13412664004471        6.00710266615100
H           -3.98434828796795       -4.50402955871135        6.78014043795125
H           -4.57331211819526       -2.84446377743054        7.00999034388969
H           -4.42004525646002       -0.22957371307604        5.80143357984727
H           -5.44890460993011        0.29804999066014        7.17290669930110
H           -6.36216879271752        1.43485133787100        5.25030277466661
H           -4.75054310676339        1.83881587404638        4.60915178349514
H           -4.40371463644352        3.79689173677390        7.70194268006650
H           -3.97005845883369        4.32930828903844        6.05367522094684
H           -2.26512747087293        2.78937102382870        7.25144105391837
H           -2.72383716704600        2.34199726043807        5.58460454268941
H            1.44220326757667       -2.07788941161154        9.34482208050875
H            6.01088162323035        0.93729262967304        5.99638975996470
H            4.64745060015673        1.96844428167972        6.49779948402876
H            6.92352820667533        1.80661967699252        8.01067067964169
H            5.31602189876486        1.97512818142289        8.77876523713447
H            6.62228678840365       -1.78925848771420        8.70190468358230
H            7.36780920226325       -0.71013005408651        7.49508491149040
H            5.70902412299288       -1.56226739050867        6.06220969363522
H            4.66972023475979       -2.07880720471413        7.42179969565766
H           -0.19536323275398        2.28359105105412        8.58498518690414
H            1.17556129873509        3.08156016300380        7.89107474238687
Ti          -0.37048314939833       -3.60936693900045        4.08157253237423
Ti           1.29849469536934       -1.32111016588566        3.65675310857878
Ti           3.34127588693774       -0.82307869279222        0.38289605630469
Ti          -1.94495532447593       -1.20118117402222        3.77372091095175
Ti           2.06505985422938        0.89664275833374        5.35775214982309
Ti          -0.58249543163637       -0.06740312584878        6.27724816124817
Ti          -0.55062159659708       -3.04782683492266        0.67932307462880
Ti           0.59007518128529       -0.25808146887831        0.69929406903789
Ti           2.06708597920686        1.43472079549259       -1.57833284127166
Ti          -1.67022387303197        1.42440301287217        1.70247622660694
Ti           2.70907272413726        1.69648813884314        1.96191418503635
Ti           0.44897866947019        3.28968598164308        0.56832161508569
C           -3.47155992217674       -0.17739764604100        2.88908508345710
C            3.42481534662787        2.68215528984113        3.59261301048831
C           -0.53732778340302        2.05274591837527        4.41980743725344
C           -3.56850105450238        0.85385234914782        2.20998589199871
C            3.06396800125048        2.57008861885089        4.77214423935118
C           -1.24158930983726        2.37636988090480        3.41295131322446
C            0.16347021482848        1.69699511910129        5.50225408513777
O           -1.93649434835118       -2.94945494866729        3.48767305177585
O            1.19953238852139       -2.96344458115400        4.38383197854551
O            1.76540371969528       -1.29854159678136       -0.30418185074312
O           -0.33130139367134       -0.66937464515856        3.49220918643483
O            2.55251776378314       -0.10841461499671        3.91377165796831
O           -1.96512580445033       -0.79941148779409        5.44735867670404
O            0.99622088412575       -0.64175069926989        5.95319770038347
O            1.37899199039265       -1.86062417634106        2.03383595932856
O            0.56893819543195        0.81257045188006       -0.75856577334251
O            3.88789349535608        0.69283176099832        1.11190665201501
O           -1.10607469087794       -0.36454138048626        0.99696054371625
O            1.18770217060519        0.88572828473042        1.86729866797829
O           -1.19547180804992        2.67108858288558        0.57197025751279
O            2.20780023833890        3.01714088928344        0.82413307031622
