      -----------------------------------------------------------      
     |                   =====================                   |     
     |                           x T B                           |     
     |                   =====================                   |     
     |                         S. Grimme                         |     
     |          Mulliken Center for Theoretical Chemistry        |     
     |                    University of Bonn                     |     
      -----------------------------------------------------------      

   * xtb version 6.7.1pre (5071a88) compiled by 'Marcel@Raven' on 2024-07-23

   xtb is free software: you can redistribute it and/or modify it under
   the terms of the GNU Lesser General Public License as published by
   the Free Software Foundation, either version 3 of the License, or
   (at your option) any later version.
   
   xtb is distributed in the hope that it will be useful,
   but WITHOUT ANY WARRANTY; without even the implied warranty of
   MERCHANTABILITY or FITNESS FOR A PARTICULAR PURPOSE.  See the
   GNU Lesser General Public License for more details.
   
   Cite this work as:
   * C. Bannwarth, E. Caldeweyher, S. Ehlert, A. Hansen, P. Pracht,
     J. Seibert, S. Spicher, S. Grimme, WIREs Comput. Mol. Sci., 2020, 11,
     e01493. DOI: 10.1002/wcms.1493
   
   for GFN2-xTB:
   * C. Bannwarth, S. Ehlert and S. Grimme., J. Chem. Theory Comput., 2019,
     15, 1652-1671. DOI: 10.1021/acs.jctc.8b01176
   for GFN1-xTB:
   * S. Grimme, C. Bannwarth, P. Shushkov, J. Chem. Theory Comput., 2017,
     13, 1989-2009. DOI: 10.1021/acs.jctc.7b00118
   for GFN0-xTB:
   * P. Pracht, E. Caldeweyher, S. Ehlert, S. Grimme, ChemRxiv, 2019, preprint.
     DOI: 10.26434/chemrxiv.8326202.v1
   for GFN-FF:
   * S. Spicher and S. Grimme, Angew. Chem. Int. Ed., 2020, 59, 15665-15673.
     DOI: 10.1002/anie.202004239
   
   for ALPB and GBSA implicit solvation:
   * S. Ehlert, M. Stahn, S. Spicher, S. Grimme, J. Chem. Theory Comput.,
     2021, 17, 4250-4261. DOI: 10.1021/acs.jctc.1c00471
   
   for ddCOSMO and CPCM-X implicit solvation:
   * M. Stahn, S. Ehlert, S. Grimme, J. Phys. Chem. A,
     2023, XX, XXXX-XXXX. DOI: 10.1021/acs.jpca.3c04382
   
   for DFT-D4:
   * E. Caldeweyher, C. Bannwarth and S. Grimme, J. Chem. Phys., 2017,
     147, 034112. DOI: 10.1063/1.4993215
   * E. Caldeweyher, S. Ehlert, A. Hansen, H. Neugebauer, S. Spicher,
     C. Bannwarth and S. Grimme, J. Chem. Phys., 2019, 150, 154122.
     DOI: 10.1063/1.5090222
   * E. Caldeweyher, J.-M. Mewes, S. Ehlert and S. Grimme, Phys. Chem. Chem. Phys.
     2020, 22, 8499-8512. DOI: 10.1039/D0CP00502A
   
   for sTDA-xTB:
   * S. Grimme and C. Bannwarth, J. Chem. Phys., 2016, 145, 054103.
     DOI: 10.1063/1.4959605
   
   in the mass-spec context:
   * V. Asgeirsson, C. Bauer and S. Grimme, Chem. Sci., 2017, 8, 4879.
     DOI: 10.1039/c7sc00601b
   * J. Koopman and S. Grimme, ACS Omega 2019, 4, 12, 15120-15133.
     DOI: 10.1021/acsomega.9b02011
   
   for metadynamics refer to:
   * S. Grimme, J. Chem. Theory Comput., 2019, 155, 2847-2862
     DOI: 10.1021/acs.jctc.9b00143
   
   for SPH calculations refer to:
   * S. Spicher and S. Grimme, J. Chem. Theory Comput., 2021, 17, 1701-1714
     DOI: 10.1021/acs.jctc.0c01306
   
   for ONIOM refer to:
   * C. Plett, A. Katbashev, S. Ehlert, S. Grimme, M. Bursch,
     Phys. Chem. Chem. Phys., 2023, 25, 17860-17868. DOI: 10.1039/D3CP02178E
   
   for DIPRO refer to:
   * J. Kohn, N. Gildemeister, S. Grimme, D. Fazzi, A. Hansen,
     J. Chem. Phys., 2023, just accepted.
   
   for PTB refer to:
   * S. Grimme, M. Mueller, A. Hansen, J. Chem. Phys., 2023, 158, 124111.
     DOI: 10.1063/5.0137838
   
   with help from (in alphabetical order)
   P. Atkinson, C. Bannwarth, F. Bohle, G. Brandenburg, E. Caldeweyher
   M. Checinski, S. Dohm, S. Ehlert, S. Ehrlich, I. Gerasimov, C. Hölzer
   A. Katbashev, J. Kohn, J. Koopman, C. Lavigne, S. Lehtola, F. März, M. Müller,
   F. Musil, H. Neugebauer, J. Pisarek, C. Plett, P. Pracht, F. Pultar,
   J. Seibert, P. Shushkov, S. Spicher, M. Stahn, M. Steiner, T. Strunk,
   J. Stückrath, T. Rose, and J. Unsleber
   
 * started run on 2026/09/02 at 20:06:07.099     
   ID    Z sym.   atoms
    1    6 C      1-5, 7, 9, 12, 13, 15-18, 20, 22, 23, 25, 26, 28, 70-76
    2    7 N      6, 8, 10, 11, 19, 21, 27, 29
    3    8 O      14, 24, 77-90
    4    1 H      30-57
    5   22 Ti     58-69

           -------------------------------------------------
          |                Calculation Setup                |
           -------------------------------------------------

          program call               : "c:\Users\Andre\Proyectos doctorado\nano-qsar-ai-papers\kras-pancreatic-gC3N4-ai\tools\xtb\xtb-6.7.1\bin\xtb.exe" "c:\Users\Andre\Proyectos doctorado\nano-qsar-ai-papers\mxene-glioblastoma-qsar-ai\calculations\gbm\Paxalisib\Paxalisib_opt_orient_90deg.xyz" --opt loose --gfn 2 --chrg 0 --uhf 0 --iterations 500 --cycles 400 --norestart
          coordinate file            : c:\Users\Andre\Proyectos doctorado\nano-qsar-ai-papers\mxene-glioblastoma-qsar-ai\calculations\gbm\Paxalisib\Paxalisib_opt_orient_90deg.xyz
          omp threads                :                     4


molecular fragmentation (1/2 indicates fragments):
111111111111111111111111111111111111111111111111111111111222222222222222
222222222222222222
# atoms in fragment 1/2:    57    33
 fragment masses (1/2) :      400.48      882.47
CMA distance (Bohr)    :  17.307
constraining FC (au)   :  0.0500

           -------------------------------------------------
          |                 G F N 2 - x T B                 |
           -------------------------------------------------

        Reference                      10.1021/acs.jctc.8b01176
      * Hamiltonian:
        H0-scaling (s, p, d)           1.850000    2.230000    2.230000
        zeta-weighting                 0.500000
      * Dispersion:
        s8                             2.700000
        a1                             0.520000
        a2                             5.000000
        s9                             5.000000
      * Repulsion:
        kExp                           1.500000    1.000000
        rExp                           1.000000
      * Coulomb:
        alpha                          2.000000
        third order                    shell-resolved
        anisotropic                    true
        a3                             3.000000
        a5                             4.000000
        cn-shift                       1.200000
        cn-exp                         4.000000
        max-rad                        5.000000


          ...................................................
          :                      SETUP                      :
          :.................................................:
          :  # basis functions                 348          :
          :  # atomic orbitals                 336          :
          :  # shells                          164          :
          :  # electrons                       316          :
          :  max. iterations                   500          :
          :  Hamiltonian                  GFN2-xTB          :
          :  restarted?                      false          :
          :  GBSA solvation                  false          :
          :  PC potential                    false          :
          :  electronic temp.          300.0000000     K    :
          :  accuracy                    1.0000000          :
          :  -> integral cutoff          0.2500000E+02      :
          :  -> integral neglect         0.1000000E-07      :
          :  -> SCF convergence          0.1000000E-05 Eh   :
          :  -> wf. convergence          0.1000000E-03 e    :
          :  Broyden damping             0.4000000          :
          :  net charge                          0          :
          :  unpaired electrons                  0          :
          ...................................................

 iter      E             dE          RMSdq      gap      omega  full diag
   1   -177.4960313 -0.177496E+03  0.132E+01    0.07       0.0  T
   2   -138.8286628  0.386674E+02  0.148E+01    0.04       1.0  T
   3    -18.8555347  0.119973E+03  0.266E+01    0.06       1.0  T
   4   -165.1246001 -0.146269E+03  0.111E+01    0.07       1.0  T
   5   -129.3472347  0.357774E+02  0.136E+01    0.06       1.0  T
   6   -178.9125044 -0.495653E+02  0.633E+00    0.01       1.0  T
   7   -176.8832770  0.202923E+01  0.596E+00    0.09       1.0  T
   8   -179.7131933 -0.282992E+01  0.541E+00    0.42       1.0  T
   9   -179.8500231 -0.136830E+00  0.512E+00    0.50       1.0  T
  10   -179.8846929 -0.346698E-01  0.494E+00    0.47       1.0  T
  11   -173.7646118  0.612008E+01  0.622E+00    0.45       1.0  T
  12   -176.7510825 -0.298647E+01  0.508E+00    0.24       1.0  T
  13   -175.6974624  0.105362E+01  0.565E+00    0.05       1.0  T
  14   -177.2944247 -0.159696E+01  0.467E+00    0.13       1.0  T
  15   -177.3547248 -0.603001E-01  0.448E+00    0.12       1.0  T
  16   -178.1339847 -0.779260E+00  0.681E+00    0.01       1.0  T
  17   -179.3179351 -0.118395E+01  0.324E+00    0.28       1.0  T
  18   -179.4647550 -0.146820E+00  0.304E+00    0.12       1.0  T
  19   -179.2928036  0.171951E+00  0.320E+00    0.28       1.0  T
  20   -179.2964697 -0.366613E-02  0.317E+00    0.26       1.0  T
  21   -179.2425457  0.539240E-01  0.338E+00    0.33       1.0  T
  22   -179.3350041 -0.924584E-01  0.316E+00    0.16       1.0  T
  23   -180.1624359 -0.827432E+00  0.229E+00    0.17       1.0  T
  24   -180.1677265 -0.529057E-02  0.223E+00    0.11       1.0  T
  25   -180.2076600 -0.399335E-01  0.200E+00    0.23       1.0  T
  26   -180.2301425 -0.224825E-01  0.158E+00    0.35       1.0  T
  27   -180.2377190 -0.757657E-02  0.141E+00    0.45       1.0  T
  28   -180.2443641 -0.664509E-02  0.124E+00    0.57       1.0  T
  29   -180.2732904 -0.289263E-01  0.957E-01    0.88       1.0  T
  30   -180.2788004 -0.550995E-02  0.127E+00    0.85       1.0  T
  31   -180.2822086 -0.340819E-02  0.109E+00    0.90       1.0  T
  32   -180.2864748 -0.426619E-02  0.935E-01    0.91       1.0  T
  33   -180.2859320  0.542708E-03  0.845E-01    0.94       1.0  T
  34   -180.2896328 -0.370075E-02  0.580E-01    0.93       1.0  T
  35   -180.2926752 -0.304236E-02  0.526E-01    0.89       1.0  T
  36   -180.2961429 -0.346779E-02  0.515E-01    0.79       1.0  T
  37   -180.2979026 -0.175964E-02  0.458E-01    0.67       1.0  T
  38   -180.2999520 -0.204943E-02  0.382E-01    0.53       1.0  T
  39   -180.3003920 -0.440008E-03  0.357E-01    0.50       1.0  T
  40   -180.3006561 -0.264078E-03  0.263E-01    0.44       1.0  T
  41   -180.3008171 -0.160954E-03  0.214E-01    0.40       1.0  T
  42   -180.3014585 -0.641434E-03  0.204E-01    0.40       1.0  T
  43   -180.3017355 -0.277031E-03  0.185E-01    0.39       1.0  T
  44   -180.3022375 -0.501954E-03  0.153E-01    0.40       1.0  T
  45   -180.3025777 -0.340189E-03  0.135E-01    0.44       1.0  T
  46   -180.3028310 -0.253306E-03  0.124E-01    0.48       1.0  T
  47   -180.3031778 -0.346811E-03  0.987E-02    0.57       1.0  T
  48   -180.3033216 -0.143841E-03  0.840E-02    0.60       1.0  T
  49   -180.3035137 -0.192033E-03  0.585E-02    0.60       1.0  T
  50   -180.3036075 -0.938479E-04  0.448E-02    0.59       1.0  T
  51   -180.3036483 -0.407785E-04  0.281E-02    0.59       1.0  T
  52   -180.3036694 -0.211289E-04  0.225E-02    0.59       1.0  T
  53   -180.3036771 -0.765032E-05  0.183E-02    0.59       1.0  T
  54   -180.3036808 -0.376170E-05  0.136E-02    0.59       1.0  T
  55   -180.3036841 -0.322436E-05  0.995E-03    0.59       1.1  T
  56   -180.3036851 -0.100295E-05  0.843E-03    0.59       1.2  T
  57   -180.3036866 -0.154820E-05  0.613E-03    0.59       1.7  T
  58   -180.3036873 -0.671172E-06  0.386E-03    0.59       2.7  T
  59   -180.3036876 -0.307209E-06  0.211E-03    0.59       5.0  T
  60   -180.3036877 -0.147301E-06  0.951E-04    0.59      11.1  T
  61   -180.3036877 -0.160050E-07  0.724E-04    0.59      14.6  T

   *** convergence criteria satisfied after 61 iterations ***

         #    Occupation            Energy/Eh            Energy/eV
      -------------------------------------------------------------
         1        2.0000           -0.8215320             -22.3550
       ...           ...                  ...                  ...
       152        2.0000           -0.3552279              -9.6662
       153        2.0000           -0.3506206              -9.5409
       154        2.0000           -0.3501356              -9.5277
       155        2.0000           -0.3460851              -9.4175
       156        2.0000           -0.3386378              -9.2148
       157        2.0000           -0.3231566              -8.7935
       158        2.0000           -0.3086078              -8.3976 (HOMO)
       159        0.0000           -0.2868885              -7.8066 (LUMO)
       160        0.0000           -0.2856498              -7.7729
       161        0.0000           -0.2851433              -7.7591
       162        0.0000           -0.2846861              -7.7467
       163                         -0.2801546              -7.6234
       ...                                ...                  ...
       336                         13.4366819             365.6307
      -------------------------------------------------------------
                  HL-Gap            0.0217193 Eh            0.5910 eV
             Fermi-level           -0.2979502 Eh           -8.1076 eV

 SCC (total)                   0 d,  0 h,  0 min,  1.346 sec
 SCC setup                      ...        0 min,  0.001 sec (  0.074%)
 Dispersion                     ...        0 min,  0.001 sec (  0.074%)
 classical contributions        ...        0 min,  0.000 sec (  0.000%)
 integral evaluation            ...        0 min,  0.019 sec (  1.412%)
 iterations                     ...        0 min,  1.273 sec ( 94.577%)
 molecular gradient             ...        0 min,  0.050 sec (  3.715%)
 printout                       ...        0 min,  0.002 sec (  0.149%)

         :::::::::::::::::::::::::::::::::::::::::::::::::::::
         ::                     SUMMARY                     ::
         :::::::::::::::::::::::::::::::::::::::::::::::::::::
         :: total energy            -178.601110304834 Eh    ::
         :: gradient norm              0.094991111078 Eh/a0 ::
         :: HOMO-LUMO gap              0.591012452433 eV    ::
         ::.................................................::
         :: SCC energy              -180.300714965148 Eh    ::
         :: -> isotropic ES            1.027736892753 Eh    ::
         :: -> anisotropic ES         -0.377043347579 Eh    ::
         :: -> anisotropic XC         -0.012642296817 Eh    ::
         :: -> dispersion             -0.151591765339 Eh    ::
         :: repulsion energy           1.699604660315 Eh    ::
         :: add. restraining           0.000000000000 Eh    ::
         :: total charge               0.000000000000 e     ::
         :::::::::::::::::::::::::::::::::::::::::::::::::::::

      ----------------------------------------------------------- 
     |                   =====================                   |
     |                        A N C O P T                        |
     |                   =====================                   |
     |               Approximate Normal Coordinate               |
     |                Rational Function Optimizer                |
      ----------------------------------------------------------- 
      ----------------------------------------------------------- 
     |                   =====================                   |
     |                        A N C O P T                        |
     |                   =====================                   |
     |               Approximate Normal Coordinate               |
     |                Rational Function Optimizer                |
      ----------------------------------------------------------- 

          ...................................................
          :                      SETUP                      :
          :.................................................:
          :   optimization level             loose          :
          :   max. optcycles                   400          :
          :   ANC micro-cycles                  20          :
          :   degrees of freedom               264          :
          :.................................................:
          :   RF solver                   davidson          :
          :   write xtbopt.log                true          :
          :   linear?                        false          :
          :   energy convergence         0.5000000E-04 Eh   :
          :   grad. convergence          0.4000000E-02 Eh/α :
          :   maxmium RF displ.          1.0000000          :
          :   Hlow (freq-cutoff)         0.1000000E-01      :
          :   Hmax (freq-cutoff)         5.0000000          :
          :   S6 in model hess.         20.0000000          :
          ...................................................

generating ANC from exact Hessian ...
Using Lindh-Hessian (1995)
 Shifting diagonal of input Hessian by   1.791453397384467E-002
 Lowest  eigenvalues of input Hessian
    0.010000    0.017282    0.017392    0.017429    0.000000    0.000000
    0.000000    0.000000    0.000000    0.000000    0.017936    0.017954
    0.017976    0.018207    0.018355    0.018356    0.018541    0.018606
 Highest eigenvalues
    2.136164    2.175014    2.186722    2.237821    2.253638    2.262054
 

........................................................................
.............................. CYCLE    1 ..............................
........................................................................

 iter      E             dE          RMSdq      gap      omega  full diag
   1   -180.3036878 -0.180304E+03  0.549E-04    0.59       0.0  T
   2   -180.3036878 -0.631928E-08  0.776E-04    0.59      13.6  T
   3   -180.3036878 -0.719893E-08  0.506E-04    0.59      20.8  T
     SCC iter.                  ...        0 min,  0.063 sec
     gradient                   ...        0 min,  0.047 sec
 * total energy  :  -178.6011103 Eh     change       -0.4223537E-07 Eh
   gradient norm :     0.0949716 Eh/α   predicted     0.0000000E+00 (-100.00%)
   displ. norm   :     0.3569073 α      lambda       -0.1772876E-01
   maximum displ.:     0.0981170 α      in ANC's #123, #109, #37, ...

........................................................................
.............................. CYCLE    2 ..............................
........................................................................

 iter      E             dE          RMSdq      gap      omega  full diag
   1   -180.3330003 -0.180333E+03  0.176E-01    0.61       0.0  T
   2   -180.3333656 -0.365281E-03  0.104E-01    0.59       1.0  T
   3   -180.3333897 -0.241435E-04  0.653E-02    0.61       1.0  T
   4   -180.3333471  0.426345E-04  0.631E-02    0.58       1.0  T
   5   -180.3335038 -0.156681E-03  0.238E-02    0.60       1.0  T
   6   -180.3335261 -0.223367E-04  0.130E-02    0.60       1.0  T
   7   -180.3335368 -0.106724E-04  0.519E-03    0.60       2.0  T
   8   -180.3335380 -0.127565E-05  0.226E-03    0.60       4.7  T
   9   -180.3335380  0.166369E-07  0.173E-03    0.60       6.1  T
  10   -180.3335381 -0.392426E-07  0.134E-03    0.60       7.9  T
  11   -180.3335381 -0.456621E-07  0.882E-04    0.60      11.9  T
  12   -180.3335381 -0.762159E-08  0.604E-04    0.60      17.4  T
     SCC iter.                  ...        0 min,  0.249 sec
     gradient                   ...        0 min,  0.045 sec
 * total energy  :  -178.6139174 Eh     change       -0.1280703E-01 Eh
   gradient norm :     0.0401730 Eh/α   predicted    -0.1000198E-01 ( -21.90%)
   displ. norm   :     0.4387431 α      lambda       -0.8863943E-02
   maximum displ.:     0.1373205 α      in ANC's #37, #34, #60, ...

........................................................................
.............................. CYCLE    3 ..............................
........................................................................

 iter      E             dE          RMSdq      gap      omega  full diag
   1   -180.3568549 -0.180357E+03  0.169E-01    0.59       0.0  T
   2   -180.3572130 -0.358170E-03  0.100E-01    0.59       1.0  T
   3   -180.3571524  0.606099E-04  0.750E-02    0.59       1.0  T
   4   -180.3570531  0.993843E-04  0.748E-02    0.59       1.0  T
   5   -180.3573969 -0.343896E-03  0.240E-02    0.60       1.0  T
   6   -180.3574097 -0.127566E-04  0.166E-02    0.59       1.0  T
   7   -180.3574192 -0.951581E-05  0.668E-03    0.60       1.6  T
   8   -180.3574202 -0.962177E-06  0.387E-03    0.59       2.7  T
   9   -180.3574202  0.264720E-08  0.247E-03    0.59       4.3  T
  10   -180.3574202 -0.592651E-07  0.162E-03    0.59       6.5  T
  11   -180.3574203 -0.939848E-07  0.106E-03    0.60       9.9  T
  12   -180.3574204 -0.287905E-07  0.696E-04    0.60      15.2  T
  13   -180.3574204 -0.727985E-08  0.516E-04    0.60      20.4  T
     SCC iter.                  ...        0 min,  0.262 sec
     gradient                   ...        0 min,  0.044 sec
 * total energy  :  -178.6196781 Eh     change       -0.5760691E-02 Eh
   gradient norm :     0.0226272 Eh/α   predicted    -0.5288600E-02 (  -8.20%)
   displ. norm   :     0.4718691 α      lambda       -0.4589883E-02
   maximum displ.:     0.1521343 α      in ANC's #1, #34, #48, ...

........................................................................
.............................. CYCLE    4 ..............................
........................................................................

 iter      E             dE          RMSdq      gap      omega  full diag
   1   -180.3633447 -0.180363E+03  0.314E-01    0.60       0.0  T
   2   -180.3637395 -0.394824E-03  0.170E-01    0.63       1.0  T
   3   -180.3637004  0.390890E-04  0.979E-02    0.61       1.0  T
   4   -180.3634820  0.218427E-03  0.984E-02    0.64       1.0  T
   5   -180.3639981 -0.516159E-03  0.391E-02    0.62       1.0  T
   6   -180.3640155 -0.174000E-04  0.209E-02    0.62       1.0  T
   7   -180.3640213 -0.575906E-05  0.161E-02    0.62       1.0  T
   8   -180.3640337 -0.123893E-04  0.669E-03    0.62       1.6  T
   9   -180.3640337  0.274674E-07  0.534E-03    0.62       2.0  T
  10   -180.3640342 -0.498457E-06  0.374E-03    0.62       2.8  T
  11   -180.3640345 -0.370901E-06  0.223E-03    0.62       4.7  T
  12   -180.3640346 -0.792387E-07  0.127E-03    0.62       8.3  T
  13   -180.3640346 -0.980663E-08  0.105E-03    0.62      10.0  T
  14   -180.3640346 -0.801779E-08  0.753E-04    0.62      14.0  T
  15   -180.3640346 -0.154276E-08  0.560E-04    0.62      18.8  T
     SCC iter.                  ...        0 min,  0.313 sec
     gradient                   ...        0 min,  0.044 sec
 * total energy  :  -178.6214763 Eh     change       -0.1798270E-02 Eh
   gradient norm :     0.0397775 Eh/α   predicted    -0.2806144E-02 (  56.05%)
   displ. norm   :     0.5466923 α      lambda       -0.6242504E-02
   maximum displ.:     0.2641334 α      in ANC's #1, #34, #48, ...

........................................................................
.............................. CYCLE    5 ..............................
........................................................................

 iter      E             dE          RMSdq      gap      omega  full diag
   1   -180.3681699 -0.180368E+03  0.424E-01    0.63       0.0  T
   2   -180.3686617 -0.491764E-03  0.192E-01    0.59       1.0  T
   3   -180.3685165  0.145195E-03  0.127E-01    0.64       1.0  T
   4   -180.3684653  0.512113E-04  0.109E-01    0.59       1.0  T
   5   -180.3688073 -0.341991E-03  0.650E-02    0.62       1.0  T
   6   -180.3688827 -0.754289E-04  0.354E-02    0.62       1.0  T
   7   -180.3689143 -0.315982E-04  0.238E-02    0.61       1.0  T
   8   -180.3689395 -0.251944E-04  0.913E-03    0.61       1.2  T
   9   -180.3689396 -0.677877E-07  0.699E-03    0.61       1.5  T
  10   -180.3689407 -0.111930E-05  0.479E-03    0.61       2.2  T
  11   -180.3689413 -0.592459E-06  0.223E-03    0.61       4.7  T
  12   -180.3689414 -0.817220E-07  0.134E-03    0.61       7.9  T
  13   -180.3689414 -0.165917E-08  0.110E-03    0.61       9.5  T
  14   -180.3689414 -0.357351E-07  0.679E-04    0.61      15.5  T
  15   -180.3689414 -0.912752E-08  0.402E-04    0.61      26.2  T
     SCC iter.                  ...        0 min,  0.314 sec
     gradient                   ...        0 min,  0.046 sec
 * total energy  :  -178.6237351 Eh     change       -0.2258799E-02 Eh
   gradient norm :     0.0479362 Eh/α   predicted    -0.4054110E-02 (  79.48%)
   displ. norm   :     0.3305856 α      lambda       -0.6124440E-02
   maximum displ.:     0.1170294 α      in ANC's #27, #1, #18, ...

........................................................................
.............................. CYCLE    6 ..............................
........................................................................

 iter      E             dE          RMSdq      gap      omega  full diag
   1   -180.3750305 -0.180375E+03  0.367E-01    0.55       0.0  T
   2   -180.3750163  0.141837E-04  0.124E-01    0.58       1.0  T
   3   -180.3739720  0.104431E-02  0.151E-01    0.55       1.0  T
   4   -180.3751448 -0.117288E-02  0.629E-02    0.57       1.0  T
   5   -180.3751541 -0.922162E-05  0.549E-02    0.59       1.0  T
   6   -180.3752500 -0.959683E-04  0.283E-02    0.57       1.0  T
   7   -180.3752640 -0.139933E-04  0.132E-02    0.58       1.0  T
   8   -180.3752702 -0.621153E-05  0.603E-03    0.58       1.7  T
   9   -180.3752700  0.229749E-06  0.467E-03    0.58       2.3  T
  10   -180.3752706 -0.577431E-06  0.307E-03    0.58       3.4  T
  11   -180.3752707 -0.137635E-06  0.199E-03    0.58       5.3  T
  12   -180.3752709 -0.166594E-06  0.103E-03    0.58      10.2  T
  13   -180.3752709 -0.237097E-07  0.719E-04    0.58      14.7  T
  14   -180.3752709 -0.115908E-07  0.441E-04    0.58      23.9  T
     SCC iter.                  ...        0 min,  0.282 sec
     gradient                   ...        0 min,  0.046 sec
 * total energy  :  -178.6265216 Eh     change       -0.2786465E-02 Eh
   gradient norm :     0.0332700 Eh/α   predicted    -0.3396886E-02 (  21.91%)
   displ. norm   :     0.3911477 α      lambda       -0.7361435E-02
   maximum displ.:     0.1677846 α      in ANC's #27, #30, #18, ...

........................................................................
.............................. CYCLE    7 ..............................
........................................................................

 iter      E             dE          RMSdq      gap      omega  full diag
   1   -180.3807823 -0.180381E+03  0.441E-01    0.56       0.0  T
   2   -180.3812258 -0.443552E-03  0.224E-01    0.66       1.0  T
   3   -180.3808169  0.408954E-03  0.162E-01    0.59       1.0  T
   4   -180.3808148  0.205584E-05  0.147E-01    0.66       1.0  T
   5   -180.3817840 -0.969157E-03  0.545E-02    0.63       1.0  T
   6   -180.3817815  0.245182E-05  0.397E-02    0.62       1.0  T
   7   -180.3818398 -0.582248E-04  0.227E-02    0.63       1.0  T
   8   -180.3818572 -0.174423E-04  0.916E-03    0.62       1.2  T
   9   -180.3818581 -0.854232E-06  0.600E-03    0.62       1.8  T
  10   -180.3818582 -0.139152E-06  0.423E-03    0.62       2.5  T
  11   -180.3818585 -0.303603E-06  0.279E-03    0.62       3.8  T
  12   -180.3818587 -0.243528E-06  0.167E-03    0.62       6.3  T
  13   -180.3818588 -0.464234E-07  0.114E-03    0.62       9.2  T
  14   -180.3818588  0.355880E-08  0.964E-04    0.62      10.9  T
  15   -180.3818588 -0.303720E-07  0.526E-04    0.62      20.0  T
     SCC iter.                  ...        0 min,  0.319 sec
     gradient                   ...        0 min,  0.045 sec
 * total energy  :  -178.6267204 Eh     change       -0.1988053E-03 Eh
   gradient norm :     0.0312432 Eh/α   predicted    -0.4243871E-02 (2034.69%)
   displ. norm   :     0.3809391 α      lambda       -0.5720833E-02
   maximum displ.:     0.1593452 α      in ANC's #60, #65, #19, ...

........................................................................
.............................. CYCLE    8 ..............................
........................................................................

 iter      E             dE          RMSdq      gap      omega  full diag
   1   -180.3790481 -0.180379E+03  0.270E-01    0.65       0.0  T
   2   -180.3791138 -0.656694E-04  0.995E-02    0.60       1.0  T
   3   -180.3787891  0.324689E-03  0.995E-02    0.65       1.0  T
   4   -180.3791996 -0.410495E-03  0.382E-02    0.61       1.0  T
   5   -180.3792312 -0.316278E-04  0.181E-02    0.62       1.0  T
   6   -180.3792241  0.713990E-05  0.159E-02    0.62       1.0  T
   7   -180.3792336 -0.945223E-05  0.870E-03    0.62       1.2  T
   8   -180.3792362 -0.264917E-05  0.521E-03    0.62       2.0  T
   9   -180.3792366 -0.428714E-06  0.369E-03    0.62       2.9  T
  10   -180.3792369 -0.251294E-06  0.266E-03    0.62       4.0  T
  11   -180.3792371 -0.171065E-06  0.158E-03    0.62       6.7  T
  12   -180.3792371 -0.228275E-07  0.119E-03    0.62       8.9  T
  13   -180.3792371 -0.667134E-08  0.942E-04    0.62      11.2  T
  14   -180.3792371 -0.193627E-07  0.651E-04    0.62      16.2  T
     SCC iter.                  ...        0 min,  0.290 sec
     gradient                   ...        0 min,  0.048 sec
 * total energy  :  -178.6296678 Eh     change       -0.2947347E-02 Eh
   gradient norm :     0.0332337 Eh/α   predicted    -0.3275511E-02 (  11.13%)
   displ. norm   :     0.2547871 α      lambda       -0.2884345E-02
   maximum displ.:     0.0979167 α      in ANC's #1, #6, #18, ...

........................................................................
.............................. CYCLE    9 ..............................
........................................................................

 iter      E             dE          RMSdq      gap      omega  full diag
   1   -180.3845835 -0.180385E+03  0.208E-01    0.64       0.0  T
   2   -180.3846648 -0.812803E-04  0.105E-01    0.59       1.0  T
   3   -180.3845793  0.854695E-04  0.794E-02    0.64       1.0  T
   4   -180.3846939 -0.114531E-03  0.530E-02    0.60       1.0  T
   5   -180.3847711 -0.772828E-04  0.273E-02    0.62       1.0  T
   6   -180.3847623  0.881671E-05  0.213E-02    0.61       1.0  T
   7   -180.3847796 -0.173237E-04  0.126E-02    0.61       1.0  T
   8   -180.3847875 -0.790296E-05  0.386E-03    0.61       2.7  T
   9   -180.3847876 -0.868454E-08  0.286E-03    0.61       3.7  T
  10   -180.3847875  0.328346E-07  0.227E-03    0.61       4.6  T
  11   -180.3847877 -0.175695E-06  0.124E-03    0.61       8.5  T
  12   -180.3847878 -0.596696E-07  0.707E-04    0.61      14.9  T
  13   -180.3847878 -0.485809E-08  0.516E-04    0.61      20.4  T
     SCC iter.                  ...        0 min,  0.270 sec
     gradient                   ...        0 min,  0.045 sec
 * total energy  :  -178.6314350 Eh     change       -0.1767271E-02 Eh
   gradient norm :     0.0189382 Eh/α   predicted    -0.1535796E-02 ( -13.10%)
   displ. norm   :     0.4940888 α      lambda       -0.3420715E-02
   maximum displ.:     0.1921779 α      in ANC's #6, #18, #60, ...

........................................................................
.............................. CYCLE   10 ..............................
........................................................................

 iter      E             dE          RMSdq      gap      omega  full diag
   1   -180.3878014 -0.180388E+03  0.196E-01    0.60       0.0  T
   2   -180.3879210 -0.119612E-03  0.937E-02    0.59       1.0  T
   3   -180.3876909  0.230047E-03  0.804E-02    0.60       1.0  T
   4   -180.3878228 -0.131915E-03  0.579E-02    0.60       1.0  T
   5   -180.3879953 -0.172426E-03  0.285E-02    0.60       1.0  T
   6   -180.3880058 -0.105700E-04  0.198E-02    0.59       1.0  T
   7   -180.3880197 -0.138469E-04  0.834E-03    0.60       1.3  T
   8   -180.3880207 -0.101246E-05  0.462E-03    0.60       2.3  T
   9   -180.3880205  0.188256E-06  0.384E-03    0.60       2.7  T
  10   -180.3880210 -0.460198E-06  0.231E-03    0.60       4.6  T
  11   -180.3880211 -0.105207E-06  0.117E-03    0.60       9.0  T
  12   -180.3880211 -0.134289E-07  0.800E-04    0.60      13.2  T
  13   -180.3880211 -0.604774E-08  0.570E-04    0.60      18.5  T
     SCC iter.                  ...        0 min,  0.264 sec
     gradient                   ...        0 min,  0.046 sec
 * total energy  :  -178.6337179 Eh     change       -0.2282861E-02 Eh
   gradient norm :     0.0278184 Eh/α   predicted    -0.2127899E-02 (  -6.79%)
   displ. norm   :     0.4483192 α      lambda       -0.3256219E-02
   maximum displ.:     0.1982323 α      in ANC's #6, #18, #7, ...

........................................................................
.............................. CYCLE   11 ..............................
........................................................................

 iter      E             dE          RMSdq      gap      omega  full diag
   1   -180.3914265 -0.180391E+03  0.178E-01    0.57       0.0  T
   2   -180.3915032 -0.767479E-04  0.674E-02    0.58       1.0  T
   3   -180.3914356  0.676823E-04  0.530E-02    0.57       1.0  T
   4   -180.3914740 -0.384158E-04  0.378E-02    0.58       1.0  T
   5   -180.3915133 -0.393320E-04  0.228E-02    0.58       1.0  T
   6   -180.3915301 -0.168250E-04  0.175E-02    0.57       1.0  T
   7   -180.3915418 -0.116361E-04  0.638E-03    0.58       1.7  T
   8   -180.3915423 -0.548288E-06  0.416E-03    0.58       2.5  T
   9   -180.3915425 -0.142351E-06  0.281E-03    0.58       3.8  T
  10   -180.3915425 -0.648958E-07  0.218E-03    0.58       4.8  T
  11   -180.3915427 -0.132049E-06  0.130E-03    0.58       8.1  T
  12   -180.3915427 -0.302232E-07  0.843E-04    0.58      12.5  T
  13   -180.3915427 -0.119172E-07  0.592E-04    0.58      17.8  T
     SCC iter.                  ...        0 min,  0.267 sec
     gradient                   ...        0 min,  0.045 sec
 * total energy  :  -178.6360888 Eh     change       -0.2370891E-02 Eh
   gradient norm :     0.0234894 Eh/α   predicted    -0.1955349E-02 ( -17.53%)
   displ. norm   :     0.4761420 α      lambda       -0.3330955E-02
   maximum displ.:     0.2166742 α      in ANC's #6, #7, #12, ...

........................................................................
.............................. CYCLE   12 ..............................
........................................................................

 iter      E             dE          RMSdq      gap      omega  full diag
   1   -180.3933713 -0.180393E+03  0.231E-01    0.60       0.0  T
   2   -180.3935288 -0.157465E-03  0.110E-01    0.61       1.0  T
   3   -180.3935337 -0.491447E-05  0.697E-02    0.62       1.0  T
   4   -180.3935580 -0.243339E-04  0.480E-02    0.60       1.0  T
   5   -180.3936416 -0.835502E-04  0.258E-02    0.61       1.0  T
   6   -180.3936510 -0.948117E-05  0.167E-02    0.61       1.0  T
   7   -180.3936579 -0.685675E-05  0.134E-02    0.61       1.0  T
   8   -180.3936653 -0.739543E-05  0.469E-03    0.61       2.2  T
   9   -180.3936658 -0.504131E-06  0.298E-03    0.61       3.5  T
  10   -180.3936658  0.250799E-07  0.222E-03    0.61       4.8  T
  11   -180.3936659 -0.148870E-06  0.123E-03    0.61       8.6  T
  12   -180.3936660 -0.326613E-07  0.719E-04    0.61      14.7  T
  13   -180.3936660 -0.914213E-08  0.564E-04    0.61      18.7  T
     SCC iter.                  ...        0 min,  0.291 sec
     gradient                   ...        0 min,  0.045 sec
 * total energy  :  -178.6381058 Eh     change       -0.2016992E-02 Eh
   gradient norm :     0.0172221 Eh/α   predicted    -0.2043068E-02 (   1.29%)
   displ. norm   :     0.5111963 α      lambda       -0.2319822E-02
   maximum displ.:     0.2487136 α      in ANC's #6, #7, #12, ...

........................................................................
.............................. CYCLE   13 ..............................
........................................................................

 iter      E             dE          RMSdq      gap      omega  full diag
   1   -180.3914929 -0.180391E+03  0.225E-01    0.58       0.0  T
   2   -180.3915354 -0.424612E-04  0.800E-02    0.60       1.0  T
   3   -180.3912125  0.322831E-03  0.989E-02    0.56       1.0  T
   4   -180.3915935 -0.380990E-03  0.408E-02    0.60       1.0  T
   5   -180.3916193 -0.257800E-04  0.291E-02    0.59       1.0  T
   6   -180.3916461 -0.267812E-04  0.136E-02    0.59       1.0  T
   7   -180.3916555 -0.937309E-05  0.659E-03    0.59       1.6  T
   8   -180.3916570 -0.155425E-05  0.363E-03    0.59       2.9  T
   9   -180.3916572 -0.153589E-06  0.244E-03    0.59       4.3  T
  10   -180.3916572 -0.292808E-07  0.182E-03    0.59       5.8  T
  11   -180.3916573 -0.866350E-07  0.105E-03    0.59      10.0  T
  12   -180.3916573 -0.216868E-07  0.710E-04    0.59      14.9  T
  13   -180.3916573 -0.881258E-08  0.530E-04    0.59      19.9  T
     SCC iter.                  ...        0 min,  0.297 sec
     gradient                   ...        0 min,  0.046 sec
 * total energy  :  -178.6396190 Eh     change       -0.1513258E-02 Eh
   gradient norm :     0.0192856 Eh/α   predicted    -0.1463025E-02 (  -3.32%)
   displ. norm   :     0.4388524 α      lambda       -0.2244619E-02
   maximum displ.:     0.2326142 α      in ANC's #6, #7, #12, ...

........................................................................
.............................. CYCLE   14 ..............................
........................................................................

 iter      E             dE          RMSdq      gap      omega  full diag
   1   -180.3987337 -0.180399E+03  0.147E-01    0.62       0.0  T
   2   -180.3987768 -0.430514E-04  0.739E-02    0.58       1.0  T
   3   -180.3987142  0.625963E-04  0.604E-02    0.62       1.0  T
   4   -180.3987656 -0.513822E-04  0.422E-02    0.58       1.0  T
   5   -180.3988169 -0.513190E-04  0.212E-02    0.59       1.0  T
   6   -180.3988206 -0.373795E-05  0.149E-02    0.59       1.0  T
   7   -180.3988313 -0.107069E-04  0.633E-03    0.59       1.7  T
   8   -180.3988328 -0.152862E-05  0.307E-03    0.59       3.4  T
   9   -180.3988331 -0.273220E-06  0.195E-03    0.59       5.4  T
  10   -180.3988332 -0.864306E-07  0.126E-03    0.59       8.3  T
  11   -180.3988332 -0.252140E-07  0.887E-04    0.59      11.9  T
  12   -180.3988333 -0.334847E-07  0.447E-04    0.59      23.6  T
     SCC iter.                  ...        0 min,  0.248 sec
     gradient                   ...        0 min,  0.045 sec
 * total energy  :  -178.6407745 Eh     change       -0.1155465E-02 Eh
   gradient norm :     0.0183647 Eh/α   predicted    -0.1338459E-02 (  15.84%)
   displ. norm   :     0.6166932 α      lambda       -0.2586640E-02
   maximum displ.:     0.3249175 α      in ANC's #6, #7, #12, ...

........................................................................
.............................. CYCLE   15 ..............................
........................................................................

 iter      E             dE          RMSdq      gap      omega  full diag
   1   -180.3930154 -0.180393E+03  0.265E-01    0.66       0.0  T
   2   -180.3929563  0.590859E-04  0.123E-01    0.57       1.0  T
   3   -180.3925992  0.357093E-03  0.134E-01    0.66       1.0  T
   4   -180.3932435 -0.644238E-03  0.530E-02    0.60       1.0  T
   5   -180.3932918 -0.483771E-04  0.345E-02    0.61       1.0  T
   6   -180.3933262 -0.343568E-04  0.177E-02    0.61       1.0  T
   7   -180.3933426 -0.164156E-04  0.788E-03    0.61       1.3  T
   8   -180.3933447 -0.207684E-05  0.438E-03    0.61       2.4  T
   9   -180.3933453 -0.581072E-06  0.293E-03    0.61       3.6  T
  10   -180.3933454 -0.131317E-06  0.187E-03    0.61       5.6  T
  11   -180.3933454  0.171547E-07  0.134E-03    0.61       7.8  T
  12   -180.3933455 -0.721113E-07  0.665E-04    0.61      15.9  T
  13   -180.3933455 -0.124004E-07  0.388E-04    0.61      27.2  T
     SCC iter.                  ...        0 min,  0.263 sec
     gradient                   ...        0 min,  0.047 sec
 * total energy  :  -178.6411088 Eh     change       -0.3343338E-03 Eh
   gradient norm :     0.0313922 Eh/α   predicted    -0.1785190E-02 ( 433.95%)
   displ. norm   :     0.1615582 α      lambda       -0.1928833E-02
   maximum displ.:     0.0663455 α      in ANC's #18, #60, #65, ...

........................................................................
.............................. CYCLE   16 ..............................
........................................................................

 iter      E             dE          RMSdq      gap      omega  full diag
   1   -180.4003652 -0.180400E+03  0.142E-01    0.58       0.0  T
   2   -180.4003614  0.380036E-05  0.560E-02    0.62       1.0  T
   3   -180.4002868  0.745740E-04  0.605E-02    0.58       1.0  T
   4   -180.4004122 -0.125386E-03  0.262E-02    0.61       1.0  T
   5   -180.4004283 -0.161243E-04  0.153E-02    0.60       1.0  T
   6   -180.4004297 -0.134599E-05  0.108E-02    0.60       1.0  T
   7   -180.4004361 -0.640269E-05  0.457E-03    0.60       2.3  T
   8   -180.4004365 -0.426901E-06  0.270E-03    0.60       3.9  T
   9   -180.4004367 -0.221879E-06  0.183E-03    0.60       5.8  T
  10   -180.4004368 -0.321878E-07  0.126E-03    0.60       8.4  T
  11   -180.4004368 -0.814674E-08  0.926E-04    0.60      11.4  T
  12   -180.4004368 -0.336169E-07  0.498E-04    0.60      21.2  T
     SCC iter.                  ...        0 min,  0.245 sec
     gradient                   ...        0 min,  0.045 sec
 * total energy  :  -178.6423168 Eh     change       -0.1207941E-02 Eh
   gradient norm :     0.0104604 Eh/α   predicted    -0.9895878E-03 ( -18.08%)
   displ. norm   :     0.3250362 α      lambda       -0.9844815E-03
   maximum displ.:     0.1886295 α      in ANC's #6, #7, #37, ...

........................................................................
.............................. CYCLE   17 ..............................
........................................................................

 iter      E             dE          RMSdq      gap      omega  full diag
   1   -180.4051253 -0.180405E+03  0.890E-02    0.59       0.0  T
   2   -180.4051320 -0.666004E-05  0.342E-02    0.60       1.0  T
   3   -180.4051098  0.221826E-04  0.251E-02    0.60       1.0  T
   4   -180.4051129 -0.313486E-05  0.212E-02    0.60       1.0  T
   5   -180.4051337 -0.208116E-04  0.107E-02    0.60       1.0  T
   6   -180.4051363 -0.261700E-05  0.587E-03    0.60       1.8  T
   7   -180.4051383 -0.193235E-05  0.231E-03    0.60       4.6  T
   8   -180.4051384 -0.899316E-07  0.153E-03    0.60       6.9  T
   9   -180.4051384 -0.110023E-07  0.125E-03    0.60       8.4  T
  10   -180.4051384 -0.115676E-07  0.900E-04    0.60      11.7  T
  11   -180.4051384 -0.150438E-07  0.563E-04    0.60      18.7  T
     SCC iter.                  ...        0 min,  0.243 sec
     gradient                   ...        0 min,  0.046 sec
 * total energy  :  -178.6431146 Eh     change       -0.7977911E-03 Eh
   gradient norm :     0.0085828 Eh/α   predicted    -0.5442513E-03 ( -31.78%)
   displ. norm   :     0.6278096 α      lambda       -0.1531855E-02
   maximum displ.:     0.3659303 α      in ANC's #6, #7, #18, ...

........................................................................
.............................. CYCLE   18 ..............................
........................................................................

 iter      E             dE          RMSdq      gap      omega  full diag
   1   -180.4082031 -0.180408E+03  0.151E-01    0.61       0.0  T
   2   -180.4081730  0.300959E-04  0.718E-02    0.59       1.0  T
   3   -180.4078091  0.363940E-03  0.958E-02    0.63       1.0  T
   4   -180.4082241 -0.414987E-03  0.257E-02    0.60       1.0  T
   5   -180.4081962  0.278495E-04  0.277E-02    0.60       1.0  T
   6   -180.4082428 -0.466107E-04  0.588E-03    0.60       1.8  T
   7   -180.4082438 -0.993809E-06  0.356E-03    0.60       3.0  T
   8   -180.4082441 -0.304637E-06  0.233E-03    0.60       4.5  T
   9   -180.4082442 -0.448555E-07  0.189E-03    0.60       5.6  T
  10   -180.4082442 -0.125223E-07  0.148E-03    0.60       7.1  T
  11   -180.4082442 -0.534284E-07  0.971E-04    0.60      10.9  T
  12   -180.4082443 -0.276476E-07  0.644E-04    0.60      16.4  T
     SCC iter.                  ...        0 min,  0.237 sec
     gradient                   ...        0 min,  0.046 sec
 * total energy  :  -178.6443271 Eh     change       -0.1212552E-02 Eh
   gradient norm :     0.0104673 Eh/α   predicted    -0.1067836E-02 ( -11.93%)
   displ. norm   :     0.7117906 α      lambda       -0.1469407E-02
   maximum displ.:     0.4251707 α      in ANC's #6, #7, #18, ...

........................................................................
.............................. CYCLE   19 ..............................
........................................................................

 iter      E             dE          RMSdq      gap      omega  full diag
   1   -180.4077592 -0.180408E+03  0.150E-01    0.62       0.0  T
   2   -180.4077325  0.266701E-04  0.757E-02    0.59       1.0  T
   3   -180.4074322  0.300260E-03  0.914E-02    0.63       1.0  T
   4   -180.4077763 -0.344046E-03  0.318E-02    0.60       1.0  T
   5   -180.4077720  0.426177E-05  0.267E-02    0.60       1.0  T
   6   -180.4078080 -0.359459E-04  0.872E-03    0.60       1.2  T
   7   -180.4078111 -0.315758E-05  0.395E-03    0.60       2.7  T
   8   -180.4078115 -0.411725E-06  0.262E-03    0.60       4.0  T
   9   -180.4078117 -0.135543E-06  0.193E-03    0.60       5.5  T
  10   -180.4078117 -0.163337E-07  0.147E-03    0.60       7.2  T
  11   -180.4078117 -0.468994E-07  0.101E-03    0.60      10.5  T
  12   -180.4078118 -0.323175E-07  0.622E-04    0.60      17.0  T
  13   -180.4078118  0.274923E-08  0.553E-04    0.60      19.1  T
     SCC iter.                  ...        0 min,  0.261 sec
     gradient                   ...        0 min,  0.045 sec
 * total energy  :  -178.6452809 Eh     change       -0.9537913E-03 Eh
   gradient norm :     0.0189009 Eh/α   predicted    -0.1106962E-02 (  16.06%)
   displ. norm   :     0.4936479 α      lambda       -0.1062550E-02
   maximum displ.:     0.2921687 α      in ANC's #6, #18, #7, ...

........................................................................
.............................. CYCLE   20 ..............................
........................................................................

 iter      E             dE          RMSdq      gap      omega  full diag
   1   -180.4084200 -0.180408E+03  0.116E-01    0.62       0.0  T
   2   -180.4084185  0.144548E-05  0.575E-02    0.59       1.0  T
   3   -180.4083498  0.686990E-04  0.546E-02    0.62       1.0  T
   4   -180.4084354 -0.855794E-04  0.289E-02    0.60       1.0  T
   5   -180.4084538 -0.183582E-04  0.165E-02    0.60       1.0  T
   6   -180.4084589 -0.516038E-05  0.102E-02    0.61       1.0  T
   7   -180.4084646 -0.570245E-05  0.363E-03    0.61       2.9  T
   8   -180.4084650 -0.404744E-06  0.224E-03    0.61       4.7  T
   9   -180.4084651 -0.825202E-07  0.161E-03    0.61       6.6  T
  10   -180.4084651 -0.318815E-07  0.108E-03    0.61       9.7  T
  11   -180.4084652 -0.370433E-07  0.663E-04    0.61      15.9  T
  12   -180.4084652 -0.151354E-07  0.359E-04    0.61      29.4  T
     SCC iter.                  ...        0 min,  0.238 sec
     gradient                   ...        0 min,  0.044 sec
 * total energy  :  -178.6460942 Eh     change       -0.8132759E-03 Eh
   gradient norm :     0.0120836 Eh/α   predicted    -0.6607433E-03 ( -18.76%)
   displ. norm   :     0.6264004 α      lambda       -0.1162837E-02
   maximum displ.:     0.4168011 α      in ANC's #6, #7, #18, ...
 * RMSD in coord.:     0.6539885 α      energy gain  -0.4498387E-01 Eh

generating ANC from exact Hessian ...
Using Lindh-Hessian (1995)
 Shifting diagonal of input Hessian by   1.745417070917164E-002
 Lowest  eigenvalues of input Hessian
    0.010000    0.016809    0.016925    0.016959    0.000000    0.000000
    0.000000    0.000000    0.000000    0.000000    0.017483    0.017509
    0.017541    0.017733    0.017773    0.017960    0.018151    0.018265
 Highest eigenvalues
    2.182101    2.243409    2.260794    2.270022    2.281552    2.318586
 

........................................................................
.............................. CYCLE   21 ..............................
........................................................................

 iter      E             dE          RMSdq      gap      omega  full diag
   1   -180.4071129 -0.180407E+03  0.131E-01    0.60       0.0  T
   2   -180.4071154 -0.248869E-05  0.547E-02    0.60       1.0  T
   3   -180.4070037  0.111639E-03  0.529E-02    0.61       1.0  T
   4   -180.4070740 -0.702582E-04  0.362E-02    0.60       1.0  T
   5   -180.4071413 -0.672806E-04  0.145E-02    0.60       1.0  T
   6   -180.4071413 -0.647590E-07  0.984E-03    0.60       1.1  T
   7   -180.4071474 -0.604446E-05  0.348E-03    0.60       3.0  T
   8   -180.4071476 -0.174787E-06  0.220E-03    0.60       4.8  T
   9   -180.4071476 -0.230953E-07  0.157E-03    0.60       6.7  T
  10   -180.4071476 -0.199746E-07  0.108E-03    0.60       9.7  T
  11   -180.4071476 -0.451312E-07  0.562E-04    0.60      18.8  T
  12   -180.4071476 -0.479596E-08  0.370E-04    0.60      28.5  T
     SCC iter.                  ...        0 min,  0.244 sec
     gradient                   ...        0 min,  0.045 sec
 * total energy  :  -178.6470566 Eh     change       -0.9624670E-03 Eh
   gradient norm :     0.0115350 Eh/α   predicted     0.0000000E+00 (-100.00%)
   displ. norm   :     0.1495270 α      lambda       -0.6204604E-03
   maximum displ.:     0.0716245 α      in ANC's #1, #7, #56, ...

........................................................................
.............................. CYCLE   22 ..............................
........................................................................

 iter      E             dE          RMSdq      gap      omega  full diag
   1   -180.4092390 -0.180409E+03  0.123E-01    0.59       0.0  T
   2   -180.4092690 -0.300041E-04  0.720E-02    0.62       1.0  T
   3   -180.4092279  0.410798E-04  0.514E-02    0.59       1.0  T
   4   -180.4092259  0.207044E-05  0.474E-02    0.62       1.0  T
   5   -180.4093322 -0.106372E-03  0.161E-02    0.61       1.0  T
   6   -180.4093293  0.295119E-05  0.128E-02    0.60       1.0  T
   7   -180.4093355 -0.617402E-05  0.687E-03    0.61       1.5  T
   8   -180.4093372 -0.170699E-05  0.271E-03    0.61       3.9  T
   9   -180.4093372  0.816721E-08  0.209E-03    0.61       5.0  T
  10   -180.4093373 -0.126134E-06  0.137E-03    0.61       7.7  T
  11   -180.4093373 -0.318625E-07  0.745E-04    0.61      14.1  T
  12   -180.4093373 -0.128322E-07  0.404E-04    0.61      26.1  T
     SCC iter.                  ...        0 min,  0.236 sec
     gradient                   ...        0 min,  0.045 sec
 * total energy  :  -178.6473170 Eh     change       -0.2603440E-03 Eh
   gradient norm :     0.0094034 Eh/α   predicted    -0.3171685E-03 (  21.83%)
   displ. norm   :     0.4483222 α      lambda       -0.1882320E-02
   maximum displ.:     0.2277490 α      in ANC's #7, #56, #6, ...

........................................................................
.............................. CYCLE   23 ..............................
........................................................................

 iter      E             dE          RMSdq      gap      omega  full diag
   1   -180.4167132 -0.180417E+03  0.233E-01    0.60       0.0  T
   2   -180.4167739 -0.607109E-04  0.958E-02    0.61       1.0  T
   3   -180.4165964  0.177510E-03  0.837E-02    0.59       1.0  T
   4   -180.4166801 -0.837159E-04  0.616E-02    0.61       1.0  T
   5   -180.4168108 -0.130709E-03  0.341E-02    0.60       1.0  T
   6   -180.4168266 -0.157964E-04  0.197E-02    0.60       1.0  T
   7   -180.4168452 -0.185634E-04  0.101E-02    0.61       1.0  T
   8   -180.4168474 -0.218256E-05  0.555E-03    0.60       1.9  T
   9   -180.4168475 -0.999806E-07  0.405E-03    0.60       2.6  T
  10   -180.4168475 -0.562269E-07  0.296E-03    0.60       3.6  T
  11   -180.4168478 -0.315413E-06  0.169E-03    0.60       6.2  T
  12   -180.4168479 -0.450594E-07  0.104E-03    0.60      10.1  T
  13   -180.4168479  0.496297E-08  0.912E-04    0.60      11.6  T
  14   -180.4168479 -0.161675E-07  0.518E-04    0.60      20.4  T
     SCC iter.                  ...        0 min,  0.283 sec
     gradient                   ...        0 min,  0.045 sec
 * total energy  :  -178.6480009 Eh     change       -0.6838811E-03 Eh
   gradient norm :     0.0161585 Eh/α   predicted    -0.1130336E-02 (  65.28%)
   displ. norm   :     0.2643263 α      lambda       -0.1218065E-02
   maximum displ.:     0.1345375 α      in ANC's #7, #27, #6, ...

........................................................................
.............................. CYCLE   24 ..............................
........................................................................

 iter      E             dE          RMSdq      gap      omega  full diag
   1   -180.4152403 -0.180415E+03  0.232E-01    0.60       0.0  T
   2   -180.4151032  0.137096E-03  0.875E-02    0.58       1.0  T
   3   -180.4141543  0.948917E-03  0.145E-01    0.62       1.0  T
   4   -180.4153104 -0.115612E-02  0.320E-02    0.60       1.0  T
   5   -180.4152806  0.298556E-04  0.310E-02    0.59       1.0  T
   6   -180.4153147 -0.341553E-04  0.156E-02    0.60       1.0  T
   7   -180.4153213 -0.656695E-05  0.777E-03    0.59       1.4  T
   8   -180.4153225 -0.119019E-05  0.366E-03    0.59       2.9  T
   9   -180.4153225  0.318729E-07  0.293E-03    0.60       3.6  T
  10   -180.4153227 -0.238435E-06  0.201E-03    0.59       5.3  T
  11   -180.4153228 -0.923242E-07  0.119E-03    0.60       8.8  T
  12   -180.4153228 -0.113501E-07  0.778E-04    0.59      13.5  T
  13   -180.4153228 -0.167736E-08  0.660E-04    0.60      16.0  T
     SCC iter.                  ...        0 min,  0.270 sec
     gradient                   ...        0 min,  0.046 sec
 * total energy  :  -178.6484793 Eh     change       -0.4784046E-03 Eh
   gradient norm :     0.0161208 Eh/α   predicted    -0.6515855E-03 (  36.20%)
   displ. norm   :     0.1999447 α      lambda       -0.1052617E-02
   maximum displ.:     0.1212821 α      in ANC's #7, #6, #9, ...

........................................................................
.............................. CYCLE   25 ..............................
........................................................................

 iter      E             dE          RMSdq      gap      omega  full diag
   1   -180.4100432 -0.180410E+03  0.106E-01    0.60       0.0  T
   2   -180.4100687 -0.255259E-04  0.486E-02    0.61       1.0  T
   3   -180.4100647  0.401014E-05  0.288E-02    0.60       1.0  T
   4   -180.4100552  0.947177E-05  0.250E-02    0.61       1.0  T
   5   -180.4100817 -0.264460E-04  0.158E-02    0.61       1.0  T
   6   -180.4100887 -0.703350E-05  0.943E-03    0.60       1.1  T
   7   -180.4100910 -0.231277E-05  0.520E-03    0.61       2.0  T
   8   -180.4100916 -0.630280E-06  0.218E-03    0.60       4.8  T
   9   -180.4100915  0.103842E-06  0.188E-03    0.60       5.6  T
  10   -180.4100917 -0.156077E-06  0.101E-03    0.60      10.4  T
  11   -180.4100917 -0.177621E-07  0.555E-04    0.60      19.0  T
  12   -180.4100917 -0.495629E-08  0.339E-04    0.60      31.1  T
     SCC iter.                  ...        0 min,  0.255 sec
     gradient                   ...        0 min,  0.052 sec
 * total energy  :  -178.6490815 Eh     change       -0.6021916E-03 Eh
   gradient norm :     0.0092851 Eh/α   predicted    -0.5473508E-03 (  -9.11%)
   displ. norm   :     0.3836822 α      lambda       -0.9055376E-03
   maximum displ.:     0.2509738 α      in ANC's #7, #6, #9, ...

........................................................................
.............................. CYCLE   26 ..............................
........................................................................

 iter      E             dE          RMSdq      gap      omega  full diag
   1   -180.4057359 -0.180406E+03  0.125E-01    0.58       0.0  T
   2   -180.4056891  0.468547E-04  0.611E-02    0.61       1.0  T
   3   -180.4056285  0.605629E-04  0.641E-02    0.57       1.0  T
   4   -180.4057827 -0.154166E-03  0.225E-02    0.60       1.0  T
   5   -180.4057784  0.428307E-05  0.218E-02    0.59       1.0  T
   6   -180.4057975 -0.191239E-04  0.786E-03    0.59       1.3  T
   7   -180.4057980 -0.525556E-06  0.588E-03    0.59       1.8  T
   8   -180.4057998 -0.178220E-05  0.230E-03    0.59       4.6  T
   9   -180.4057998 -0.406891E-07  0.160E-03    0.59       6.6  T
  10   -180.4057999 -0.192395E-07  0.111E-03    0.59       9.5  T
  11   -180.4057999 -0.410123E-07  0.605E-04    0.59      17.4  T
  12   -180.4057999 -0.618536E-08  0.405E-04    0.59      26.0  T
     SCC iter.                  ...        0 min,  0.417 sec
     gradient                   ...        0 min,  0.047 sec
 * total energy  :  -178.6497096 Eh     change       -0.6281060E-03 Eh
   gradient norm :     0.0098012 Eh/α   predicted    -0.5194263E-03 ( -17.30%)
   displ. norm   :     0.6174491 α      lambda       -0.1148921E-02
   maximum displ.:     0.4127392 α      in ANC's #7, #6, #9, ...

........................................................................
.............................. CYCLE   27 ..............................
........................................................................

 iter      E             dE          RMSdq      gap      omega  full diag
   1   -180.4026838 -0.180403E+03  0.140E-01    0.61       0.0  T
   2   -180.4027031 -0.192130E-04  0.522E-02    0.59       1.0  T
   3   -180.4026716  0.314564E-04  0.398E-02    0.61       1.0  T
   4   -180.4026583  0.133016E-04  0.364E-02    0.59       1.0  T
   5   -180.4027141 -0.558435E-04  0.158E-02    0.60       1.0  T
   6   -180.4027135  0.600616E-06  0.117E-02    0.60       1.0  T
   7   -180.4027190 -0.545134E-05  0.544E-03    0.60       1.9  T
   8   -180.4027190 -0.517058E-07  0.376E-03    0.60       2.8  T
   9   -180.4027193 -0.276967E-06  0.250E-03    0.60       4.2  T
  10   -180.4027195 -0.139409E-06  0.165E-03    0.60       6.4  T
  11   -180.4027196 -0.972900E-07  0.905E-04    0.60      11.6  T
  12   -180.4027196 -0.283927E-07  0.506E-04    0.60      20.8  T
     SCC iter.                  ...        0 min,  0.296 sec
     gradient                   ...        0 min,  0.047 sec
 * total energy  :  -178.6506481 Eh     change       -0.9385044E-03 Eh
   gradient norm :     0.0141065 Eh/α   predicted    -0.7934726E-03 ( -15.45%)
   displ. norm   :     0.7107076 α      lambda       -0.1369311E-02
   maximum displ.:     0.4840940 α      in ANC's #7, #6, #9, ...

........................................................................
.............................. CYCLE   28 ..............................
........................................................................

 iter      E             dE          RMSdq      gap      omega  full diag
   1   -180.4031707 -0.180403E+03  0.141E-01    0.60       0.0  T
   2   -180.4030895  0.811718E-04  0.668E-02    0.58       1.0  T
   3   -180.4026163  0.473159E-03  0.103E-01    0.61       1.0  T
   4   -180.4032145 -0.598141E-03  0.245E-02    0.59       1.0  T
   5   -180.4032242 -0.976071E-05  0.137E-02    0.59       1.0  T
   6   -180.4032232  0.105482E-05  0.859E-03    0.60       1.2  T
   7   -180.4032259 -0.276022E-05  0.554E-03    0.59       1.9  T
   8   -180.4032268 -0.897406E-06  0.290E-03    0.60       3.6  T
   9   -180.4032268  0.419530E-08  0.213E-03    0.60       5.0  T
  10   -180.4032268 -0.141992E-07  0.150E-03    0.60       7.0  T
  11   -180.4032269 -0.830539E-07  0.923E-04    0.60      11.4  T
  12   -180.4032269 -0.174717E-07  0.615E-04    0.60      17.1  T
     SCC iter.                  ...        0 min,  0.332 sec
     gradient                   ...        0 min,  0.046 sec
 * total energy  :  -178.6518388 Eh     change       -0.1190765E-02 Eh
   gradient norm :     0.0172825 Eh/α   predicted    -0.1030482E-02 ( -13.46%)
   displ. norm   :     0.7127438 α      lambda       -0.1702888E-02
   maximum displ.:     0.4936136 α      in ANC's #7, #6, #9, ...

........................................................................
.............................. CYCLE   29 ..............................
........................................................................

 iter      E             dE          RMSdq      gap      omega  full diag
   1   -180.4113439 -0.180411E+03  0.165E-01    0.61       0.0  T
   2   -180.4112616  0.823054E-04  0.675E-02    0.59       1.0  T
   3   -180.4107101  0.551459E-03  0.110E-01    0.63       1.0  T
   4   -180.4113816 -0.671502E-03  0.226E-02    0.60       1.0  T
   5   -180.4113794  0.222315E-05  0.189E-02    0.59       1.0  T
   6   -180.4113886 -0.916562E-05  0.997E-03    0.60       1.1  T
   7   -180.4113931 -0.454362E-05  0.466E-03    0.60       2.3  T
   8   -180.4113933 -0.126159E-06  0.291E-03    0.60       3.6  T
   9   -180.4113933 -0.694596E-07  0.227E-03    0.60       4.6  T
  10   -180.4113934 -0.599097E-07  0.179E-03    0.60       5.9  T
  11   -180.4113935 -0.966840E-07  0.108E-03    0.60       9.8  T
  12   -180.4113935 -0.126374E-07  0.805E-04    0.60      13.1  T
  13   -180.4113935  0.101224E-07  0.717E-04    0.60      14.7  T
     SCC iter.                  ...        0 min,  0.268 sec
     gradient                   ...        0 min,  0.045 sec
 * total energy  :  -178.6532606 Eh     change       -0.1421814E-02 Eh
   gradient norm :     0.0151162 Eh/α   predicted    -0.1283995E-02 (  -9.69%)
   displ. norm   :     0.7974296 α      lambda       -0.1649934E-02
   maximum displ.:     0.5529038 α      in ANC's #7, #6, #9, ...

........................................................................
.............................. CYCLE   30 ..............................
........................................................................

 iter      E             dE          RMSdq      gap      omega  full diag
   1   -180.4131597 -0.180413E+03  0.165E-01    0.60       0.0  T
   2   -180.4131587  0.105632E-05  0.580E-02    0.59       1.0  T
   3   -180.4129260  0.232618E-03  0.712E-02    0.61       1.0  T
   4   -180.4131657 -0.239621E-03  0.298E-02    0.59       1.0  T
   5   -180.4131991 -0.334068E-04  0.133E-02    0.59       1.0  T
   6   -180.4131985  0.577694E-06  0.952E-03    0.60       1.1  T
   7   -180.4132027 -0.422539E-05  0.502E-03    0.59       2.1  T
   8   -180.4132033 -0.611599E-06  0.281E-03    0.59       3.7  T
   9   -180.4132033 -0.125609E-07  0.215E-03    0.59       4.9  T
  10   -180.4132034 -0.278484E-07  0.171E-03    0.59       6.2  T
  11   -180.4132035 -0.928476E-07  0.102E-03    0.59      10.3  T
  12   -180.4132035 -0.952326E-08  0.764E-04    0.59      13.8  T
  13   -180.4132035  0.540055E-08  0.646E-04    0.59      16.3  T
     SCC iter.                  ...        0 min,  0.265 sec
     gradient                   ...        0 min,  0.045 sec
 * total energy  :  -178.6547353 Eh     change       -0.1474642E-02 Eh
   gradient norm :     0.0128104 Eh/α   predicted    -0.1349565E-02 (  -8.48%)
   displ. norm   :     0.7914771 α      lambda       -0.1899453E-02
   maximum displ.:     0.5350666 α      in ANC's #7, #6, #5, ...

........................................................................
.............................. CYCLE   31 ..............................
........................................................................

 iter      E             dE          RMSdq      gap      omega  full diag
   1   -180.4186835 -0.180419E+03  0.185E-01    0.60       0.0  T
   2   -180.4186747  0.879572E-05  0.679E-02    0.59       1.0  T
   3   -180.4183263  0.348363E-03  0.871E-02    0.62       1.0  T
   4   -180.4186991 -0.372821E-03  0.321E-02    0.59       1.0  T
   5   -180.4187257 -0.265818E-04  0.162E-02    0.60       1.0  T
   6   -180.4187310 -0.530403E-05  0.115E-02    0.60       1.0  T
   7   -180.4187369 -0.591466E-05  0.586E-03    0.60       1.8  T
   8   -180.4187374 -0.455056E-06  0.394E-03    0.60       2.7  T
   9   -180.4187375 -0.810871E-07  0.305E-03    0.60       3.5  T
  10   -180.4187375  0.912851E-08  0.222E-03    0.60       4.7  T
  11   -180.4187375 -0.803952E-07  0.171E-03    0.60       6.2  T
  12   -180.4187376 -0.897221E-07  0.109E-03    0.60       9.7  T
  13   -180.4187376 -0.650860E-08  0.677E-04    0.60      15.6  T
  14   -180.4187376 -0.771954E-08  0.439E-04    0.60      24.0  T
     SCC iter.                  ...        0 min,  0.294 sec
     gradient                   ...        0 min,  0.045 sec
 * total energy  :  -178.6563474 Eh     change       -0.1612144E-02 Eh
   gradient norm :     0.0149830 Eh/α   predicted    -0.1544673E-02 (  -4.19%)
   displ. norm   :     0.8858777 α      lambda       -0.1901538E-02
   maximum displ.:     0.6073258 α      in ANC's #7, #6, #5, ...

........................................................................
.............................. CYCLE   32 ..............................
........................................................................

 iter      E             dE          RMSdq      gap      omega  full diag
   1   -180.4139531 -0.180414E+03  0.177E-01    0.61       0.0  T
   2   -180.4139667 -0.135625E-04  0.636E-02    0.60       1.0  T
   3   -180.4137761  0.190539E-03  0.674E-02    0.62       1.0  T
   4   -180.4139444 -0.168282E-03  0.384E-02    0.60       1.0  T
   5   -180.4139985 -0.541177E-04  0.168E-02    0.60       1.0  T
   6   -180.4139995 -0.934492E-06  0.123E-02    0.61       1.0  T
   7   -180.4140047 -0.526883E-05  0.654E-03    0.61       1.6  T
   8   -180.4140050 -0.290816E-06  0.437E-03    0.61       2.4  T
   9   -180.4140053 -0.221872E-06  0.332E-03    0.61       3.2  T
  10   -180.4140054 -0.102421E-06  0.238E-03    0.61       4.4  T
  11   -180.4140055 -0.178949E-06  0.166E-03    0.61       6.4  T
  12   -180.4140056 -0.444488E-07  0.115E-03    0.61       9.1  T
  13   -180.4140056  0.878634E-08  0.939E-04    0.61      11.2  T
  14   -180.4140056 -0.311450E-07  0.526E-04    0.61      20.1  T
     SCC iter.                  ...        0 min,  0.298 sec
     gradient                   ...        0 min,  0.046 sec
 * total energy  :  -178.6580518 Eh     change       -0.1704357E-02 Eh
   gradient norm :     0.0136199 Eh/α   predicted    -0.1696918E-02 (  -0.44%)
   displ. norm   :     0.7684247 α      lambda       -0.2139805E-02
   maximum displ.:     0.5101983 α      in ANC's #7, #6, #5, ...

........................................................................
.............................. CYCLE   33 ..............................
........................................................................

 iter      E             dE          RMSdq      gap      omega  full diag
   1   -180.4122295 -0.180412E+03  0.187E-01    0.62       0.0  T
   2   -180.4122402 -0.106179E-04  0.779E-02    0.60       1.0  T
   3   -180.4119557  0.284449E-03  0.832E-02    0.62       1.0  T
   4   -180.4122322 -0.276445E-03  0.441E-02    0.61       1.0  T
   5   -180.4122878 -0.556849E-04  0.331E-02    0.60       1.0  T
   6   -180.4123207 -0.328101E-04  0.178E-02    0.61       1.0  T
   7   -180.4123275 -0.685724E-05  0.872E-03    0.61       1.2  T
   8   -180.4123283 -0.761967E-06  0.585E-03    0.61       1.8  T
   9   -180.4123291 -0.860332E-06  0.393E-03    0.61       2.7  T
  10   -180.4123292 -0.203320E-07  0.307E-03    0.61       3.4  T
  11   -180.4123293 -0.145862E-06  0.233E-03    0.61       4.5  T
  12   -180.4123295 -0.166537E-06  0.146E-03    0.61       7.2  T
  13   -180.4123295 -0.285498E-07  0.951E-04    0.61      11.1  T
  14   -180.4123295 -0.109790E-07  0.577E-04    0.61      18.3  T
     SCC iter.                  ...        0 min,  0.306 sec
     gradient                   ...        0 min,  0.045 sec
 * total energy  :  -178.6592542 Eh     change       -0.1202377E-02 Eh
   gradient norm :     0.0306343 Eh/α   predicted    -0.1701660E-02 (  41.52%)
   displ. norm   :     0.7436306 α      lambda       -0.2359752E-02
   maximum displ.:     0.5103763 α      in ANC's #7, #6, #5, ...

........................................................................
.............................. CYCLE   34 ..............................
........................................................................

 iter      E             dE          RMSdq      gap      omega  full diag
   1   -180.4083715 -0.180408E+03  0.162E-01    0.61       0.0  T
   2   -180.4084000 -0.285376E-04  0.568E-02    0.59       1.0  T
   3   -180.4083556  0.444793E-04  0.424E-02    0.61       1.0  T
   4   -180.4083583 -0.274580E-05  0.364E-02    0.59       1.0  T
   5   -180.4084095 -0.511846E-04  0.180E-02    0.60       1.0  T
   6   -180.4084132 -0.376156E-05  0.115E-02    0.60       1.0  T
   7   -180.4084196 -0.637759E-05  0.502E-03    0.60       2.1  T
   8   -180.4084201 -0.431513E-06  0.323E-03    0.60       3.3  T
   9   -180.4084202 -0.159431E-06  0.230E-03    0.60       4.6  T
  10   -180.4084203 -0.650286E-07  0.171E-03    0.60       6.2  T
  11   -180.4084203 -0.700795E-07  0.109E-03    0.60       9.7  T
  12   -180.4084204 -0.214951E-07  0.785E-04    0.60      13.4  T
  13   -180.4084204  0.249941E-09  0.655E-04    0.60      16.1  T
     SCC iter.                  ...        0 min,  0.264 sec
     gradient                   ...        0 min,  0.044 sec
 * total energy  :  -178.6611226 Eh     change       -0.1868423E-02 Eh
   gradient norm :     0.0149250 Eh/α   predicted    -0.1832333E-02 (  -1.93%)
   displ. norm   :     0.8098534 α      lambda       -0.2014836E-02
   maximum displ.:     0.5698676 α      in ANC's #7, #6, #5, ...

........................................................................
.............................. CYCLE   35 ..............................
........................................................................

 iter      E             dE          RMSdq      gap      omega  full diag
   1   -180.4109373 -0.180411E+03  0.178E-01    0.60       0.0  T
   2   -180.4108781  0.592650E-04  0.640E-02    0.59       1.0  T
   3   -180.4102470  0.631082E-03  0.109E-01    0.61       1.0  T
   4   -180.4109780 -0.731022E-03  0.187E-02    0.59       1.0  T
   5   -180.4109771  0.881912E-06  0.122E-02    0.59       1.0  T
   6   -180.4109785 -0.137877E-05  0.903E-03    0.59       1.2  T
   7   -180.4109820 -0.346615E-05  0.501E-03    0.59       2.1  T
   8   -180.4109823 -0.349005E-06  0.292E-03    0.59       3.6  T
   9   -180.4109823  0.632697E-07  0.265E-03    0.59       4.0  T
  10   -180.4109824 -0.158412E-06  0.164E-03    0.59       6.4  T
  11   -180.4109825 -0.368020E-07  0.117E-03    0.59       9.0  T
  12   -180.4109825 -0.255197E-07  0.825E-04    0.59      12.8  T
  13   -180.4109825  0.591797E-09  0.653E-04    0.59      16.1  T
     SCC iter.                  ...        0 min,  0.274 sec
     gradient                   ...        0 min,  0.045 sec
 * total energy  :  -178.6630159 Eh     change       -0.1893280E-02 Eh
   gradient norm :     0.0146024 Eh/α   predicted    -0.1668150E-02 ( -11.89%)
   displ. norm   :     0.7495995 α      lambda       -0.2506113E-02
   maximum displ.:     0.5112882 α      in ANC's #7, #6, #5, ...

........................................................................
.............................. CYCLE   36 ..............................
........................................................................

 iter      E             dE          RMSdq      gap      omega  full diag
   1   -180.4257602 -0.180426E+03  0.177E-01    0.60       0.0  T
   2   -180.4257890 -0.288177E-04  0.603E-02    0.57       1.0  T
   3   -180.4257285  0.605568E-04  0.428E-02    0.59       1.0  T
   4   -180.4257869 -0.583906E-04  0.266E-02    0.56       1.0  T
   5   -180.4258074 -0.205646E-04  0.132E-02    0.57       1.0  T
   6   -180.4258083 -0.834386E-06  0.919E-03    0.57       1.1  T
   7   -180.4258098 -0.154796E-05  0.585E-03    0.57       1.8  T
   8   -180.4258107 -0.915051E-06  0.372E-03    0.57       2.8  T
   9   -180.4258113 -0.602138E-06  0.235E-03    0.57       4.5  T
  10   -180.4258114 -0.708617E-07  0.170E-03    0.57       6.2  T
  11   -180.4258115 -0.808859E-07  0.102E-03    0.57      10.4  T
  12   -180.4258115 -0.109057E-07  0.761E-04    0.57      13.8  T
  13   -180.4258115  0.330559E-08  0.681E-04    0.57      15.5  T
     SCC iter.                  ...        0 min,  0.270 sec
     gradient                   ...        0 min,  0.045 sec
 * total energy  :  -178.6650540 Eh     change       -0.2038147E-02 Eh
   gradient norm :     0.0165030 Eh/α   predicted    -0.1957152E-02 (  -3.97%)
   displ. norm   :     0.8794845 α      lambda       -0.2352201E-02
   maximum displ.:     0.5953577 α      in ANC's #7, #6, #5, ...

........................................................................
.............................. CYCLE   37 ..............................
........................................................................

 iter      E             dE          RMSdq      gap      omega  full diag
   1   -180.4259569 -0.180426E+03  0.193E-01    0.58       0.0  T
   2   -180.4259691 -0.121614E-04  0.668E-02    0.54       1.0  T
   3   -180.4258627  0.106385E-03  0.568E-02    0.56       1.0  T
   4   -180.4259836 -0.120918E-03  0.280E-02    0.53       1.0  T
   5   -180.4260017 -0.180593E-04  0.152E-02    0.53       1.0  T
   6   -180.4260034 -0.166486E-05  0.904E-03    0.53       1.2  T
   7   -180.4259974  0.591991E-05  0.118E-02    0.53       1.0  T
   8   -180.4260055 -0.807496E-05  0.452E-03    0.53       2.3  T
   9   -180.4260057 -0.168657E-06  0.327E-03    0.53       3.2  T
  10   -180.4260056  0.333484E-07  0.255E-03    0.53       4.1  T
  11   -180.4260059 -0.215527E-06  0.164E-03    0.53       6.4  T
  12   -180.4260059 -0.601234E-07  0.113E-03    0.53       9.3  T
  13   -180.4260059  0.136876E-07  0.962E-04    0.53      11.0  T
  14   -180.4260059 -0.350012E-07  0.538E-04    0.53      19.6  T
     SCC iter.                  ...        0 min,  0.306 sec
     gradient                   ...        0 min,  0.047 sec
 * total energy  :  -178.6673631 Eh     change       -0.2309126E-02 Eh
   gradient norm :     0.0150231 Eh/α   predicted    -0.2085815E-02 (  -9.67%)
   displ. norm   :     0.8677694 α      lambda       -0.2810738E-02
   maximum displ.:     0.5609368 α      in ANC's #7, #6, #5, ...

........................................................................
.............................. CYCLE   38 ..............................
........................................................................

 iter      E             dE          RMSdq      gap      omega  full diag
   1   -180.4248724 -0.180425E+03  0.213E-01    0.56       0.0  T
   2   -180.4248215  0.508809E-04  0.857E-02    0.51       1.0  T
   3   -180.4242393  0.582190E-03  0.107E-01    0.54       1.0  T
   4   -180.4248942 -0.654940E-03  0.379E-02    0.52       1.0  T
   5   -180.4249080 -0.137313E-04  0.361E-02    0.51       1.0  T
   6   -180.4249542 -0.462601E-04  0.153E-02    0.52       1.0  T
   7   -180.4249565 -0.222722E-05  0.928E-03    0.51       1.1  T
   8   -180.4249575 -0.107533E-05  0.573E-03    0.51       1.8  T
   9   -180.4249586 -0.110552E-05  0.372E-03    0.51       2.8  T
  10   -180.4249586  0.499585E-07  0.294E-03    0.51       3.6  T
  11   -180.4249589 -0.362005E-06  0.163E-03    0.51       6.5  T
  12   -180.4249590 -0.457238E-07  0.112E-03    0.51       9.4  T
  13   -180.4249590  0.102051E-07  0.927E-04    0.52      11.4  T
  14   -180.4249590 -0.277982E-07  0.556E-04    0.51      18.9  T
     SCC iter.                  ...        0 min,  0.300 sec
     gradient                   ...        0 min,  0.047 sec
 * total energy  :  -178.6699058 Eh     change       -0.2542675E-02 Eh
   gradient norm :     0.0145859 Eh/α   predicted    -0.2463649E-02 (  -3.11%)
   displ. norm   :     0.9094954 α      lambda       -0.2512334E-02
   maximum displ.:     0.6027830 α      in ANC's #7, #6, #5, ...

........................................................................
.............................. CYCLE   39 ..............................
........................................................................

 iter      E             dE          RMSdq      gap      omega  full diag
   1   -180.4234561 -0.180423E+03  0.215E-01    0.54       0.0  T
   2   -180.4234701 -0.139641E-04  0.750E-02    0.49       1.0  T
   3   -180.4233204  0.149716E-03  0.652E-02    0.52       1.0  T
   4   -180.4234927 -0.172314E-03  0.305E-02    0.49       1.0  T
   5   -180.4235049 -0.122052E-04  0.204E-02    0.49       1.0  T
   6   -180.4235057 -0.852571E-06  0.179E-02    0.49       1.0  T
   7   -180.4235198 -0.140789E-04  0.926E-03    0.49       1.1  T
   8   -180.4235205 -0.662524E-06  0.499E-03    0.49       2.1  T
   9   -180.4235210 -0.549772E-06  0.344E-03    0.49       3.1  T
  10   -180.4235211 -0.742469E-07  0.251E-03    0.49       4.2  T
  11   -180.4235213 -0.230575E-06  0.142E-03    0.49       7.4  T
  12   -180.4235214 -0.454164E-07  0.961E-04    0.49      11.0  T
  13   -180.4235214  0.496061E-08  0.800E-04    0.49      13.2  T
     SCC iter.                  ...        0 min,  0.285 sec
     gradient                   ...        0 min,  0.048 sec
 * total energy  :  -178.6722762 Eh     change       -0.2370337E-02 Eh
   gradient norm :     0.0195728 Eh/α   predicted    -0.2295252E-02 (  -3.17%)
   displ. norm   :     0.8668128 α      lambda       -0.2523118E-02
   maximum displ.:     0.5662047 α      in ANC's #7, #5, #6, ...

........................................................................
.............................. CYCLE   40 ..............................
........................................................................

 iter      E             dE          RMSdq      gap      omega  full diag
   1   -180.4248330 -0.180425E+03  0.213E-01    0.52       0.0  T
   2   -180.4248412 -0.822290E-05  0.756E-02    0.48       1.0  T
   3   -180.4246399  0.201311E-03  0.757E-02    0.51       1.0  T
   4   -180.4248653 -0.225360E-03  0.332E-02    0.48       1.0  T
   5   -180.4248657 -0.430497E-06  0.266E-02    0.48       1.0  T
   6   -180.4248905 -0.247317E-04  0.138E-02    0.48       1.0  T
   7   -180.4248964 -0.590213E-05  0.783E-03    0.48       1.3  T
   8   -180.4248973 -0.985989E-06  0.477E-03    0.48       2.2  T
   9   -180.4248980 -0.645951E-06  0.315E-03    0.48       3.4  T
  10   -180.4248981 -0.912588E-07  0.226E-03    0.48       4.7  T
  11   -180.4248983 -0.213204E-06  0.106E-03    0.48       9.9  T
  12   -180.4248983 -0.165629E-07  0.761E-04    0.48      13.9  T
  13   -180.4248983 -0.405845E-08  0.600E-04    0.48      17.6  T
     SCC iter.                  ...        0 min,  0.276 sec
     gradient                   ...        0 min,  0.047 sec
 * total energy  :  -178.6746276 Eh     change       -0.2351472E-02 Eh
   gradient norm :     0.0215090 Eh/α   predicted    -0.2209452E-02 (  -6.04%)
   displ. norm   :     0.8588312 α      lambda       -0.2612357E-02
   maximum displ.:     0.5703432 α      in ANC's #7, #5, #6, ...

........................................................................
.............................. CYCLE   41 ..............................
........................................................................

 iter      E             dE          RMSdq      gap      omega  full diag
   1   -180.4273899 -0.180427E+03  0.209E-01    0.52       0.0  T
   2   -180.4273557  0.341300E-04  0.801E-02    0.48       1.0  T
   3   -180.4267328  0.622886E-03  0.112E-01    0.50       1.0  T
   4   -180.4274236 -0.690784E-03  0.358E-02    0.48       1.0  T
   5   -180.4274600 -0.364092E-04  0.213E-02    0.48       1.0  T
   6   -180.4274627 -0.265972E-05  0.145E-02    0.48       1.0  T
   7   -180.4274694 -0.669389E-05  0.824E-03    0.48       1.3  T
   8   -180.4274704 -0.103870E-05  0.471E-03    0.48       2.2  T
   9   -180.4274709 -0.514518E-06  0.291E-03    0.48       3.6  T
  10   -180.4274710 -0.508146E-07  0.191E-03    0.48       5.5  T
  11   -180.4274711 -0.889942E-07  0.113E-03    0.48       9.3  T
  12   -180.4274711 -0.262879E-07  0.783E-04    0.48      13.5  T
  13   -180.4274711 -0.410637E-08  0.567E-04    0.48      18.6  T
     SCC iter.                  ...        0 min,  0.270 sec
     gradient                   ...        0 min,  0.046 sec
 * total energy  :  -178.6770772 Eh     change       -0.2449603E-02 Eh
   gradient norm :     0.0179106 Eh/α   predicted    -0.2269608E-02 (  -7.35%)
   displ. norm   :     0.8496978 α      lambda       -0.2848718E-02
   maximum displ.:     0.5441455 α      in ANC's #7, #5, #6, ...

........................................................................
.............................. CYCLE   42 ..............................
........................................................................

 iter      E             dE          RMSdq      gap      omega  full diag
   1   -180.4349581 -0.180435E+03  0.225E-01    0.52       0.0  T
   2   -180.4348307  0.127395E-03  0.910E-02    0.47       1.0  T
   3   -180.4337957  0.103505E-02  0.149E-01    0.51       1.0  T
   4   -180.4350258 -0.123013E-02  0.277E-02    0.48       1.0  T
   5   -180.4350074  0.183951E-04  0.268E-02    0.47       1.0  T
   6   -180.4350427 -0.353259E-04  0.109E-02    0.48       1.0  T
   7   -180.4350459 -0.317568E-05  0.537E-03    0.48       2.0  T
   8   -180.4350461 -0.211264E-06  0.339E-03    0.48       3.1  T
   9   -180.4350462 -0.446585E-07  0.266E-03    0.48       4.0  T
  10   -180.4350463 -0.956395E-07  0.196E-03    0.48       5.4  T
  11   -180.4350464 -0.139489E-06  0.987E-04    0.48      10.7  T
  12   -180.4350464 -0.770459E-08  0.741E-04    0.48      14.2  T
     SCC iter.                  ...        0 min,  0.254 sec
     gradient                   ...        0 min,  0.047 sec
 * total energy  :  -178.6796109 Eh     change       -0.2533667E-02 Eh
   gradient norm :     0.0159947 Eh/α   predicted    -0.2452739E-02 (  -3.19%)
   displ. norm   :     0.8629439 α      lambda       -0.2854079E-02
   maximum displ.:     0.5362875 α      in ANC's #7, #5, #6, ...
 * RMSD in coord.:     1.4653027 α      energy gain  -0.3351673E-01 Eh

generating ANC from exact Hessian ...
Using Lindh-Hessian (1995)
 Shifting diagonal of input Hessian by   1.626616567715375E-002
 Lowest  eigenvalues of input Hessian
    0.010000    0.015673    0.015768    0.015831    0.000000    0.000000
    0.000000    0.000000    0.000000    0.000000    0.016335    0.016375
    0.016470    0.016685    0.016807    0.016825    0.016970    0.017004
 Highest eigenvalues
    2.166923    2.227638    2.255493    2.260487    2.279946    2.311787
 

........................................................................
.............................. CYCLE   43 ..............................
........................................................................

 iter      E             dE          RMSdq      gap      omega  full diag
   1   -180.4377906 -0.180438E+03  0.231E-01    0.53       0.0  T
   2   -180.4376925  0.981188E-04  0.104E-01    0.49       1.0  T
   3   -180.4367286  0.963921E-03  0.141E-01    0.51       1.0  T
   4   -180.4378406 -0.111200E-02  0.479E-02    0.49       1.0  T
   5   -180.4379166 -0.760483E-04  0.269E-02    0.49       1.0  T
   6   -180.4379154  0.121252E-05  0.201E-02    0.49       1.0  T
   7   -180.4379324 -0.169366E-04  0.980E-03    0.49       1.1  T
   8   -180.4379334 -0.105890E-05  0.562E-03    0.49       1.9  T
   9   -180.4379340 -0.540418E-06  0.359E-03    0.49       2.9  T
  10   -180.4379340 -0.291435E-07  0.245E-03    0.49       4.3  T
  11   -180.4379342 -0.234342E-06  0.140E-03    0.49       7.6  T
  12   -180.4379343 -0.419500E-07  0.975E-04    0.49      10.8  T
  13   -180.4379343 -0.613980E-08  0.677E-04    0.49      15.6  T
     SCC iter.                  ...        0 min,  0.271 sec
     gradient                   ...        0 min,  0.047 sec
 * total energy  :  -178.6822246 Eh     change       -0.2613668E-02 Eh
   gradient norm :     0.0164426 Eh/α   predicted     0.0000000E+00 (-100.00%)
   displ. norm   :     0.1799416 α      lambda       -0.9352762E-03
   maximum displ.:     0.1400411 α      in ANC's #7, #5, #9, ...

........................................................................
.............................. CYCLE   44 ..............................
........................................................................

 iter      E             dE          RMSdq      gap      omega  full diag
   1   -180.4385253 -0.180439E+03  0.674E-02    0.50       0.0  T
   2   -180.4385255 -0.159697E-06  0.299E-02    0.49       1.0  T
   3   -180.4384660  0.594735E-04  0.343E-02    0.49       1.0  T
   4   -180.4385278 -0.617749E-04  0.160E-02    0.48       1.0  T
   5   -180.4385352 -0.743058E-05  0.116E-02    0.48       1.0  T
   6   -180.4385394 -0.415772E-05  0.581E-03    0.49       1.8  T
   7   -180.4385401 -0.752814E-06  0.283E-03    0.48       3.7  T
   8   -180.4385403 -0.137892E-06  0.182E-03    0.48       5.8  T
   9   -180.4385403 -0.201584E-07  0.138E-03    0.48       7.6  T
  10   -180.4385403 -0.526871E-07  0.856E-04    0.48      12.3  T
  11   -180.4385404 -0.129376E-07  0.553E-04    0.48      19.0  T
     SCC iter.                  ...        0 min,  0.231 sec
     gradient                   ...        0 min,  0.046 sec
 * total energy  :  -178.6830224 Eh     change       -0.7978638E-03 Eh
   gradient norm :     0.0106358 Eh/α   predicted    -0.4828054E-03 ( -39.49%)
   displ. norm   :     0.7243575 α      lambda       -0.3284275E-02
   maximum displ.:     0.5663940 α      in ANC's #7, #5, #1, ...

........................................................................
.............................. CYCLE   45 ..............................
........................................................................

 iter      E             dE          RMSdq      gap      omega  full diag
   1   -180.4357382 -0.180436E+03  0.362E-01    0.49       0.0  T
   2   -180.4359470 -0.208712E-03  0.125E-01    0.49       1.0  T
   3   -180.4359229  0.240425E-04  0.792E-02    0.45       1.0  T
   4   -180.4359972 -0.742791E-04  0.508E-02    0.47       1.0  T
   5   -180.4359765  0.207412E-04  0.417E-02    0.45       1.0  T
   6   -180.4360546 -0.781896E-04  0.163E-02    0.46       1.0  T
   7   -180.4360409  0.137646E-04  0.200E-02    0.46       1.0  T
   8   -180.4360627 -0.218464E-04  0.602E-03    0.46       1.8  T
   9   -180.4360627 -0.191409E-08  0.437E-03    0.46       2.4  T
  10   -180.4360631 -0.410822E-06  0.281E-03    0.46       3.7  T
  11   -180.4360632 -0.107692E-06  0.186E-03    0.46       5.7  T
  12   -180.4360634 -0.149498E-06  0.109E-03    0.46       9.7  T
  13   -180.4360634  0.105419E-07  0.902E-04    0.46      11.7  T
  14   -180.4360634 -0.287699E-07  0.599E-04    0.46      17.6  T
     SCC iter.                  ...        0 min,  0.285 sec
     gradient                   ...        0 min,  0.048 sec
 * total energy  :  -178.6843944 Eh     change       -0.1372002E-02 Eh
   gradient norm :     0.0228304 Eh/α   predicted    -0.2503769E-02 (  82.49%)
   displ. norm   :     0.5392306 α      lambda       -0.3480311E-02
   maximum displ.:     0.4078244 α      in ANC's #7, #1, #5, ...

........................................................................
.............................. CYCLE   46 ..............................
........................................................................

 iter      E             dE          RMSdq      gap      omega  full diag
   1   -180.4348733 -0.180435E+03  0.259E-01    0.49       0.0  T
   2   -180.4347974  0.758454E-04  0.183E-01    0.45       1.0  T
   3   -180.4344162  0.381229E-03  0.143E-01    0.47       1.0  T
   4   -180.4347372 -0.320985E-03  0.114E-01    0.45       1.0  T
   5   -180.4354258 -0.688621E-03  0.424E-02    0.46       1.0  T
   6   -180.4354023  0.235096E-04  0.308E-02    0.46       1.0  T
   7   -180.4354400 -0.377619E-04  0.169E-02    0.46       1.0  T
   8   -180.4354500 -0.998946E-05  0.742E-03    0.46       1.4  T
   9   -180.4354502 -0.179293E-06  0.529E-03    0.46       2.0  T
  10   -180.4354505 -0.329403E-06  0.366E-03    0.46       2.9  T
  11   -180.4354509 -0.402890E-06  0.206E-03    0.46       5.1  T
  12   -180.4354510 -0.939766E-07  0.116E-03    0.46       9.1  T
  13   -180.4354510 -0.795225E-08  0.953E-04    0.46      11.1  T
  14   -180.4354511 -0.112847E-07  0.626E-04    0.46      16.8  T
     SCC iter.                  ...        0 min,  0.297 sec
     gradient                   ...        0 min,  0.047 sec
 * total energy  :  -178.6857082 Eh     change       -0.1313808E-02 Eh
   gradient norm :     0.0288459 Eh/α   predicted    -0.2246142E-02 (  70.96%)
   displ. norm   :     0.3257550 α      lambda       -0.3083413E-02
   maximum displ.:     0.2120750 α      in ANC's #7, #28, #5, ...

........................................................................
.............................. CYCLE   47 ..............................
........................................................................

 iter      E             dE          RMSdq      gap      omega  full diag
   1   -180.4391414 -0.180439E+03  0.291E-01    0.49       0.0  T
   2   -180.4392512 -0.109778E-03  0.115E-01    0.48       1.0  T
   3   -180.4392265  0.246452E-04  0.714E-02    0.49       1.0  T
   4   -180.4392201  0.644214E-05  0.562E-02    0.47       1.0  T
   5   -180.4392790 -0.588907E-04  0.391E-02    0.48       1.0  T
   6   -180.4393076 -0.285784E-04  0.286E-02    0.48       1.0  T
   7   -180.4393378 -0.302552E-04  0.141E-02    0.47       1.0  T
   8   -180.4393433 -0.546827E-05  0.590E-03    0.47       1.8  T
   9   -180.4393430  0.244164E-06  0.452E-03    0.47       2.3  T
  10   -180.4393436 -0.569656E-06  0.292E-03    0.48       3.6  T
  11   -180.4393437 -0.944654E-07  0.207E-03    0.47       5.1  T
  12   -180.4393439 -0.160261E-06  0.104E-03    0.47      10.2  T
  13   -180.4393439 -0.191762E-07  0.724E-04    0.47      14.6  T
  14   -180.4393439  0.371483E-08  0.561E-04    0.47      18.8  T
     SCC iter.                  ...        0 min,  0.291 sec
     gradient                   ...        0 min,  0.046 sec
 * total energy  :  -178.6864758 Eh     change       -0.7675431E-03 Eh
   gradient norm :     0.0199360 Eh/α   predicted    -0.1705312E-02 ( 122.18%)
   displ. norm   :     0.3199869 α      lambda       -0.2379413E-02
   maximum displ.:     0.2355710 α      in ANC's #7, #1, #5, ...

........................................................................
.............................. CYCLE   48 ..............................
........................................................................

 iter      E             dE          RMSdq      gap      omega  full diag
   1   -180.4430054 -0.180443E+03  0.251E-01    0.48       0.0  T
   2   -180.4430373 -0.319393E-04  0.894E-02    0.46       1.0  T
   3   -180.4429032  0.134143E-03  0.773E-02    0.48       1.0  T
   4   -180.4430390 -0.135856E-03  0.481E-02    0.46       1.0  T
   5   -180.4430288  0.102335E-04  0.429E-02    0.46       1.0  T
   6   -180.4430931 -0.642611E-04  0.261E-02    0.47       1.0  T
   7   -180.4431169 -0.238137E-04  0.110E-02    0.46       1.0  T
   8   -180.4431191 -0.224881E-05  0.450E-03    0.46       2.3  T
   9   -180.4431194 -0.239214E-06  0.330E-03    0.46       3.2  T
  10   -180.4431194 -0.656400E-07  0.251E-03    0.46       4.2  T
  11   -180.4431197 -0.234133E-06  0.143E-03    0.46       7.4  T
  12   -180.4431197 -0.289816E-07  0.926E-04    0.46      11.4  T
  13   -180.4431197 -0.160472E-08  0.822E-04    0.46      12.8  T
     SCC iter.                  ...        0 min,  0.284 sec
     gradient                   ...        0 min,  0.048 sec
 * total energy  :  -178.6877608 Eh     change       -0.1285014E-02 Eh
   gradient norm :     0.0181148 Eh/α   predicted    -0.1311521E-02 (   2.06%)
   displ. norm   :     0.4334515 α      lambda       -0.1614959E-02
   maximum displ.:     0.3475485 α      in ANC's #7, #5, #9, ...

........................................................................
.............................. CYCLE   49 ..............................
........................................................................

 iter      E             dE          RMSdq      gap      omega  full diag
   1   -180.4422707 -0.180442E+03  0.205E-01    0.45       0.0  T
   2   -180.4422176  0.531023E-04  0.783E-02    0.46       1.0  T
   3   -180.4420427  0.174887E-03  0.817E-02    0.42       1.0  T
   4   -180.4423269 -0.284138E-03  0.337E-02    0.44       1.0  T
   5   -180.4423665 -0.396282E-04  0.267E-02    0.44       1.0  T
   6   -180.4423979 -0.314414E-04  0.115E-02    0.43       1.0  T
   7   -180.4424010 -0.312097E-05  0.566E-03    0.44       1.9  T
   8   -180.4424015 -0.448244E-06  0.314E-03    0.44       3.4  T
   9   -180.4424016 -0.874546E-07  0.230E-03    0.44       4.6  T
  10   -180.4424016 -0.198791E-07  0.191E-03    0.44       5.5  T
  11   -180.4424017 -0.728000E-07  0.119E-03    0.44       8.8  T
  12   -180.4424017 -0.219758E-07  0.831E-04    0.44      12.7  T
  13   -180.4424017 -0.119295E-07  0.605E-04    0.44      17.4  T
     SCC iter.                  ...        0 min,  0.298 sec
     gradient                   ...        0 min,  0.048 sec
 * total energy  :  -178.6890332 Eh     change       -0.1272436E-02 Eh
   gradient norm :     0.0142073 Eh/α   predicted    -0.9591897E-03 ( -24.62%)
   displ. norm   :     0.5435386 α      lambda       -0.2063376E-02
   maximum displ.:     0.4265335 α      in ANC's #7, #5, #9, ...

........................................................................
.............................. CYCLE   50 ..............................
........................................................................

 iter      E             dE          RMSdq      gap      omega  full diag
   1   -180.4442330 -0.180444E+03  0.188E-01    0.48       0.0  T
   2   -180.4439786  0.254438E-03  0.118E-01    0.44       1.0  T
   3   -180.4433534  0.625180E-03  0.134E-01    0.47       1.0  T
   4   -180.4443514 -0.998014E-03  0.444E-02    0.45       1.0  T
   5   -180.4444378 -0.863708E-04  0.207E-02    0.45       1.0  T
   6   -180.4444370  0.770221E-06  0.138E-02    0.45       1.0  T
   7   -180.4444433 -0.634360E-05  0.758E-03    0.45       1.4  T
   8   -180.4444452 -0.184254E-05  0.395E-03    0.45       2.7  T
   9   -180.4444454 -0.217212E-06  0.273E-03    0.45       3.9  T
  10   -180.4444455 -0.574041E-07  0.197E-03    0.45       5.3  T
  11   -180.4444455 -0.859786E-07  0.130E-03    0.45       8.1  T
  12   -180.4444456 -0.397265E-07  0.834E-04    0.45      12.6  T
  13   -180.4444456 -0.420769E-08  0.616E-04    0.45      17.1  T
     SCC iter.                  ...        0 min,  0.257 sec
     gradient                   ...        0 min,  0.047 sec
 * total energy  :  -178.6905833 Eh     change       -0.1550055E-02 Eh
   gradient norm :     0.0112134 Eh/α   predicted    -0.1336486E-02 ( -13.78%)
   displ. norm   :     0.5813592 α      lambda       -0.1669815E-02
   maximum displ.:     0.4585042 α      in ANC's #7, #5, #9, ...

........................................................................
.............................. CYCLE   51 ..............................
........................................................................

 iter      E             dE          RMSdq      gap      omega  full diag
   1   -180.4439951 -0.180444E+03  0.129E-01    0.48       0.0  T
   2   -180.4438913  0.103855E-03  0.670E-02    0.45       1.0  T
   3   -180.4434631  0.428181E-03  0.999E-02    0.47       1.0  T
   4   -180.4440379 -0.574815E-03  0.201E-02    0.46       1.0  T
   5   -180.4440406 -0.269301E-05  0.159E-02    0.45       1.0  T
   6   -180.4440459 -0.532645E-05  0.103E-02    0.45       1.0  T
   7   -180.4440502 -0.431132E-05  0.412E-03    0.45       2.6  T
   8   -180.4440502  0.731092E-07  0.291E-03    0.45       3.6  T
   9   -180.4440503 -0.950875E-07  0.235E-03    0.45       4.5  T
  10   -180.4440503 -0.738956E-07  0.173E-03    0.45       6.1  T
  11   -180.4440504 -0.875193E-07  0.996E-04    0.45      10.6  T
  12   -180.4440504 -0.177539E-08  0.762E-04    0.45      13.8  T
     SCC iter.                  ...        0 min,  0.253 sec
     gradient                   ...        0 min,  0.046 sec
 * total energy  :  -178.6920844 Eh     change       -0.1501102E-02 Eh
   gradient norm :     0.0106579 Eh/α   predicted    -0.1117091E-02 ( -25.58%)
   displ. norm   :     0.6611907 α      lambda       -0.1918080E-02
   maximum displ.:     0.5114244 α      in ANC's #7, #5, #9, ...

........................................................................
.............................. CYCLE   52 ..............................
........................................................................

 iter      E             dE          RMSdq      gap      omega  full diag
   1   -180.4457296 -0.180446E+03  0.144E-01    0.48       0.0  T
   2   -180.4457394 -0.980508E-05  0.601E-02    0.45       1.0  T
   3   -180.4455535  0.185926E-03  0.605E-02    0.45       1.0  T
   4   -180.4457233 -0.169742E-03  0.322E-02    0.44       1.0  T
   5   -180.4457658 -0.425014E-04  0.185E-02    0.44       1.0  T
   6   -180.4457692 -0.339394E-05  0.117E-02    0.44       1.0  T
   7   -180.4457751 -0.594068E-05  0.572E-03    0.44       1.8  T
   8   -180.4457755 -0.438214E-06  0.346E-03    0.44       3.0  T
   9   -180.4457756 -0.362048E-07  0.269E-03    0.44       3.9  T
  10   -180.4457756 -0.499643E-07  0.213E-03    0.44       5.0  T
  11   -180.4457758 -0.139866E-06  0.132E-03    0.44       8.0  T
  12   -180.4457758 -0.210760E-07  0.893E-04    0.44      11.8  T
  13   -180.4457758 -0.827669E-08  0.575E-04    0.44      18.3  T
     SCC iter.                  ...        0 min,  0.289 sec
     gradient                   ...        0 min,  0.048 sec
 * total energy  :  -178.6937917 Eh     change       -0.1707332E-02 Eh
   gradient norm :     0.0105116 Eh/α   predicted    -0.1378307E-02 ( -19.27%)
   displ. norm   :     0.7446293 α      lambda       -0.1956046E-02
   maximum displ.:     0.5726787 α      in ANC's #7, #5, #6, ...

........................................................................
.............................. CYCLE   53 ..............................
........................................................................

 iter      E             dE          RMSdq      gap      omega  full diag
   1   -180.4467021 -0.180447E+03  0.187E-01    0.48       0.0  T
   2   -180.4466734  0.287414E-04  0.730E-02    0.44       1.0  T
   3   -180.4462034  0.469937E-03  0.101E-01    0.46       1.0  T
   4   -180.4467411 -0.537693E-03  0.276E-02    0.44       1.0  T
   5   -180.4467523 -0.111710E-04  0.209E-02    0.43       1.0  T
   6   -180.4467648 -0.124913E-04  0.121E-02    0.44       1.0  T
   7   -180.4467701 -0.525982E-05  0.522E-03    0.43       2.0  T
   8   -180.4467700  0.213045E-07  0.339E-03    0.43       3.1  T
   9   -180.4467703 -0.206793E-06  0.264E-03    0.43       4.0  T
  10   -180.4467703 -0.300974E-07  0.198E-03    0.43       5.3  T
  11   -180.4467704 -0.166452E-06  0.101E-03    0.43      10.4  T
  12   -180.4467705 -0.128032E-07  0.713E-04    0.43      14.8  T
  13   -180.4467705 -0.211062E-08  0.586E-04    0.43      18.0  T
     SCC iter.                  ...        0 min,  0.264 sec
     gradient                   ...        0 min,  0.049 sec
 * total energy  :  -178.6956053 Eh     change       -0.1813582E-02 Eh
   gradient norm :     0.0090063 Eh/α   predicted    -0.1520312E-02 ( -16.17%)
   displ. norm   :     0.7894670 α      lambda       -0.1949858E-02
   maximum displ.:     0.6035907 α      in ANC's #7, #5, #6, ...

........................................................................
.............................. CYCLE   54 ..............................
........................................................................

 iter      E             dE          RMSdq      gap      omega  full diag
   1   -180.4488499 -0.180449E+03  0.189E-01    0.46       0.0  T
   2   -180.4488639 -0.140466E-04  0.698E-02    0.43       1.0  T
   3   -180.4486390  0.224918E-03  0.699E-02    0.43       1.0  T
   4   -180.4488283 -0.189253E-03  0.396E-02    0.42       1.0  T
   5   -180.4489024 -0.741061E-04  0.179E-02    0.42       1.0  T
   6   -180.4489051 -0.276772E-05  0.123E-02    0.42       1.0  T
   7   -180.4489121 -0.692709E-05  0.545E-03    0.42       1.9  T
   8   -180.4489125 -0.445598E-06  0.310E-03    0.42       3.4  T
   9   -180.4489125 -0.164948E-07  0.250E-03    0.42       4.2  T
  10   -180.4489126 -0.839954E-07  0.171E-03    0.42       6.2  T
  11   -180.4489127 -0.952532E-07  0.101E-03    0.42      10.4  T
  12   -180.4489127 -0.152342E-07  0.687E-04    0.42      15.3  T
  13   -180.4489127 -0.587536E-08  0.442E-04    0.42      23.8  T
     SCC iter.                  ...        0 min,  0.262 sec
     gradient                   ...        0 min,  0.049 sec
 * total energy  :  -178.6974286 Eh     change       -0.1823269E-02 Eh
   gradient norm :     0.0073060 Eh/α   predicted    -0.1582565E-02 ( -13.20%)
   displ. norm   :     0.8278645 α      lambda       -0.1943234E-02
   maximum displ.:     0.6270871 α      in ANC's #7, #5, #6, ...

........................................................................
.............................. CYCLE   55 ..............................
........................................................................

 iter      E             dE          RMSdq      gap      omega  full diag
   1   -180.4512716 -0.180451E+03  0.210E-01    0.44       0.0  T
   2   -180.4512684  0.319402E-05  0.778E-02    0.40       1.0  T
   3   -180.4508668  0.401638E-03  0.948E-02    0.42       1.0  T
   4   -180.4512979 -0.431138E-03  0.365E-02    0.40       1.0  T
   5   -180.4513471 -0.491753E-04  0.205E-02    0.39       1.0  T
   6   -180.4513535 -0.635144E-05  0.146E-02    0.40       1.0  T
   7   -180.4513619 -0.843931E-05  0.565E-03    0.39       1.9  T
   8   -180.4513620 -0.818390E-07  0.324E-03    0.39       3.3  T
   9   -180.4513621 -0.144251E-06  0.244E-03    0.39       4.3  T
  10   -180.4513622 -0.564200E-07  0.176E-03    0.39       6.0  T
  11   -180.4513623 -0.119883E-06  0.891E-04    0.39      11.8  T
  12   -180.4513623 -0.125284E-07  0.595E-04    0.39      17.7  T
     SCC iter.                  ...        0 min,  0.248 sec
     gradient                   ...        0 min,  0.048 sec
 * total energy  :  -178.6992363 Eh     change       -0.1807733E-02 Eh
   gradient norm :     0.0061647 Eh/α   predicted    -0.1637526E-02 (  -9.42%)
   displ. norm   :     0.8631485 α      lambda       -0.1931219E-02
   maximum displ.:     0.6467333 α      in ANC's #7, #5, #6, ...

........................................................................
.............................. CYCLE   56 ..............................
........................................................................

 iter      E             dE          RMSdq      gap      omega  full diag
   1   -180.4538018 -0.180454E+03  0.209E-01    0.42       0.0  T
   2   -180.4538328 -0.309424E-04  0.756E-02    0.38       1.0  T
   3   -180.4536770  0.155803E-03  0.629E-02    0.39       1.0  T
   4   -180.4537508 -0.737884E-04  0.480E-02    0.38       1.0  T
   5   -180.4538663 -0.115548E-03  0.196E-02    0.38       1.0  T
   6   -180.4538680 -0.172810E-05  0.144E-02    0.38       1.0  T
   7   -180.4538764 -0.840244E-05  0.661E-03    0.38       1.6  T
   8   -180.4538772 -0.738101E-06  0.350E-03    0.38       3.0  T
   9   -180.4538773 -0.114088E-06  0.259E-03    0.38       4.1  T
  10   -180.4538774 -0.140589E-06  0.169E-03    0.38       6.2  T
  11   -180.4538775 -0.821765E-07  0.105E-03    0.38      10.0  T
  12   -180.4538775 -0.250447E-07  0.670E-04    0.38      15.7  T
  13   -180.4538775 -0.501620E-08  0.443E-04    0.38      23.8  T
     SCC iter.                  ...        0 min,  0.269 sec
     gradient                   ...        0 min,  0.049 sec
 * total energy  :  -178.7010227 Eh     change       -0.1786384E-02 Eh
   gradient norm :     0.0072207 Eh/α   predicted    -0.1685015E-02 (  -5.67%)
   displ. norm   :     0.8962361 α      lambda       -0.1933535E-02
   maximum displ.:     0.6565633 α      in ANC's #7, #6, #5, ...

........................................................................
.............................. CYCLE   57 ..............................
........................................................................

 iter      E             dE          RMSdq      gap      omega  full diag
   1   -180.4555982 -0.180456E+03  0.227E-01    0.40       0.0  T
   2   -180.4556460 -0.478019E-04  0.793E-02    0.35       1.0  T
   3   -180.4555466  0.993847E-04  0.648E-02    0.38       1.0  T
   4   -180.4556503 -0.103648E-03  0.386E-02    0.34       1.0  T
   5   -180.4556815 -0.312020E-04  0.250E-02    0.35       1.0  T
   6   -180.4556851 -0.364047E-05  0.183E-02    0.35       1.0  T
   7   -180.4557000 -0.148514E-04  0.827E-03    0.35       1.3  T
   8   -180.4557013 -0.134079E-05  0.421E-03    0.35       2.5  T
   9   -180.4557015 -0.219051E-06  0.306E-03    0.35       3.4  T
  10   -180.4557017 -0.218837E-06  0.203E-03    0.35       5.2  T
  11   -180.4557019 -0.159872E-06  0.105E-03    0.35      10.1  T
  12   -180.4557019 -0.290613E-07  0.674E-04    0.35      15.6  T
  13   -180.4557019 -0.559160E-08  0.490E-04    0.35      21.5  T
     SCC iter.                  ...        0 min,  0.290 sec
     gradient                   ...        0 min,  0.051 sec
 * total energy  :  -178.7028252 Eh     change       -0.1802492E-02 Eh
   gradient norm :     0.0081519 Eh/α   predicted    -0.1743317E-02 (  -3.28%)
   displ. norm   :     0.8903966 α      lambda       -0.1935394E-02
   maximum displ.:     0.6233732 α      in ANC's #7, #6, #5, ...

........................................................................
.............................. CYCLE   58 ..............................
........................................................................

 iter      E             dE          RMSdq      gap      omega  full diag
   1   -180.4583253 -0.180458E+03  0.218E-01    0.37       0.0  T
   2   -180.4583758 -0.505098E-04  0.752E-02    0.33       1.0  T
   3   -180.4583130  0.628007E-04  0.516E-02    0.35       1.0  T
   4   -180.4583498 -0.367831E-04  0.364E-02    0.33       1.0  T
   5   -180.4583799 -0.300876E-04  0.255E-02    0.33       1.0  T
   6   -180.4584012 -0.213292E-04  0.173E-02    0.34       1.0  T
   7   -180.4584117 -0.104493E-04  0.802E-03    0.33       1.3  T
   8   -180.4584125 -0.759904E-06  0.399E-03    0.33       2.6  T
   9   -180.4584125 -0.875934E-07  0.287E-03    0.33       3.7  T
  10   -180.4584127 -0.191056E-06  0.193E-03    0.33       5.5  T
  11   -180.4584128 -0.114531E-06  0.113E-03    0.33       9.3  T
  12   -180.4584129 -0.374274E-07  0.791E-04    0.33      13.3  T
  13   -180.4584129 -0.200680E-08  0.660E-04    0.33      16.0  T
     SCC iter.                  ...        0 min,  0.292 sec
     gradient                   ...        0 min,  0.048 sec
 * total energy  :  -178.7046535 Eh     change       -0.1828289E-02 Eh
   gradient norm :     0.0087665 Eh/α   predicted    -0.1734897E-02 (  -5.11%)
   displ. norm   :     0.8892489 α      lambda       -0.2012974E-02
   maximum displ.:     0.5659478 α      in ANC's #7, #6, #5, ...

........................................................................
.............................. CYCLE   59 ..............................
........................................................................

 iter      E             dE          RMSdq      gap      omega  full diag
   1   -180.4602867 -0.180460E+03  0.220E-01    0.34       0.0  T
   2   -180.4602511  0.355797E-04  0.819E-02    0.31       1.0  T
   3   -180.4595994  0.651780E-03  0.109E-01    0.33       1.0  T
   4   -180.4603306 -0.731187E-03  0.371E-02    0.32       1.0  T
   5   -180.4603537 -0.231157E-04  0.288E-02    0.31       1.0  T
   6   -180.4603734 -0.197396E-04  0.183E-02    0.32       1.0  T
   7   -180.4603832 -0.977145E-05  0.767E-03    0.32       1.4  T
   8   -180.4603832  0.234691E-07  0.485E-03    0.32       2.2  T
   9   -180.4603834 -0.207747E-06  0.362E-03    0.32       2.9  T
  10   -180.4603837 -0.315562E-06  0.245E-03    0.32       4.3  T
  11   -180.4603839 -0.201327E-06  0.149E-03    0.32       7.1  T
  12   -180.4603839 -0.473120E-07  0.111E-03    0.32       9.5  T
  13   -180.4603839  0.309950E-08  0.950E-04    0.32      11.1  T
  14   -180.4603840 -0.260785E-07  0.615E-04    0.32      17.1  T
     SCC iter.                  ...        0 min,  0.313 sec
     gradient                   ...        0 min,  0.050 sec
 * total energy  :  -178.7065450 Eh     change       -0.1891487E-02 Eh
   gradient norm :     0.0083935 Eh/α   predicted    -0.1802389E-02 (  -4.71%)
   displ. norm   :     0.8906344 α      lambda       -0.2010191E-02
   maximum displ.:     0.5837177 α      in ANC's #6, #7, #5, ...

........................................................................
.............................. CYCLE   60 ..............................
........................................................................

 iter      E             dE          RMSdq      gap      omega  full diag
   1   -180.4600709 -0.180460E+03  0.225E-01    0.32       0.0  T
   2   -180.4599922  0.786753E-04  0.849E-02    0.31       1.0  T
   3   -180.4590162  0.975969E-03  0.130E-01    0.31       1.0  T
   4   -180.4601340 -0.111780E-02  0.336E-02    0.31       1.0  T
   5   -180.4601403 -0.623210E-05  0.275E-02    0.30       1.0  T
   6   -180.4601590 -0.187296E-04  0.165E-02    0.31       1.0  T
   7   -180.4601662 -0.718188E-05  0.735E-03    0.31       1.4  T
   8   -180.4601662 -0.838133E-08  0.497E-03    0.31       2.1  T
   9   -180.4601663 -0.146206E-06  0.365E-03    0.31       2.9  T
  10   -180.4601666 -0.301625E-06  0.260E-03    0.31       4.0  T
  11   -180.4601669 -0.235215E-06  0.151E-03    0.31       7.0  T
  12   -180.4601669 -0.208265E-07  0.123E-03    0.31       8.6  T
  13   -180.4601669 -0.139475E-07  0.956E-04    0.31      11.0  T
  14   -180.4601669 -0.216055E-07  0.661E-04    0.31      16.0  T
     SCC iter.                  ...        0 min,  0.321 sec
     gradient                   ...        0 min,  0.048 sec
 * total energy  :  -178.7084091 Eh     change       -0.1864188E-02 Eh
   gradient norm :     0.0080853 Eh/α   predicted    -0.1802369E-02 (  -3.32%)
   displ. norm   :     0.8827865 α      lambda       -0.1919415E-02
   maximum displ.:     0.6114979 α      in ANC's #6, #7, #5, ...

........................................................................
.............................. CYCLE   61 ..............................
........................................................................

 iter      E             dE          RMSdq      gap      omega  full diag
   1   -180.4610955 -0.180461E+03  0.225E-01    0.31       0.0  T
   2   -180.4610456  0.499309E-04  0.790E-02    0.31       1.0  T
   3   -180.4602174  0.828212E-03  0.119E-01    0.30       1.0  T
   4   -180.4611546 -0.937253E-03  0.314E-02    0.31       1.0  T
   5   -180.4611601 -0.550543E-05  0.230E-02    0.30       1.0  T
   6   -180.4611691 -0.896268E-05  0.162E-02    0.31       1.0  T
   7   -180.4611765 -0.746551E-05  0.730E-03    0.30       1.4  T
   8   -180.4611769 -0.334711E-06  0.491E-03    0.31       2.1  T
   9   -180.4611767  0.227491E-06  0.390E-03    0.30       2.7  T
  10   -180.4611772 -0.590226E-06  0.232E-03    0.31       4.5  T
  11   -180.4611774 -0.108358E-06  0.143E-03    0.31       7.3  T
  12   -180.4611773  0.224358E-07  0.137E-03    0.31       7.7  T
  13   -180.4611774 -0.616357E-07  0.857E-04    0.31      12.3  T
  14   -180.4611774 -0.404697E-08  0.586E-04    0.31      18.0  T
     SCC iter.                  ...        0 min,  0.305 sec
     gradient                   ...        0 min,  0.048 sec
 * total energy  :  -178.7101609 Eh     change       -0.1751711E-02 Eh
   gradient norm :     0.0099522 Eh/α   predicted    -0.1707620E-02 (  -2.52%)
   displ. norm   :     0.8295343 α      lambda       -0.1739274E-02
   maximum displ.:     0.5860297 α      in ANC's #6, #7, #5, ...

........................................................................
.............................. CYCLE   62 ..............................
........................................................................

 iter      E             dE          RMSdq      gap      omega  full diag
   1   -180.4616729 -0.180462E+03  0.215E-01    0.31       0.0  T
   2   -180.4616278  0.450886E-04  0.736E-02    0.31       1.0  T
   3   -180.4609131  0.714780E-03  0.110E-01    0.30       1.0  T
   4   -180.4617220 -0.808912E-03  0.308E-02    0.31       1.0  T
   5   -180.4617315 -0.952264E-05  0.214E-02    0.30       1.0  T
   6   -180.4617409 -0.938145E-05  0.142E-02    0.31       1.0  T
   7   -180.4617458 -0.497775E-05  0.710E-03    0.30       1.5  T
   8   -180.4617463 -0.467673E-06  0.470E-03    0.31       2.2  T
   9   -180.4617462  0.699278E-07  0.355E-03    0.30       3.0  T
  10   -180.4617465 -0.267135E-06  0.240E-03    0.31       4.4  T
  11   -180.4617467 -0.155105E-06  0.142E-03    0.31       7.4  T
  12   -180.4617467 -0.267189E-07  0.111E-03    0.31       9.5  T
  13   -180.4617467 -0.195419E-07  0.852E-04    0.31      12.4  T
  14   -180.4617467 -0.411228E-08  0.658E-04    0.31      16.0  T
     SCC iter.                  ...        0 min,  0.290 sec
     gradient                   ...        0 min,  0.047 sec
 * total energy  :  -178.7117031 Eh     change       -0.1542233E-02 Eh
   gradient norm :     0.0093866 Eh/α   predicted    -0.1468058E-02 (  -4.81%)
   displ. norm   :     0.7639759 α      lambda       -0.1504387E-02
   maximum displ.:     0.5472197 α      in ANC's #6, #7, #5, ...

........................................................................
.............................. CYCLE   63 ..............................
........................................................................

 iter      E             dE          RMSdq      gap      omega  full diag
   1   -180.4647604 -0.180465E+03  0.216E-01    0.30       0.0  T
   2   -180.4647725 -0.121763E-04  0.684E-02    0.33       1.0  T
   3   -180.4645245  0.248041E-03  0.806E-02    0.27       1.0  T
   4   -180.4647830 -0.258463E-03  0.374E-02    0.32       1.0  T
   5   -180.4648250 -0.420198E-04  0.239E-02    0.31       1.0  T
   6   -180.4648317 -0.674163E-05  0.148E-02    0.30       1.0  T
   7   -180.4648379 -0.614858E-05  0.946E-03    0.31       1.1  T
   8   -180.4648418 -0.395993E-05  0.447E-03    0.31       2.4  T
   9   -180.4648418  0.277116E-07  0.292E-03    0.31       3.6  T
  10   -180.4648420 -0.201188E-06  0.183E-03    0.31       5.8  T
  11   -180.4648421 -0.560246E-07  0.130E-03    0.31       8.1  T
  12   -180.4648421 -0.578718E-07  0.859E-04    0.31      12.3  T
  13   -180.4648421 -0.988589E-08  0.651E-04    0.31      16.2  T
     SCC iter.                  ...        0 min,  0.282 sec
     gradient                   ...        0 min,  0.048 sec
 * total energy  :  -178.7129859 Eh     change       -0.1282819E-02 Eh
   gradient norm :     0.0094674 Eh/α   predicted    -0.1191222E-02 (  -7.14%)
   displ. norm   :     0.7031308 α      lambda       -0.1216630E-02
   maximum displ.:     0.5149121 α      in ANC's #6, #7, #4, ...

........................................................................
.............................. CYCLE   64 ..............................
........................................................................

 iter      E             dE          RMSdq      gap      omega  full diag
   1   -180.4669176 -0.180467E+03  0.213E-01    0.29       0.0  T
   2   -180.4669043  0.133118E-04  0.690E-02    0.34       1.0  T
   3   -180.4665603  0.343963E-03  0.917E-02    0.27       1.0  T
   4   -180.4669550 -0.394682E-03  0.363E-02    0.32       1.0  T
   5   -180.4669897 -0.346810E-04  0.234E-02    0.32       1.0  T
   6   -180.4669968 -0.713773E-05  0.151E-02    0.31       1.0  T
   7   -180.4670041 -0.729173E-05  0.887E-03    0.31       1.2  T
   8   -180.4670072 -0.315625E-05  0.452E-03    0.31       2.3  T
   9   -180.4670074 -0.119090E-06  0.319E-03    0.31       3.3  T
  10   -180.4670076 -0.270442E-06  0.210E-03    0.31       5.0  T
  11   -180.4670077 -0.848645E-07  0.131E-03    0.31       8.1  T
  12   -180.4670078 -0.591789E-07  0.807E-04    0.31      13.1  T
  13   -180.4670078  0.189954E-08  0.688E-04    0.31      15.3  T
     SCC iter.                  ...        0 min,  0.289 sec
     gradient                   ...        0 min,  0.051 sec
 * total energy  :  -178.7139849 Eh     change       -0.9990120E-03 Eh
   gradient norm :     0.0089260 Eh/α   predicted    -0.9090685E-03 (  -9.00%)
   displ. norm   :     0.6251983 α      lambda       -0.9118929E-03
   maximum displ.:     0.4542466 α      in ANC's #6, #7, #4, ...

........................................................................
.............................. CYCLE   65 ..............................
........................................................................

 iter      E             dE          RMSdq      gap      omega  full diag
   1   -180.4664545 -0.180466E+03  0.213E-01    0.28       0.0  T
   2   -180.4663712  0.833153E-04  0.839E-02    0.36       1.0  T
   3   -180.4659815  0.389701E-03  0.111E-01    0.26       1.0  T
   4   -180.4665693 -0.587773E-03  0.314E-02    0.33       1.0  T
   5   -180.4665897 -0.204355E-04  0.228E-02    0.31       1.0  T
   6   -180.4665906 -0.842818E-06  0.164E-02    0.31       1.0  T
   7   -180.4666007 -0.100928E-04  0.916E-03    0.31       1.2  T
   8   -180.4666048 -0.411243E-05  0.504E-03    0.32       2.1  T
   9   -180.4666051 -0.293239E-06  0.350E-03    0.32       3.0  T
  10   -180.4666054 -0.338231E-06  0.208E-03    0.31       5.1  T
  11   -180.4666055 -0.107176E-06  0.150E-03    0.31       7.0  T
  12   -180.4666056 -0.581853E-07  0.822E-04    0.31      12.8  T
  13   -180.4666056 -0.175174E-07  0.532E-04    0.31      19.8  T
     SCC iter.                  ...        0 min,  0.291 sec
     gradient                   ...        0 min,  0.050 sec
 * total energy  :  -178.7147019 Eh     change       -0.7169515E-03 Eh
   gradient norm :     0.0080444 Eh/α   predicted    -0.6341670E-03 ( -11.55%)
   displ. norm   :     0.5812431 α      lambda       -0.7322936E-03
   maximum displ.:     0.4143130 α      in ANC's #6, #4, #11, ...

........................................................................
.............................. CYCLE   66 ..............................
........................................................................

 iter      E             dE          RMSdq      gap      omega  full diag
   1   -180.4705199 -0.180471E+03  0.236E-01    0.28       0.0  T
   2   -180.4703941  0.125740E-03  0.993E-02    0.38       1.0  T
   3   -180.4699566  0.437507E-03  0.125E-01    0.27       1.0  T
   4   -180.4706699 -0.713321E-03  0.410E-02    0.33       1.0  T
   5   -180.4707093 -0.393429E-04  0.272E-02    0.32       1.0  T
   6   -180.4707221 -0.127880E-04  0.181E-02    0.32       1.0  T
   7   -180.4707339 -0.117976E-04  0.908E-03    0.32       1.2  T
   8   -180.4707377 -0.382032E-05  0.493E-03    0.32       2.1  T
   9   -180.4707381 -0.392889E-06  0.330E-03    0.32       3.2  T
  10   -180.4707383 -0.271559E-06  0.204E-03    0.32       5.2  T
  11   -180.4707384 -0.110292E-06  0.144E-03    0.32       7.3  T
  12   -180.4707385 -0.524868E-07  0.780E-04    0.32      13.5  T
  13   -180.4707385 -0.144971E-07  0.492E-04    0.32      21.4  T
     SCC iter.                  ...        0 min,  0.287 sec
     gradient                   ...        0 min,  0.047 sec
 * total energy  :  -178.7152048 Eh     change       -0.5029595E-03 Eh
   gradient norm :     0.0104893 Eh/α   predicted    -0.4898486E-03 (  -2.61%)
   displ. norm   :     0.4833395 α      lambda       -0.6045345E-03
   maximum displ.:     0.3354454 α      in ANC's #6, #18, #11, ...
 * RMSD in coord.:     1.4551251 α      energy gain  -0.3559393E-01 Eh

generating ANC from exact Hessian ...
Using Lindh-Hessian (1995)
 Shifting diagonal of input Hessian by   1.617303598295191E-002
 Lowest  eigenvalues of input Hessian
    0.010000    0.015706    0.015748    0.015914    0.000000    0.000000
    0.000000    0.000000    0.000000    0.000000    0.016275    0.016480
    0.016575    0.016632    0.016771    0.016805    0.016885    0.016944
 Highest eigenvalues
    2.131727    2.207514    2.235078    2.255588    2.259394    2.299161
 

........................................................................
.............................. CYCLE   67 ..............................
........................................................................

 iter      E             dE          RMSdq      gap      omega  full diag
   1   -180.4661539 -0.180466E+03  0.186E-01    0.31       0.0  T
   2   -180.4661072  0.467121E-04  0.712E-02    0.36       1.0  T
   3   -180.4658626  0.244572E-03  0.913E-02    0.28       1.0  T
   4   -180.4662383 -0.375676E-03  0.245E-02    0.34       1.0  T
   5   -180.4662508 -0.124963E-04  0.158E-02    0.33       1.0  T
   6   -180.4662499  0.856110E-06  0.115E-02    0.33       1.0  T
   7   -180.4662528 -0.288525E-05  0.777E-03    0.33       1.4  T
   8   -180.4662554 -0.264672E-05  0.418E-03    0.33       2.5  T
   9   -180.4662559 -0.491807E-06  0.281E-03    0.33       3.8  T
  10   -180.4662561 -0.197490E-06  0.189E-03    0.33       5.6  T
  11   -180.4662562 -0.541003E-07  0.133E-03    0.33       8.0  T
  12   -180.4662562 -0.447456E-07  0.782E-04    0.33      13.5  T
  13   -180.4662562 -0.118690E-07  0.522E-04    0.33      20.2  T
     SCC iter.                  ...        0 min,  0.283 sec
     gradient                   ...        0 min,  0.048 sec
 * total energy  :  -178.7155944 Eh     change       -0.3896111E-03 Eh
   gradient norm :     0.0075678 Eh/α   predicted     0.0000000E+00 (-100.00%)
   displ. norm   :     0.0895268 α      lambda       -0.2101687E-03
   maximum displ.:     0.0310243 α      in ANC's #6, #1, #14, ...

........................................................................
.............................. CYCLE   68 ..............................
........................................................................

 iter      E             dE          RMSdq      gap      omega  full diag
   1   -180.4679389 -0.180468E+03  0.568E-02    0.34       0.0  T
   2   -180.4679407 -0.185816E-05  0.281E-02    0.33       1.0  T
   3   -180.4679303  0.104354E-04  0.236E-02    0.34       1.0  T
   4   -180.4679426 -0.123225E-04  0.141E-02    0.33       1.0  T
   5   -180.4679428 -0.246783E-06  0.115E-02    0.33       1.0  T
   6   -180.4679443 -0.150497E-05  0.865E-03    0.34       1.2  T
   7   -180.4679485 -0.415324E-05  0.350E-03    0.33       3.0  T
   8   -180.4679487 -0.151030E-06  0.219E-03    0.33       4.8  T
   9   -180.4679487 -0.737098E-07  0.162E-03    0.33       6.5  T
  10   -180.4679488 -0.596790E-07  0.109E-03    0.33       9.7  T
  11   -180.4679488 -0.233512E-07  0.703E-04    0.33      15.0  T
  12   -180.4679488 -0.617001E-08  0.491E-04    0.33      21.4  T
     SCC iter.                  ...        0 min,  0.260 sec
     gradient                   ...        0 min,  0.049 sec
 * total energy  :  -178.7157547 Eh     change       -0.1602130E-03 Eh
   gradient norm :     0.0054526 Eh/α   predicted    -0.1120078E-03 ( -30.09%)
   displ. norm   :     0.5105756 α      lambda       -0.1145955E-02
   maximum displ.:     0.1860541 α      in ANC's #6, #17, #14, ...

........................................................................
.............................. CYCLE   69 ..............................
........................................................................

 iter      E             dE          RMSdq      gap      omega  full diag
   1   -180.4735728 -0.180474E+03  0.228E-01    0.37       0.0  T
   2   -180.4735356  0.371649E-04  0.108E-01    0.36       1.0  T
   3   -180.4728554  0.680233E-03  0.125E-01    0.35       1.0  T
   4   -180.4735647 -0.709330E-03  0.598E-02    0.37       1.0  T
   5   -180.4736870 -0.122339E-03  0.342E-02    0.35       1.0  T
   6   -180.4737199 -0.328269E-04  0.204E-02    0.36       1.0  T
   7   -180.4737356 -0.157627E-04  0.114E-02    0.36       1.0  T
   8   -180.4737380 -0.241479E-05  0.651E-03    0.36       1.6  T
   9   -180.4737379  0.146769E-06  0.539E-03    0.36       2.0  T
  10   -180.4737386 -0.686746E-06  0.393E-03    0.36       2.7  T
  11   -180.4737390 -0.432037E-06  0.226E-03    0.36       4.7  T
  12   -180.4737391 -0.604078E-07  0.152E-03    0.36       7.0  T
  13   -180.4737391 -0.413678E-08  0.119E-03    0.36       8.9  T
  14   -180.4737391 -0.182615E-07  0.864E-04    0.36      12.2  T
  15   -180.4737391 -0.235557E-07  0.518E-04    0.36      20.3  T
     SCC iter.                  ...        0 min,  0.327 sec
     gradient                   ...        0 min,  0.049 sec
 * total energy  :  -178.7155616 Eh     change        0.1930644E-03 Eh
   gradient norm :     0.0188314 Eh/α   predicted    -0.7223458E-03 (-474.15%)
   displ. norm   :     0.1338359 α      lambda       -0.1358082E-02
   maximum displ.:     0.0777415 α      in ANC's #1, #18, #20, ...

........................................................................
.............................. CYCLE   70 ..............................
........................................................................

 iter      E             dE          RMSdq      gap      omega  full diag
   1   -180.4717737 -0.180472E+03  0.153E-01    0.35       0.0  T
   2   -180.4718018 -0.280865E-04  0.858E-02    0.33       1.0  T
   3   -180.4716806  0.121177E-03  0.731E-02    0.37       1.0  T
   4   -180.4717946 -0.113937E-03  0.469E-02    0.33       1.0  T
   5   -180.4718676 -0.730622E-04  0.277E-02    0.34       1.0  T
   6   -180.4718797 -0.121063E-04  0.172E-02    0.34       1.0  T
   7   -180.4718881 -0.834355E-05  0.107E-02    0.34       1.0  T
   8   -180.4718928 -0.470840E-05  0.337E-03    0.34       3.1  T
   9   -180.4718925  0.242222E-06  0.308E-03    0.34       3.4  T
  10   -180.4718929 -0.383031E-06  0.172E-03    0.34       6.1  T
  11   -180.4718929 -0.927116E-09  0.105E-03    0.34      10.0  T
  12   -180.4718930 -0.641115E-07  0.521E-04    0.34      20.2  T
  13   -180.4718930 -0.255835E-08  0.392E-04    0.34      26.9  T
     SCC iter.                  ...        0 min,  0.290 sec
     gradient                   ...        0 min,  0.048 sec
 * total energy  :  -178.7161526 Eh     change       -0.5909797E-03 Eh
   gradient norm :     0.0138939 Eh/α   predicted    -0.6912083E-03 (  16.96%)
   displ. norm   :     0.2794488 α      lambda       -0.2015884E-02
   maximum displ.:     0.1598349 α      in ANC's #21, #1, #18, ...

........................................................................
.............................. CYCLE   71 ..............................
........................................................................

 iter      E             dE          RMSdq      gap      omega  full diag
   1   -180.4631758 -0.180463E+03  0.396E-01    0.32       0.0  T
   2   -180.4632688 -0.929692E-04  0.146E-01    0.35       1.0  T
   3   -180.4627878  0.481001E-03  0.113E-01    0.32       1.0  T
   4   -180.4627623  0.255557E-04  0.105E-01    0.35       1.0  T
   5   -180.4634042 -0.641910E-03  0.412E-02    0.34       1.0  T
   6   -180.4633932  0.109249E-04  0.272E-02    0.34       1.0  T
   7   -180.4634206 -0.273135E-04  0.145E-02    0.33       1.0  T
   8   -180.4634295 -0.893750E-05  0.678E-03    0.34       1.6  T
   9   -180.4634298 -0.272155E-06  0.538E-03    0.34       2.0  T
  10   -180.4634306 -0.871918E-06  0.363E-03    0.33       2.9  T
  11   -180.4634308 -0.210110E-06  0.261E-03    0.34       4.0  T
  12   -180.4634309 -0.910487E-07  0.170E-03    0.33       6.2  T
  13   -180.4634309 -0.665835E-09  0.137E-03    0.34       7.7  T
  14   -180.4634310 -0.324681E-07  0.941E-04    0.34      11.2  T
  15   -180.4634310 -0.243776E-07  0.571E-04    0.34      18.5  T
     SCC iter.                  ...        0 min,  0.345 sec
     gradient                   ...        0 min,  0.047 sec
 * total energy  :  -178.7146256 Eh     change        0.1526953E-02 Eh
   gradient norm :     0.0202069 Eh/α   predicted    -0.1086658E-02 (-171.17%)
   displ. norm   :     0.2033339 α      lambda       -0.2916448E-02
   maximum displ.:     0.0931343 α      in ANC's #21, #1, #50, ...

........................................................................
.............................. CYCLE   72 ..............................
........................................................................

 iter      E             dE          RMSdq      gap      omega  full diag
   1   -180.4695912 -0.180470E+03  0.267E-01    0.36       0.0  T
   2   -180.4696304 -0.391438E-04  0.953E-02    0.35       1.0  T
   3   -180.4694342  0.196156E-03  0.730E-02    0.35       1.0  T
   4   -180.4694665 -0.322993E-04  0.614E-02    0.35       1.0  T
   5   -180.4696578 -0.191319E-03  0.322E-02    0.35       1.0  T
   6   -180.4696712 -0.133615E-04  0.225E-02    0.34       1.0  T
   7   -180.4696883 -0.170968E-04  0.932E-03    0.35       1.1  T
   8   -180.4696912 -0.287683E-05  0.454E-03    0.35       2.3  T
   9   -180.4696915 -0.320983E-06  0.298E-03    0.35       3.5  T
  10   -180.4696916 -0.126711E-06  0.229E-03    0.35       4.6  T
  11   -180.4696917 -0.127675E-06  0.144E-03    0.35       7.3  T
  12   -180.4696918 -0.363944E-07  0.982E-04    0.35      10.7  T
  13   -180.4696918 -0.685861E-08  0.725E-04    0.35      14.5  T
     SCC iter.                  ...        0 min,  0.302 sec
     gradient                   ...        0 min,  0.050 sec
 * total energy  :  -178.7164283 Eh     change       -0.1802729E-02 Eh
   gradient norm :     0.0063770 Eh/α   predicted    -0.1518516E-02 ( -15.77%)
   displ. norm   :     0.2837821 α      lambda       -0.7384714E-03
   maximum displ.:     0.1125195 α      in ANC's #6, #17, #3, ...

........................................................................
.............................. CYCLE   73 ..............................
........................................................................

 iter      E             dE          RMSdq      gap      omega  full diag
   1   -180.4715938 -0.180472E+03  0.157E-01    0.36       0.0  T
   2   -180.4716135 -0.196391E-04  0.688E-02    0.34       1.0  T
   3   -180.4715471  0.663701E-04  0.513E-02    0.36       1.0  T
   4   -180.4715650 -0.179162E-04  0.413E-02    0.35       1.0  T
   5   -180.4716470 -0.820395E-04  0.188E-02    0.35       1.0  T
   6   -180.4716487 -0.166106E-05  0.132E-02    0.35       1.0  T
   7   -180.4716553 -0.656712E-05  0.696E-03    0.35       1.5  T
   8   -180.4716567 -0.139212E-05  0.365E-03    0.35       2.9  T
   9   -180.4716569 -0.183812E-06  0.274E-03    0.35       3.8  T
  10   -180.4716570 -0.182003E-06  0.197E-03    0.35       5.3  T
  11   -180.4716571 -0.930924E-07  0.129E-03    0.35       8.1  T
  12   -180.4716572 -0.296563E-07  0.800E-04    0.35      13.2  T
  13   -180.4716572 -0.100101E-09  0.616E-04    0.35      17.1  T
     SCC iter.                  ...        0 min,  0.294 sec
     gradient                   ...        0 min,  0.051 sec
 * total energy  :  -178.7167431 Eh     change       -0.3147934E-03 Eh
   gradient norm :     0.0095061 Eh/α   predicted    -0.3989727E-03 (  26.74%)
   displ. norm   :     0.1851916 α      lambda       -0.3645768E-03
   maximum displ.:     0.0868596 α      in ANC's #6, #3, #10, ...

........................................................................
.............................. CYCLE   74 ..............................
........................................................................

 iter      E             dE          RMSdq      gap      omega  full diag
   1   -180.4707170 -0.180471E+03  0.921E-02    0.35       0.0  T
   2   -180.4707184 -0.139278E-05  0.284E-02    0.36       1.0  T
   3   -180.4706793  0.391380E-04  0.290E-02    0.35       1.0  T
   4   -180.4707138 -0.345262E-04  0.168E-02    0.36       1.0  T
   5   -180.4707271 -0.132801E-04  0.755E-03    0.36       1.4  T
   6   -180.4707275 -0.445506E-06  0.466E-03    0.35       2.3  T
   7   -180.4707283 -0.743628E-06  0.265E-03    0.35       4.0  T
   8   -180.4707286 -0.272734E-06  0.119E-03    0.35       8.8  T
   9   -180.4707286 -0.630803E-08  0.908E-04    0.35      11.6  T
  10   -180.4707286 -0.161797E-07  0.539E-04    0.35      19.6  T
     SCC iter.                  ...        0 min,  0.210 sec
     gradient                   ...        0 min,  0.048 sec
 * total energy  :  -178.7170351 Eh     change       -0.2919492E-03 Eh
   gradient norm :     0.0067780 Eh/α   predicted    -0.1885415E-03 ( -35.42%)
   displ. norm   :     0.5675080 α      lambda       -0.8126264E-03
   maximum displ.:     0.2757862 α      in ANC's #6, #3, #10, ...

........................................................................
.............................. CYCLE   75 ..............................
........................................................................

 iter      E             dE          RMSdq      gap      omega  full diag
   1   -180.4683153 -0.180468E+03  0.230E-01    0.36       0.0  T
   2   -180.4682867  0.286225E-04  0.708E-02    0.38       1.0  T
   3   -180.4677339  0.552793E-03  0.998E-02    0.35       1.0  T
   4   -180.4683355 -0.601638E-03  0.310E-02    0.37       1.0  T
   5   -180.4683632 -0.276998E-04  0.166E-02    0.37       1.0  T
   6   -180.4683667 -0.349534E-05  0.986E-03    0.37       1.1  T
   7   -180.4683695 -0.274763E-05  0.612E-03    0.37       1.7  T
   8   -180.4683713 -0.177509E-05  0.261E-03    0.37       4.0  T
   9   -180.4683713 -0.679634E-08  0.186E-03    0.37       5.7  T
  10   -180.4683713 -0.286417E-07  0.123E-03    0.37       8.6  T
  11   -180.4683713 -0.299621E-07  0.678E-04    0.37      15.5  T
  12   -180.4683713 -0.178213E-07  0.459E-04    0.37      23.0  T
     SCC iter.                  ...        0 min,  0.246 sec
     gradient                   ...        0 min,  0.048 sec
 * total energy  :  -178.7176485 Eh     change       -0.6134392E-03 Eh
   gradient norm :     0.0066025 Eh/α   predicted    -0.5371741E-03 ( -12.43%)
   displ. norm   :     0.7272558 α      lambda       -0.8316485E-03
   maximum displ.:     0.3563721 α      in ANC's #6, #3, #10, ...

........................................................................
.............................. CYCLE   76 ..............................
........................................................................

 iter      E             dE          RMSdq      gap      omega  full diag
   1   -180.4638132 -0.180464E+03  0.277E-01    0.36       0.0  T
   2   -180.4637075  0.105742E-03  0.951E-02    0.39       1.0  T
   3   -180.4624884  0.121907E-02  0.150E-01    0.34       1.0  T
   4   -180.4638566 -0.136815E-02  0.428E-02    0.38       1.0  T
   5   -180.4639029 -0.463619E-04  0.240E-02    0.38       1.0  T
   6   -180.4639146 -0.117079E-04  0.124E-02    0.37       1.0  T
   7   -180.4639183 -0.367559E-05  0.790E-03    0.37       1.3  T
   8   -180.4639217 -0.339598E-05  0.312E-03    0.37       3.4  T
   9   -180.4639218 -0.790867E-07  0.197E-03    0.37       5.3  T
  10   -180.4639218 -0.346666E-07  0.109E-03    0.37       9.7  T
  11   -180.4639218 -0.326276E-07  0.559E-04    0.37      18.9  T
  12   -180.4639218 -0.528490E-08  0.421E-04    0.37      25.0  T
     SCC iter.                  ...        0 min,  0.281 sec
     gradient                   ...        0 min,  0.049 sec
 * total energy  :  -178.7183167 Eh     change       -0.6681561E-03 Eh
   gradient norm :     0.0103408 Eh/α   predicted    -0.6357543E-03 (  -4.85%)
   displ. norm   :     0.6981511 α      lambda       -0.8354496E-03
   maximum displ.:     0.3500437 α      in ANC's #6, #3, #10, ...

........................................................................
.............................. CYCLE   77 ..............................
........................................................................

 iter      E             dE          RMSdq      gap      omega  full diag
   1   -180.4627193 -0.180463E+03  0.252E-01    0.38       0.0  T
   2   -180.4626026  0.116672E-03  0.895E-02    0.40       1.0  T
   3   -180.4613505  0.125209E-02  0.148E-01    0.37       1.0  T
   4   -180.4627661 -0.141558E-02  0.364E-02    0.39       1.0  T
   5   -180.4628002 -0.340846E-04  0.186E-02    0.39       1.0  T
   6   -180.4628017 -0.150041E-05  0.122E-02    0.39       1.0  T
   7   -180.4628077 -0.596171E-05  0.716E-03    0.39       1.5  T
   8   -180.4628100 -0.231330E-05  0.320E-03    0.39       3.3  T
   9   -180.4628100 -0.461553E-07  0.231E-03    0.39       4.6  T
  10   -180.4628100 -0.254958E-07  0.151E-03    0.39       7.0  T
  11   -180.4628101 -0.247852E-07  0.895E-04    0.39      11.8  T
  12   -180.4628101 -0.442521E-07  0.537E-04    0.39      19.6  T
     SCC iter.                  ...        0 min,  0.339 sec
     gradient                   ...        0 min,  0.050 sec
 * total energy  :  -178.7190746 Eh     change       -0.7579368E-03 Eh
   gradient norm :     0.0109609 Eh/α   predicted    -0.6213324E-03 ( -18.02%)
   displ. norm   :     0.6746224 α      lambda       -0.1269829E-02
   maximum displ.:     0.3415684 α      in ANC's #6, #3, #10, ...

........................................................................
.............................. CYCLE   78 ..............................
........................................................................

 iter      E             dE          RMSdq      gap      omega  full diag
   1   -180.4712958 -0.180471E+03  0.269E-01    0.38       0.0  T
   2   -180.4711613  0.134531E-03  0.100E-01    0.43       1.0  T
   3   -180.4700446  0.111674E-02  0.154E-01    0.36       1.0  T
   4   -180.4713572 -0.131267E-02  0.481E-02    0.40       1.0  T
   5   -180.4714370 -0.797326E-04  0.230E-02    0.41       1.0  T
   6   -180.4714397 -0.275078E-05  0.159E-02    0.40       1.0  T
   7   -180.4714459 -0.620599E-05  0.956E-03    0.40       1.1  T
   8   -180.4714500 -0.409667E-05  0.425E-03    0.40       2.5  T
   9   -180.4714502 -0.163740E-06  0.297E-03    0.40       3.5  T
  10   -180.4714501  0.112066E-06  0.256E-03    0.40       4.1  T
  11   -180.4714503 -0.210954E-06  0.151E-03    0.40       7.0  T
  12   -180.4714504 -0.813941E-07  0.888E-04    0.40      11.9  T
  13   -180.4714504 -0.524517E-08  0.642E-04    0.40      16.4  T
     SCC iter.                  ...        0 min,  0.278 sec
     gradient                   ...        0 min,  0.049 sec
 * total energy  :  -178.7200198 Eh     change       -0.9452118E-03 Eh
   gradient norm :     0.0106312 Eh/α   predicted    -0.9238747E-03 (  -2.26%)
   displ. norm   :     0.8162731 α      lambda       -0.1123812E-02
   maximum displ.:     0.4128577 α      in ANC's #6, #3, #10, ...

........................................................................
.............................. CYCLE   79 ..............................
........................................................................

 iter      E             dE          RMSdq      gap      omega  full diag
   1   -180.4672962 -0.180467E+03  0.293E-01    0.41       0.0  T
   2   -180.4672007  0.954848E-04  0.104E-01    0.43       1.0  T
   3   -180.4659571  0.124368E-02  0.153E-01    0.39       1.0  T
   4   -180.4673167 -0.135969E-02  0.493E-02    0.42       1.0  T
   5   -180.4673936 -0.768149E-04  0.257E-02    0.42       1.0  T
   6   -180.4673995 -0.589951E-05  0.162E-02    0.42       1.0  T
   7   -180.4674101 -0.106379E-04  0.938E-03    0.42       1.1  T
   8   -180.4674133 -0.325158E-05  0.467E-03    0.42       2.3  T
   9   -180.4674133  0.946956E-07  0.390E-03    0.42       2.7  T
  10   -180.4674136 -0.331647E-06  0.229E-03    0.42       4.6  T
  11   -180.4674136 -0.521291E-07  0.140E-03    0.42       7.5  T
  12   -180.4674137 -0.386576E-07  0.108E-03    0.42       9.8  T
  13   -180.4674137 -0.307799E-07  0.842E-04    0.42      12.5  T
  14   -180.4674137 -0.158103E-07  0.489E-04    0.42      21.6  T
     SCC iter.                  ...        0 min,  0.298 sec
     gradient                   ...        0 min,  0.050 sec
 * total energy  :  -178.7210037 Eh     change       -0.9838191E-03 Eh
   gradient norm :     0.0118240 Eh/α   predicted    -0.9363093E-03 (  -4.83%)
   displ. norm   :     0.7077987 α      lambda       -0.1285002E-02
   maximum displ.:     0.3489724 α      in ANC's #6, #3, #10, ...

........................................................................
.............................. CYCLE   80 ..............................
........................................................................

 iter      E             dE          RMSdq      gap      omega  full diag
   1   -180.4709623 -0.180471E+03  0.266E-01    0.44       0.0  T
   2   -180.4709334  0.288981E-04  0.984E-02    0.44       1.0  T
   3   -180.4702432  0.690210E-03  0.119E-01    0.42       1.0  T
   4   -180.4709386 -0.695458E-03  0.520E-02    0.44       1.0  T
   5   -180.4710471 -0.108523E-03  0.271E-02    0.43       1.0  T
   6   -180.4710534 -0.624279E-05  0.183E-02    0.43       1.0  T
   7   -180.4710674 -0.140438E-04  0.101E-02    0.43       1.0  T
   8   -180.4710701 -0.264545E-05  0.571E-03    0.43       1.8  T
   9   -180.4710698  0.235822E-06  0.479E-03    0.43       2.2  T
  10   -180.4710704 -0.559866E-06  0.308E-03    0.43       3.4  T
  11   -180.4710705 -0.161900E-06  0.187E-03    0.43       5.6  T
  12   -180.4710706 -0.240678E-07  0.140E-03    0.43       7.5  T
  13   -180.4710706  0.112348E-07  0.125E-03    0.43       8.4  T
  14   -180.4710706 -0.564514E-07  0.698E-04    0.43      15.1  T
  15   -180.4710706 -0.112510E-07  0.367E-04    0.43      28.7  T
     SCC iter.                  ...        0 min,  0.313 sec
     gradient                   ...        0 min,  0.047 sec
 * total energy  :  -178.7220882 Eh     change       -0.1084508E-02 Eh
   gradient norm :     0.0123346 Eh/α   predicted    -0.9643834E-03 ( -11.08%)
   displ. norm   :     0.7703019 α      lambda       -0.1421663E-02
   maximum displ.:     0.3745641 α      in ANC's #6, #3, #10, ...

........................................................................
.............................. CYCLE   81 ..............................
........................................................................

 iter      E             dE          RMSdq      gap      omega  full diag
   1   -180.4700007 -0.180470E+03  0.316E-01    0.42       0.0  T
   2   -180.4698952  0.105428E-03  0.114E-01    0.46       1.0  T
   3   -180.4689469  0.948298E-03  0.156E-01    0.39       1.0  T
   4   -180.4700440 -0.109702E-02  0.559E-02    0.44       1.0  T
   5   -180.4701285 -0.845209E-04  0.348E-02    0.43       1.0  T
   6   -180.4701539 -0.254281E-04  0.207E-02    0.43       1.0  T
   7   -180.4701704 -0.164928E-04  0.123E-02    0.43       1.0  T
   8   -180.4701749 -0.446702E-05  0.700E-03    0.43       1.5  T
   9   -180.4701750 -0.165984E-06  0.517E-03    0.43       2.0  T
  10   -180.4701751 -0.263795E-07  0.394E-03    0.43       2.7  T
  11   -180.4701753 -0.274029E-06  0.260E-03    0.43       4.1  T
  12   -180.4701754 -0.899955E-07  0.196E-03    0.43       5.4  T
  13   -180.4701755 -0.109084E-06  0.128E-03    0.43       8.2  T
  14   -180.4701755  0.826273E-08  0.109E-03    0.43       9.7  T
  15   -180.4701756 -0.453509E-07  0.537E-04    0.43      19.6  T
  16   -180.4701756 -0.819972E-08  0.307E-04    0.43      34.3  T
     SCC iter.                  ...        0 min,  0.336 sec
     gradient                   ...        0 min,  0.047 sec
 * total energy  :  -178.7232964 Eh     change       -0.1208231E-02 Eh
   gradient norm :     0.0116369 Eh/α   predicted    -0.1132618E-02 (  -6.26%)
   displ. norm   :     0.7143767 α      lambda       -0.1461203E-02
   maximum displ.:     0.3144079 α      in ANC's #3, #6, #12, ...

........................................................................
.............................. CYCLE   82 ..............................
........................................................................

 iter      E             dE          RMSdq      gap      omega  full diag
   1   -180.4792295 -0.180479E+03  0.304E-01    0.44       0.0  T
   2   -180.4792070  0.224834E-04  0.109E-01    0.43       1.0  T
   3   -180.4783841  0.822921E-03  0.129E-01    0.42       1.0  T
   4   -180.4792149 -0.830839E-03  0.600E-02    0.43       1.0  T
   5   -180.4793446 -0.129650E-03  0.340E-02    0.42       1.0  T
   6   -180.4793544 -0.977985E-05  0.238E-02    0.42       1.0  T
   7   -180.4793708 -0.164177E-04  0.145E-02    0.42       1.0  T
   8   -180.4793755 -0.475167E-05  0.865E-03    0.42       1.2  T
   9   -180.4793760 -0.489300E-06  0.641E-03    0.42       1.6  T
  10   -180.4793761 -0.510510E-07  0.479E-03    0.42       2.2  T
  11   -180.4793764 -0.380337E-06  0.341E-03    0.42       3.1  T
  12   -180.4793767 -0.257916E-06  0.236E-03    0.42       4.5  T
  13   -180.4793768 -0.540413E-07  0.152E-03    0.42       6.9  T
  14   -180.4793768 -0.450401E-07  0.936E-04    0.42      11.3  T
  15   -180.4793768 -0.238119E-07  0.636E-04    0.42      16.6  T
     SCC iter.                  ...        0 min,  0.301 sec
     gradient                   ...        0 min,  0.048 sec
 * total energy  :  -178.7243409 Eh     change       -0.1044504E-02 Eh
   gradient norm :     0.0126334 Eh/α   predicted    -0.1103456E-02 (   5.64%)
   displ. norm   :     0.8655657 α      lambda       -0.1354894E-02
   maximum displ.:     0.4105097 α      in ANC's #6, #3, #10, ...

........................................................................
.............................. CYCLE   83 ..............................
........................................................................

 iter      E             dE          RMSdq      gap      omega  full diag
   1   -180.4677716 -0.180468E+03  0.323E-01    0.42       0.0  T
   2   -180.4674951  0.276533E-03  0.124E-01    0.43       1.0  T
   3   -180.4647471  0.274803E-02  0.222E-01    0.39       1.0  T
   4   -180.4678833 -0.313628E-02  0.452E-02    0.42       1.0  T
   5   -180.4678920 -0.863452E-05  0.328E-02    0.42       1.0  T
   6   -180.4679216 -0.296448E-04  0.174E-02    0.42       1.0  T
   7   -180.4679290 -0.738328E-05  0.121E-02    0.42       1.0  T
   8   -180.4679340 -0.494704E-05  0.660E-03    0.42       1.6  T
   9   -180.4679340 -0.451030E-07  0.529E-03    0.42       2.0  T
  10   -180.4679342 -0.203669E-06  0.385E-03    0.42       2.7  T
  11   -180.4679344 -0.160925E-06  0.253E-03    0.42       4.2  T
  12   -180.4679344 -0.805663E-07  0.179E-03    0.42       5.9  T
  13   -180.4679346 -0.103710E-06  0.119E-03    0.42       8.9  T
  14   -180.4679346 -0.658866E-08  0.896E-04    0.42      11.8  T
  15   -180.4679346 -0.252388E-07  0.491E-04    0.42      21.5  T
     SCC iter.                  ...        0 min,  0.312 sec
     gradient                   ...        0 min,  0.049 sec
 * total energy  :  -178.7253435 Eh     change       -0.1002643E-02 Eh
   gradient norm :     0.0129800 Eh/α   predicted    -0.1184995E-02 (  18.19%)
   displ. norm   :     0.5275931 α      lambda       -0.1242622E-02
   maximum displ.:     0.2393257 α      in ANC's #3, #10, #4, ...

........................................................................
.............................. CYCLE   84 ..............................
........................................................................

 iter      E             dE          RMSdq      gap      omega  full diag
   1   -180.4726854 -0.180473E+03  0.260E-01    0.43       0.0  T
   2   -180.4722410  0.444396E-03  0.132E-01    0.42       1.0  T
   3   -180.4700094  0.223159E-02  0.213E-01    0.41       1.0  T
   4   -180.4728338 -0.282440E-02  0.469E-02    0.43       1.0  T
   5   -180.4728752 -0.413790E-04  0.334E-02    0.41       1.0  T
   6   -180.4728946 -0.193595E-04  0.214E-02    0.42       1.0  T
   7   -180.4729113 -0.167559E-04  0.103E-02    0.42       1.0  T
   8   -180.4729120 -0.648689E-06  0.756E-03    0.41       1.4  T
   9   -180.4729121 -0.149623E-06  0.573E-03    0.42       1.8  T
  10   -180.4729126 -0.489905E-06  0.398E-03    0.41       2.6  T
  11   -180.4729129 -0.220692E-06  0.306E-03    0.41       3.4  T
  12   -180.4729131 -0.269477E-06  0.177E-03    0.42       6.0  T
  13   -180.4729132 -0.356204E-07  0.122E-03    0.41       8.6  T
  14   -180.4729132  0.959062E-09  0.948E-04    0.41      11.1  T
  15   -180.4729132 -0.113746E-07  0.646E-04    0.41      16.3  T
     SCC iter.                  ...        0 min,  0.312 sec
     gradient                   ...        0 min,  0.048 sec
 * total energy  :  -178.7261425 Eh     change       -0.7989791E-03 Eh
   gradient norm :     0.0141541 Eh/α   predicted    -0.7942606E-03 (  -0.59%)
   displ. norm   :     0.6060033 α      lambda       -0.1134475E-02
   maximum displ.:     0.2969362 α      in ANC's #3, #10, #6, ...

........................................................................
.............................. CYCLE   85 ..............................
........................................................................

 iter      E             dE          RMSdq      gap      omega  full diag
   1   -180.4764154 -0.180476E+03  0.275E-01    0.44       0.0  T
   2   -180.4763331  0.823182E-04  0.114E-01    0.39       1.0  T
   3   -180.4754923  0.840817E-03  0.137E-01    0.45       1.0  T
   4   -180.4764880 -0.995730E-03  0.395E-02    0.41       1.0  T
   5   -180.4764554  0.326587E-04  0.422E-02    0.40       1.0  T
   6   -180.4765525 -0.971457E-04  0.164E-02    0.41       1.0  T
   7   -180.4765569 -0.440614E-05  0.978E-03    0.41       1.1  T
   8   -180.4765580 -0.106438E-05  0.673E-03    0.41       1.6  T
   9   -180.4765587 -0.723542E-06  0.479E-03    0.41       2.2  T
  10   -180.4765584  0.296716E-06  0.416E-03    0.41       2.5  T
  11   -180.4765591 -0.675487E-06  0.249E-03    0.41       4.2  T
  12   -180.4765592 -0.100559E-06  0.160E-03    0.41       6.6  T
  13   -180.4765592  0.758033E-08  0.127E-03    0.41       8.3  T
  14   -180.4765592 -0.147148E-07  0.957E-04    0.41      11.0  T
  15   -180.4765592 -0.314635E-07  0.479E-04    0.41      22.0  T
     SCC iter.                  ...        0 min,  0.339 sec
     gradient                   ...        0 min,  0.048 sec
 * total energy  :  -178.7270277 Eh     change       -0.8851926E-03 Eh
   gradient norm :     0.0116697 Eh/α   predicted    -0.7755544E-03 ( -12.39%)
   displ. norm   :     0.5423796 α      lambda       -0.1104456E-02
   maximum displ.:     0.2622129 α      in ANC's #3, #4, #17, ...

........................................................................
.............................. CYCLE   86 ..............................
........................................................................

 iter      E             dE          RMSdq      gap      omega  full diag
   1   -180.4846637 -0.180485E+03  0.309E-01    0.44       0.0  T
   2   -180.4844117  0.251994E-03  0.144E-01    0.36       1.0  T
   3   -180.4833246  0.108709E-02  0.172E-01    0.46       1.0  T
   4   -180.4848726 -0.154798E-02  0.457E-02    0.40       1.0  T
   5   -180.4848435  0.291419E-04  0.474E-02    0.38       1.0  T
   6   -180.4849566 -0.113132E-03  0.228E-02    0.39       1.0  T
   7   -180.4849682 -0.115869E-04  0.115E-02    0.39       1.0  T
   8   -180.4849692 -0.981825E-06  0.822E-03    0.39       1.3  T
   9   -180.4849699 -0.775555E-06  0.614E-03    0.39       1.7  T
  10   -180.4849696  0.328515E-06  0.523E-03    0.39       2.0  T
  11   -180.4849707 -0.110371E-05  0.292E-03    0.39       3.6  T
  12   -180.4849709 -0.163858E-06  0.174E-03    0.39       6.0  T
  13   -180.4849709  0.164992E-07  0.147E-03    0.39       7.2  T
  14   -180.4849709 -0.234987E-07  0.112E-03    0.39       9.4  T
  15   -180.4849709 -0.317721E-07  0.664E-04    0.39      15.9  T
  16   -180.4849709 -0.161697E-07  0.371E-04    0.39      28.4  T
     SCC iter.                  ...        0 min,  0.328 sec
     gradient                   ...        0 min,  0.048 sec
 * total energy  :  -178.7278608 Eh     change       -0.8330707E-03 Eh
   gradient norm :     0.0113414 Eh/α   predicted    -0.7146824E-03 ( -14.21%)
   displ. norm   :     0.6060864 α      lambda       -0.1010840E-02
   maximum displ.:     0.2966630 α      in ANC's #3, #4, #17, ...

........................................................................
.............................. CYCLE   87 ..............................
........................................................................

 iter      E             dE          RMSdq      gap      omega  full diag
   1   -180.4875104 -0.180488E+03  0.327E-01    0.43       0.0  T
   2   -180.4872593  0.251178E-03  0.145E-01    0.34       1.0  T
   3   -180.4859069  0.135232E-02  0.185E-01    0.45       1.0  T
   4   -180.4877271 -0.182013E-02  0.455E-02    0.39       1.0  T
   5   -180.4876872  0.398767E-04  0.492E-02    0.36       1.0  T
   6   -180.4878093 -0.122093E-03  0.230E-02    0.37       1.0  T
   7   -180.4878203 -0.109992E-04  0.123E-02    0.37       1.0  T
   8   -180.4878214 -0.106872E-05  0.870E-03    0.37       1.2  T
   9   -180.4878225 -0.110966E-05  0.623E-03    0.37       1.7  T
  10   -180.4878222  0.215330E-06  0.510E-03    0.37       2.1  T
  11   -180.4878232 -0.944022E-06  0.307E-03    0.37       3.4  T
  12   -180.4878234 -0.240580E-06  0.185E-03    0.37       5.7  T
  13   -180.4878234  0.226648E-07  0.164E-03    0.37       6.4  T
  14   -180.4878235 -0.646634E-07  0.113E-03    0.37       9.3  T
  15   -180.4878235 -0.187260E-07  0.706E-04    0.37      14.9  T
  16   -180.4878235 -0.171363E-07  0.385E-04    0.37      27.4  T
     SCC iter.                  ...        0 min,  0.359 sec
     gradient                   ...        0 min,  0.048 sec
 * total energy  :  -178.7286539 Eh     change       -0.7930755E-03 Eh
   gradient norm :     0.0106010 Eh/α   predicted    -0.6910841E-03 ( -12.86%)
   displ. norm   :     0.5597749 α      lambda       -0.1071550E-02
   maximum displ.:     0.2209951 α      in ANC's #9, #3, #4, ...

........................................................................
.............................. CYCLE   88 ..............................
........................................................................

 iter      E             dE          RMSdq      gap      omega  full diag
   1   -180.4921763 -0.180492E+03  0.339E-01    0.38       0.0  T
   2   -180.4920117  0.164551E-03  0.132E-01    0.32       1.0  T
   3   -180.4906972  0.131453E-02  0.172E-01    0.40       1.0  T
   4   -180.4923581 -0.166093E-02  0.469E-02    0.35       1.0  T
   5   -180.4922761  0.820010E-04  0.521E-02    0.33       1.0  T
   6   -180.4924240 -0.147890E-03  0.241E-02    0.35       1.0  T
   7   -180.4924379 -0.139331E-04  0.120E-02    0.34       1.0  T
   8   -180.4924388 -0.822158E-06  0.838E-03    0.35       1.3  T
   9   -180.4924396 -0.813292E-06  0.615E-03    0.34       1.7  T
  10   -180.4924401 -0.507107E-06  0.415E-03    0.34       2.5  T
  11   -180.4924407 -0.608924E-06  0.230E-03    0.34       4.6  T
  12   -180.4924408 -0.157543E-06  0.124E-03    0.34       8.5  T
  13   -180.4924408  0.734136E-08  0.108E-03    0.34       9.8  T
  14   -180.4924409 -0.178181E-07  0.790E-04    0.34      13.3  T
  15   -180.4924409 -0.934517E-08  0.507E-04    0.34      20.8  T
     SCC iter.                  ...        0 min,  0.330 sec
     gradient                   ...        0 min,  0.047 sec
 * total energy  :  -178.7294374 Eh     change       -0.7835763E-03 Eh
   gradient norm :     0.0148997 Eh/α   predicted    -0.7036634E-03 ( -10.20%)
   displ. norm   :     0.5554551 α      lambda       -0.9982939E-03
   maximum displ.:     0.2386347 α      in ANC's #3, #9, #4, ...

........................................................................
.............................. CYCLE   89 ..............................
........................................................................

 iter      E             dE          RMSdq      gap      omega  full diag
   1   -180.4928379 -0.180493E+03  0.299E-01    0.34       0.0  T
   2   -180.4927874  0.504473E-04  0.103E-01    0.32       1.0  T
   3   -180.4917947  0.992734E-03  0.142E-01    0.33       1.0  T
   4   -180.4929220 -0.112727E-02  0.385E-02    0.33       1.0  T
   5   -180.4929093  0.126991E-04  0.356E-02    0.31       1.0  T
   6   -180.4929725 -0.632552E-04  0.183E-02    0.33       1.0  T
   7   -180.4929809 -0.837780E-05  0.996E-03    0.32       1.1  T
   8   -180.4929814 -0.508636E-06  0.773E-03    0.32       1.4  T
   9   -180.4929833 -0.192508E-05  0.499E-03    0.32       2.1  T
  10   -180.4929834 -0.569816E-07  0.373E-03    0.32       2.8  T
  11   -180.4929839 -0.449854E-06  0.222E-03    0.32       4.7  T
  12   -180.4929839 -0.303499E-07  0.160E-03    0.32       6.6  T
  13   -180.4929839 -0.615219E-07  0.117E-03    0.32       9.0  T
  14   -180.4929840 -0.245410E-07  0.824E-04    0.32      12.8  T
  15   -180.4929840 -0.290129E-08  0.552E-04    0.32      19.1  T
     SCC iter.                  ...        0 min,  0.302 sec
     gradient                   ...        0 min,  0.048 sec
 * total energy  :  -178.7301647 Eh     change       -0.7272149E-03 Eh
   gradient norm :     0.0169564 Eh/α   predicted    -0.6531502E-03 ( -10.18%)
   displ. norm   :     0.5615422 α      lambda       -0.1124280E-02
   maximum displ.:     0.2530617 α      in ANC's #9, #6, #3, ...

........................................................................
.............................. CYCLE   90 ..............................
........................................................................

 iter      E             dE          RMSdq      gap      omega  full diag
   1   -180.4900647 -0.180490E+03  0.286E-01    0.30       0.0  T
   2   -180.4900036  0.611250E-04  0.106E-01    0.30       1.0  T
   3   -180.4888037  0.119982E-02  0.149E-01    0.28       1.0  T
   4   -180.4901204 -0.131663E-02  0.419E-02    0.31       1.0  T
   5   -180.4901153  0.508454E-05  0.349E-02    0.29       1.0  T
   6   -180.4901760 -0.607182E-04  0.161E-02    0.30       1.0  T
   7   -180.4901826 -0.663724E-05  0.950E-03    0.30       1.1  T
   8   -180.4901833 -0.639292E-06  0.781E-03    0.30       1.3  T
   9   -180.4901857 -0.236988E-05  0.452E-03    0.30       2.3  T
  10   -180.4901857 -0.112655E-07  0.293E-03    0.30       3.6  T
  11   -180.4901858 -0.115037E-06  0.213E-03    0.30       4.9  T
  12   -180.4901860 -0.193299E-06  0.112E-03    0.30       9.4  T
  13   -180.4901860 -0.211561E-07  0.841E-04    0.30      12.5  T
  14   -180.4901860 -0.907195E-08  0.619E-04    0.30      17.0  T
     SCC iter.                  ...        0 min,  0.287 sec
     gradient                   ...        0 min,  0.048 sec
 * total energy  :  -178.7310143 Eh     change       -0.8496817E-03 Eh
   gradient norm :     0.0139371 Eh/α   predicted    -0.7393990E-03 ( -12.98%)
   displ. norm   :     0.5875314 α      lambda       -0.1206673E-02
   maximum displ.:     0.2787379 α      in ANC's #9, #6, #5, ...

........................................................................
.............................. CYCLE   91 ..............................
........................................................................

 iter      E             dE          RMSdq      gap      omega  full diag
   1   -180.4949226 -0.180495E+03  0.273E-01    0.26       0.0  T
   2   -180.4948320  0.905911E-04  0.985E-02    0.31       1.0  T
   3   -180.4925669  0.226515E-02  0.153E-01    0.19       1.0  T
   4   -180.4947383 -0.217148E-02  0.657E-02    0.33       1.0  T
   5   -180.4950397 -0.301390E-03  0.274E-02    0.29       1.0  T
   6   -180.4950695 -0.298186E-04  0.194E-02    0.27       1.0  T
   7   -180.4950702 -0.638067E-06  0.154E-02    0.27       1.0  T
   8   -180.4950786 -0.844892E-05  0.101E-02    0.27       1.0  T
   9   -180.4950821 -0.347035E-05  0.754E-03    0.28       1.4  T
  10   -180.4950834 -0.131261E-05  0.552E-03    0.28       1.9  T
  11   -180.4950837 -0.273705E-06  0.368E-03    0.28       2.9  T
  12   -180.4950841 -0.361792E-06  0.257E-03    0.27       4.1  T
  13   -180.4950841 -0.633346E-07  0.189E-03    0.27       5.6  T
  14   -180.4950842 -0.839235E-07  0.135E-03    0.27       7.8  T
  15   -180.4950843 -0.546336E-07  0.853E-04    0.27      12.4  T
  16   -180.4950843 -0.519015E-08  0.520E-04    0.27      20.3  T
     SCC iter.                  ...        0 min,  0.352 sec
     gradient                   ...        0 min,  0.048 sec
 * total energy  :  -178.7318950 Eh     change       -0.8806792E-03 Eh
   gradient norm :     0.0159965 Eh/α   predicted    -0.8116051E-03 (  -7.84%)
   displ. norm   :     0.6177836 α      lambda       -0.1241572E-02
   maximum displ.:     0.2581644 α      in ANC's #3, #9, #4, ...

........................................................................
.............................. CYCLE   92 ..............................
........................................................................

 iter      E             dE          RMSdq      gap      omega  full diag
   1   -180.4853083 -0.180485E+03  0.337E-01    0.25       0.0  T
   2   -180.4852193  0.890053E-04  0.111E-01    0.30       1.0  T
   3   -180.4815040  0.371526E-02  0.184E-01    0.17       1.0  T
   4   -180.4849119 -0.340785E-02  0.806E-02    0.34       1.0  T
   5   -180.4854350 -0.523098E-03  0.367E-02    0.28       1.0  T
   6   -180.4855003 -0.653791E-04  0.238E-02    0.26       1.0  T
   7   -180.4854796  0.207833E-04  0.234E-02    0.25       1.0  T
   8   -180.4855096 -0.300517E-04  0.115E-02    0.26       1.0  T
   9   -180.4855121 -0.253022E-05  0.906E-03    0.26       1.2  T
  10   -180.4855108  0.136858E-05  0.867E-03    0.26       1.2  T
  11   -180.4855134 -0.264159E-05  0.581E-03    0.26       1.8  T
  12   -180.4855143 -0.865996E-06  0.372E-03    0.26       2.8  T
  13   -180.4855144 -0.725361E-07  0.261E-03    0.26       4.0  T
  14   -180.4855145 -0.999435E-07  0.196E-03    0.26       5.4  T
  15   -180.4855146 -0.122674E-06  0.120E-03    0.26       8.8  T
  16   -180.4855146 -0.192982E-07  0.747E-04    0.26      14.1  T
  17   -180.4855146 -0.165021E-07  0.380E-04    0.26      27.7  T
     SCC iter.                  ...        0 min,  0.405 sec
     gradient                   ...        0 min,  0.048 sec
 * total energy  :  -178.7325793 Eh     change       -0.6843173E-03 Eh
   gradient norm :     0.0170834 Eh/α   predicted    -0.8577155E-03 (  25.34%)
   displ. norm   :     0.5378497 α      lambda       -0.1148198E-02
   maximum displ.:     0.3067722 α      in ANC's #6, #9, #5, ...
 * RMSD in coord.:     1.0531205 α      energy gain  -0.1737450E-01 Eh

generating ANC from exact Hessian ...
Using Lindh-Hessian (1995)
 Shifting diagonal of input Hessian by   1.620921662577807E-002
 Lowest  eigenvalues of input Hessian
    0.010000    0.015746    0.015826    0.015981    0.000000    0.000000
    0.000000    0.000000    0.000000    0.000000    0.016370    0.016521
    0.016602    0.016654    0.016800    0.016896    0.016972    0.017075
 Highest eigenvalues
    2.110375    2.194358    2.215350    2.257416    2.259909    2.289590
 

........................................................................
.............................. CYCLE   93 ..............................
........................................................................

 iter      E             dE          RMSdq      gap      omega  full diag
   1   -180.4973451 -0.180497E+03  0.208E-01    0.26       0.0  T
   2   -180.4971729  0.172291E-03  0.926E-02    0.22       1.0  T
   3   -180.4957596  0.141330E-02  0.150E-01    0.34       1.0  T
   4   -180.4974203 -0.166070E-02  0.377E-02    0.25       1.0  T
   5   -180.4974332 -0.129145E-04  0.237E-02    0.24       1.0  T
   6   -180.4974204  0.127672E-04  0.224E-02    0.25       1.0  T
   7   -180.4974386 -0.181830E-04  0.124E-02    0.24       1.0  T
   8   -180.4974366  0.200931E-05  0.121E-02    0.25       1.0  T
   9   -180.4974446 -0.804318E-05  0.760E-03    0.25       1.4  T
  10   -180.4974447 -0.626769E-07  0.573E-03    0.24       1.8  T
  11   -180.4974461 -0.136581E-05  0.296E-03    0.25       3.6  T
  12   -180.4974463 -0.216054E-06  0.190E-03    0.25       5.5  T
  13   -180.4974462  0.217828E-07  0.143E-03    0.25       7.4  T
  14   -180.4974463 -0.489524E-07  0.882E-04    0.25      12.0  T
  15   -180.4974463 -0.169891E-07  0.550E-04    0.25      19.2  T
     SCC iter.                  ...        0 min,  0.317 sec
     gradient                   ...        0 min,  0.049 sec
 * total energy  :  -178.7332776 Eh     change       -0.6982494E-03 Eh
   gradient norm :     0.0158912 Eh/α   predicted     0.0000000E+00 (-100.00%)
   displ. norm   :     0.1790880 α      lambda       -0.1042378E-02
   maximum displ.:     0.1020462 α      in ANC's #21, #5, #15, ...

........................................................................
.............................. CYCLE   94 ..............................
........................................................................

 iter      E             dE          RMSdq      gap      omega  full diag
   1   -180.4936506 -0.180494E+03  0.176E-01    0.25       0.0  T
   2   -180.4936719 -0.212628E-04  0.761E-02    0.24       1.0  T
   3   -180.4935320  0.139905E-03  0.603E-02    0.26       1.0  T
   4   -180.4935643 -0.322862E-04  0.499E-02    0.23       1.0  T
   5   -180.4936800 -0.115685E-03  0.286E-02    0.26       1.0  T
   6   -180.4936513  0.286374E-04  0.260E-02    0.23       1.0  T
   7   -180.4937042 -0.528380E-04  0.120E-02    0.25       1.0  T
   8   -180.4937104 -0.627237E-05  0.795E-03    0.25       1.3  T
   9   -180.4937138 -0.337328E-05  0.397E-03    0.25       2.7  T
  10   -180.4937138 -0.340705E-08  0.281E-03    0.25       3.8  T
  11   -180.4937139 -0.116756E-06  0.210E-03    0.25       5.0  T
  12   -180.4937141 -0.167003E-06  0.123E-03    0.25       8.6  T
  13   -180.4937141 -0.171784E-07  0.911E-04    0.25      11.6  T
  14   -180.4937141 -0.798707E-08  0.612E-04    0.25      17.2  T
     SCC iter.                  ...        0 min,  0.292 sec
     gradient                   ...        0 min,  0.053 sec
 * total energy  :  -178.7331444 Eh     change        0.1332118E-03 Eh
   gradient norm :     0.0157411 Eh/α   predicted    -0.5379111E-03 (-503.80%)
   displ. norm   :     0.2155473 α      lambda       -0.1638656E-02
   maximum displ.:     0.0910015 α      in ANC's #21, #5, #14, ...

........................................................................
.............................. CYCLE   95 ..............................
........................................................................

 iter      E             dE          RMSdq      gap      omega  full diag
   1   -180.4908329 -0.180491E+03  0.218E-01    0.26       0.0  T
   2   -180.4903835  0.449378E-03  0.125E-01    0.20       1.0  T
   3   -180.4887538  0.162963E-02  0.166E-01    0.38       1.0  T
   4   -180.4909583 -0.220448E-02  0.558E-02    0.25       1.0  T
   5   -180.4909908 -0.324282E-04  0.333E-02    0.23       1.0  T
   6   -180.4910000 -0.921620E-05  0.276E-02    0.24       1.0  T
   7   -180.4910107 -0.107124E-04  0.165E-02    0.24       1.0  T
   8   -180.4910223 -0.115855E-04  0.911E-03    0.25       1.2  T
   9   -180.4910253 -0.301677E-05  0.603E-03    0.25       1.7  T
  10   -180.4910262 -0.870460E-06  0.404E-03    0.24       2.6  T
  11   -180.4910270 -0.865101E-06  0.252E-03    0.24       4.2  T
  12   -180.4910272 -0.224613E-06  0.155E-03    0.24       6.8  T
  13   -180.4910272  0.318398E-07  0.134E-03    0.24       7.9  T
  14   -180.4910273 -0.914456E-07  0.802E-04    0.24      13.1  T
  15   -180.4910273 -0.676900E-08  0.594E-04    0.24      17.8  T
     SCC iter.                  ...        0 min,  0.324 sec
     gradient                   ...        0 min,  0.046 sec
 * total energy  :  -178.7340821 Eh     change       -0.9377601E-03 Eh
   gradient norm :     0.0111947 Eh/α   predicted    -0.8573958E-03 (  -8.57%)
   displ. norm   :     0.2585059 α      lambda       -0.1013630E-02
   maximum displ.:     0.1789869 α      in ANC's #1, #5, #7, ...

........................................................................
.............................. CYCLE   96 ..............................
........................................................................

 iter      E             dE          RMSdq      gap      omega  full diag
   1   -180.4906415 -0.180491E+03  0.257E-01    0.24       0.0  T
   2   -180.4906743 -0.327754E-04  0.134E-01    0.24       1.0  T
   3   -180.4903851  0.289167E-03  0.110E-01    0.27       1.0  T
   4   -180.4902706  0.114518E-03  0.836E-02    0.20       1.0  T
   5   -180.4903855 -0.114970E-03  0.758E-02    0.30       1.0  T
   6   -180.4907774 -0.391863E-03  0.368E-02    0.25       1.0  T
   7   -180.4908449 -0.675292E-04  0.155E-02    0.24       1.0  T
   8   -180.4908303  0.146294E-04  0.160E-02    0.23       1.0  T
   9   -180.4908460 -0.157038E-04  0.793E-03    0.24       1.3  T
  10   -180.4908471 -0.105538E-05  0.631E-03    0.24       1.7  T
  11   -180.4908485 -0.145194E-05  0.414E-03    0.24       2.5  T
  12   -180.4908492 -0.691005E-06  0.240E-03    0.24       4.4  T
  13   -180.4908494 -0.235726E-06  0.154E-03    0.24       6.9  T
  14   -180.4908495 -0.967651E-08  0.123E-03    0.24       8.6  T
  15   -180.4908495 -0.510873E-07  0.759E-04    0.24      13.9  T
  16   -180.4908495 -0.133290E-07  0.418E-04    0.24      25.2  T
     SCC iter.                  ...        0 min,  0.348 sec
     gradient                   ...        0 min,  0.050 sec
 * total energy  :  -178.7337821 Eh     change        0.3000752E-03 Eh
   gradient norm :     0.0143724 Eh/α   predicted    -0.5406836E-03 (-280.18%)
   displ. norm   :     0.1925177 α      lambda       -0.1644096E-02
   maximum displ.:     0.1322787 α      in ANC's #1, #7, #5, ...

........................................................................
.............................. CYCLE   97 ..............................
........................................................................

 iter      E             dE          RMSdq      gap      omega  full diag
   1   -180.4941445 -0.180494E+03  0.199E-01    0.24       0.0  T
   2   -180.4941986 -0.541527E-04  0.923E-02    0.25       1.0  T
   3   -180.4940419  0.156685E-03  0.679E-02    0.22       1.0  T
   4   -180.4938761  0.165844E-03  0.676E-02    0.28       1.0  T
   5   -180.4941507 -0.274637E-03  0.429E-02    0.22       1.0  T
   6   -180.4942197 -0.689977E-04  0.246E-02    0.25       1.0  T
   7   -180.4942474 -0.276848E-04  0.131E-02    0.24       1.0  T
   8   -180.4942495 -0.210020E-05  0.991E-03    0.24       1.1  T
   9   -180.4942544 -0.490539E-05  0.549E-03    0.24       1.9  T
  10   -180.4942553 -0.859648E-06  0.378E-03    0.24       2.8  T
  11   -180.4942551  0.164381E-06  0.284E-03    0.24       3.7  T
  12   -180.4942555 -0.369613E-06  0.181E-03    0.24       5.8  T
  13   -180.4942555 -0.483575E-07  0.140E-03    0.24       7.5  T
  14   -180.4942556 -0.925743E-07  0.761E-04    0.24      13.9  T
  15   -180.4942556 -0.132821E-07  0.429E-04    0.24      24.6  T
     SCC iter.                  ...        0 min,  0.301 sec
     gradient                   ...        0 min,  0.047 sec
 * total energy  :  -178.7345749 Eh     change       -0.7928178E-03 Eh
   gradient norm :     0.0094282 Eh/α   predicted    -0.8525167E-03 (   7.53%)
   displ. norm   :     0.2198464 α      lambda       -0.1096568E-02
   maximum displ.:     0.0725518 α      in ANC's #5, #27, #18, ...

........................................................................
.............................. CYCLE   98 ..............................
........................................................................

 iter      E             dE          RMSdq      gap      omega  full diag
   1   -180.4924452 -0.180492E+03  0.232E-01    0.19       0.0  T
   2   -180.4899463  0.249895E-02  0.203E-01    0.40       1.0  T
   3   -180.4867742  0.317211E-02  0.219E-01    0.15       1.0  T
   4   -180.4919547 -0.518048E-02  0.983E-02    0.35       1.0  T
   5   -180.4930189 -0.106429E-02  0.498E-02    0.27       1.0  T
   6   -180.4931703 -0.151316E-03  0.343E-02    0.25       1.0  T
   7   -180.4931887 -0.184415E-04  0.276E-02    0.24       1.0  T
   8   -180.4931956 -0.688333E-05  0.194E-02    0.23       1.0  T
   9   -180.4932164 -0.207798E-04  0.897E-03    0.23       1.2  T
  10   -180.4932174 -0.107996E-05  0.509E-03    0.23       2.1  T
  11   -180.4932181 -0.644587E-06  0.245E-03    0.23       4.3  T
  12   -180.4932183 -0.196346E-06  0.156E-03    0.23       6.7  T
  13   -180.4932183  0.142604E-07  0.125E-03    0.23       8.5  T
  14   -180.4932183 -0.604045E-07  0.807E-04    0.23      13.1  T
  15   -180.4932183 -0.117940E-07  0.560E-04    0.23      18.8  T
     SCC iter.                  ...        0 min,  0.308 sec
     gradient                   ...        0 min,  0.049 sec
 * total energy  :  -178.7348166 Eh     change       -0.2417601E-03 Eh
   gradient norm :     0.0094690 Eh/α   predicted    -0.5747864E-03 ( 137.75%)
   displ. norm   :     0.2177446 α      lambda       -0.7333381E-03
   maximum displ.:     0.0766955 α      in ANC's #5, #7, #14, ...

........................................................................
.............................. CYCLE   99 ..............................
........................................................................

 iter      E             dE          RMSdq      gap      omega  full diag
   1   -180.4921158 -0.180492E+03  0.138E-01    0.23       0.0  T
   2   -180.4921068  0.895333E-05  0.478E-02    0.22       1.0  T
   3   -180.4919250  0.181810E-03  0.555E-02    0.25       1.0  T
   4   -180.4919832 -0.581761E-04  0.381E-02    0.21       1.0  T
   5   -180.4920944 -0.111283E-03  0.244E-02    0.24       1.0  T
   6   -180.4921480 -0.535645E-04  0.107E-02    0.23       1.0  T
   7   -180.4921509 -0.287044E-05  0.585E-03    0.23       1.8  T
   8   -180.4921516 -0.707981E-06  0.453E-03    0.23       2.3  T
   9   -180.4921521 -0.519777E-06  0.286E-03    0.23       3.7  T
  10   -180.4921523 -0.190280E-06  0.190E-03    0.23       5.5  T
  11   -180.4921523 -0.563742E-08  0.150E-03    0.23       7.0  T
  12   -180.4921524 -0.109808E-06  0.831E-04    0.23      12.7  T
  13   -180.4921524  0.117926E-07  0.761E-04    0.23      13.9  T
     SCC iter.                  ...        0 min,  0.269 sec
     gradient                   ...        0 min,  0.048 sec
 * total energy  :  -178.7353757 Eh     change       -0.5590494E-03 Eh
   gradient norm :     0.0065072 Eh/α   predicted    -0.3840575E-03 ( -31.30%)
   displ. norm   :     0.5105749 α      lambda       -0.9474469E-03
   maximum displ.:     0.1882301 α      in ANC's #5, #7, #14, ...

........................................................................
.............................. CYCLE  100 ..............................
........................................................................

 iter      E             dE          RMSdq      gap      omega  full diag
   1   -180.4883929 -0.180488E+03  0.232E-01    0.18       0.0  T
   2   -180.4850291  0.336380E-02  0.213E-01    0.41       1.0  T
   3   -180.4780909  0.693821E-02  0.274E-01    0.13       1.0  T
   4   -180.4874973 -0.940640E-02  0.118E-01    0.35       1.0  T
   5   -180.4888236 -0.132627E-02  0.722E-02    0.27       1.0  T
   6   -180.4891031 -0.279574E-03  0.551E-02    0.25       1.0  T
   7   -180.4892908 -0.187654E-03  0.334E-02    0.23       1.0  T
   8   -180.4893412 -0.504153E-04  0.151E-02    0.21       1.0  T
   9   -180.4893282  0.129716E-04  0.152E-02    0.21       1.0  T
  10   -180.4893419 -0.136435E-04  0.876E-03    0.21       1.2  T
  11   -180.4893443 -0.240532E-05  0.608E-03    0.22       1.7  T
  12   -180.4893463 -0.205896E-05  0.304E-03    0.22       3.5  T
  13   -180.4893467 -0.399940E-06  0.195E-03    0.21       5.4  T
  14   -180.4893467  0.204311E-07  0.156E-03    0.21       6.8  T
  15   -180.4893468 -0.586283E-07  0.119E-03    0.21       8.8  T
  16   -180.4893469 -0.690357E-07  0.698E-04    0.22      15.1  T
  17   -180.4893468  0.279769E-08  0.557E-04    0.21      18.9  T
     SCC iter.                  ...        0 min,  0.356 sec
     gradient                   ...        0 min,  0.048 sec
 * total energy  :  -178.7360880 Eh     change       -0.7123129E-03 Eh
   gradient norm :     0.0085840 Eh/α   predicted    -0.5972161E-03 ( -16.16%)
   displ. norm   :     0.6314853 α      lambda       -0.8924693E-03
   maximum displ.:     0.2377195 α      in ANC's #5, #7, #14, ...

........................................................................
.............................. CYCLE  101 ..............................
........................................................................

 iter      E             dE          RMSdq      gap      omega  full diag
   1   -180.4812508 -0.180481E+03  0.292E-01    0.14       0.0  T
   2   -180.4703317  0.109191E-01  0.412E-01    0.65       1.0  T
   3   -180.4845485 -0.142167E-01  0.151E-01    0.26       1.0  T
   4   -180.4799140  0.463444E-02  0.195E-01    0.13       1.0  T
   5   -180.4842027 -0.428864E-02  0.999E-02    0.28       1.0  T
   6   -180.4849153 -0.712645E-03  0.727E-02    0.24       1.0  T
   7   -180.4851306 -0.215252E-03  0.476E-02    0.22       1.0  T
   8   -180.4852336 -0.103023E-03  0.292E-02    0.21       1.0  T
   9   -180.4853022 -0.685686E-04  0.100E-02    0.20       1.0  T
  10   -180.4852999  0.221263E-05  0.834E-03    0.20       1.3  T
  11   -180.4853004 -0.476677E-06  0.686E-03    0.20       1.5  T
  12   -180.4853038 -0.339611E-05  0.427E-03    0.20       2.5  T
  13   -180.4853054 -0.157723E-05  0.199E-03    0.20       5.3  T
  14   -180.4853056 -0.192246E-06  0.121E-03    0.20       8.7  T
  15   -180.4853056 -0.554600E-07  0.821E-04    0.20      12.8  T
  16   -180.4853056  0.576492E-07  0.865E-04    0.20      12.2  T
     SCC iter.                  ...        0 min,  0.321 sec
     gradient                   ...        0 min,  0.049 sec
 * total energy  :  -178.7367941 Eh     change       -0.7061555E-03 Eh
   gradient norm :     0.0102882 Eh/α   predicted    -0.6241812E-03 ( -11.61%)
   displ. norm   :     0.6185531 α      lambda       -0.8783368E-03
   maximum displ.:     0.2242495 α      in ANC's #5, #14, #7, ...

........................................................................
.............................. CYCLE  102 ..............................
........................................................................

 iter      E             dE          RMSdq      gap      omega  full diag
   1   -180.4603000 -0.180460E+03  0.444E-01    0.09       0.0  T
   2   -180.4226278  0.376722E-01  0.856E-01    0.94       1.0  T
   3   -180.4684937 -0.458659E-01  0.331E-01    0.69       1.0  T
   4   -180.4796424 -0.111486E-01  0.183E-01    0.31       1.0  T
   5   -180.4817348 -0.209245E-02  0.145E-01    0.22       1.0  T
   6   -180.4820163 -0.281450E-03  0.862E-02    0.20       1.0  T
   7   -180.4822620 -0.245703E-03  0.389E-02    0.18       1.0  T
   8   -180.4823308 -0.688440E-04  0.200E-02    0.18       1.0  T
   9   -180.4823343 -0.350185E-05  0.132E-02    0.18       1.0  T
  10   -180.4823367 -0.235435E-05  0.106E-02    0.18       1.0  T
  11   -180.4823398 -0.313429E-05  0.648E-03    0.18       1.6  T
  12   -180.4823405 -0.747438E-06  0.395E-03    0.18       2.7  T
  13   -180.4823411 -0.539325E-06  0.253E-03    0.18       4.2  T
  14   -180.4823414 -0.353626E-06  0.151E-03    0.18       7.0  T
  15   -180.4823414 -0.878796E-08  0.113E-03    0.18       9.3  T
  16   -180.4823415 -0.472396E-07  0.695E-04    0.18      15.2  T
  17   -180.4823415 -0.633923E-08  0.551E-04    0.18      19.1  T
     SCC iter.                  ...        0 min,  0.352 sec
     gradient                   ...        0 min,  0.049 sec
 * total energy  :  -178.7374552 Eh     change       -0.6610197E-03 Eh
   gradient norm :     0.0096891 Eh/α   predicted    -0.6071997E-03 (  -8.14%)
   displ. norm   :     0.4667325 α      lambda       -0.6788363E-03
   maximum displ.:     0.1725908 α      in ANC's #11, #14, #18, ...

........................................................................
.............................. CYCLE  103 ..............................
........................................................................

 iter      E             dE          RMSdq      gap      omega  full diag
   1   -180.4604321 -0.180460E+03  0.434E-01    0.08       0.0  T
   2   -180.4156818  0.447503E-01  0.906E-01    0.93       1.0  T
   3   -180.4667388 -0.510569E-01  0.369E-01    0.72       1.0  T
   4   -180.4803349 -0.135961E-01  0.208E-01    0.33       1.0  T
   5   -180.4826460 -0.231113E-02  0.171E-01    0.25       1.0  T
   6   -180.4835450 -0.898968E-03  0.120E-01    0.22       1.0  T
   7   -180.4844892 -0.944193E-03  0.446E-02    0.17       1.0  T
   8   -180.4845646 -0.754231E-04  0.214E-02    0.16       1.0  T
   9   -180.4845582  0.639538E-05  0.200E-02    0.17       1.0  T
  10   -180.4845796 -0.213431E-04  0.119E-02    0.17       1.0  T
  11   -180.4845870 -0.744256E-05  0.612E-03    0.17       1.7  T
  12   -180.4845864  0.648257E-06  0.472E-03    0.17       2.2  T
  13   -180.4845876 -0.122891E-05  0.253E-03    0.17       4.2  T
  14   -180.4845877 -0.660310E-07  0.195E-03    0.17       5.4  T
  15   -180.4845879 -0.202757E-06  0.112E-03    0.17       9.4  T
  16   -180.4845879 -0.130200E-07  0.801E-04    0.17      13.2  T
  17   -180.4845879 -0.706140E-08  0.601E-04    0.17      17.5  T
     SCC iter.                  ...        0 min,  0.360 sec
     gradient                   ...        0 min,  0.049 sec
 * total energy  :  -178.7379061 Eh     change       -0.4509137E-03 Eh
   gradient norm :     0.0070352 Eh/α   predicted    -0.4133614E-03 (  -8.33%)
   displ. norm   :     0.3976875 α      lambda       -0.4239455E-03
   maximum displ.:     0.1639355 α      in ANC's #11, #14, #18, ...

........................................................................
.............................. CYCLE  104 ..............................
........................................................................

 iter      E             dE          RMSdq      gap      omega  full diag
   1   -180.4651737 -0.180465E+03  0.393E-01    0.08       0.0  T
   2   -180.4228124  0.423613E-01  0.826E-01    0.98       1.0  T
   3   -180.4689410 -0.461286E-01  0.332E-01    0.61       1.0  T
   4   -180.4808082 -0.118672E-01  0.197E-01    0.27       1.0  T
   5   -180.4827481 -0.193986E-02  0.154E-01    0.21       1.0  T
   6   -180.4835271 -0.779000E-03  0.834E-02    0.18       1.0  T
   7   -180.4837947 -0.267659E-03  0.428E-02    0.16       1.0  T
   8   -180.4838962 -0.101472E-03  0.178E-02    0.15       1.0  T
   9   -180.4838850  0.112630E-04  0.197E-02    0.16       1.0  T
  10   -180.4838961 -0.111330E-04  0.105E-02    0.16       1.0  T
  11   -180.4839034 -0.727022E-05  0.540E-03    0.16       2.0  T
  12   -180.4839035 -0.121531E-06  0.487E-03    0.16       2.2  T
  13   -180.4839041 -0.621887E-06  0.286E-03    0.16       3.7  T
  14   -180.4839041 -0.348474E-07  0.202E-03    0.16       5.2  T
  15   -180.4839043 -0.140937E-06  0.138E-03    0.16       7.6  T
  16   -180.4839043  0.631005E-08  0.112E-03    0.16       9.4  T
  17   -180.4839043 -0.460425E-07  0.746E-04    0.16      14.1  T
  18   -180.4839043 -0.213446E-07  0.453E-04    0.16      23.3  T
     SCC iter.                  ...        0 min,  0.373 sec
     gradient                   ...        0 min,  0.050 sec
 * total energy  :  -178.7382023 Eh     change       -0.2962095E-03 Eh
   gradient norm :     0.0062701 Eh/α   predicted    -0.2454979E-03 ( -17.12%)
   displ. norm   :     0.3791411 α      lambda       -0.4092693E-03
   maximum displ.:     0.1706095 α      in ANC's #11, #14, #18, ...

........................................................................
.............................. CYCLE  105 ..............................
........................................................................

 iter      E             dE          RMSdq      gap      omega  full diag
   1   -180.4648660 -0.180465E+03  0.397E-01    0.08       0.0  T
   2   -180.4181162  0.467497E-01  0.849E-01    1.00       1.0  T
   3   -180.4683639 -0.502477E-01  0.336E-01    0.59       1.0  T
   4   -180.4811000 -0.127361E-01  0.209E-01    0.25       1.0  T
   5   -180.4829148 -0.181475E-02  0.165E-01    0.20       1.0  T
   6   -180.4836553 -0.740491E-03  0.907E-02    0.17       1.0  T
   7   -180.4839252 -0.269967E-03  0.496E-02    0.16       1.0  T
   8   -180.4840437 -0.118451E-03  0.265E-02    0.14       1.0  T
   9   -180.4840004  0.432394E-04  0.401E-02    0.16       1.0  T
  10   -180.4840511 -0.506142E-04  0.223E-02    0.16       1.0  T
  11   -180.4840896 -0.385763E-04  0.860E-03    0.15       1.2  T
  12   -180.4840910 -0.139592E-05  0.514E-03    0.15       2.1  T
  13   -180.4840916 -0.603148E-06  0.360E-03    0.15       2.9  T
  14   -180.4840919 -0.234728E-06  0.211E-03    0.15       5.0  T
  15   -180.4840918  0.220429E-07  0.190E-03    0.15       5.5  T
  16   -180.4840919 -0.857362E-07  0.117E-03    0.15       9.0  T
  17   -180.4840919 -0.854612E-08  0.881E-04    0.15      12.0  T
  18   -180.4840919 -0.162089E-07  0.709E-04    0.15      14.9  T
     SCC iter.                  ...        0 min,  0.411 sec
     gradient                   ...        0 min,  0.048 sec
 * total energy  :  -178.7385368 Eh     change       -0.3345478E-03 Eh
   gradient norm :     0.0072521 Eh/α   predicted    -0.2340521E-03 ( -30.04%)
   displ. norm   :     0.5261864 α      lambda       -0.6595919E-03
   maximum displ.:     0.2398813 α      in ANC's #11, #14, #10, ...

........................................................................
.............................. CYCLE  106 ..............................
........................................................................

 iter      E             dE          RMSdq      gap      omega  full diag
   1   -180.4513826 -0.180451E+03  0.522E-01    0.06       0.0  T
   2   -180.3848579  0.665247E-01  0.105E+00    0.97       1.0  T
   3   -180.4612718 -0.764138E-01  0.392E-01    0.67       1.0  T
   4   -180.4795570 -0.182853E-01  0.275E-01    0.25       1.0  T
   5   -180.4813965 -0.183951E-02  0.227E-01    0.20       1.0  T
   6   -180.4814521 -0.556050E-04  0.138E-01    0.18       1.0  T
   7   -180.4822572 -0.805051E-03  0.658E-02    0.15       1.0  T
   8   -180.4821860  0.712121E-04  0.605E-02    0.13       1.0  T
   9   -180.4821006  0.854230E-04  0.829E-02    0.17       1.0  T
  10   -180.4823713 -0.270793E-03  0.446E-02    0.16       1.0  T
  11   -180.4825286 -0.157206E-03  0.160E-02    0.15       1.0  T
  12   -180.4825316 -0.308783E-05  0.903E-03    0.14       1.2  T
  13   -180.4825345 -0.282507E-05  0.619E-03    0.15       1.7  T
  14   -180.4825348 -0.386459E-06  0.409E-03    0.15       2.6  T
  15   -180.4825349 -0.833022E-07  0.334E-03    0.15       3.2  T
  16   -180.4825349  0.230670E-07  0.341E-03    0.14       3.1  T
  17   -180.4825354 -0.441654E-06  0.135E-03    0.15       7.8  T
  18   -180.4825353  0.444077E-07  0.155E-03    0.15       6.8  T
  19   -180.4825354 -0.901529E-07  0.464E-04    0.15      22.7  T
  20   -180.4825354  0.294287E-08  0.411E-04    0.15      25.7  T
     SCC iter.                  ...        0 min,  0.424 sec
     gradient                   ...        0 min,  0.051 sec
 * total energy  :  -178.7390969 Eh     change       -0.5600825E-03 Eh
   gradient norm :     0.0099545 Eh/α   predicted    -0.4211076E-03 ( -24.81%)
   displ. norm   :     0.6688734 α      lambda       -0.9244313E-03
   maximum displ.:     0.2916163 α      in ANC's #11, #14, #10, ...

........................................................................
.............................. CYCLE  107 ..............................
........................................................................

 iter      E             dE          RMSdq      gap      omega  full diag
   1   -180.4513019 -0.180451E+03  0.593E-01    0.08       0.0  T
   2   -180.3871699  0.641320E-01  0.109E+00    1.07       1.0  T
   3   -180.4680343 -0.808644E-01  0.307E-01    0.39       1.0  T
   4   -180.4700027 -0.196837E-02  0.239E-01    0.10       1.0  T
   5   -180.4723644 -0.236171E-02  0.258E-01    0.31       1.0  T
   6   -180.4753361 -0.297173E-02  0.196E-01    0.22       1.0  T
   7   -180.4753219  0.141506E-04  0.135E-01    0.21       1.0  T
   8   -180.4765496 -0.122762E-02  0.587E-02    0.17       1.0  T
   9   -180.4766417 -0.921405E-04  0.514E-02    0.14       1.0  T
  10   -180.4768561 -0.214407E-03  0.244E-02    0.15       1.0  T
  11   -180.4768439  0.121663E-04  0.188E-02    0.15       1.0  T
  12   -180.4768606 -0.166771E-04  0.121E-02    0.15       1.0  T
  13   -180.4768706 -0.997822E-05  0.750E-03    0.15       1.4  T
  14   -180.4768692  0.138164E-05  0.730E-03    0.15       1.4  T
  15   -180.4768728 -0.362246E-05  0.339E-03    0.15       3.1  T
  16   -180.4768730 -0.143427E-06  0.299E-03    0.15       3.5  T
  17   -180.4768731 -0.115711E-06  0.222E-03    0.15       4.8  T
  18   -180.4768733 -0.154019E-06  0.905E-04    0.15      11.6  T
  19   -180.4768733 -0.175620E-07  0.542E-04    0.15      19.4  T
     SCC iter.                  ...        0 min,  0.401 sec
     gradient                   ...        0 min,  0.049 sec
 * total energy  :  -178.7399389 Eh     change       -0.8419792E-03 Eh
   gradient norm :     0.0143101 Eh/α   predicted    -0.6690076E-03 ( -20.54%)
   displ. norm   :     0.7711948 α      lambda       -0.1403544E-02
   maximum displ.:     0.3018970 α      in ANC's #10, #11, #14, ...

........................................................................
.............................. CYCLE  108 ..............................
........................................................................

 iter      E             dE          RMSdq      gap      omega  full diag
   1   -180.4491276 -0.180449E+03  0.847E-01    0.16       0.0  T
   2   -180.3980921  0.510355E-01  0.128E+00    0.48       1.0  T
   3   -180.4593960 -0.613039E-01  0.306E-01    0.11       1.0  T
   4   -180.4587334  0.662637E-03  0.287E-01    0.45       1.0  T
   5   -180.4678680 -0.913460E-02  0.247E-01    0.24       1.0  T
   6   -180.4682410 -0.372989E-03  0.180E-01    0.19       1.0  T
   7   -180.4686094 -0.368472E-03  0.103E-01    0.19       1.0  T
   8   -180.4686498 -0.404097E-04  0.535E-02    0.20       1.0  T
   9   -180.4688156 -0.165765E-03  0.344E-02    0.18       1.0  T
  10   -180.4688286 -0.130062E-04  0.223E-02    0.18       1.0  T
  11   -180.4688393 -0.106875E-04  0.148E-02    0.18       1.0  T
  12   -180.4688423 -0.295149E-05  0.996E-03    0.18       1.1  T
  13   -180.4688426 -0.317501E-06  0.978E-03    0.19       1.1  T
  14   -180.4688453 -0.272298E-05  0.556E-03    0.18       1.9  T
  15   -180.4688457 -0.380948E-06  0.390E-03    0.18       2.7  T
  16   -180.4688456  0.384800E-07  0.279E-03    0.18       3.8  T
  17   -180.4688460 -0.350119E-06  0.177E-03    0.18       6.0  T
  18   -180.4688460 -0.457765E-07  0.100E-03    0.18      10.5  T
  19   -180.4688461 -0.507353E-07  0.634E-04    0.18      16.6  T
  20   -180.4688461 -0.130626E-08  0.609E-04    0.18      17.3  T
     SCC iter.                  ...        0 min,  0.409 sec
     gradient                   ...        0 min,  0.048 sec
 * total energy  :  -178.7412984 Eh     change       -0.1359475E-02 Eh
   gradient norm :     0.0221613 Eh/α   predicted    -0.1119146E-02 ( -17.68%)
   displ. norm   :     0.7985964 α      lambda       -0.2339484E-02
   maximum displ.:     0.2810259 α      in ANC's #9, #10, #14, ...

........................................................................
.............................. CYCLE  109 ..............................
........................................................................

 iter      E             dE          RMSdq      gap      omega  full diag
   1   -180.4374118 -0.180437E+03  0.902E-01    0.29       0.0  T
   2   -180.3975107  0.399011E-01  0.129E+00    0.30       1.0  T
   3   -180.4485661 -0.510554E-01  0.299E-01    0.17       1.0  T
   4   -180.4478764  0.689674E-03  0.296E-01    0.46       1.0  T
   5   -180.4545306 -0.665421E-02  0.151E-01    0.30       1.0  T
   6   -180.4543266  0.204075E-03  0.106E-01    0.23       1.0  T
   7   -180.4548542 -0.527630E-03  0.450E-02    0.25       1.0  T
   8   -180.4548796 -0.254465E-04  0.271E-02    0.25       1.0  T
   9   -180.4548866 -0.699441E-05  0.215E-02    0.25       1.0  T
  10   -180.4548897 -0.307406E-05  0.142E-02    0.25       1.0  T
  11   -180.4548925 -0.277947E-05  0.114E-02    0.25       1.0  T
  12   -180.4548963 -0.383736E-05  0.806E-03    0.25       1.3  T
  13   -180.4548980 -0.163798E-05  0.597E-03    0.25       1.8  T
  14   -180.4548985 -0.563854E-06  0.365E-03    0.25       2.9  T
  15   -180.4548985 -0.112130E-07  0.281E-03    0.25       3.7  T
  16   -180.4548988 -0.275973E-06  0.155E-03    0.25       6.8  T
  17   -180.4548989 -0.440169E-07  0.959E-04    0.25      11.0  T
  18   -180.4548989 -0.126047E-08  0.748E-04    0.25      14.1  T
     SCC iter.                  ...        0 min,  0.387 sec
     gradient                   ...        0 min,  0.051 sec
 * total energy  :  -178.7431779 Eh     change       -0.1879534E-02 Eh
   gradient norm :     0.0387649 Eh/α   predicted    -0.1915751E-02 (   1.93%)
   displ. norm   :     0.6150577 α      lambda       -0.1772428E-02
   maximum displ.:     0.2214402 α      in ANC's #14, #10, #9, ...

........................................................................
.............................. CYCLE  110 ..............................
........................................................................

 iter      E             dE          RMSdq      gap      omega  full diag
   1   -180.4351845 -0.180435E+03  0.598E-01    0.30       0.0  T
   2   -180.4173530  0.178315E-01  0.777E-01    0.34       1.0  T
   3   -180.4411457 -0.237927E-01  0.228E-01    0.23       1.0  T
   4   -180.4422894 -0.114370E-02  0.178E-01    0.38       1.0  T
   5   -180.4439193 -0.162986E-02  0.745E-02    0.28       1.0  T
   6   -180.4440158 -0.965013E-04  0.366E-02    0.28       1.0  T
   7   -180.4440138  0.198021E-05  0.297E-02    0.28       1.0  T
   8   -180.4440500 -0.362172E-04  0.204E-02    0.29       1.0  T
   9   -180.4440589 -0.889203E-05  0.143E-02    0.29       1.0  T
  10   -180.4440616 -0.268504E-05  0.978E-03    0.29       1.1  T
  11   -180.4440646 -0.299280E-05  0.600E-03    0.29       1.8  T
  12   -180.4440653 -0.659879E-06  0.447E-03    0.29       2.4  T
  13   -180.4440655 -0.201189E-06  0.329E-03    0.29       3.2  T
  14   -180.4440657 -0.217605E-06  0.241E-03    0.29       4.4  T
  15   -180.4440658 -0.836406E-07  0.165E-03    0.29       6.4  T
  16   -180.4440658 -0.926485E-07  0.746E-04    0.29      14.1  T
  17   -180.4440659 -0.234999E-08  0.536E-04    0.29      19.7  T
     SCC iter.                  ...        0 min,  0.364 sec
     gradient                   ...        0 min,  0.049 sec
 * total energy  :  -178.7446429 Eh     change       -0.1465036E-02 Eh
   gradient norm :     0.0486785 Eh/α   predicted    -0.1221464E-02 ( -16.63%)
   displ. norm   :     0.6456626 α      lambda       -0.4974548E-02
   maximum displ.:     0.2661091 α      in ANC's #3, #6, #32, ...

........................................................................
.............................. CYCLE  111 ..............................
........................................................................

 iter      E             dE          RMSdq      gap      omega  full diag
   1   -180.4418701 -0.180442E+03  0.639E-01    0.37       0.0  T
   2   -180.4375354  0.433469E-02  0.466E-01    0.33       1.0  T
   3   -180.4417246 -0.418914E-02  0.284E-01    0.28       1.0  T
   4   -180.4449384 -0.321381E-02  0.181E-01    0.42       1.0  T
   5   -180.4468766 -0.193819E-02  0.535E-02    0.33       1.0  T
   6   -180.4468206  0.559985E-04  0.386E-02    0.32       1.0  T
   7   -180.4468252 -0.457180E-05  0.319E-02    0.33       1.0  T
   8   -180.4468943 -0.691425E-04  0.152E-02    0.33       1.0  T
   9   -180.4468958 -0.152162E-05  0.110E-02    0.33       1.0  T
  10   -180.4468976 -0.175566E-05  0.651E-03    0.33       1.6  T
  11   -180.4468985 -0.910684E-06  0.453E-03    0.33       2.3  T
  12   -180.4468988 -0.320417E-06  0.263E-03    0.33       4.0  T
  13   -180.4468990 -0.231598E-06  0.173E-03    0.33       6.1  T
  14   -180.4468990  0.591234E-08  0.151E-03    0.33       7.0  T
  15   -180.4468991 -0.384800E-07  0.105E-03    0.33      10.0  T
  16   -180.4468991 -0.194195E-07  0.714E-04    0.33      14.8  T
  17   -180.4468991 -0.139963E-07  0.477E-04    0.33      22.1  T
     SCC iter.                  ...        0 min,  0.386 sec
     gradient                   ...        0 min,  0.049 sec
 * total energy  :  -178.7460489 Eh     change       -0.1406000E-02 Eh
   gradient norm :     0.0583433 Eh/α   predicted    -0.3524167E-02 ( 150.65%)
   displ. norm   :     0.5087751 α      lambda       -0.6036039E-02
   maximum displ.:     0.1929119 α      in ANC's #14, #10, #11, ...

........................................................................
.............................. CYCLE  112 ..............................
........................................................................

 iter      E             dE          RMSdq      gap      omega  full diag
   1   -180.4462210 -0.180446E+03  0.403E-01    0.34       0.0  T
   2   -180.4447099  0.151111E-02  0.261E-01    0.39       1.0  T
   3   -180.4458191 -0.110920E-02  0.201E-01    0.30       1.0  T
   4   -180.4479961 -0.217700E-02  0.954E-02    0.39       1.0  T
   5   -180.4484080 -0.411852E-03  0.354E-02    0.35       1.0  T
   6   -180.4484037  0.428998E-05  0.248E-02    0.35       1.0  T
   7   -180.4484050 -0.128392E-05  0.200E-02    0.36       1.0  T
   8   -180.4484233 -0.183687E-04  0.120E-02    0.36       1.0  T
   9   -180.4484258 -0.250298E-05  0.806E-03    0.36       1.3  T
  10   -180.4484256  0.233831E-06  0.657E-03    0.36       1.6  T
  11   -180.4484270 -0.136657E-05  0.402E-03    0.36       2.6  T
  12   -180.4484271 -0.164235E-06  0.264E-03    0.36       4.0  T
  13   -180.4484273 -0.162322E-06  0.190E-03    0.36       5.6  T
  14   -180.4484273 -0.254739E-07  0.143E-03    0.36       7.4  T
  15   -180.4484273 -0.912286E-08  0.100E-03    0.36      10.5  T
  16   -180.4484274 -0.387676E-07  0.597E-04    0.36      17.7  T
     SCC iter.                  ...        0 min,  0.352 sec
     gradient                   ...        0 min,  0.049 sec
 * total energy  :  -178.7505847 Eh     change       -0.4535801E-02 Eh
   gradient norm :     0.0387560 Eh/α   predicted    -0.3799246E-02 ( -16.24%)
   displ. norm   :     0.4809382 α      lambda       -0.7420538E-02
   maximum displ.:     0.2165053 α      in ANC's #3, #32, #23, ...

........................................................................
.............................. CYCLE  113 ..............................
........................................................................

 iter      E             dE          RMSdq      gap      omega  full diag
   1   -180.4507226 -0.180451E+03  0.448E-01    0.53       0.0  T
   2   -180.4499856  0.737011E-03  0.246E-01    0.41       1.0  T
   3   -180.4485253  0.146033E-02  0.267E-01    0.57       1.0  T
   4   -180.4516573 -0.313201E-02  0.643E-02    0.49       1.0  T
   5   -180.4516994 -0.421349E-04  0.416E-02    0.48       1.0  T
   6   -180.4516873  0.121258E-04  0.267E-02    0.48       1.0  T
   7   -180.4517063 -0.189514E-04  0.207E-02    0.48       1.0  T
   8   -180.4517278 -0.215038E-04  0.924E-03    0.48       1.1  T
   9   -180.4517288 -0.996680E-06  0.658E-03    0.48       1.6  T
  10   -180.4517290 -0.248082E-06  0.431E-03    0.48       2.4  T
  11   -180.4517294 -0.412051E-06  0.277E-03    0.48       3.8  T
  12   -180.4517297 -0.311697E-06  0.142E-03    0.48       7.4  T
  13   -180.4517298 -0.263040E-07  0.894E-04    0.48      11.8  T
  14   -180.4517298  0.538944E-08  0.667E-04    0.48      15.8  T
     SCC iter.                  ...        0 min,  0.300 sec
     gradient                   ...        0 min,  0.049 sec
 * total energy  :  -178.7542460 Eh     change       -0.3661238E-02 Eh
   gradient norm :     0.0408522 Eh/α   predicted    -0.4568460E-02 (  24.78%)
   displ. norm   :     0.6658749 α      lambda       -0.5919010E-02
   maximum displ.:     0.3405091 α      in ANC's #14, #11, #19, ...

........................................................................
.............................. CYCLE  114 ..............................
........................................................................

 iter      E             dE          RMSdq      gap      omega  full diag
   1   -180.4438921 -0.180444E+03  0.479E-01    0.58       0.0  T
   2   -180.4444914 -0.599275E-03  0.243E-01    0.52       1.0  T
   3   -180.4452361 -0.744766E-03  0.156E-01    0.54       1.0  T
   4   -180.4457158 -0.479611E-03  0.102E-01    0.57       1.0  T
   5   -180.4462472 -0.531473E-03  0.431E-02    0.54       1.0  T
   6   -180.4462482 -0.989626E-06  0.325E-02    0.54       1.0  T
   7   -180.4462992 -0.509763E-04  0.191E-02    0.55       1.0  T
   8   -180.4463090 -0.979881E-05  0.930E-03    0.55       1.1  T
   9   -180.4463103 -0.133360E-05  0.598E-03    0.55       1.8  T
  10   -180.4463103  0.353045E-07  0.396E-03    0.55       2.7  T
  11   -180.4463103  0.186092E-07  0.304E-03    0.55       3.5  T
  12   -180.4463107 -0.479353E-06  0.124E-03    0.55       8.5  T
  13   -180.4463108 -0.216873E-07  0.879E-04    0.55      12.0  T
  14   -180.4463108 -0.779988E-08  0.576E-04    0.55      18.3  T
     SCC iter.                  ...        0 min,  0.289 sec
     gradient                   ...        0 min,  0.052 sec
 * total energy  :  -178.7582282 Eh     change       -0.3982227E-02 Eh
   gradient norm :     0.0391116 Eh/α   predicted    -0.4271725E-02 (   7.27%)
   displ. norm   :     0.6015014 α      lambda       -0.6666034E-02
   maximum displ.:     0.3078832 α      in ANC's #3, #11, #18, ...

........................................................................
.............................. CYCLE  115 ..............................
........................................................................

 iter      E             dE          RMSdq      gap      omega  full diag
   1   -180.4754561 -0.180475E+03  0.349E-01    0.56       0.0  T
   2   -180.4757163 -0.260223E-03  0.133E-01    0.54       1.0  T
   3   -180.4756824  0.338706E-04  0.857E-02    0.57       1.0  T
   4   -180.4758465 -0.164094E-03  0.469E-02    0.54       1.0  T
   5   -180.4758144  0.321033E-04  0.446E-02    0.55       1.0  T
   6   -180.4759270 -0.112638E-03  0.202E-02    0.55       1.0  T
   7   -180.4759315 -0.442420E-05  0.146E-02    0.55       1.0  T
   8   -180.4759350 -0.357500E-05  0.996E-03    0.55       1.1  T
   9   -180.4759364 -0.134029E-05  0.697E-03    0.55       1.5  T
  10   -180.4759368 -0.422703E-06  0.422E-03    0.55       2.5  T
  11   -180.4759369 -0.102631E-06  0.355E-03    0.55       3.0  T
  12   -180.4759373 -0.381003E-06  0.229E-03    0.55       4.6  T
  13   -180.4759373 -0.486021E-07  0.156E-03    0.55       6.8  T
  14   -180.4759374 -0.309016E-07  0.975E-04    0.55      10.8  T
  15   -180.4759374 -0.212298E-07  0.658E-04    0.55      16.0  T
     SCC iter.                  ...        0 min,  0.312 sec
     gradient                   ...        0 min,  0.049 sec
 * total energy  :  -178.7612340 Eh     change       -0.3005805E-02 Eh
   gradient norm :     0.0428035 Eh/α   predicted    -0.4538919E-02 (  51.01%)
   displ. norm   :     0.6078723 α      lambda       -0.6683408E-02
   maximum displ.:     0.2493237 α      in ANC's #3, #14, #32, ...

........................................................................
.............................. CYCLE  116 ..............................
........................................................................

 iter      E             dE          RMSdq      gap      omega  full diag
   1   -180.4494950 -0.180449E+03  0.505E-01    0.73       0.0  T
   2   -180.4494265  0.685035E-04  0.247E-01    0.67       1.0  T
   3   -180.4489455  0.481004E-03  0.230E-01    0.74       1.0  T
   4   -180.4507719 -0.182634E-02  0.853E-02    0.70       1.0  T
   5   -180.4508226 -0.507294E-04  0.635E-02    0.71       1.0  T
   6   -180.4508821 -0.595059E-04  0.495E-02    0.71       1.0  T
   7   -180.4509691 -0.870583E-04  0.233E-02    0.71       1.0  T
   8   -180.4509747 -0.555038E-05  0.180E-02    0.71       1.0  T
   9   -180.4509805 -0.581073E-05  0.116E-02    0.71       1.0  T
  10   -180.4509811 -0.584152E-06  0.839E-03    0.71       1.3  T
  11   -180.4509831 -0.197851E-05  0.594E-03    0.71       1.8  T
  12   -180.4509837 -0.639686E-06  0.433E-03    0.71       2.4  T
  13   -180.4509839 -0.220068E-06  0.264E-03    0.71       4.0  T
  14   -180.4509839  0.217597E-09  0.174E-03    0.71       6.1  T
  15   -180.4509840 -0.970077E-07  0.119E-03    0.71       8.8  T
  16   -180.4509841 -0.405197E-07  0.713E-04    0.71      14.8  T
  17   -180.4509841 -0.341799E-08  0.423E-04    0.71      24.9  T
     SCC iter.                  ...        0 min,  0.349 sec
     gradient                   ...        0 min,  0.057 sec
 * total energy  :  -178.7646290 Eh     change       -0.3394957E-02 Eh
   gradient norm :     0.0371293 Eh/α   predicted    -0.4576499E-02 (  34.80%)
   displ. norm   :     0.4136770 α      lambda       -0.5099356E-02
   maximum displ.:     0.1213765 α      in ANC's #10, #3, #11, ...

........................................................................
.............................. CYCLE  117 ..............................
........................................................................

 iter      E             dE          RMSdq      gap      omega  full diag
   1   -180.4540181 -0.180454E+03  0.344E-01    0.59       0.0  T
   2   -180.4521153  0.190285E-02  0.299E-01    0.66       1.0  T
   3   -180.4558169 -0.370163E-02  0.121E-01    0.65       1.0  T
   4   -180.4562676 -0.450672E-03  0.649E-02    0.65       1.0  T
   5   -180.4564302 -0.162565E-03  0.386E-02    0.66       1.0  T
   6   -180.4564582 -0.280339E-04  0.292E-02    0.66       1.0  T
   7   -180.4564870 -0.288151E-04  0.160E-02    0.66       1.0  T
   8   -180.4564882 -0.115140E-05  0.118E-02    0.66       1.0  T
   9   -180.4564903 -0.211151E-05  0.875E-03    0.66       1.2  T
  10   -180.4564904 -0.103825E-06  0.695E-03    0.66       1.5  T
  11   -180.4564919 -0.151636E-05  0.448E-03    0.66       2.4  T
  12   -180.4564922 -0.301119E-06  0.319E-03    0.66       3.3  T
  13   -180.4564923 -0.884276E-07  0.242E-03    0.66       4.4  T
  14   -180.4564923 -0.419901E-07  0.165E-03    0.66       6.4  T
  15   -180.4564924 -0.837091E-07  0.102E-03    0.66      10.4  T
  16   -180.4564924 -0.333685E-07  0.525E-04    0.66      20.1  T
  17   -180.4564924 -0.607358E-08  0.327E-04    0.66      32.3  T
     SCC iter.                  ...        0 min,  0.394 sec
     gradient                   ...        0 min,  0.048 sec
 * total energy  :  -178.7671052 Eh     change       -0.2476187E-02 Eh
   gradient norm :     0.0299709 Eh/α   predicted    -0.2986002E-02 (  20.59%)
   displ. norm   :     0.6146759 α      lambda       -0.4433225E-02
   maximum displ.:     0.2993984 α      in ANC's #3, #2, #14, ...

........................................................................
.............................. CYCLE  118 ..............................
........................................................................

 iter      E             dE          RMSdq      gap      omega  full diag
   1   -180.4725160 -0.180473E+03  0.352E-01    0.66       0.0  T
   2   -180.4725608 -0.447785E-04  0.123E-01    0.68       1.0  T
   3   -180.4720662  0.494594E-03  0.118E-01    0.66       1.0  T
   4   -180.4729818 -0.915571E-03  0.392E-02    0.68       1.0  T
   5   -180.4729965 -0.147683E-04  0.287E-02    0.68       1.0  T
   6   -180.4730303 -0.337949E-04  0.157E-02    0.68       1.0  T
   7   -180.4730347 -0.440123E-05  0.964E-03    0.68       1.1  T
   8   -180.4730365 -0.177054E-05  0.656E-03    0.68       1.6  T
   9   -180.4730378 -0.125404E-05  0.397E-03    0.68       2.7  T
  10   -180.4730379 -0.118805E-06  0.275E-03    0.68       3.8  T
  11   -180.4730379 -0.716515E-07  0.201E-03    0.68       5.2  T
  12   -180.4730380 -0.980018E-07  0.133E-03    0.68       7.9  T
  13   -180.4730381 -0.320283E-07  0.944E-04    0.68      11.2  T
  14   -180.4730381 -0.845901E-08  0.688E-04    0.68      15.3  T
     SCC iter.                  ...        0 min,  0.295 sec
     gradient                   ...        0 min,  0.049 sec
 * total energy  :  -178.7701418 Eh     change       -0.3036678E-02 Eh
   gradient norm :     0.0215143 Eh/α   predicted    -0.3054115E-02 (   0.57%)
   displ. norm   :     0.5817190 α      lambda       -0.3825424E-02
   maximum displ.:     0.2293455 α      in ANC's #14, #3, #2, ...

........................................................................
.............................. CYCLE  119 ..............................
........................................................................

 iter      E             dE          RMSdq      gap      omega  full diag
   1   -180.4786643 -0.180479E+03  0.443E-01    0.66       0.0  T
   2   -180.4787946 -0.130236E-03  0.154E-01    0.69       1.0  T
   3   -180.4780645  0.730013E-03  0.141E-01    0.67       1.0  T
   4   -180.4791617 -0.109713E-02  0.734E-02    0.69       1.0  T
   5   -180.4793813 -0.219579E-03  0.458E-02    0.69       1.0  T
   6   -180.4794342 -0.529260E-04  0.246E-02    0.69       1.0  T
   7   -180.4794368 -0.262669E-05  0.158E-02    0.69       1.0  T
   8   -180.4794364  0.393975E-06  0.128E-02    0.69       1.0  T
   9   -180.4794408 -0.434131E-05  0.841E-03    0.69       1.3  T
  10   -180.4794422 -0.140074E-05  0.534E-03    0.69       2.0  T
  11   -180.4794424 -0.252096E-06  0.413E-03    0.69       2.6  T
  12   -180.4794424  0.517001E-07  0.346E-03    0.69       3.0  T
  13   -180.4794427 -0.349014E-06  0.204E-03    0.69       5.2  T
  14   -180.4794428 -0.430919E-07  0.122E-03    0.69       8.7  T
  15   -180.4794428 -0.299493E-07  0.807E-04    0.69      13.1  T
  16   -180.4794428 -0.201746E-07  0.463E-04    0.69      22.8  T
     SCC iter.                  ...        0 min,  0.338 sec
     gradient                   ...        0 min,  0.050 sec
 * total energy  :  -178.7723962 Eh     change       -0.2254373E-02 Eh
   gradient norm :     0.0246362 Eh/α   predicted    -0.2559976E-02 (  13.56%)
   displ. norm   :     0.6181410 α      lambda       -0.3228608E-02
   maximum displ.:     0.3780394 α      in ANC's #3, #2, #5, ...

........................................................................
.............................. CYCLE  120 ..............................
........................................................................

 iter      E             dE          RMSdq      gap      omega  full diag
   1   -180.4721261 -0.180472E+03  0.359E-01    0.64       0.0  T
   2   -180.4718947  0.231338E-03  0.195E-01    0.69       1.0  T
   3   -180.4719767 -0.819908E-04  0.145E-01    0.65       1.0  T
   4   -180.4729578 -0.981089E-03  0.646E-02    0.68       1.0  T
   5   -180.4730746 -0.116724E-03  0.387E-02    0.70       1.0  T
   6   -180.4731230 -0.484139E-04  0.220E-02    0.69       1.0  T
   7   -180.4731346 -0.116453E-04  0.143E-02    0.69       1.0  T
   8   -180.4731391 -0.445349E-05  0.990E-03    0.69       1.1  T
   9   -180.4731413 -0.221463E-05  0.615E-03    0.69       1.7  T
  10   -180.4731410  0.268049E-06  0.518E-03    0.69       2.0  T
  11   -180.4731418 -0.740690E-06  0.369E-03    0.69       2.9  T
  12   -180.4731420 -0.210707E-06  0.244E-03    0.69       4.3  T
  13   -180.4731421 -0.119760E-06  0.152E-03    0.69       7.0  T
  14   -180.4731421  0.247300E-08  0.109E-03    0.69       9.6  T
  15   -180.4731421 -0.275608E-07  0.672E-04    0.69      15.7  T
  16   -180.4731421 -0.186720E-07  0.429E-04    0.69      24.5  T
     SCC iter.                  ...        0 min,  0.343 sec
     gradient                   ...        0 min,  0.051 sec
 * total energy  :  -178.7741381 Eh     change       -0.1741865E-02 Eh
   gradient norm :     0.0224439 Eh/α   predicted    -0.2231133E-02 (  28.09%)
   displ. norm   :     0.4566359 α      lambda       -0.2185810E-02
   maximum displ.:     0.2769927 α      in ANC's #3, #2, #14, ...
 * RMSD in coord.:     0.8048809 α      energy gain  -0.4155875E-01 Eh

generating ANC from exact Hessian ...
Using Lindh-Hessian (1995)
 Shifting diagonal of input Hessian by   1.993872281471223E-002
 Lowest  eigenvalues of input Hessian
    0.010000    0.019688    0.019719    0.000000    0.000000    0.000000
    0.000000    0.000000    0.000000    0.020198    0.020287    0.020443
    0.020528    0.020634    0.020801    0.020830    0.021055    0.021292
 Highest eigenvalues
    1.989528    2.033386    2.167045    2.198991    2.237105    2.257548
 

........................................................................
.............................. CYCLE  121 ..............................
........................................................................

 iter      E             dE          RMSdq      gap      omega  full diag
   1   -180.4750660 -0.180475E+03  0.263E-01    0.69       0.0  T
   2   -180.4749427  0.123235E-03  0.116E-01    0.68       1.0  T
   3   -180.4746096  0.333123E-03  0.131E-01    0.70       1.0  T
   4   -180.4753185 -0.708909E-03  0.378E-02    0.69       1.0  T
   5   -180.4752847  0.338603E-04  0.294E-02    0.70       1.0  T
   6   -180.4753184 -0.337722E-04  0.189E-02    0.70       1.0  T
   7   -180.4753300 -0.115664E-04  0.109E-02    0.70       1.0  T
   8   -180.4753321 -0.206889E-05  0.682E-03    0.70       1.5  T
   9   -180.4753322 -0.926482E-07  0.579E-03    0.70       1.8  T
  10   -180.4753328 -0.686778E-06  0.390E-03    0.70       2.7  T
  11   -180.4753331 -0.297443E-06  0.283E-03    0.70       3.7  T
  12   -180.4753332 -0.106093E-06  0.213E-03    0.70       4.9  T
  13   -180.4753333 -0.556953E-07  0.155E-03    0.70       6.8  T
  14   -180.4753334 -0.539302E-07  0.901E-04    0.70      11.7  T
  15   -180.4753334 -0.172272E-07  0.564E-04    0.70      18.7  T
     SCC iter.                  ...        0 min,  0.331 sec
     gradient                   ...        0 min,  0.050 sec
 * total energy  :  -178.7754639 Eh     change       -0.1325849E-02 Eh
   gradient norm :     0.0239929 Eh/α   predicted     0.0000000E+00 (-100.00%)
   displ. norm   :     0.1692184 α      lambda       -0.1442996E-02
   maximum displ.:     0.0843696 α      in ANC's #21, #7, #16, ...

........................................................................
.............................. CYCLE  122 ..............................
........................................................................

 iter      E             dE          RMSdq      gap      omega  full diag
   1   -180.4778247 -0.180478E+03  0.187E-01    0.68       0.0  T
   2   -180.4778103  0.143816E-04  0.829E-02    0.68       1.0  T
   3   -180.4775640  0.246333E-03  0.741E-02    0.69       1.0  T
   4   -180.4778852 -0.321181E-03  0.319E-02    0.68       1.0  T
   5   -180.4779337 -0.484736E-04  0.196E-02    0.68       1.0  T
   6   -180.4779423 -0.859137E-05  0.950E-03    0.68       1.1  T
   7   -180.4779400  0.229563E-05  0.846E-03    0.68       1.2  T
   8   -180.4779439 -0.397057E-05  0.402E-03    0.68       2.6  T
   9   -180.4779440 -0.671582E-07  0.319E-03    0.68       3.3  T
  10   -180.4779442 -0.178320E-06  0.204E-03    0.68       5.2  T
  11   -180.4779442 -0.281472E-07  0.150E-03    0.68       7.0  T
  12   -180.4779442 -0.411719E-07  0.965E-04    0.68      10.9  T
  13   -180.4779442 -0.152934E-08  0.763E-04    0.68      13.8  T
     SCC iter.                  ...        0 min,  0.292 sec
     gradient                   ...        0 min,  0.051 sec
 * total energy  :  -178.7761241 Eh     change       -0.6602199E-03 Eh
   gradient norm :     0.0152070 Eh/α   predicted    -0.7421851E-03 (  12.41%)
   displ. norm   :     0.3588644 α      lambda       -0.2341053E-02
   maximum displ.:     0.1635971 α      in ANC's #21, #7, #27, ...

........................................................................
.............................. CYCLE  123 ..............................
........................................................................

 iter      E             dE          RMSdq      gap      omega  full diag
   1   -180.4804561 -0.180480E+03  0.299E-01    0.64       0.0  T
   2   -180.4803592  0.968731E-04  0.164E-01    0.65       1.0  T
   3   -180.4798330  0.526283E-03  0.137E-01    0.65       1.0  T
   4   -180.4807078 -0.874830E-03  0.585E-02    0.64       1.0  T
   5   -180.4808456 -0.137846E-03  0.372E-02    0.66       1.0  T
   6   -180.4808769 -0.312618E-04  0.188E-02    0.65       1.0  T
   7   -180.4808817 -0.483459E-05  0.139E-02    0.65       1.0  T
   8   -180.4808885 -0.674768E-05  0.733E-03    0.65       1.4  T
   9   -180.4808886 -0.114421E-06  0.535E-03    0.65       2.0  T
  10   -180.4808890 -0.369856E-06  0.363E-03    0.65       2.9  T
  11   -180.4808893 -0.302380E-06  0.249E-03    0.65       4.2  T
  12   -180.4808894 -0.107638E-06  0.141E-03    0.65       7.5  T
  13   -180.4808894  0.468739E-08  0.111E-03    0.65       9.5  T
  14   -180.4808894 -0.290150E-07  0.635E-04    0.65      16.6  T
  15   -180.4808894 -0.630703E-08  0.428E-04    0.65      24.6  T
     SCC iter.                  ...        0 min,  0.331 sec
     gradient                   ...        0 min,  0.049 sec
 * total energy  :  -178.7756787 Eh     change        0.4454325E-03 Eh
   gradient norm :     0.0377160 Eh/α   predicted    -0.1321272E-02 (-396.63%)
   displ. norm   :     0.1882837 α      lambda       -0.3132849E-02
   maximum displ.:     0.0806334 α      in ANC's #1, #42, #21, ...

........................................................................
.............................. CYCLE  124 ..............................
........................................................................

 iter      E             dE          RMSdq      gap      omega  full diag
   1   -180.4832854 -0.180483E+03  0.235E-01    0.66       0.0  T
   2   -180.4833003 -0.149299E-04  0.123E-01    0.63       1.0  T
   3   -180.4830949  0.205438E-03  0.886E-02    0.66       1.0  T
   4   -180.4833838 -0.288955E-03  0.479E-02    0.64       1.0  T
   5   -180.4834852 -0.101322E-03  0.348E-02    0.65       1.0  T
   6   -180.4835277 -0.425268E-04  0.143E-02    0.65       1.0  T
   7   -180.4835281 -0.454053E-06  0.105E-02    0.65       1.0  T
   8   -180.4835309 -0.277861E-05  0.517E-03    0.65       2.0  T
   9   -180.4835313 -0.355595E-06  0.352E-03    0.65       3.0  T
  10   -180.4835313 -0.373904E-07  0.235E-03    0.65       4.5  T
  11   -180.4835315 -0.168759E-06  0.125E-03    0.65       8.4  T
  12   -180.4835315 -0.466477E-07  0.787E-04    0.65      13.4  T
  13   -180.4835315 -0.995090E-08  0.545E-04    0.65      19.3  T
     SCC iter.                  ...        0 min,  0.277 sec
     gradient                   ...        0 min,  0.050 sec
 * total energy  :  -178.7774666 Eh     change       -0.1787863E-02 Eh
   gradient norm :     0.0188449 Eh/α   predicted    -0.1621957E-02 (  -9.28%)
   displ. norm   :     0.3231476 α      lambda       -0.1955664E-02
   maximum displ.:     0.2348451 α      in ANC's #1, #21, #14, ...

........................................................................
.............................. CYCLE  125 ..............................
........................................................................

 iter      E             dE          RMSdq      gap      omega  full diag
   1   -180.4820413 -0.180482E+03  0.385E-01    0.68       0.0  T
   2   -180.4820091  0.322465E-04  0.177E-01    0.64       1.0  T
   3   -180.4810310  0.978072E-03  0.155E-01    0.70       1.0  T
   4   -180.4819804 -0.949411E-03  0.915E-02    0.64       1.0  T
   5   -180.4822280 -0.247547E-03  0.521E-02    0.65       1.0  T
   6   -180.4823217 -0.937697E-04  0.222E-02    0.66       1.0  T
   7   -180.4823311 -0.938666E-05  0.148E-02    0.65       1.0  T
   8   -180.4823392 -0.807391E-05  0.868E-03    0.66       1.2  T
   9   -180.4823383  0.917904E-06  0.732E-03    0.66       1.4  T
  10   -180.4823401 -0.180481E-05  0.409E-03    0.66       2.6  T
  11   -180.4823403 -0.196461E-06  0.258E-03    0.66       4.1  T
  12   -180.4823403 -0.369383E-07  0.176E-03    0.66       6.0  T
  13   -180.4823404 -0.478020E-07  0.119E-03    0.66       8.9  T
  14   -180.4823404 -0.190809E-08  0.795E-04    0.66      13.3  T
  15   -180.4823404 -0.207010E-07  0.446E-04    0.66      23.7  T
     SCC iter.                  ...        0 min,  0.322 sec
     gradient                   ...        0 min,  0.048 sec
 * total energy  :  -178.7763978 Eh     change        0.1068782E-02 Eh
   gradient norm :     0.0209030 Eh/α   predicted    -0.1079958E-02 (-201.05%)
   displ. norm   :     0.2432135 α      lambda       -0.2730255E-02
   maximum displ.:     0.1449043 α      in ANC's #1, #21, #7, ...

........................................................................
.............................. CYCLE  126 ..............................
........................................................................

 iter      E             dE          RMSdq      gap      omega  full diag
   1   -180.4871415 -0.180487E+03  0.243E-01    0.67       0.0  T
   2   -180.4871437 -0.223712E-05  0.109E-01    0.65       1.0  T
   3   -180.4867314  0.412328E-03  0.972E-02    0.69       1.0  T
   4   -180.4872434 -0.511963E-03  0.441E-02    0.66       1.0  T
   5   -180.4872901 -0.466803E-04  0.353E-02    0.67       1.0  T
   6   -180.4873343 -0.441986E-04  0.142E-02    0.66       1.0  T
   7   -180.4873341  0.181623E-06  0.106E-02    0.66       1.0  T
   8   -180.4873368 -0.269733E-05  0.593E-03    0.66       1.8  T
   9   -180.4873372 -0.408506E-06  0.412E-03    0.66       2.6  T
  10   -180.4873372 -0.326763E-07  0.312E-03    0.66       3.4  T
  11   -180.4873374 -0.189254E-06  0.204E-03    0.66       5.2  T
  12   -180.4873375 -0.899801E-07  0.149E-03    0.66       7.1  T
  13   -180.4873375 -0.305423E-07  0.989E-04    0.66      10.7  T
  14   -180.4873375 -0.130976E-08  0.691E-04    0.66      15.3  T
     SCC iter.                  ...        0 min,  0.291 sec
     gradient                   ...        0 min,  0.050 sec
 * total energy  :  -178.7782728 Eh     change       -0.1875001E-02 Eh
   gradient norm :     0.0176324 Eh/α   predicted    -0.1445880E-02 ( -22.89%)
   displ. norm   :     0.4974391 α      lambda       -0.2922360E-02
   maximum displ.:     0.2731786 α      in ANC's #21, #7, #2, ...

........................................................................
.............................. CYCLE  127 ..............................
........................................................................

 iter      E             dE          RMSdq      gap      omega  full diag
   1   -180.4874654 -0.180487E+03  0.414E-01    0.66       0.0  T
   2   -180.4874762 -0.108169E-04  0.181E-01    0.64       1.0  T
   3   -180.4868627  0.613516E-03  0.139E-01    0.68       1.0  T
   4   -180.4876796 -0.816968E-03  0.719E-02    0.64       1.0  T
   5   -180.4879801 -0.300492E-03  0.495E-02    0.66       1.0  T
   6   -180.4880575 -0.773504E-04  0.187E-02    0.65       1.0  T
   7   -180.4880563  0.120529E-05  0.144E-02    0.65       1.0  T
   8   -180.4880617 -0.540251E-05  0.743E-03    0.65       1.4  T
   9   -180.4880623 -0.611376E-06  0.544E-03    0.65       1.9  T
  10   -180.4880625 -0.221711E-06  0.314E-03    0.65       3.4  T
  11   -180.4880626 -0.655022E-07  0.209E-03    0.65       5.0  T
  12   -180.4880627 -0.651870E-07  0.177E-03    0.65       6.0  T
  13   -180.4880627 -0.802264E-07  0.101E-03    0.65      10.5  T
  14   -180.4880627 -0.507148E-08  0.686E-04    0.65      15.4  T
  15   -180.4880627 -0.796663E-08  0.446E-04    0.65      23.6  T
     SCC iter.                  ...        0 min,  0.304 sec
     gradient                   ...        0 min,  0.051 sec
 * total energy  :  -178.7808210 Eh     change       -0.2548246E-02 Eh
   gradient norm :     0.0177725 Eh/α   predicted    -0.1822749E-02 ( -28.47%)
   displ. norm   :     0.6868272 α      lambda       -0.4076021E-02
   maximum displ.:     0.3549751 α      in ANC's #21, #4, #14, ...

........................................................................
.............................. CYCLE  128 ..............................
........................................................................

 iter      E             dE          RMSdq      gap      omega  full diag
   1   -180.4849266 -0.180485E+03  0.604E-01    0.66       0.0  T
   2   -180.4853226 -0.396011E-03  0.300E-01    0.62       1.0  T
   3   -180.4854978 -0.175170E-03  0.176E-01    0.68       1.0  T
   4   -180.4861494 -0.651589E-03  0.990E-02    0.62       1.0  T
   5   -180.4864390 -0.289646E-03  0.805E-02    0.66       1.0  T
   6   -180.4867399 -0.300849E-03  0.282E-02    0.65       1.0  T
   7   -180.4867377  0.216454E-05  0.219E-02    0.64       1.0  T
   8   -180.4867512 -0.134741E-04  0.931E-03    0.64       1.1  T
   9   -180.4867521 -0.850063E-06  0.673E-03    0.65       1.6  T
  10   -180.4867524 -0.363576E-06  0.398E-03    0.64       2.7  T
  11   -180.4867524  0.860612E-08  0.302E-03    0.65       3.5  T
  12   -180.4867527 -0.291419E-06  0.206E-03    0.65       5.1  T
  13   -180.4867528 -0.789336E-07  0.126E-03    0.64       8.3  T
  14   -180.4867528  0.900400E-09  0.995E-04    0.65      10.6  T
  15   -180.4867528 -0.244438E-07  0.649E-04    0.65      16.2  T
     SCC iter.                  ...        0 min,  0.339 sec
     gradient                   ...        0 min,  0.049 sec
 * total energy  :  -178.7832414 Eh     change       -0.2420363E-02 Eh
   gradient norm :     0.0271342 Eh/α   predicted    -0.2999421E-02 (  23.92%)
   displ. norm   :     0.2453983 α      lambda       -0.1412339E-02
   maximum displ.:     0.1423919 α      in ANC's #4, #21, #10, ...

........................................................................
.............................. CYCLE  129 ..............................
........................................................................

 iter      E             dE          RMSdq      gap      omega  full diag
   1   -180.4914633 -0.180491E+03  0.202E-01    0.63       0.0  T
   2   -180.4914953 -0.320142E-04  0.114E-01    0.64       1.0  T
   3   -180.4916217 -0.126330E-03  0.510E-02    0.63       1.0  T
   4   -180.4916504 -0.287060E-04  0.384E-02    0.64       1.0  T
   5   -180.4917310 -0.806569E-04  0.172E-02    0.64       1.0  T
   6   -180.4917376 -0.657965E-05  0.938E-03    0.64       1.1  T
   7   -180.4917372  0.424721E-06  0.721E-03    0.64       1.5  T
   8   -180.4917394 -0.225061E-05  0.431E-03    0.64       2.4  T
   9   -180.4917397 -0.310683E-06  0.271E-03    0.64       3.9  T
  10   -180.4917398 -0.415498E-07  0.193E-03    0.64       5.5  T
  11   -180.4917399 -0.801334E-07  0.131E-03    0.64       8.0  T
  12   -180.4917399 -0.396346E-07  0.683E-04    0.64      15.4  T
  13   -180.4917399 -0.125161E-08  0.509E-04    0.64      20.7  T
     SCC iter.                  ...        0 min,  0.276 sec
     gradient                   ...        0 min,  0.049 sec
 * total energy  :  -178.7840284 Eh     change       -0.7869740E-03 Eh
   gradient norm :     0.0146186 Eh/α   predicted    -0.7486934E-03 (  -4.86%)
   displ. norm   :     0.3011269 α      lambda       -0.1199852E-02
   maximum displ.:     0.1213401 α      in ANC's #4, #21, #17, ...

........................................................................
.............................. CYCLE  130 ..............................
........................................................................

 iter      E             dE          RMSdq      gap      omega  full diag
   1   -180.4915689 -0.180492E+03  0.301E-01    0.64       0.0  T
   2   -180.4916359 -0.670119E-04  0.104E-01    0.63       1.0  T
   3   -180.4915747  0.611810E-04  0.733E-02    0.65       1.0  T
   4   -180.4916644 -0.897234E-04  0.433E-02    0.63       1.0  T
   5   -180.4916763 -0.118628E-04  0.324E-02    0.64       1.0  T
   6   -180.4917162 -0.399099E-04  0.161E-02    0.64       1.0  T
   7   -180.4917181 -0.185683E-05  0.119E-02    0.64       1.0  T
   8   -180.4917221 -0.404829E-05  0.594E-03    0.64       1.8  T
   9   -180.4917225 -0.384129E-06  0.448E-03    0.64       2.4  T
  10   -180.4917224  0.418373E-07  0.356E-03    0.64       3.0  T
  11   -180.4917228 -0.329078E-06  0.240E-03    0.64       4.4  T
  12   -180.4917229 -0.103287E-06  0.152E-03    0.64       6.9  T
  13   -180.4917229 -0.336241E-07  0.952E-04    0.64      11.1  T
  14   -180.4917229 -0.355300E-08  0.774E-04    0.64      13.6  T
     SCC iter.                  ...        0 min,  0.286 sec
     gradient                   ...        0 min,  0.048 sec
 * total energy  :  -178.7847828 Eh     change       -0.7544133E-03 Eh
   gradient norm :     0.0166861 Eh/α   predicted    -0.6543270E-03 ( -13.27%)
   displ. norm   :     0.3109176 α      lambda       -0.9103573E-03
   maximum displ.:     0.1508641 α      in ANC's #4, #21, #7, ...

........................................................................
.............................. CYCLE  131 ..............................
........................................................................

 iter      E             dE          RMSdq      gap      omega  full diag
   1   -180.4937970 -0.180494E+03  0.226E-01    0.65       0.0  T
   2   -180.4938322 -0.352358E-04  0.803E-02    0.63       1.0  T
   3   -180.4937506  0.816288E-04  0.618E-02    0.66       1.0  T
   4   -180.4938643 -0.113663E-03  0.317E-02    0.64       1.0  T
   5   -180.4938774 -0.131035E-04  0.243E-02    0.65       1.0  T
   6   -180.4938997 -0.223589E-04  0.134E-02    0.64       1.0  T
   7   -180.4939005 -0.742360E-06  0.965E-03    0.64       1.1  T
   8   -180.4939028 -0.229730E-05  0.516E-03    0.64       2.0  T
   9   -180.4939029 -0.182222E-06  0.381E-03    0.64       2.8  T
  10   -180.4939031 -0.115844E-06  0.286E-03    0.64       3.7  T
  11   -180.4939033 -0.239356E-06  0.186E-03    0.64       5.7  T
  12   -180.4939033 -0.332919E-07  0.132E-03    0.64       8.0  T
  13   -180.4939033 -0.171348E-07  0.863E-04    0.64      12.2  T
  14   -180.4939034 -0.106310E-07  0.662E-04    0.64      15.9  T
     SCC iter.                  ...        0 min,  0.287 sec
     gradient                   ...        0 min,  0.049 sec
 * total energy  :  -178.7854617 Eh     change       -0.6789461E-03 Eh
   gradient norm :     0.0112171 Eh/α   predicted    -0.4991844E-03 ( -26.48%)
   displ. norm   :     0.4292935 α      lambda       -0.1175141E-02
   maximum displ.:     0.1986142 α      in ANC's #7, #4, #21, ...

........................................................................
.............................. CYCLE  132 ..............................
........................................................................

 iter      E             dE          RMSdq      gap      omega  full diag
   1   -180.4934647 -0.180493E+03  0.300E-01    0.64       0.0  T
   2   -180.4935194 -0.547322E-04  0.949E-02    0.63       1.0  T
   3   -180.4933211  0.198348E-03  0.773E-02    0.66       1.0  T
   4   -180.4935427 -0.221582E-03  0.449E-02    0.63       1.0  T
   5   -180.4936018 -0.591777E-04  0.295E-02    0.64       1.0  T
   6   -180.4936134 -0.115452E-04  0.205E-02    0.64       1.0  T
   7   -180.4936177 -0.429996E-05  0.138E-02    0.64       1.0  T
   8   -180.4936233 -0.559226E-05  0.875E-03    0.64       1.2  T
   9   -180.4936242 -0.876036E-06  0.628E-03    0.64       1.7  T
  10   -180.4936248 -0.633110E-06  0.435E-03    0.64       2.4  T
  11   -180.4936252 -0.442591E-06  0.283E-03    0.64       3.7  T
  12   -180.4936253 -0.519766E-07  0.212E-03    0.64       5.0  T
  13   -180.4936254 -0.638915E-07  0.137E-03    0.64       7.7  T
  14   -180.4936254 -0.186949E-07  0.104E-03    0.64      10.1  T
  15   -180.4936254 -0.241737E-07  0.610E-04    0.64      17.3  T
  16   -180.4936254 -0.148501E-08  0.440E-04    0.64      24.0  T
     SCC iter.                  ...        0 min,  0.346 sec
     gradient                   ...        0 min,  0.050 sec
 * total energy  :  -178.7863456 Eh     change       -0.8838830E-03 Eh
   gradient norm :     0.0113691 Eh/α   predicted    -0.6958587E-03 ( -21.27%)
   displ. norm   :     0.5458830 α      lambda       -0.1086258E-02
   maximum displ.:     0.2321188 α      in ANC's #7, #4, #21, ...

........................................................................
.............................. CYCLE  133 ..............................
........................................................................

 iter      E             dE          RMSdq      gap      omega  full diag
   1   -180.4906438 -0.180491E+03  0.375E-01    0.65       0.0  T
   2   -180.4907352 -0.914220E-04  0.124E-01    0.62       1.0  T
   3   -180.4902999  0.435303E-03  0.110E-01    0.67       1.0  T
   4   -180.4908985 -0.598632E-03  0.526E-02    0.63       1.0  T
   5   -180.4909949 -0.963460E-04  0.340E-02    0.64       1.0  T
   6   -180.4910162 -0.212917E-04  0.232E-02    0.64       1.0  T
   7   -180.4910188 -0.268197E-05  0.164E-02    0.64       1.0  T
   8   -180.4910246 -0.572076E-05  0.946E-03    0.64       1.1  T
   9   -180.4910251 -0.573636E-06  0.718E-03    0.64       1.5  T
  10   -180.4910267 -0.156665E-05  0.463E-03    0.64       2.3  T
  11   -180.4910271 -0.386155E-06  0.297E-03    0.64       3.5  T
  12   -180.4910271 -0.316850E-07  0.219E-03    0.64       4.8  T
  13   -180.4910272 -0.410207E-07  0.155E-03    0.64       6.8  T
  14   -180.4910272 -0.679485E-07  0.107E-03    0.64       9.8  T
  15   -180.4910273 -0.201517E-07  0.612E-04    0.64      17.2  T
  16   -180.4910273 -0.310121E-08  0.455E-04    0.64      23.2  T
     SCC iter.                  ...        0 min,  0.324 sec
     gradient                   ...        0 min,  0.049 sec
 * total energy  :  -178.7872620 Eh     change       -0.9163674E-03 Eh
   gradient norm :     0.0149562 Eh/α   predicted    -0.7049788E-03 ( -23.07%)
   displ. norm   :     0.6610128 α      lambda       -0.1601149E-02
   maximum displ.:     0.2843796 α      in ANC's #4, #7, #2, ...

........................................................................
.............................. CYCLE  134 ..............................
........................................................................

 iter      E             dE          RMSdq      gap      omega  full diag
   1   -180.4901447 -0.180490E+03  0.441E-01    0.65       0.0  T
   2   -180.4904165 -0.271870E-03  0.160E-01    0.62       1.0  T
   3   -180.4899621  0.454420E-03  0.128E-01    0.68       1.0  T
   4   -180.4906402 -0.678030E-03  0.695E-02    0.62       1.0  T
   5   -180.4907973 -0.157181E-03  0.437E-02    0.64       1.0  T
   6   -180.4908062 -0.885921E-05  0.322E-02    0.64       1.0  T
   7   -180.4908276 -0.213993E-04  0.201E-02    0.63       1.0  T
   8   -180.4908373 -0.969902E-05  0.116E-02    0.64       1.0  T
   9   -180.4908374 -0.144118E-06  0.932E-03    0.64       1.1  T
  10   -180.4908408 -0.330937E-05  0.571E-03    0.64       1.8  T
  11   -180.4908413 -0.508266E-06  0.382E-03    0.64       2.8  T
  12   -180.4908413 -0.549743E-07  0.296E-03    0.64       3.6  T
  13   -180.4908414 -0.127645E-06  0.192E-03    0.64       5.5  T
  14   -180.4908415 -0.419376E-07  0.131E-03    0.64       8.1  T
  15   -180.4908415 -0.112321E-07  0.964E-04    0.64      10.9  T
  16   -180.4908415 -0.221286E-07  0.646E-04    0.64      16.3  T
     SCC iter.                  ...        0 min,  0.329 sec
     gradient                   ...        0 min,  0.048 sec
 * total energy  :  -178.7887841 Eh     change       -0.1522158E-02 Eh
   gradient norm :     0.0197552 Eh/α   predicted    -0.1150379E-02 ( -24.42%)
   displ. norm   :     0.7909917 α      lambda       -0.2829205E-02
   maximum displ.:     0.3251111 α      in ANC's #4, #7, #2, ...

........................................................................
.............................. CYCLE  135 ..............................
........................................................................

 iter      E             dE          RMSdq      gap      omega  full diag
   1   -180.4923842 -0.180492E+03  0.557E-01    0.65       0.0  T
   2   -180.4932196 -0.835354E-03  0.232E-01    0.60       1.0  T
   3   -180.4927301  0.489454E-03  0.162E-01    0.68       1.0  T
   4   -180.4936141 -0.883971E-03  0.101E-01    0.61       1.0  T
   5   -180.4940049 -0.390822E-03  0.578E-02    0.64       1.0  T
   6   -180.4939875  0.174265E-04  0.428E-02    0.64       1.0  T
   7   -180.4940568 -0.692819E-04  0.238E-02    0.63       1.0  T
   8   -180.4940722 -0.154484E-04  0.134E-02    0.63       1.0  T
   9   -180.4940723 -0.959947E-07  0.106E-02    0.63       1.0  T
  10   -180.4940758 -0.349241E-05  0.679E-03    0.63       1.6  T
  11   -180.4940766 -0.799184E-06  0.477E-03    0.63       2.2  T
  12   -180.4940769 -0.265380E-06  0.343E-03    0.63       3.1  T
  13   -180.4940770 -0.140563E-06  0.217E-03    0.63       4.9  T
  14   -180.4940770 -0.292365E-07  0.150E-03    0.63       7.0  T
  15   -180.4940771 -0.248825E-07  0.114E-03    0.63       9.2  T
  16   -180.4940771 -0.397222E-07  0.741E-04    0.63      14.2  T
  17   -180.4940771 -0.854652E-08  0.483E-04    0.63      21.8  T
     SCC iter.                  ...        0 min,  0.360 sec
     gradient                   ...        0 min,  0.052 sec
 * total energy  :  -178.7909058 Eh     change       -0.2121695E-02 Eh
   gradient norm :     0.0314819 Eh/α   predicted    -0.2299677E-02 (   8.39%)
   displ. norm   :     0.3611382 α      lambda       -0.2055470E-02
   maximum displ.:     0.1268063 α      in ANC's #21, #25, #19, ...

........................................................................
.............................. CYCLE  136 ..............................
........................................................................

 iter      E             dE          RMSdq      gap      omega  full diag
   1   -180.5161981 -0.180516E+03  0.312E-01    0.64       0.0  T
   2   -180.5162873 -0.892514E-04  0.118E-01    0.63       1.0  T
   3   -180.5159692  0.318143E-03  0.102E-01    0.64       1.0  T
   4   -180.5164086 -0.439432E-03  0.496E-02    0.64       1.0  T
   5   -180.5164327 -0.240870E-04  0.388E-02    0.63       1.0  T
   6   -180.5164955 -0.627833E-04  0.228E-02    0.64       1.0  T
   7   -180.5165067 -0.112206E-04  0.135E-02    0.63       1.0  T
   8   -180.5165098 -0.313134E-05  0.780E-03    0.63       1.4  T
   9   -180.5165101 -0.227916E-06  0.558E-03    0.63       1.9  T
  10   -180.5165100  0.852773E-07  0.419E-03    0.63       2.5  T
  11   -180.5165106 -0.659128E-06  0.248E-03    0.63       4.3  T
  12   -180.5165108 -0.103213E-06  0.148E-03    0.63       7.1  T
  13   -180.5165108 -0.249187E-07  0.108E-03    0.63       9.8  T
  14   -180.5165108 -0.203962E-07  0.625E-04    0.63      16.9  T
  15   -180.5165108 -0.206967E-09  0.460E-04    0.63      22.9  T
     SCC iter.                  ...        0 min,  0.382 sec
     gradient                   ...        0 min,  0.049 sec
 * total energy  :  -178.7908731 Eh     change        0.3272096E-04 Eh
   gradient norm :     0.0435398 Eh/α   predicted    -0.1161782E-02 (*******%)
   displ. norm   :     0.4248840 α      lambda       -0.4544249E-02
   maximum displ.:     0.1887287 α      in ANC's #5, #4, #7, ...

........................................................................
.............................. CYCLE  137 ..............................
........................................................................

 iter      E             dE          RMSdq      gap      omega  full diag
   1   -180.5106314 -0.180511E+03  0.317E-01    0.63       0.0  T
   2   -180.5108598 -0.228398E-03  0.177E-01    0.63       1.0  T
   3   -180.5111391 -0.279292E-03  0.957E-02    0.64       1.0  T
   4   -180.5112100 -0.709106E-04  0.675E-02    0.63       1.0  T
   5   -180.5112971 -0.870672E-04  0.467E-02    0.64       1.0  T
   6   -180.5113182 -0.211033E-04  0.318E-02    0.63       1.0  T
   7   -180.5113260 -0.779439E-05  0.211E-02    0.64       1.0  T
   8   -180.5113445 -0.185744E-04  0.127E-02    0.63       1.0  T
   9   -180.5113469 -0.235304E-05  0.921E-03    0.63       1.1  T
  10   -180.5113472 -0.340174E-06  0.619E-03    0.63       1.7  T
  11   -180.5113482 -0.927052E-06  0.434E-03    0.63       2.4  T
  12   -180.5113487 -0.502553E-06  0.260E-03    0.63       4.1  T
  13   -180.5113487 -0.267233E-07  0.180E-03    0.63       5.9  T
  14   -180.5113487  0.137049E-08  0.129E-03    0.63       8.2  T
  15   -180.5113487 -0.379762E-07  0.929E-04    0.63      11.3  T
  16   -180.5113487 -0.272361E-07  0.541E-04    0.63      19.5  T
     SCC iter.                  ...        0 min,  0.459 sec
     gradient                   ...        0 min,  0.051 sec
 * total energy  :  -178.7937019 Eh     change       -0.2828797E-02 Eh
   gradient norm :     0.0346178 Eh/α   predicted    -0.2682307E-02 (  -5.18%)
   displ. norm   :     0.4687326 α      lambda       -0.2878694E-02
   maximum displ.:     0.2478264 α      in ANC's #4, #2, #5, ...

........................................................................
.............................. CYCLE  138 ..............................
........................................................................

 iter      E             dE          RMSdq      gap      omega  full diag
   1   -180.5049401 -0.180505E+03  0.345E-01    0.65       0.0  T
   2   -180.5048295  0.110534E-03  0.113E-01    0.63       1.0  T
   3   -180.5040411  0.788440E-03  0.126E-01    0.67       1.0  T
   4   -180.5051078 -0.106671E-02  0.427E-02    0.63       1.0  T
   5   -180.5051640 -0.562492E-04  0.269E-02    0.64       1.0  T
   6   -180.5051780 -0.139476E-04  0.180E-02    0.64       1.0  T
   7   -180.5051825 -0.453484E-05  0.114E-02    0.64       1.0  T
   8   -180.5051857 -0.318202E-05  0.692E-03    0.64       1.5  T
   9   -180.5051861 -0.404643E-06  0.525E-03    0.64       2.0  T
  10   -180.5051865 -0.403233E-06  0.335E-03    0.64       3.1  T
  11   -180.5051867 -0.136463E-06  0.231E-03    0.64       4.6  T
  12   -180.5051868 -0.126383E-06  0.146E-03    0.64       7.2  T
  13   -180.5051868 -0.185267E-07  0.100E-03    0.64      10.5  T
  14   -180.5051868  0.113164E-07  0.828E-04    0.64      12.7  T
  15   -180.5051868 -0.318732E-07  0.434E-04    0.64      24.3  T
     SCC iter.                  ...        0 min,  0.332 sec
     gradient                   ...        0 min,  0.050 sec
 * total energy  :  -178.7956533 Eh     change       -0.1951363E-02 Eh
   gradient norm :     0.0312469 Eh/α   predicted    -0.1755595E-02 ( -10.03%)
   displ. norm   :     0.4927223 α      lambda       -0.3336350E-02
   maximum displ.:     0.2296040 α      in ANC's #4, #14, #5, ...

........................................................................
.............................. CYCLE  139 ..............................
........................................................................

 iter      E             dE          RMSdq      gap      omega  full diag
   1   -180.5078429 -0.180508E+03  0.403E-01    0.66       0.0  T
   2   -180.5079325 -0.895430E-04  0.175E-01    0.62       1.0  T
   3   -180.5075023  0.430164E-03  0.154E-01    0.68       1.0  T
   4   -180.5083856 -0.883334E-03  0.705E-02    0.64       1.0  T
   5   -180.5085298 -0.144167E-03  0.431E-02    0.65       1.0  T
   6   -180.5085221  0.769388E-05  0.307E-02    0.64       1.0  T
   7   -180.5085719 -0.497410E-04  0.152E-02    0.65       1.0  T
   8   -180.5085773 -0.541752E-05  0.930E-03    0.65       1.1  T
   9   -180.5085781 -0.793832E-06  0.657E-03    0.65       1.6  T
  10   -180.5085788 -0.722271E-06  0.458E-03    0.65       2.3  T
  11   -180.5085793 -0.526090E-06  0.280E-03    0.65       3.8  T
  12   -180.5085794 -0.658563E-07  0.200E-03    0.65       5.3  T
  13   -180.5085794 -0.216447E-07  0.133E-03    0.65       7.9  T
  14   -180.5085794 -0.263181E-07  0.882E-04    0.65      11.9  T
  15   -180.5085795 -0.227675E-07  0.512E-04    0.65      20.6  T
     SCC iter.                  ...        0 min,  0.314 sec
     gradient                   ...        0 min,  0.049 sec
 * total energy  :  -178.7977053 Eh     change       -0.2052023E-02 Eh
   gradient norm :     0.0508574 Eh/α   predicted    -0.2073170E-02 (   1.03%)
   displ. norm   :     0.3374145 α      lambda       -0.3589036E-02
   maximum displ.:     0.1169464 α      in ANC's #14, #2, #4, ...

........................................................................
.............................. CYCLE  140 ..............................
........................................................................

 iter      E             dE          RMSdq      gap      omega  full diag
   1   -180.5181671 -0.180518E+03  0.263E-01    0.64       0.0  T
   2   -180.5181990 -0.319060E-04  0.128E-01    0.64       1.0  T
   3   -180.5181382  0.608887E-04  0.956E-02    0.66       1.0  T
   4   -180.5185093 -0.371175E-03  0.471E-02    0.64       1.0  T
   5   -180.5185891 -0.797467E-04  0.347E-02    0.65       1.0  T
   6   -180.5186313 -0.421946E-04  0.188E-02    0.65       1.0  T
   7   -180.5186314 -0.826956E-07  0.132E-02    0.65       1.0  T
   8   -180.5186330 -0.160919E-05  0.102E-02    0.65       1.0  T
   9   -180.5186349 -0.188616E-05  0.749E-03    0.65       1.4  T
  10   -180.5186357 -0.815896E-06  0.548E-03    0.65       1.9  T
  11   -180.5186362 -0.559512E-06  0.364E-03    0.65       2.9  T
  12   -180.5186365 -0.250738E-06  0.227E-03    0.65       4.6  T
  13   -180.5186365 -0.389454E-07  0.174E-03    0.65       6.1  T
  14   -180.5186366 -0.760647E-07  0.930E-04    0.65      11.3  T
  15   -180.5186366 -0.662078E-08  0.646E-04    0.65      16.3  T
     SCC iter.                  ...        0 min,  0.294 sec
     gradient                   ...        0 min,  0.049 sec
 * total energy  :  -178.7997929 Eh     change       -0.2087584E-02 Eh
   gradient norm :     0.0342987 Eh/α   predicted    -0.1998825E-02 (  -4.25%)
   displ. norm   :     0.5664361 α      lambda       -0.3188084E-02
   maximum displ.:     0.2514901 α      in ANC's #2, #4, #14, ...

........................................................................
.............................. CYCLE  141 ..............................
........................................................................

 iter      E             dE          RMSdq      gap      omega  full diag
   1   -180.5215068 -0.180522E+03  0.499E-01    0.64       0.0  T
   2   -180.5219090 -0.402177E-03  0.165E-01    0.64       1.0  T
   3   -180.5218606  0.483838E-04  0.104E-01    0.65       1.0  T
   4   -180.5219477 -0.870837E-04  0.661E-02    0.64       1.0  T
   5   -180.5220347 -0.869761E-04  0.440E-02    0.65       1.0  T
   6   -180.5220657 -0.310286E-04  0.250E-02    0.65       1.0  T
   7   -180.5220769 -0.112421E-04  0.172E-02    0.64       1.0  T
   8   -180.5220872 -0.102873E-04  0.104E-02    0.65       1.0  T
   9   -180.5220902 -0.297014E-05  0.636E-03    0.65       1.7  T
  10   -180.5220906 -0.352691E-06  0.429E-03    0.65       2.5  T
  11   -180.5220906 -0.862486E-07  0.325E-03    0.65       3.2  T
  12   -180.5220909 -0.293080E-06  0.226E-03    0.65       4.7  T
  13   -180.5220910 -0.828411E-07  0.151E-03    0.65       7.0  T
  14   -180.5220910 -0.207828E-07  0.102E-03    0.65      10.3  T
  15   -180.5220911 -0.130622E-07  0.668E-04    0.65      15.8  T
  16   -180.5220911 -0.100726E-07  0.525E-04    0.65      20.1  T
     SCC iter.                  ...        0 min,  0.312 sec
     gradient                   ...        0 min,  0.048 sec
 * total energy  :  -178.8016776 Eh     change       -0.1884760E-02 Eh
   gradient norm :     0.0388866 Eh/α   predicted    -0.2105486E-02 (  11.71%)
   displ. norm   :     0.5986505 α      lambda       -0.5032184E-02
   maximum displ.:     0.2724122 α      in ANC's #21, #7, #8, ...

........................................................................
.............................. CYCLE  142 ..............................
........................................................................

 iter      E             dE          RMSdq      gap      omega  full diag
   1   -180.5346841 -0.180535E+03  0.618E-01    0.64       0.0  T
   2   -180.5343700  0.314161E-03  0.289E-01    0.69       1.0  T
   3   -180.5345467 -0.176723E-03  0.201E-01    0.62       1.0  T
   4   -180.5355813 -0.103460E-02  0.111E-01    0.69       1.0  T
   5   -180.5365994 -0.101815E-02  0.624E-02    0.66       1.0  T
   6   -180.5366590 -0.595487E-04  0.321E-02    0.66       1.0  T
   7   -180.5366547  0.433026E-05  0.261E-02    0.66       1.0  T
   8   -180.5366736 -0.189228E-04  0.167E-02    0.66       1.0  T
   9   -180.5366805 -0.692246E-05  0.113E-02    0.66       1.0  T
  10   -180.5366823 -0.180379E-05  0.773E-03    0.66       1.4  T
  11   -180.5366825 -0.198671E-06  0.605E-03    0.66       1.7  T
  12   -180.5366833 -0.836652E-06  0.391E-03    0.66       2.7  T
  13   -180.5366835 -0.178230E-06  0.253E-03    0.66       4.2  T
  14   -180.5366836 -0.352079E-07  0.180E-03    0.66       5.9  T
  15   -180.5366836 -0.651416E-07  0.113E-03    0.66       9.3  T
  16   -180.5366837 -0.352022E-07  0.789E-04    0.66      13.4  T
  17   -180.5366837 -0.792275E-08  0.462E-04    0.66      22.8  T
     SCC iter.                  ...        0 min,  0.338 sec
     gradient                   ...        0 min,  0.047 sec
 * total energy  :  -178.8040620 Eh     change       -0.2384329E-02 Eh
   gradient norm :     0.0433263 Eh/α   predicted    -0.3417816E-02 (  43.34%)
   displ. norm   :     0.4148792 α      lambda       -0.4748591E-02
   maximum displ.:     0.2277823 α      in ANC's #2, #20, #11, ...

........................................................................
.............................. CYCLE  143 ..............................
........................................................................

 iter      E             dE          RMSdq      gap      omega  full diag
   1   -180.5321206 -0.180532E+03  0.323E-01    0.63       0.0  T
   2   -180.5320833  0.372320E-04  0.151E-01    0.68       1.0  T
   3   -180.5319925  0.908537E-04  0.119E-01    0.63       1.0  T
   4   -180.5325183 -0.525845E-03  0.595E-02    0.67       1.0  T
   5   -180.5326898 -0.171435E-03  0.335E-02    0.65       1.0  T
   6   -180.5327084 -0.185872E-04  0.209E-02    0.66       1.0  T
   7   -180.5327078  0.589756E-06  0.154E-02    0.66       1.0  T
   8   -180.5327161 -0.832635E-05  0.813E-03    0.66       1.3  T
   9   -180.5327175 -0.143619E-05  0.507E-03    0.66       2.1  T
  10   -180.5327177 -0.208842E-06  0.368E-03    0.66       2.9  T
  11   -180.5327181 -0.367233E-06  0.234E-03    0.66       4.5  T
  12   -180.5327182 -0.749998E-07  0.157E-03    0.66       6.7  T
  13   -180.5327182 -0.306110E-07  0.109E-03    0.66       9.7  T
  14   -180.5327182 -0.526015E-08  0.683E-04    0.66      15.4  T
  15   -180.5327182 -0.416267E-08  0.515E-04    0.66      20.5  T
     SCC iter.                  ...        0 min,  0.336 sec
     gradient                   ...        0 min,  0.052 sec
 * total energy  :  -178.8069444 Eh     change       -0.2882467E-02 Eh
   gradient norm :     0.0308424 Eh/α   predicted    -0.2782976E-02 (  -3.45%)
   displ. norm   :     0.5877126 α      lambda       -0.5711255E-02
   maximum displ.:     0.2892382 α      in ANC's #2, #14, #4, ...

........................................................................
.............................. CYCLE  144 ..............................
........................................................................

 iter      E             dE          RMSdq      gap      omega  full diag
   1   -180.5135560 -0.180514E+03  0.568E-01    0.61       0.0  T
   2   -180.5141128 -0.556790E-03  0.252E-01    0.67       1.0  T
   3   -180.5144787 -0.365878E-03  0.165E-01    0.62       1.0  T
   4   -180.5148345 -0.355842E-03  0.778E-02    0.66       1.0  T
   5   -180.5148326  0.193867E-05  0.658E-02    0.64       1.0  T
   6   -180.5149930 -0.160423E-03  0.308E-02    0.65       1.0  T
   7   -180.5149986 -0.557154E-05  0.191E-02    0.65       1.0  T
   8   -180.5150025 -0.393394E-05  0.129E-02    0.65       1.0  T
   9   -180.5150037 -0.118694E-05  0.954E-03    0.65       1.1  T
  10   -180.5150065 -0.275453E-05  0.600E-03    0.65       1.8  T
  11   -180.5150070 -0.574109E-06  0.394E-03    0.65       2.7  T
  12   -180.5150073 -0.266619E-06  0.289E-03    0.65       3.7  T
  13   -180.5150074 -0.126735E-06  0.193E-03    0.65       5.4  T
  14   -180.5150074 -0.245524E-08  0.154E-03    0.65       6.8  T
  15   -180.5150075 -0.105313E-06  0.782E-04    0.65      13.5  T
  16   -180.5150076 -0.148316E-08  0.675E-04    0.65      15.6  T
     SCC iter.                  ...        0 min,  0.437 sec
     gradient                   ...        0 min,  0.050 sec
 * total energy  :  -178.8096391 Eh     change       -0.2694670E-02 Eh
   gradient norm :     0.0386704 Eh/α   predicted    -0.3841981E-02 (  42.58%)
   displ. norm   :     0.3355469 α      lambda       -0.3630185E-02
   maximum displ.:     0.1694509 α      in ANC's #2, #15, #250, ...

........................................................................
.............................. CYCLE  145 ..............................
........................................................................

 iter      E             dE          RMSdq      gap      omega  full diag
   1   -180.5208622 -0.180521E+03  0.366E-01    0.66       0.0  T
   2   -180.5207966  0.656519E-04  0.124E-01    0.66       1.0  T
   3   -180.5206212  0.175352E-03  0.115E-01    0.67       1.0  T
   4   -180.5211790 -0.557814E-03  0.482E-02    0.65       1.0  T
   5   -180.5212758 -0.967867E-04  0.323E-02    0.67       1.0  T
   6   -180.5213061 -0.302529E-04  0.184E-02    0.66       1.0  T
   7   -180.5213040  0.205920E-05  0.146E-02    0.66       1.0  T
   8   -180.5213098 -0.574646E-05  0.700E-03    0.66       1.5  T
   9   -180.5213099 -0.158151E-06  0.473E-03    0.66       2.2  T
  10   -180.5213101 -0.189121E-06  0.368E-03    0.66       2.9  T
  11   -180.5213105 -0.417525E-06  0.203E-03    0.66       5.2  T
  12   -180.5213106 -0.481377E-07  0.154E-03    0.66       6.8  T
  13   -180.5213106 -0.213346E-07  0.107E-03    0.66       9.9  T
  14   -180.5213106 -0.106382E-09  0.871E-04    0.66      12.1  T
  15   -180.5213106 -0.260904E-07  0.511E-04    0.66      20.6  T
     SCC iter.                  ...        0 min,  0.347 sec
     gradient                   ...        0 min,  0.056 sec
 * total energy  :  -178.8124833 Eh     change       -0.2844144E-02 Eh
   gradient norm :     0.0291294 Eh/α   predicted    -0.2019466E-02 ( -29.00%)
   displ. norm   :     0.5999641 α      lambda       -0.5259614E-02
   maximum displ.:     0.3069792 α      in ANC's #2, #15, #250, ...

........................................................................
.............................. CYCLE  146 ..............................
........................................................................

 iter      E             dE          RMSdq      gap      omega  full diag
   1   -180.5311847 -0.180531E+03  0.753E-01    0.64       0.0  T
   2   -180.5322083 -0.102360E-02  0.260E-01    0.67       1.0  T
   3   -180.5327467 -0.538362E-03  0.165E-01    0.66       1.0  T
   4   -180.5329902 -0.243484E-03  0.987E-02    0.65       1.0  T
   5   -180.5334321 -0.441901E-03  0.606E-02    0.67       1.0  T
   6   -180.5335186 -0.865098E-04  0.347E-02    0.66       1.0  T
   7   -180.5335224 -0.384888E-05  0.229E-02    0.67       1.0  T
   8   -180.5335325 -0.100094E-04  0.154E-02    0.66       1.0  T
   9   -180.5335396 -0.715934E-05  0.902E-03    0.67       1.2  T
  10   -180.5335407 -0.111427E-05  0.567E-03    0.67       1.9  T
  11   -180.5335413 -0.586464E-06  0.335E-03    0.67       3.1  T
  12   -180.5335415 -0.133587E-06  0.261E-03    0.67       4.0  T
  13   -180.5335416 -0.125088E-06  0.175E-03    0.67       6.0  T
  14   -180.5335416  0.871691E-08  0.140E-03    0.67       7.5  T
  15   -180.5335416 -0.603089E-07  0.892E-04    0.67      11.8  T
  16   -180.5335416 -0.147670E-07  0.599E-04    0.67      17.6  T
     SCC iter.                  ...        0 min,  0.368 sec
     gradient                   ...        0 min,  0.049 sec
 * total energy  :  -178.8172254 Eh     change       -0.4742152E-02 Eh
   gradient norm :     0.0268381 Eh/α   predicted    -0.3576417E-02 ( -24.58%)
   displ. norm   :     0.8445570 α      lambda       -0.7987896E-02
   maximum displ.:     0.3627084 α      in ANC's #2, #15, #250, ...

........................................................................
.............................. CYCLE  147 ..............................
........................................................................

 iter      E             dE          RMSdq      gap      omega  full diag
   1   -180.5398887 -0.180540E+03  0.120E+00    0.62       0.0  T
   2   -180.5430178 -0.312917E-02  0.380E-01    0.66       1.0  T
   3   -180.5429984  0.194686E-04  0.251E-01    0.66       1.0  T
   4   -180.5433014 -0.303049E-03  0.187E-01    0.64       1.0  T
   5   -180.5451316 -0.183020E-02  0.102E-01    0.67       1.0  T
   6   -180.5452783 -0.146724E-03  0.636E-02    0.64       1.0  T
   7   -180.5453275 -0.491503E-04  0.387E-02    0.66       1.0  T
   8   -180.5453501 -0.226477E-04  0.262E-02    0.66       1.0  T
   9   -180.5453652 -0.150354E-04  0.172E-02    0.66       1.0  T
  10   -180.5453642  0.988713E-06  0.126E-02    0.66       1.0  T
  11   -180.5453712 -0.698347E-05  0.696E-03    0.66       1.5  T
  12   -180.5453718 -0.599153E-06  0.493E-03    0.66       2.1  T
  13   -180.5453719 -0.161444E-06  0.365E-03    0.66       2.9  T
  14   -180.5453720 -0.843950E-07  0.252E-03    0.66       4.2  T
  15   -180.5453722 -0.167287E-06  0.162E-03    0.66       6.5  T
  16   -180.5453723 -0.751436E-07  0.104E-03    0.66      10.1  T
  17   -180.5453723  0.284587E-09  0.734E-04    0.66      14.4  T
  18   -180.5453723 -0.174640E-07  0.376E-04    0.66      28.0  T
     SCC iter.                  ...        0 min,  0.442 sec
     gradient                   ...        0 min,  0.053 sec
 * total energy  :  -178.8260369 Eh     change       -0.8811478E-02 Eh
   gradient norm :     0.0396980 Eh/α   predicted    -0.6842708E-02 ( -22.34%)
   displ. norm   :     0.8386692 α      lambda       -0.1055070E-01
   maximum displ.:     0.3377207 α      in ANC's #15, #2, #250, ...

........................................................................
.............................. CYCLE  148 ..............................
........................................................................

 iter      E             dE          RMSdq      gap      omega  full diag
   1   -180.5500017 -0.180550E+03  0.110E+00    0.60       0.0  T
   2   -180.5527535 -0.275176E-02  0.371E-01    0.64       1.0  T
   3   -180.5521451  0.608359E-03  0.254E-01    0.63       1.0  T
   4   -180.5521267  0.184592E-04  0.207E-01    0.63       1.0  T
   5   -180.5542378 -0.211108E-02  0.120E-01    0.65       1.0  T
   6   -180.5543912 -0.153485E-03  0.846E-02    0.62       1.0  T
   7   -180.5544846 -0.933790E-04  0.513E-02    0.64       1.0  T
   8   -180.5545200 -0.353440E-04  0.377E-02    0.63       1.0  T
   9   -180.5545400 -0.200257E-04  0.271E-02    0.64       1.0  T
  10   -180.5545388  0.122185E-05  0.202E-02    0.64       1.0  T
  11   -180.5545560 -0.172356E-04  0.111E-02    0.64       1.0  T
  12   -180.5545572 -0.117816E-05  0.849E-03    0.63       1.2  T
  13   -180.5545582 -0.101229E-05  0.549E-03    0.64       1.9  T
  14   -180.5545583 -0.120854E-06  0.387E-03    0.64       2.7  T
  15   -180.5545589 -0.558261E-06  0.225E-03    0.64       4.7  T
  16   -180.5545589 -0.687064E-07  0.155E-03    0.64       6.8  T
  17   -180.5545590 -0.107646E-07  0.107E-03    0.64       9.9  T
  18   -180.5545590 -0.319193E-07  0.576E-04    0.64      18.3  T
  19   -180.5545590 -0.591152E-08  0.322E-04    0.64      32.7  T
     SCC iter.                  ...        0 min,  0.462 sec
     gradient                   ...        0 min,  0.050 sec
 * total energy  :  -178.8371005 Eh     change       -0.1106363E-01 Eh
   gradient norm :     0.0558050 Eh/α   predicted    -0.8985819E-02 ( -18.78%)
   displ. norm   :     0.8502541 α      lambda       -0.1662541E-01
   maximum displ.:     0.3725359 α      in ANC's #250, #15, #4, ...

........................................................................
.............................. CYCLE  149 ..............................
........................................................................

 iter      E             dE          RMSdq      gap      omega  full diag
   1   -180.5743759 -0.180574E+03  0.119E+00    0.51       0.0  T
   2   -180.5762269 -0.185096E-02  0.440E-01    0.59       1.0  T
   3   -180.5732233  0.300359E-02  0.377E-01    0.58       1.0  T
   4   -180.5779183 -0.469498E-02  0.247E-01    0.57       1.0  T
   5   -180.5800764 -0.215815E-02  0.160E-01    0.59       1.0  T
   6   -180.5801968 -0.120431E-03  0.120E-01    0.55       1.0  T
   7   -180.5803875 -0.190615E-03  0.746E-02    0.59       1.0  T
   8   -180.5804684 -0.809048E-04  0.527E-02    0.57       1.0  T
   9   -180.5804984 -0.300657E-04  0.386E-02    0.58       1.0  T
  10   -180.5805195 -0.210984E-04  0.266E-02    0.58       1.0  T
  11   -180.5805393 -0.197736E-04  0.155E-02    0.58       1.0  T
  12   -180.5805418 -0.248412E-05  0.122E-02    0.58       1.0  T
  13   -180.5805452 -0.338968E-05  0.724E-03    0.58       1.5  T
  14   -180.5805457 -0.473939E-06  0.515E-03    0.58       2.0  T
  15   -180.5805464 -0.748383E-06  0.329E-03    0.58       3.2  T
  16   -180.5805465 -0.112467E-06  0.220E-03    0.58       4.8  T
  17   -180.5805465 -0.328362E-07  0.153E-03    0.58       6.9  T
  18   -180.5805466 -0.495190E-07  0.892E-04    0.58      11.8  T
  19   -180.5805466 -0.168371E-07  0.499E-04    0.58      21.1  T
     SCC iter.                  ...        0 min,  0.453 sec
     gradient                   ...        0 min,  0.050 sec
 * total energy  :  -178.8303832 Eh     change        0.6717278E-02 Eh
   gradient norm :     0.1381631 Eh/α   predicted    -0.1432218E-01 (-313.21%)
   displ. norm   :     0.4196301 α      lambda       -0.4739714E-01
   maximum displ.:     0.1963278 α      in ANC's #15, #1, #14, ...

........................................................................
.............................. CYCLE  150 ..............................
........................................................................

 iter      E             dE          RMSdq      gap      omega  full diag
   1   -180.5627321 -0.180563E+03  0.630E-01    0.63       0.0  T
   2   -180.5635094 -0.777285E-03  0.264E-01    0.63       1.0  T
   3   -180.5625137  0.995693E-03  0.229E-01    0.61       1.0  T
   4   -180.5636685 -0.115480E-02  0.159E-01    0.64       1.0  T
   5   -180.5643611 -0.692613E-03  0.112E-01    0.61       1.0  T
   6   -180.5645556 -0.194507E-03  0.745E-02    0.63       1.0  T
   7   -180.5646106 -0.549952E-04  0.462E-02    0.62       1.0  T
   8   -180.5646202 -0.960265E-05  0.381E-02    0.62       1.0  T
   9   -180.5646518 -0.316188E-04  0.240E-02    0.62       1.0  T
  10   -180.5646546 -0.275007E-05  0.174E-02    0.63       1.0  T
  11   -180.5646646 -0.100429E-04  0.973E-03    0.62       1.1  T
  12   -180.5646657 -0.113468E-05  0.738E-03    0.62       1.4  T
  13   -180.5646665 -0.712394E-06  0.478E-03    0.62       2.2  T
  14   -180.5646664  0.179725E-07  0.364E-03    0.62       2.9  T
  15   -180.5646670 -0.521562E-06  0.214E-03    0.62       4.9  T
  16   -180.5646670 -0.720894E-07  0.124E-03    0.62       8.5  T
  17   -180.5646670 -0.986347E-08  0.818E-04    0.62      12.9  T
  18   -180.5646670 -0.792343E-08  0.471E-04    0.62      22.4  T
     SCC iter.                  ...        0 min,  0.437 sec
     gradient                   ...        0 min,  0.049 sec
 * total energy  :  -178.8453465 Eh     change       -0.1496323E-01 Eh
   gradient norm :     0.0453441 Eh/α   predicted    -0.2787174E-01 (  86.27%)
   displ. norm   :     0.5062489 α      lambda       -0.8816260E-02
   maximum displ.:     0.1787659 α      in ANC's #2, #5, #6, ...
 * RMSD in coord.:     0.7766269 α      energy gain  -0.7120839E-01 Eh

generating ANC from exact Hessian ...
Using Lindh-Hessian (1995)
 Shifting diagonal of input Hessian by   1.029278507440683E-002
 Lowest  eigenvalues of input Hessian
    0.010000    0.000000    0.000000    0.000000    0.000000    0.000000
    0.000000    0.010428    0.010817    0.010965    0.010986    0.011126
    0.011140    0.011418    0.011721    0.011884    0.012159    0.012527
 Highest eigenvalues
    1.980425    2.062652    2.164392    2.212964    2.233905    2.255867
 

........................................................................
.............................. CYCLE  151 ..............................
........................................................................

 iter      E             dE          RMSdq      gap      omega  full diag
   1   -180.5517751 -0.180552E+03  0.623E-01    0.64       0.0  T
   2   -180.5521161 -0.341027E-03  0.188E-01    0.62       1.0  T
   3   -180.5514062  0.709878E-03  0.152E-01    0.64       1.0  T
   4   -180.5521491 -0.742899E-03  0.952E-02    0.62       1.0  T
   5   -180.5525127 -0.363562E-03  0.490E-02    0.62       1.0  T
   6   -180.5525151 -0.246069E-05  0.373E-02    0.64       1.0  T
   7   -180.5525469 -0.317859E-04  0.219E-02    0.62       1.0  T
   8   -180.5525519 -0.497913E-05  0.155E-02    0.63       1.0  T
   9   -180.5525573 -0.541128E-05  0.110E-02    0.63       1.0  T
  10   -180.5525607 -0.335841E-05  0.586E-03    0.63       1.8  T
  11   -180.5525612 -0.590831E-06  0.396E-03    0.63       2.7  T
  12   -180.5525614 -0.144199E-06  0.269E-03    0.63       3.9  T
  13   -180.5525615 -0.795453E-07  0.211E-03    0.63       5.0  T
  14   -180.5525616 -0.797056E-07  0.132E-03    0.63       8.0  T
  15   -180.5525616 -0.397613E-07  0.863E-04    0.63      12.2  T
  16   -180.5525616 -0.174090E-07  0.578E-04    0.63      18.2  T
     SCC iter.                  ...        0 min,  0.371 sec
     gradient                   ...        0 min,  0.051 sec
 * total energy  :  -178.8444285 Eh     change        0.9180146E-03 Eh
   gradient norm :     0.0492186 Eh/α   predicted     0.0000000E+00 (-100.00%)
   displ. norm   :     0.3584167 α      lambda       -0.9090312E-02
   maximum displ.:     0.1082090 α      in ANC's #95, #40, #22, ...

........................................................................
.............................. CYCLE  152 ..............................
........................................................................

 iter      E             dE          RMSdq      gap      omega  full diag
   1   -180.5588455 -0.180559E+03  0.429E-01    0.61       0.0  T
   2   -180.5590398 -0.194335E-03  0.139E-01    0.64       1.0  T
   3   -180.5589300  0.109806E-03  0.816E-02    0.60       1.0  T
   4   -180.5589987 -0.686447E-04  0.587E-02    0.64       1.0  T
   5   -180.5591218 -0.123066E-03  0.267E-02    0.62       1.0  T
   6   -180.5591170  0.474100E-05  0.216E-02    0.62       1.0  T
   7   -180.5591351 -0.180915E-04  0.113E-02    0.62       1.0  T
   8   -180.5591376 -0.252809E-05  0.621E-03    0.62       1.7  T
   9   -180.5591378 -0.192445E-06  0.441E-03    0.62       2.4  T
  10   -180.5591382 -0.359075E-06  0.291E-03    0.62       3.6  T
  11   -180.5591384 -0.231744E-06  0.167E-03    0.62       6.3  T
  12   -180.5591385 -0.386931E-07  0.103E-03    0.62      10.2  T
  13   -180.5591385 -0.330197E-07  0.732E-04    0.62      14.4  T
  14   -180.5591385 -0.834450E-08  0.462E-04    0.62      22.8  T
     SCC iter.                  ...        0 min,  0.324 sec
     gradient                   ...        0 min,  0.050 sec
 * total energy  :  -178.8495876 Eh     change       -0.5159142E-02 Eh
   gradient norm :     0.0325740 Eh/α   predicted    -0.5129490E-02 (  -0.57%)
   displ. norm   :     0.3493303 α      lambda       -0.4766314E-02
   maximum displ.:     0.1196397 α      in ANC's #23, #3, #17, ...

........................................................................
.............................. CYCLE  153 ..............................
........................................................................

 iter      E             dE          RMSdq      gap      omega  full diag
   1   -180.5661852 -0.180566E+03  0.319E-01    0.65       0.0  T
   2   -180.5662520 -0.667691E-04  0.111E-01    0.62       1.0  T
   3   -180.5659510  0.300978E-03  0.969E-02    0.66       1.0  T
   4   -180.5663531 -0.402050E-03  0.535E-02    0.63       1.0  T
   5   -180.5664826 -0.129535E-03  0.307E-02    0.64       1.0  T
   6   -180.5665020 -0.193515E-04  0.180E-02    0.63       1.0  T
   7   -180.5665042 -0.221673E-05  0.121E-02    0.63       1.0  T
   8   -180.5665092 -0.503469E-05  0.730E-03    0.63       1.4  T
   9   -180.5665101 -0.845363E-06  0.481E-03    0.63       2.2  T
  10   -180.5665101 -0.428059E-07  0.386E-03    0.63       2.7  T
  11   -180.5665105 -0.427236E-06  0.224E-03    0.63       4.7  T
  12   -180.5665106 -0.227531E-07  0.168E-03    0.63       6.3  T
  13   -180.5665106 -0.153691E-07  0.124E-03    0.63       8.5  T
  14   -180.5665106 -0.336930E-07  0.829E-04    0.63      12.7  T
  15   -180.5665106 -0.186614E-07  0.482E-04    0.63      21.9  T
     SCC iter.                  ...        0 min,  0.348 sec
     gradient                   ...        0 min,  0.051 sec
 * total energy  :  -178.8526971 Eh     change       -0.3109536E-02 Eh
   gradient norm :     0.0244571 Eh/α   predicted    -0.2674040E-02 ( -14.01%)
   displ. norm   :     0.3711379 α      lambda       -0.3530241E-02
   maximum displ.:     0.1238305 α      in ANC's #7, #3, #17, ...

........................................................................
.............................. CYCLE  154 ..............................
........................................................................

 iter      E             dE          RMSdq      gap      omega  full diag
   1   -180.5715846 -0.180572E+03  0.385E-01    0.65       0.0  T
   2   -180.5715838  0.800244E-06  0.130E-01    0.62       1.0  T
   3   -180.5710652  0.518578E-03  0.129E-01    0.65       1.0  T
   4   -180.5717922 -0.726921E-03  0.512E-02    0.63       1.0  T
   5   -180.5719114 -0.119246E-03  0.291E-02    0.64       1.0  T
   6   -180.5719329 -0.215327E-04  0.212E-02    0.63       1.0  T
   7   -180.5719419 -0.900100E-05  0.135E-02    0.64       1.0  T
   8   -180.5719441 -0.214740E-05  0.876E-03    0.63       1.2  T
   9   -180.5719440  0.102708E-06  0.650E-03    0.63       1.6  T
  10   -180.5719444 -0.445758E-06  0.489E-03    0.63       2.2  T
  11   -180.5719454 -0.936222E-06  0.262E-03    0.63       4.0  T
  12   -180.5719454 -0.631190E-07  0.176E-03    0.63       6.0  T
  13   -180.5719454 -0.357824E-08  0.122E-03    0.63       8.7  T
  14   -180.5719455 -0.329302E-07  0.694E-04    0.63      15.2  T
  15   -180.5719455 -0.693043E-08  0.472E-04    0.63      22.3  T
     SCC iter.                  ...        0 min,  0.338 sec
     gradient                   ...        0 min,  0.049 sec
 * total energy  :  -178.8549284 Eh     change       -0.2231230E-02 Eh
   gradient norm :     0.0179730 Eh/α   predicted    -0.2008284E-02 (  -9.99%)
   displ. norm   :     0.3943118 α      lambda       -0.2420356E-02
   maximum displ.:     0.1344705 α      in ANC's #7, #3, #19, ...

........................................................................
.............................. CYCLE  155 ..............................
........................................................................

 iter      E             dE          RMSdq      gap      omega  full diag
   1   -180.5785449 -0.180579E+03  0.411E-01    0.64       0.0  T
   2   -180.5785088  0.360509E-04  0.149E-01    0.62       1.0  T
   3   -180.5778407  0.668110E-03  0.148E-01    0.64       1.0  T
   4   -180.5788746 -0.103389E-02  0.480E-02    0.63       1.0  T
   5   -180.5789041 -0.295227E-04  0.328E-02    0.63       1.0  T
   6   -180.5789428 -0.386953E-04  0.236E-02    0.63       1.0  T
   7   -180.5789569 -0.140340E-04  0.142E-02    0.63       1.0  T
   8   -180.5789575 -0.630466E-06  0.107E-02    0.63       1.0  T
   9   -180.5789588 -0.133080E-05  0.807E-03    0.63       1.3  T
  10   -180.5789600 -0.115082E-05  0.551E-03    0.63       1.9  T
  11   -180.5789607 -0.684935E-06  0.327E-03    0.63       3.2  T
  12   -180.5789607 -0.886710E-07  0.236E-03    0.63       4.5  T
  13   -180.5789608 -0.896498E-07  0.160E-03    0.63       6.6  T
  14   -180.5789609 -0.187709E-07  0.125E-03    0.63       8.4  T
  15   -180.5789609 -0.542769E-07  0.629E-04    0.63      16.8  T
  16   -180.5789609 -0.461029E-09  0.409E-04    0.63      25.8  T
     SCC iter.                  ...        0 min,  0.397 sec
     gradient                   ...        0 min,  0.051 sec
 * total energy  :  -178.8559993 Eh     change       -0.1070925E-02 Eh
   gradient norm :     0.0164333 Eh/α   predicted    -0.1398345E-02 (  30.57%)
   displ. norm   :     0.2708761 α      lambda       -0.1359837E-02
   maximum displ.:     0.1013018 α      in ANC's #7, #17, #3, ...

........................................................................
.............................. CYCLE  156 ..............................
........................................................................

 iter      E             dE          RMSdq      gap      omega  full diag
   1   -180.5797957 -0.180580E+03  0.232E-01    0.62       0.0  T
   2   -180.5798351 -0.393537E-04  0.825E-02    0.62       1.0  T
   3   -180.5797210  0.114053E-03  0.595E-02    0.63       1.0  T
   4   -180.5798419 -0.120833E-03  0.313E-02    0.62       1.0  T
   5   -180.5798753 -0.334437E-04  0.176E-02    0.62       1.0  T
   6   -180.5798771 -0.175626E-05  0.132E-02    0.62       1.0  T
   7   -180.5798826 -0.551030E-05  0.759E-03    0.62       1.4  T
   8   -180.5798832 -0.608561E-06  0.576E-03    0.62       1.8  T
   9   -180.5798836 -0.392097E-06  0.436E-03    0.62       2.4  T
  10   -180.5798838 -0.177294E-06  0.341E-03    0.62       3.1  T
  11   -180.5798841 -0.340568E-06  0.194E-03    0.62       5.4  T
  12   -180.5798841 -0.224923E-07  0.138E-03    0.62       7.6  T
  13   -180.5798842 -0.332896E-07  0.952E-04    0.62      11.1  T
  14   -180.5798842 -0.201782E-07  0.471E-04    0.62      22.4  T
     SCC iter.                  ...        0 min,  0.323 sec
     gradient                   ...        0 min,  0.051 sec
 * total energy  :  -178.8568786 Eh     change       -0.8793627E-03 Eh
   gradient norm :     0.0126051 Eh/α   predicted    -0.7298069E-03 ( -17.01%)
   displ. norm   :     0.3358149 α      lambda       -0.1155420E-02
   maximum displ.:     0.1313531 α      in ANC's #11, #7, #3, ...

........................................................................
.............................. CYCLE  157 ..............................
........................................................................

 iter      E             dE          RMSdq      gap      omega  full diag
   1   -180.5810905 -0.180581E+03  0.259E-01    0.64       0.0  T
   2   -180.5810262  0.642927E-04  0.972E-02    0.60       1.0  T
   3   -180.5804561  0.570134E-03  0.103E-01    0.66       1.0  T
   4   -180.5812186 -0.762503E-03  0.293E-02    0.62       1.0  T
   5   -180.5812330 -0.143491E-04  0.194E-02    0.62       1.0  T
   6   -180.5812460 -0.130386E-04  0.126E-02    0.62       1.0  T
   7   -180.5812512 -0.519992E-05  0.694E-03    0.62       1.5  T
   8   -180.5812511  0.723551E-07  0.578E-03    0.62       1.8  T
   9   -180.5812521 -0.937154E-06  0.393E-03    0.62       2.7  T
  10   -180.5812522 -0.152971E-06  0.277E-03    0.62       3.8  T
  11   -180.5812523 -0.131228E-06  0.175E-03    0.62       6.0  T
  12   -180.5812524 -0.316436E-07  0.134E-03    0.62       7.8  T
  13   -180.5812524 -0.191761E-07  0.871E-04    0.62      12.1  T
  14   -180.5812524 -0.119561E-07  0.627E-04    0.62      16.8  T
     SCC iter.                  ...        0 min,  0.324 sec
     gradient                   ...        0 min,  0.049 sec
 * total energy  :  -178.8576450 Eh     change       -0.7663296E-03 Eh
   gradient norm :     0.0103899 Eh/α   predicted    -0.6428589E-03 ( -16.11%)
   displ. norm   :     0.4494070 α      lambda       -0.1138633E-02
   maximum displ.:     0.1791695 α      in ANC's #7, #11, #3, ...

........................................................................
.............................. CYCLE  158 ..............................
........................................................................

 iter      E             dE          RMSdq      gap      omega  full diag
   1   -180.5819118 -0.180582E+03  0.302E-01    0.63       0.0  T
   2   -180.5819041  0.772993E-05  0.113E-01    0.60       1.0  T
   3   -180.5814095  0.494576E-03  0.102E-01    0.65       1.0  T
   4   -180.5820385 -0.629017E-03  0.393E-02    0.61       1.0  T
   5   -180.5820798 -0.413327E-04  0.238E-02    0.62       1.0  T
   6   -180.5820942 -0.144049E-04  0.158E-02    0.62       1.0  T
   7   -180.5821013 -0.710120E-05  0.912E-03    0.62       1.2  T
   8   -180.5821021 -0.777044E-06  0.736E-03    0.62       1.4  T
   9   -180.5821036 -0.152111E-05  0.485E-03    0.62       2.2  T
  10   -180.5821039 -0.256960E-06  0.314E-03    0.62       3.4  T
  11   -180.5821041 -0.242633E-06  0.189E-03    0.62       5.6  T
  12   -180.5821042 -0.215930E-07  0.138E-03    0.62       7.7  T
  13   -180.5821042 -0.138565E-07  0.999E-04    0.62      10.5  T
  14   -180.5821042 -0.175730E-07  0.659E-04    0.62      16.0  T
     SCC iter.                  ...        0 min,  0.359 sec
     gradient                   ...        0 min,  0.049 sec
 * total energy  :  -178.8584246 Eh     change       -0.7796079E-03 Eh
   gradient norm :     0.0107179 Eh/α   predicted    -0.6843006E-03 ( -12.23%)
   displ. norm   :     0.4881718 α      lambda       -0.1006682E-02
   maximum displ.:     0.2102645 α      in ANC's #11, #7, #1, ...

........................................................................
.............................. CYCLE  159 ..............................
........................................................................

 iter      E             dE          RMSdq      gap      omega  full diag
   1   -180.5831747 -0.180583E+03  0.343E-01    0.63       0.0  T
   2   -180.5831537  0.209223E-04  0.123E-01    0.60       1.0  T
   3   -180.5825723  0.581481E-03  0.114E-01    0.65       1.0  T
   4   -180.5833524 -0.780113E-03  0.436E-02    0.61       1.0  T
   5   -180.5834147 -0.623118E-04  0.252E-02    0.62       1.0  T
   6   -180.5834300 -0.152829E-04  0.167E-02    0.62       1.0  T
   7   -180.5834382 -0.824437E-05  0.977E-03    0.62       1.1  T
   8   -180.5834397 -0.145336E-05  0.726E-03    0.62       1.5  T
   9   -180.5834408 -0.114488E-05  0.489E-03    0.62       2.2  T
  10   -180.5834411 -0.303369E-06  0.314E-03    0.62       3.4  T
  11   -180.5834414 -0.248637E-06  0.170E-03    0.62       6.2  T
  12   -180.5834414 -0.212231E-07  0.119E-03    0.62       8.8  T
  13   -180.5834414 -0.153865E-07  0.832E-04    0.62      12.7  T
  14   -180.5834414 -0.532680E-08  0.548E-04    0.62      19.2  T
     SCC iter.                  ...        0 min,  0.328 sec
     gradient                   ...        0 min,  0.053 sec
 * total energy  :  -178.8591382 Eh     change       -0.7136283E-03 Eh
   gradient norm :     0.0112485 Eh/α   predicted    -0.6232956E-03 ( -12.66%)
   displ. norm   :     0.5113589 α      lambda       -0.1017602E-02
   maximum displ.:     0.2132914 α      in ANC's #11, #7, #1, ...

........................................................................
.............................. CYCLE  160 ..............................
........................................................................

 iter      E             dE          RMSdq      gap      omega  full diag
   1   -180.5840750 -0.180584E+03  0.309E-01    0.64       0.0  T
   2   -180.5839756  0.993943E-04  0.122E-01    0.60       1.0  T
   3   -180.5832681  0.707461E-03  0.126E-01    0.66       1.0  T
   4   -180.5842813 -0.101317E-02  0.397E-02    0.61       1.0  T
   5   -180.5843078 -0.265039E-04  0.269E-02    0.62       1.0  T
   6   -180.5843368 -0.290101E-04  0.172E-02    0.62       1.0  T
   7   -180.5843435 -0.665433E-05  0.102E-02    0.62       1.0  T
   8   -180.5843446 -0.119919E-05  0.722E-03    0.62       1.5  T
   9   -180.5843450 -0.346880E-06  0.532E-03    0.62       2.0  T
  10   -180.5843458 -0.814640E-06  0.306E-03    0.62       3.4  T
  11   -180.5843459 -0.127222E-06  0.196E-03    0.62       5.4  T
  12   -180.5843460 -0.576216E-07  0.138E-03    0.62       7.7  T
  13   -180.5843460 -0.632176E-08  0.985E-04    0.62      10.7  T
  14   -180.5843460 -0.162341E-07  0.660E-04    0.62      16.0  T
     SCC iter.                  ...        0 min,  0.322 sec
     gradient                   ...        0 min,  0.049 sec
 * total energy  :  -178.8598681 Eh     change       -0.7298870E-03 Eh
   gradient norm :     0.0108604 Eh/α   predicted    -0.6418449E-03 ( -12.06%)
   displ. norm   :     0.4591891 α      lambda       -0.8336055E-03
   maximum displ.:     0.2064108 α      in ANC's #11, #1, #7, ...

........................................................................
.............................. CYCLE  161 ..............................
........................................................................

 iter      E             dE          RMSdq      gap      omega  full diag
   1   -180.5864210 -0.180586E+03  0.280E-01    0.63       0.0  T
   2   -180.5863537  0.672163E-04  0.109E-01    0.60       1.0  T
   3   -180.5858355  0.518288E-03  0.112E-01    0.64       1.0  T
   4   -180.5865822 -0.746770E-03  0.340E-02    0.61       1.0  T
   5   -180.5866003 -0.180277E-04  0.233E-02    0.62       1.0  T
   6   -180.5866266 -0.263504E-04  0.143E-02    0.62       1.0  T
   7   -180.5866299 -0.330400E-05  0.853E-03    0.62       1.2  T
   8   -180.5866309 -0.957750E-06  0.591E-03    0.62       1.8  T
   9   -180.5866309 -0.387664E-08  0.458E-03    0.62       2.3  T
  10   -180.5866314 -0.537544E-06  0.289E-03    0.62       3.6  T
  11   -180.5866316 -0.175974E-06  0.158E-03    0.62       6.7  T
  12   -180.5866316 -0.438824E-07  0.104E-03    0.62      10.2  T
  13   -180.5866316  0.463859E-08  0.767E-04    0.62      13.7  T
  14   -180.5866316 -0.113121E-07  0.509E-04    0.62      20.7  T
     SCC iter.                  ...        0 min,  0.312 sec
     gradient                   ...        0 min,  0.050 sec
 * total energy  :  -178.8605109 Eh     change       -0.6427915E-03 Eh
   gradient norm :     0.0106476 Eh/α   predicted    -0.5046940E-03 ( -21.48%)
   displ. norm   :     0.4754026 α      lambda       -0.8460380E-03
   maximum displ.:     0.2160421 α      in ANC's #11, #1, #4, ...

........................................................................
.............................. CYCLE  162 ..............................
........................................................................

 iter      E             dE          RMSdq      gap      omega  full diag
   1   -180.5877928 -0.180588E+03  0.258E-01    0.62       0.0  T
   2   -180.5878211 -0.282877E-04  0.944E-02    0.61       1.0  T
   3   -180.5875492  0.271843E-03  0.837E-02    0.63       1.0  T
   4   -180.5878795 -0.330316E-03  0.336E-02    0.61       1.0  T
   5   -180.5879005 -0.209243E-04  0.213E-02    0.62       1.0  T
   6   -180.5879190 -0.185873E-04  0.145E-02    0.62       1.0  T
   7   -180.5879245 -0.545989E-05  0.773E-03    0.62       1.4  T
   8   -180.5879250 -0.545706E-06  0.555E-03    0.62       1.9  T
   9   -180.5879253 -0.219494E-06  0.370E-03    0.62       2.8  T
  10   -180.5879252  0.774268E-07  0.254E-03    0.62       4.1  T
  11   -180.5879254 -0.213369E-06  0.163E-03    0.62       6.4  T
  12   -180.5879255 -0.719780E-07  0.106E-03    0.62       9.9  T
  13   -180.5879255 -0.133369E-07  0.642E-04    0.62      16.4  T
  14   -180.5879255  0.495535E-08  0.502E-04    0.62      21.0  T
     SCC iter.                  ...        0 min,  0.345 sec
     gradient                   ...        0 min,  0.051 sec
 * total energy  :  -178.8611288 Eh     change       -0.6179112E-03 Eh
   gradient norm :     0.0101260 Eh/α   predicted    -0.5186282E-03 ( -16.07%)
   displ. norm   :     0.4573302 α      lambda       -0.7232933E-03
   maximum displ.:     0.2164659 α      in ANC's #11, #1, #4, ...

........................................................................
.............................. CYCLE  163 ..............................
........................................................................

 iter      E             dE          RMSdq      gap      omega  full diag
   1   -180.5904266 -0.180590E+03  0.246E-01    0.61       0.0  T
   2   -180.5904720 -0.453531E-04  0.913E-02    0.61       1.0  T
   3   -180.5902363  0.235660E-03  0.800E-02    0.62       1.0  T
   4   -180.5905276 -0.291241E-03  0.319E-02    0.61       1.0  T
   5   -180.5905518 -0.242351E-04  0.192E-02    0.62       1.0  T
   6   -180.5905630 -0.112345E-04  0.125E-02    0.61       1.0  T
   7   -180.5905677 -0.470398E-05  0.669E-03    0.61       1.6  T
   8   -180.5905683 -0.591230E-06  0.456E-03    0.61       2.3  T
   9   -180.5905685 -0.161690E-06  0.308E-03    0.61       3.4  T
  10   -180.5905684  0.829961E-07  0.235E-03    0.61       4.5  T
  11   -180.5905686 -0.224886E-06  0.131E-03    0.61       8.0  T
  12   -180.5905687 -0.404578E-07  0.834E-04    0.61      12.6  T
  13   -180.5905687 -0.425982E-08  0.561E-04    0.61      18.8  T
     SCC iter.                  ...        0 min,  0.324 sec
     gradient                   ...        0 min,  0.051 sec
 * total energy  :  -178.8616229 Eh     change       -0.4941176E-03 Eh
   gradient norm :     0.0105880 Eh/α   predicted    -0.4372852E-03 ( -11.50%)
   displ. norm   :     0.4573647 α      lambda       -0.6692204E-03
   maximum displ.:     0.2208185 α      in ANC's #11, #1, #4, ...

........................................................................
.............................. CYCLE  164 ..............................
........................................................................

 iter      E             dE          RMSdq      gap      omega  full diag
   1   -180.5882582 -0.180588E+03  0.233E-01    0.60       0.0  T
   2   -180.5883024 -0.441699E-04  0.866E-02    0.60       1.0  T
   3   -180.5881030  0.199406E-03  0.757E-02    0.60       1.0  T
   4   -180.5883493 -0.246329E-03  0.313E-02    0.60       1.0  T
   5   -180.5883676 -0.183117E-04  0.191E-02    0.61       1.0  T
   6   -180.5883800 -0.123716E-04  0.130E-02    0.60       1.0  T
   7   -180.5883854 -0.539500E-05  0.651E-03    0.60       1.6  T
   8   -180.5883855 -0.173003E-06  0.503E-03    0.60       2.1  T
   9   -180.5883859 -0.359072E-06  0.346E-03    0.60       3.0  T
  10   -180.5883860 -0.879631E-07  0.244E-03    0.60       4.3  T
  11   -180.5883862 -0.197569E-06  0.125E-03    0.60       8.4  T
  12   -180.5883862 -0.331519E-07  0.757E-04    0.60      13.9  T
  13   -180.5883862 -0.315850E-08  0.486E-04    0.60      21.7  T
     SCC iter.                  ...        0 min,  0.315 sec
     gradient                   ...        0 min,  0.051 sec
 * total energy  :  -178.8620982 Eh     change       -0.4752546E-03 Eh
   gradient norm :     0.0091426 Eh/α   predicted    -0.4046066E-03 ( -14.87%)
   displ. norm   :     0.4174763 α      lambda       -0.6829358E-03
   maximum displ.:     0.1816726 α      in ANC's #1, #11, #18, ...

........................................................................
.............................. CYCLE  165 ..............................
........................................................................

 iter      E             dE          RMSdq      gap      omega  full diag
   1   -180.5925505 -0.180593E+03  0.217E-01    0.58       0.0  T
   2   -180.5926147 -0.642355E-04  0.754E-02    0.60       1.0  T
   3   -180.5925369  0.778333E-04  0.537E-02    0.58       1.0  T
   4   -180.5926121 -0.752142E-04  0.325E-02    0.59       1.0  T
   5   -180.5926469 -0.347982E-04  0.172E-02    0.59       1.0  T
   6   -180.5926530 -0.614254E-05  0.107E-02    0.59       1.0  T
   7   -180.5926556 -0.252059E-05  0.648E-03    0.59       1.6  T
   8   -180.5926560 -0.458707E-06  0.452E-03    0.59       2.3  T
   9   -180.5926563 -0.272301E-06  0.312E-03    0.59       3.4  T
  10   -180.5926563 -0.301906E-07  0.228E-03    0.59       4.6  T
  11   -180.5926565 -0.216294E-06  0.122E-03    0.59       8.7  T
  12   -180.5926566 -0.173681E-07  0.784E-04    0.59      13.5  T
  13   -180.5926566 -0.306508E-08  0.559E-04    0.59      18.9  T
     SCC iter.                  ...        0 min,  0.356 sec
     gradient                   ...        0 min,  0.056 sec
 * total energy  :  -178.8625516 Eh     change       -0.4533941E-03 Eh
   gradient norm :     0.0092061 Eh/α   predicted    -0.4009852E-03 ( -11.56%)
   displ. norm   :     0.5144148 α      lambda       -0.6778163E-03
   maximum displ.:     0.2436388 α      in ANC's #11, #1, #18, ...

........................................................................
.............................. CYCLE  166 ..............................
........................................................................

 iter      E             dE          RMSdq      gap      omega  full diag
   1   -180.5863030 -0.180586E+03  0.289E-01    0.58       0.0  T
   2   -180.5862518  0.512339E-04  0.115E-01    0.57       1.0  T
   3   -180.5856735  0.578260E-03  0.121E-01    0.60       1.0  T
   4   -180.5865151 -0.841555E-03  0.362E-02    0.57       1.0  T
   5   -180.5865401 -0.250465E-04  0.226E-02    0.58       1.0  T
   6   -180.5865550 -0.149208E-04  0.153E-02    0.58       1.0  T
   7   -180.5865644 -0.934371E-05  0.789E-03    0.58       1.3  T
   8   -180.5865645 -0.171207E-06  0.595E-03    0.58       1.8  T
   9   -180.5865654 -0.851083E-06  0.401E-03    0.58       2.6  T
  10   -180.5865656 -0.246456E-06  0.253E-03    0.58       4.2  T
  11   -180.5865658 -0.122304E-06  0.147E-03    0.58       7.2  T
  12   -180.5865658 -0.330257E-07  0.979E-04    0.58      10.8  T
  13   -180.5865658 -0.459772E-08  0.700E-04    0.58      15.1  T
     SCC iter.                  ...        0 min,  0.320 sec
     gradient                   ...        0 min,  0.054 sec
 * total energy  :  -178.8629562 Eh     change       -0.4045915E-03 Eh
   gradient norm :     0.0136226 Eh/α   predicted    -0.4285939E-03 (   5.93%)
   displ. norm   :     0.3737649 α      lambda       -0.5911198E-03
   maximum displ.:     0.1562551 α      in ANC's #1, #11, #18, ...

........................................................................
.............................. CYCLE  167 ..............................
........................................................................

 iter      E             dE          RMSdq      gap      omega  full diag
   1   -180.5894478 -0.180589E+03  0.203E-01    0.57       0.0  T
   2   -180.5894148  0.330332E-04  0.718E-02    0.56       1.0  T
   3   -180.5890597  0.355068E-03  0.778E-02    0.58       1.0  T
   4   -180.5895189 -0.459210E-03  0.267E-02    0.56       1.0  T
   5   -180.5895333 -0.143260E-04  0.151E-02    0.57       1.0  T
   6   -180.5895351 -0.182045E-05  0.107E-02    0.57       1.0  T
   7   -180.5895379 -0.285967E-05  0.733E-03    0.57       1.4  T
   8   -180.5895391 -0.117919E-05  0.484E-03    0.57       2.2  T
   9   -180.5895393 -0.200414E-06  0.367E-03    0.57       2.9  T
  10   -180.5895395 -0.186619E-06  0.248E-03    0.57       4.2  T
  11   -180.5895396 -0.724584E-07  0.172E-03    0.57       6.1  T
  12   -180.5895396 -0.529637E-07  0.119E-03    0.57       8.9  T
  13   -180.5895397 -0.981223E-08  0.740E-04    0.57      14.2  T
  14   -180.5895397 -0.233402E-08  0.594E-04    0.57      17.8  T
     SCC iter.                  ...        0 min,  0.339 sec
     gradient                   ...        0 min,  0.050 sec
 * total energy  :  -178.8633550 Eh     change       -0.3988508E-03 Eh
   gradient norm :     0.0096450 Eh/α   predicted    -0.3368475E-03 ( -15.55%)
   displ. norm   :     0.4480201 α      lambda       -0.6128873E-03
   maximum displ.:     0.2133474 α      in ANC's #1, #11, #18, ...

........................................................................
.............................. CYCLE  168 ..............................
........................................................................

 iter      E             dE          RMSdq      gap      omega  full diag
   1   -180.5903316 -0.180590E+03  0.216E-01    0.56       0.0  T
   2   -180.5903101  0.215716E-04  0.792E-02    0.55       1.0  T
   3   -180.5899272  0.382923E-03  0.791E-02    0.57       1.0  T
   4   -180.5903895 -0.462342E-03  0.292E-02    0.55       1.0  T
   5   -180.5904250 -0.354773E-04  0.136E-02    0.56       1.0  T
   6   -180.5904261 -0.113456E-05  0.815E-03    0.56       1.3  T
   7   -180.5904267 -0.568832E-06  0.571E-03    0.56       1.8  T
   8   -180.5904269 -0.251709E-06  0.446E-03    0.56       2.4  T
   9   -180.5904273 -0.349599E-06  0.318E-03    0.56       3.3  T
  10   -180.5904274 -0.125935E-06  0.211E-03    0.56       5.0  T
  11   -180.5904275 -0.108287E-06  0.133E-03    0.56       7.9  T
  12   -180.5904275 -0.298872E-07  0.938E-04    0.56      11.2  T
  13   -180.5904275  0.386456E-08  0.697E-04    0.56      15.1  T
     SCC iter.                  ...        0 min,  0.314 sec
     gradient                   ...        0 min,  0.049 sec
 * total energy  :  -178.8638272 Eh     change       -0.4721610E-03 Eh
   gradient norm :     0.0084791 Eh/α   predicted    -0.3679549E-03 ( -22.07%)
   displ. norm   :     0.5590513 α      lambda       -0.6872471E-03
   maximum displ.:     0.2896800 α      in ANC's #1, #11, #18, ...

........................................................................
.............................. CYCLE  169 ..............................
........................................................................

 iter      E             dE          RMSdq      gap      omega  full diag
   1   -180.5898989 -0.180590E+03  0.273E-01    0.55       0.0  T
   2   -180.5898993 -0.415366E-06  0.978E-02    0.54       1.0  T
   3   -180.5895133  0.386039E-03  0.866E-02    0.56       1.0  T
   4   -180.5899324 -0.419175E-03  0.404E-02    0.54       1.0  T
   5   -180.5900190 -0.865372E-04  0.190E-02    0.55       1.0  T
   6   -180.5900247 -0.570690E-05  0.124E-02    0.55       1.0  T
   7   -180.5900269 -0.226029E-05  0.760E-03    0.55       1.4  T
   8   -180.5900279 -0.928335E-06  0.543E-03    0.55       1.9  T
   9   -180.5900281 -0.240389E-06  0.353E-03    0.55       3.0  T
  10   -180.5900281  0.498975E-07  0.266E-03    0.55       4.0  T
  11   -180.5900283 -0.233636E-06  0.158E-03    0.55       6.7  T
  12   -180.5900284 -0.625236E-07  0.107E-03    0.55       9.8  T
  13   -180.5900284 -0.939735E-08  0.679E-04    0.55      15.5  T
  14   -180.5900284  0.408173E-08  0.544E-04    0.55      19.4  T
     SCC iter.                  ...        0 min,  0.351 sec
     gradient                   ...        0 min,  0.050 sec
 * total energy  :  -178.8643436 Eh     change       -0.5164735E-03 Eh
   gradient norm :     0.0099700 Eh/α   predicted    -0.4510186E-03 ( -12.67%)
   displ. norm   :     0.5593081 α      lambda       -0.6808633E-03
   maximum displ.:     0.2895530 α      in ANC's #1, #9, #18, ...

........................................................................
.............................. CYCLE  170 ..............................
........................................................................

 iter      E             dE          RMSdq      gap      omega  full diag
   1   -180.5907698 -0.180591E+03  0.248E-01    0.53       0.0  T
   2   -180.5908125 -0.426610E-04  0.888E-02    0.54       1.0  T
   3   -180.5906379  0.174590E-03  0.608E-02    0.54       1.0  T
   4   -180.5907529 -0.114985E-03  0.405E-02    0.53       1.0  T
   5   -180.5908677 -0.114839E-03  0.176E-02    0.54       1.0  T
   6   -180.5908730 -0.528618E-05  0.109E-02    0.53       1.0  T
   7   -180.5908770 -0.396370E-05  0.678E-03    0.54       1.6  T
   8   -180.5908779 -0.952750E-06  0.421E-03    0.54       2.5  T
   9   -180.5908779  0.231788E-07  0.314E-03    0.54       3.4  T
  10   -180.5908780 -0.863442E-07  0.226E-03    0.54       4.7  T
  11   -180.5908781 -0.146064E-06  0.125E-03    0.54       8.4  T
  12   -180.5908782 -0.347908E-07  0.808E-04    0.54      13.1  T
  13   -180.5908782 -0.230821E-08  0.576E-04    0.54      18.3  T
     SCC iter.                  ...        0 min,  0.307 sec
     gradient                   ...        0 min,  0.050 sec
 * total energy  :  -178.8648164 Eh     change       -0.4727961E-03 Eh
   gradient norm :     0.0102666 Eh/α   predicted    -0.4469290E-03 (  -5.47%)
   displ. norm   :     0.6366850 α      lambda       -0.6334754E-03
   maximum displ.:     0.3490624 α      in ANC's #1, #11, #18, ...

........................................................................
.............................. CYCLE  171 ..............................
........................................................................

 iter      E             dE          RMSdq      gap      omega  full diag
   1   -180.5847237 -0.180585E+03  0.282E-01    0.51       0.0  T
   2   -180.5847930 -0.692957E-04  0.102E-01    0.53       1.0  T
   3   -180.5845553  0.237691E-03  0.720E-02    0.52       1.0  T
   4   -180.5847766 -0.221332E-03  0.414E-02    0.52       1.0  T
   5   -180.5848569 -0.802257E-04  0.228E-02    0.53       1.0  T
   6   -180.5848744 -0.175199E-04  0.141E-02    0.52       1.0  T
   7   -180.5848797 -0.529342E-05  0.824E-03    0.53       1.3  T
   8   -180.5848803 -0.661092E-06  0.566E-03    0.52       1.9  T
   9   -180.5848802  0.117626E-06  0.430E-03    0.53       2.5  T
  10   -180.5848805 -0.261090E-06  0.312E-03    0.52       3.4  T
  11   -180.5848808 -0.370459E-06  0.129E-03    0.52       8.2  T
  12   -180.5848808 -0.407368E-09  0.964E-04    0.52      10.9  T
  13   -180.5848808 -0.523070E-08  0.695E-04    0.52      15.2  T
     SCC iter.                  ...        0 min,  0.269 sec
     gradient                   ...        0 min,  0.049 sec
 * total energy  :  -178.8653343 Eh     change       -0.5178295E-03 Eh
   gradient norm :     0.0102869 Eh/α   predicted    -0.4451367E-03 ( -14.04%)
   displ. norm   :     0.5662217 α      lambda       -0.8853881E-03
   maximum displ.:     0.3272670 α      in ANC's #1, #9, #18, ...

........................................................................
.............................. CYCLE  172 ..............................
........................................................................

 iter      E             dE          RMSdq      gap      omega  full diag
   1   -180.5900603 -0.180590E+03  0.250E-01    0.49       0.0  T
   2   -180.5900830 -0.226601E-04  0.100E-01    0.54       1.0  T
   3   -180.5898125  0.270494E-03  0.932E-02    0.48       1.0  T
   4   -180.5902562 -0.443693E-03  0.351E-02    0.52       1.0  T
   5   -180.5902654 -0.919913E-05  0.239E-02    0.52       1.0  T
   6   -180.5902750 -0.961081E-05  0.167E-02    0.51       1.0  T
   7   -180.5902853 -0.103479E-04  0.885E-03    0.51       1.2  T
   8   -180.5902858 -0.456581E-06  0.625E-03    0.52       1.7  T
   9   -180.5902857  0.660820E-07  0.483E-03    0.51       2.2  T
  10   -180.5902864 -0.673382E-06  0.278E-03    0.51       3.8  T
  11   -180.5902866 -0.179065E-06  0.153E-03    0.51       6.9  T
  12   -180.5902866 -0.236872E-07  0.114E-03    0.51       9.2  T
  13   -180.5902866 -0.288390E-07  0.668E-04    0.51      15.8  T
  14   -180.5902866  0.163425E-09  0.425E-04    0.51      24.8  T
     SCC iter.                  ...        0 min,  0.279 sec
     gradient                   ...        0 min,  0.051 sec
 * total energy  :  -178.8659291 Eh     change       -0.5948013E-03 Eh
   gradient norm :     0.0137029 Eh/α   predicted    -0.5846306E-03 (  -1.71%)
   displ. norm   :     0.6831283 α      lambda       -0.8550589E-03
   maximum displ.:     0.3945639 α      in ANC's #1, #11, #18, ...

........................................................................
.............................. CYCLE  173 ..............................
........................................................................

 iter      E             dE          RMSdq      gap      omega  full diag
   1   -180.5800165 -0.180580E+03  0.297E-01    0.49       0.0  T
   2   -180.5801088 -0.922661E-04  0.110E-01    0.53       1.0  T
   3   -180.5798697  0.239045E-03  0.864E-02    0.49       1.0  T
   4   -180.5802090 -0.339295E-03  0.395E-02    0.52       1.0  T
   5   -180.5802364 -0.273856E-04  0.238E-02    0.51       1.0  T
   6   -180.5802464 -0.996818E-05  0.173E-02    0.51       1.0  T
   7   -180.5802596 -0.132201E-04  0.991E-03    0.51       1.1  T
   8   -180.5802605 -0.967250E-06  0.693E-03    0.51       1.5  T
   9   -180.5802607 -0.139281E-06  0.527E-03    0.51       2.0  T
  10   -180.5802610 -0.297726E-06  0.342E-03    0.51       3.1  T
  11   -180.5802614 -0.393997E-06  0.173E-03    0.51       6.1  T
  12   -180.5802614 -0.525480E-07  0.128E-03    0.51       8.3  T
  13   -180.5802615 -0.404676E-07  0.781E-04    0.51      13.5  T
  14   -180.5802615 -0.281543E-08  0.561E-04    0.51      18.8  T
     SCC iter.                  ...        0 min,  0.280 sec
     gradient                   ...        0 min,  0.048 sec
 * total energy  :  -178.8666287 Eh     change       -0.6996410E-03 Eh
   gradient norm :     0.0142283 Eh/α   predicted    -0.6270500E-03 ( -10.38%)
   displ. norm   :     0.5594602 α      lambda       -0.1141589E-02
   maximum displ.:     0.3287107 α      in ANC's #1, #11, #14, ...

........................................................................
.............................. CYCLE  174 ..............................
........................................................................

 iter      E             dE          RMSdq      gap      omega  full diag
   1   -180.5815503 -0.180582E+03  0.268E-01    0.49       0.0  T
   2   -180.5815311  0.192118E-04  0.113E-01    0.54       1.0  T
   3   -180.5811740  0.357088E-03  0.119E-01    0.48       1.0  T
   4   -180.5818605 -0.686489E-03  0.397E-02    0.52       1.0  T
   5   -180.5818692 -0.865822E-05  0.253E-02    0.51       1.0  T
   6   -180.5818726 -0.346261E-05  0.196E-02    0.52       1.0  T
   7   -180.5818919 -0.192707E-04  0.111E-02    0.52       1.0  T
   8   -180.5818931 -0.115123E-05  0.775E-03    0.52       1.4  T
   9   -180.5818935 -0.385769E-06  0.585E-03    0.52       1.8  T
  10   -180.5818943 -0.888957E-06  0.364E-03    0.51       2.9  T
  11   -180.5818947 -0.337336E-06  0.213E-03    0.51       4.9  T
  12   -180.5818947 -0.620841E-07  0.146E-03    0.52       7.2  T
  13   -180.5818948 -0.131587E-07  0.121E-03    0.51       8.7  T
  14   -180.5818948 -0.322700E-07  0.698E-04    0.52      15.1  T
  15   -180.5818948 -0.159788E-07  0.367E-04    0.52      28.7  T
     SCC iter.                  ...        0 min,  0.315 sec
     gradient                   ...        0 min,  0.049 sec
 * total energy  :  -178.8674310 Eh     change       -0.8022567E-03 Eh
   gradient norm :     0.0170762 Eh/α   predicted    -0.7494529E-03 (  -6.58%)
   displ. norm   :     0.6718241 α      lambda       -0.1195600E-02
   maximum displ.:     0.3933558 α      in ANC's #1, #11, #18, ...

........................................................................
.............................. CYCLE  175 ..............................
........................................................................

 iter      E             dE          RMSdq      gap      omega  full diag
   1   -180.5767573 -0.180577E+03  0.329E-01    0.49       0.0  T
   2   -180.5768261 -0.687712E-04  0.124E-01    0.55       1.0  T
   3   -180.5764882  0.337876E-03  0.117E-01    0.48       1.0  T
   4   -180.5771649 -0.676689E-03  0.439E-02    0.53       1.0  T
   5   -180.5771841 -0.192573E-04  0.266E-02    0.52       1.0  T
   6   -180.5771869 -0.279421E-05  0.205E-02    0.52       1.0  T
   7   -180.5772021 -0.151155E-04  0.120E-02    0.52       1.0  T
   8   -180.5772044 -0.234530E-05  0.826E-03    0.52       1.3  T
   9   -180.5772045 -0.750959E-07  0.634E-03    0.52       1.7  T
  10   -180.5772055 -0.100169E-05  0.405E-03    0.52       2.6  T
  11   -180.5772060 -0.478720E-06  0.246E-03    0.52       4.3  T
  12   -180.5772061 -0.179851E-06  0.146E-03    0.52       7.2  T
  13   -180.5772062 -0.262676E-07  0.997E-04    0.52      10.6  T
  14   -180.5772062 -0.107934E-08  0.743E-04    0.52      14.2  T
     SCC iter.                  ...        0 min,  0.282 sec
     gradient                   ...        0 min,  0.048 sec
 * total energy  :  -178.8684842 Eh     change       -0.1053194E-02 Eh
   gradient norm :     0.0178947 Eh/α   predicted    -0.8676173E-03 ( -17.62%)
   displ. norm   :     0.5844107 α      lambda       -0.2089395E-02
   maximum displ.:     0.2981490 α      in ANC's #1, #11, #6, ...

........................................................................
.............................. CYCLE  176 ..............................
........................................................................

 iter      E             dE          RMSdq      gap      omega  full diag
   1   -180.5883381 -0.180588E+03  0.373E-01    0.50       0.0  T
   2   -180.5881366  0.201516E-03  0.150E-01    0.56       1.0  T
   3   -180.5870364  0.110016E-02  0.178E-01    0.48       1.0  T
   4   -180.5890850 -0.204859E-02  0.508E-02    0.54       1.0  T
   5   -180.5891056 -0.205817E-04  0.332E-02    0.53       1.0  T
   6   -180.5891249 -0.192920E-04  0.234E-02    0.53       1.0  T
   7   -180.5891484 -0.234781E-04  0.144E-02    0.53       1.0  T
   8   -180.5891528 -0.439128E-05  0.899E-03    0.53       1.2  T
   9   -180.5891538 -0.976202E-06  0.629E-03    0.53       1.7  T
  10   -180.5891545 -0.749226E-06  0.422E-03    0.53       2.5  T
  11   -180.5891546 -0.991605E-07  0.314E-03    0.53       3.4  T
  12   -180.5891550 -0.397611E-06  0.175E-03    0.53       6.0  T
  13   -180.5891550 -0.141030E-07  0.135E-03    0.53       7.8  T
  14   -180.5891550 -0.130842E-07  0.941E-04    0.53      11.2  T
  15   -180.5891551 -0.232446E-07  0.525E-04    0.53      20.1  T
     SCC iter.                  ...        0 min,  0.298 sec
     gradient                   ...        0 min,  0.048 sec
 * total energy  :  -178.8698753 Eh     change       -0.1391105E-02 Eh
   gradient norm :     0.0197240 Eh/α   predicted    -0.1401501E-02 (   0.75%)
   displ. norm   :     0.7953279 α      lambda       -0.1880174E-02
   maximum displ.:     0.4475242 α      in ANC's #1, #11, #18, ...

........................................................................
.............................. CYCLE  177 ..............................
........................................................................

 iter      E             dE          RMSdq      gap      omega  full diag
   1   -180.5758764 -0.180576E+03  0.425E-01    0.50       0.0  T
   2   -180.5741183  0.175806E-02  0.226E-01    0.62       1.0  T
   3   -180.5725100  0.160833E-02  0.261E-01    0.48       1.0  T
   4   -180.5774248 -0.491482E-02  0.622E-02    0.56       1.0  T
   5   -180.5774632 -0.384048E-04  0.390E-02    0.55       1.0  T
   6   -180.5774884 -0.251255E-04  0.278E-02    0.55       1.0  T
   7   -180.5775234 -0.350009E-04  0.164E-02    0.55       1.0  T
   8   -180.5775287 -0.529381E-05  0.106E-02    0.55       1.0  T
   9   -180.5775290 -0.308691E-06  0.776E-03    0.55       1.4  T
  10   -180.5775304 -0.142887E-05  0.498E-03    0.55       2.1  T
  11   -180.5775304 -0.130468E-07  0.370E-03    0.55       2.9  T
  12   -180.5775310 -0.606087E-06  0.181E-03    0.55       5.8  T
  13   -180.5775310 -0.235802E-07  0.132E-03    0.55       8.0  T
  14   -180.5775310  0.186822E-08  0.106E-03    0.55      10.0  T
  15   -180.5775311 -0.388745E-07  0.492E-04    0.55      21.4  T
  16   -180.5775311 -0.726823E-08  0.281E-04    0.55      37.5  T
     SCC iter.                  ...        0 min,  0.330 sec
     gradient                   ...        0 min,  0.049 sec
 * total energy  :  -178.8714475 Eh     change       -0.1572200E-02 Eh
   gradient norm :     0.0184020 Eh/α   predicted    -0.1534741E-02 (  -2.38%)
   displ. norm   :     0.5823727 α      lambda       -0.2635093E-02
   maximum displ.:     0.2324807 α      in ANC's #1, #11, #3, ...

........................................................................
.............................. CYCLE  178 ..............................
........................................................................

 iter      E             dE          RMSdq      gap      omega  full diag
   1   -180.5732393 -0.180573E+03  0.430E-01    0.52       0.0  T
   2   -180.5681083  0.513099E-02  0.309E-01    0.64       1.0  T
   3   -180.5709505 -0.284222E-02  0.269E-01    0.50       1.0  T
   4   -180.5760852 -0.513473E-02  0.844E-02    0.57       1.0  T
   5   -180.5763086 -0.223360E-03  0.372E-02    0.56       1.0  T
   6   -180.5762841  0.245141E-04  0.294E-02    0.56       1.0  T
   7   -180.5763179 -0.338106E-04  0.167E-02    0.56       1.0  T
   8   -180.5763250 -0.708758E-05  0.975E-03    0.56       1.1  T
   9   -180.5763257 -0.707258E-06  0.693E-03    0.56       1.5  T
  10   -180.5763269 -0.121454E-05  0.458E-03    0.56       2.3  T
  11   -180.5763270 -0.798379E-07  0.363E-03    0.56       2.9  T
  12   -180.5763274 -0.382349E-06  0.199E-03    0.56       5.3  T
  13   -180.5763274 -0.192528E-07  0.151E-03    0.56       7.0  T
  14   -180.5763274 -0.250849E-07  0.122E-03    0.56       8.6  T
  15   -180.5763274 -0.286234E-07  0.648E-04    0.56      16.3  T
  16   -180.5763275 -0.472542E-08  0.485E-04    0.56      21.7  T
     SCC iter.                  ...        0 min,  0.333 sec
     gradient                   ...        0 min,  0.051 sec
 * total energy  :  -178.8731450 Eh     change       -0.1697520E-02 Eh
   gradient norm :     0.0190749 Eh/α   predicted    -0.1764409E-02 (   3.94%)
   displ. norm   :     0.7310027 α      lambda       -0.2373350E-02
   maximum displ.:     0.3845673 α      in ANC's #1, #11, #14, ...

........................................................................
.............................. CYCLE  179 ..............................
........................................................................

 iter      E             dE          RMSdq      gap      omega  full diag
   1   -180.5662089 -0.180566E+03  0.447E-01    0.56       0.0  T
   2   -180.5566079  0.960102E-02  0.398E-01    0.70       1.0  T
   3   -180.5665240 -0.991611E-02  0.247E-01    0.56       1.0  T
   4   -180.5707942 -0.427020E-02  0.728E-02    0.61       1.0  T
   5   -180.5709464 -0.152232E-03  0.387E-02    0.60       1.0  T
   6   -180.5709582 -0.117602E-04  0.306E-02    0.60       1.0  T
   7   -180.5710044 -0.461512E-04  0.151E-02    0.60       1.0  T
   8   -180.5710089 -0.458560E-05  0.945E-03    0.60       1.1  T
   9   -180.5710094 -0.442311E-06  0.688E-03    0.60       1.5  T
  10   -180.5710102 -0.857942E-06  0.462E-03    0.60       2.3  T
  11   -180.5710104 -0.175413E-06  0.342E-03    0.60       3.1  T
  12   -180.5710109 -0.443918E-06  0.181E-03    0.60       5.8  T
  13   -180.5710109 -0.283135E-07  0.141E-03    0.60       7.5  T
  14   -180.5710109 -0.239749E-07  0.109E-03    0.60       9.7  T
  15   -180.5710109 -0.133953E-07  0.672E-04    0.60      15.7  T
  16   -180.5710109 -0.107364E-07  0.423E-04    0.60      24.9  T
     SCC iter.                  ...        0 min,  0.329 sec
     gradient                   ...        0 min,  0.048 sec
 * total energy  :  -178.8752788 Eh     change       -0.2133804E-02 Eh
   gradient norm :     0.0207357 Eh/α   predicted    -0.1820800E-02 ( -14.67%)
   displ. norm   :     0.6819719 α      lambda       -0.4492579E-02
   maximum displ.:     0.2217615 α      in ANC's #15, #14, #3, ...

........................................................................
.............................. CYCLE  180 ..............................
........................................................................

 iter      E             dE          RMSdq      gap      omega  full diag
   1   -180.5788256 -0.180579E+03  0.631E-01    0.66       0.0  T
   2   -180.5472669  0.315587E-01  0.651E-01    0.77       1.0  T
   3   -180.5831742 -0.359072E-01  0.345E-01    0.64       1.0  T
   4   -180.5915045 -0.833038E-02  0.108E-01    0.69       1.0  T
   5   -180.5918832 -0.378654E-03  0.561E-02    0.68       1.0  T
   6   -180.5918958 -0.126205E-04  0.448E-02    0.69       1.0  T
   7   -180.5920037 -0.107849E-03  0.198E-02    0.68       1.0  T
   8   -180.5920120 -0.837696E-05  0.131E-02    0.68       1.0  T
   9   -180.5920154 -0.334441E-05  0.876E-03    0.68       1.2  T
  10   -180.5920158 -0.412179E-06  0.599E-03    0.68       1.8  T
  11   -180.5920163 -0.511806E-06  0.412E-03    0.68       2.6  T
  12   -180.5920169 -0.565230E-06  0.221E-03    0.68       4.8  T
  13   -180.5920170 -0.116638E-06  0.143E-03    0.68       7.4  T
  14   -180.5920170 -0.201065E-07  0.105E-03    0.68      10.1  T
  15   -180.5920170 -0.278760E-08  0.738E-04    0.68      14.3  T
  16   -180.5920170 -0.100325E-07  0.535E-04    0.68      19.7  T
     SCC iter.                  ...        0 min,  0.324 sec
     gradient                   ...        0 min,  0.049 sec
 * total energy  :  -178.8772688 Eh     change       -0.1990023E-02 Eh
   gradient norm :     0.0322527 Eh/α   predicted    -0.3291005E-02 (  65.38%)
   displ. norm   :     0.6637170 α      lambda       -0.3473819E-02
   maximum displ.:     0.3575507 α      in ANC's #1, #11, #3, ...

........................................................................
.............................. CYCLE  181 ..............................
........................................................................

 iter      E             dE          RMSdq      gap      omega  full diag
   1   -180.5728060 -0.180573E+03  0.404E-01    0.73       0.0  T
   2   -180.5622139  0.105921E-01  0.371E-01    0.78       1.0  T
   3   -180.5709588 -0.874490E-02  0.259E-01    0.72       1.0  T
   4   -180.5763740 -0.541514E-02  0.679E-02    0.75       1.0  T
   5   -180.5765332 -0.159241E-03  0.382E-02    0.74       1.0  T
   6   -180.5765542 -0.210082E-04  0.273E-02    0.74       1.0  T
   7   -180.5765840 -0.297708E-04  0.156E-02    0.74       1.0  T
   8   -180.5765897 -0.569944E-05  0.978E-03    0.74       1.1  T
   9   -180.5765904 -0.754751E-06  0.723E-03    0.74       1.5  T
  10   -180.5765910 -0.574475E-06  0.483E-03    0.74       2.2  T
  11   -180.5765909  0.108951E-06  0.368E-03    0.74       2.9  T
  12   -180.5765915 -0.557594E-06  0.193E-03    0.74       5.5  T
  13   -180.5765915 -0.826514E-07  0.128E-03    0.74       8.2  T
  14   -180.5765915 -0.814600E-08  0.913E-04    0.74      11.5  T
  15   -180.5765916 -0.700879E-08  0.603E-04    0.74      17.5  T
     SCC iter.                  ...        0 min,  0.315 sec
     gradient                   ...        0 min,  0.048 sec
 * total energy  :  -178.8796747 Eh     change       -0.2405873E-02 Eh
   gradient norm :     0.0320234 Eh/α   predicted    -0.2502058E-02 (   4.00%)
   displ. norm   :     0.4148569 α      lambda       -0.4035365E-02
   maximum displ.:     0.1394352 α      in ANC's #1, #2, #8, ...

........................................................................
.............................. CYCLE  182 ..............................
........................................................................

 iter      E             dE          RMSdq      gap      omega  full diag
   1   -180.5811098 -0.180581E+03  0.362E-01    0.77       0.0  T
   2   -180.5810233  0.865128E-04  0.144E-01    0.76       1.0  T
   3   -180.5793936  0.162972E-02  0.157E-01    0.76       1.0  T
   4   -180.5813049 -0.191137E-02  0.696E-02    0.77       1.0  T
   5   -180.5815484 -0.243417E-03  0.433E-02    0.76       1.0  T
   6   -180.5815986 -0.502016E-04  0.250E-02    0.76       1.0  T
   7   -180.5816112 -0.126807E-04  0.145E-02    0.76       1.0  T
   8   -180.5816133 -0.203099E-05  0.107E-02    0.76       1.0  T
   9   -180.5816154 -0.214427E-05  0.750E-03    0.76       1.4  T
  10   -180.5816161 -0.679029E-06  0.468E-03    0.76       2.3  T
  11   -180.5816165 -0.380051E-06  0.274E-03    0.76       3.9  T
  12   -180.5816166 -0.113900E-06  0.202E-03    0.76       5.2  T
  13   -180.5816167 -0.755153E-07  0.144E-03    0.76       7.3  T
  14   -180.5816167 -0.696669E-07  0.873E-04    0.76      12.1  T
  15   -180.5816167 -0.117178E-07  0.486E-04    0.76      21.7  T
     SCC iter.                  ...        0 min,  0.309 sec
     gradient                   ...        0 min,  0.047 sec
 * total energy  :  -178.8810073 Eh     change       -0.1332606E-02 Eh
   gradient norm :     0.0305114 Eh/α   predicted    -0.2364947E-02 (  77.47%)
   displ. norm   :     0.5412859 α      lambda       -0.3377361E-02
   maximum displ.:     0.2521237 α      in ANC's #1, #3, #15, ...

........................................................................
.............................. CYCLE  183 ..............................
........................................................................

 iter      E             dE          RMSdq      gap      omega  full diag
   1   -180.5695950 -0.180570E+03  0.391E-01    0.83       0.0  T
   2   -180.5463152  0.232799E-01  0.520E-01    0.81       1.0  T
   3   -180.5750144 -0.286992E-01  0.177E-01    0.83       1.0  T
   4   -180.5770185 -0.200410E-02  0.699E-02    0.83       1.0  T
   5   -180.5771975 -0.178933E-03  0.380E-02    0.84       1.0  T
   6   -180.5772165 -0.190317E-04  0.271E-02    0.83       1.0  T
   7   -180.5772466 -0.301416E-04  0.139E-02    0.83       1.0  T
   8   -180.5772506 -0.396685E-05  0.102E-02    0.84       1.0  T
   9   -180.5772525 -0.192073E-05  0.683E-03    0.83       1.5  T
  10   -180.5772529 -0.358361E-06  0.457E-03    0.83       2.3  T
  11   -180.5772529 -0.257384E-07  0.351E-03    0.83       3.0  T
  12   -180.5772533 -0.369918E-06  0.234E-03    0.83       4.5  T
  13   -180.5772534 -0.126943E-06  0.169E-03    0.83       6.2  T
  14   -180.5772534 -0.329652E-07  0.101E-03    0.83      10.5  T
  15   -180.5772534 -0.174330E-08  0.717E-04    0.83      14.7  T
  16   -180.5772535 -0.220494E-07  0.464E-04    0.83      22.7  T
     SCC iter.                  ...        0 min,  0.305 sec
     gradient                   ...        0 min,  0.049 sec
 * total energy  :  -178.8832303 Eh     change       -0.2223003E-02 Eh
   gradient norm :     0.0252545 Eh/α   predicted    -0.2183447E-02 (  -1.78%)
   displ. norm   :     0.4226025 α      lambda       -0.2814075E-02
   maximum displ.:     0.1298708 α      in ANC's #15, #3, #1, ...
 * RMSD in coord.:     1.1479458 α      energy gain  -0.3788383E-01 Eh

generating ANC from exact Hessian ...
Using Lindh-Hessian (1995)
 Shifting diagonal of input Hessian by   1.031088992588110E-002
 Lowest  eigenvalues of input Hessian
    0.010000    0.000000    0.000000    0.000000    0.000000    0.000000
    0.000000    0.010558    0.010769    0.010923    0.011039    0.011139
    0.011245    0.011404    0.011798    0.012164    0.012410    0.012589
 Highest eigenvalues
    1.995077    2.078537    2.171069    2.175249    2.220877    2.243402
 

........................................................................
.............................. CYCLE  184 ..............................
........................................................................

 iter      E             dE          RMSdq      gap      omega  full diag
   1   -180.5883031 -0.180588E+03  0.338E-01    0.89       0.0  T
   2   -180.5841871  0.411598E-02  0.252E-01    0.83       1.0  T
   3   -180.5862708 -0.208363E-02  0.218E-01    0.87       1.0  T
   4   -180.5902294 -0.395864E-02  0.581E-02    0.87       1.0  T
   5   -180.5903339 -0.104475E-03  0.388E-02    0.86       1.0  T
   6   -180.5903810 -0.471295E-04  0.251E-02    0.87       1.0  T
   7   -180.5904088 -0.277623E-04  0.129E-02    0.86       1.0  T
   8   -180.5904121 -0.329638E-05  0.908E-03    0.86       1.2  T
   9   -180.5904139 -0.186682E-05  0.580E-03    0.86       1.8  T
  10   -180.5904144 -0.439295E-06  0.397E-03    0.86       2.7  T
  11   -180.5904145 -0.148562E-06  0.311E-03    0.86       3.4  T
  12   -180.5904147 -0.179956E-06  0.194E-03    0.86       5.4  T
  13   -180.5904147 -0.376179E-07  0.154E-03    0.86       6.8  T
  14   -180.5904147  0.511903E-08  0.123E-03    0.86       8.6  T
  15   -180.5904148 -0.457681E-07  0.681E-04    0.86      15.5  T
  16   -180.5904148 -0.146521E-07  0.358E-04    0.86      29.5  T
     SCC iter.                  ...        0 min,  0.332 sec
     gradient                   ...        0 min,  0.049 sec
 * total energy  :  -178.8842401 Eh     change       -0.1009777E-02 Eh
   gradient norm :     0.0337230 Eh/α   predicted     0.0000000E+00 (-100.00%)
   displ. norm   :     0.2632799 α      lambda       -0.2875136E-02
   maximum displ.:     0.0768340 α      in ANC's #3, #14, #11, ...

........................................................................
.............................. CYCLE  185 ..............................
........................................................................

 iter      E             dE          RMSdq      gap      omega  full diag
   1   -180.5935091 -0.180594E+03  0.280E-01    0.87       0.0  T
   2   -180.5933305  0.178551E-03  0.102E-01    0.88       1.0  T
   3   -180.5923680  0.962486E-03  0.121E-01    0.86       1.0  T
   4   -180.5937318 -0.136378E-02  0.379E-02    0.87       1.0  T
   5   -180.5937317  0.169014E-06  0.299E-02    0.87       1.0  T
   6   -180.5937668 -0.350954E-04  0.207E-02    0.87       1.0  T
   7   -180.5937899 -0.231676E-04  0.854E-03    0.87       1.2  T
   8   -180.5937907 -0.784528E-06  0.575E-03    0.87       1.8  T
   9   -180.5937908 -0.128347E-06  0.435E-03    0.87       2.4  T
  10   -180.5937912 -0.392226E-06  0.294E-03    0.87       3.6  T
  11   -180.5937915 -0.240331E-06  0.183E-03    0.87       5.7  T
  12   -180.5937915 -0.337149E-07  0.133E-03    0.87       7.9  T
  13   -180.5937915 -0.286219E-07  0.971E-04    0.87      10.9  T
  14   -180.5937915 -0.512529E-08  0.717E-04    0.87      14.7  T
     SCC iter.                  ...        0 min,  0.280 sec
     gradient                   ...        0 min,  0.049 sec
 * total energy  :  -178.8859016 Eh     change       -0.1661490E-02 Eh
   gradient norm :     0.0150915 Eh/α   predicted    -0.1537889E-02 (  -7.44%)
   displ. norm   :     0.3271754 α      lambda       -0.1939229E-02
   maximum displ.:     0.1222151 α      in ANC's #3, #1, #14, ...

........................................................................
.............................. CYCLE  186 ..............................
........................................................................

 iter      E             dE          RMSdq      gap      omega  full diag
   1   -180.5972161 -0.180597E+03  0.209E-01    0.86       0.0  T
   2   -180.5968841  0.332059E-03  0.101E-01    0.88       1.0  T
   3   -180.5962562  0.627896E-03  0.115E-01    0.86       1.0  T
   4   -180.5974270 -0.117082E-02  0.403E-02    0.87       1.0  T
   5   -180.5974895 -0.625083E-04  0.263E-02    0.87       1.0  T
   6   -180.5974975 -0.804222E-05  0.197E-02    0.87       1.0  T
   7   -180.5975109 -0.134054E-04  0.109E-02    0.87       1.0  T
   8   -180.5975126 -0.165816E-05  0.767E-03    0.87       1.4  T
   9   -180.5975138 -0.117774E-05  0.548E-03    0.87       1.9  T
  10   -180.5975140 -0.231197E-06  0.376E-03    0.87       2.8  T
  11   -180.5975142 -0.184610E-06  0.266E-03    0.87       4.0  T
  12   -180.5975144 -0.226325E-06  0.174E-03    0.87       6.1  T
  13   -180.5975145 -0.489774E-07  0.105E-03    0.87      10.0  T
  14   -180.5975145 -0.900661E-08  0.612E-04    0.87      17.2  T
  15   -180.5975145 -0.416577E-08  0.396E-04    0.87      26.6  T
     SCC iter.                  ...        0 min,  0.300 sec
     gradient                   ...        0 min,  0.049 sec
 * total energy  :  -178.8873056 Eh     change       -0.1404017E-02 Eh
   gradient norm :     0.0180655 Eh/α   predicted    -0.1073408E-02 ( -23.55%)
   displ. norm   :     0.5319784 α      lambda       -0.2464293E-02
   maximum displ.:     0.2271036 α      in ANC's #3, #1, #4, ...

........................................................................
.............................. CYCLE  187 ..............................
........................................................................

 iter      E             dE          RMSdq      gap      omega  full diag
   1   -180.5974681 -0.180597E+03  0.333E-01    0.86       0.0  T
   2   -180.5966846  0.783513E-03  0.146E-01    0.87       1.0  T
   3   -180.5946529  0.203166E-02  0.187E-01    0.84       1.0  T
   4   -180.5979565 -0.330352E-02  0.491E-02    0.87       1.0  T
   5   -180.5980110 -0.545036E-04  0.365E-02    0.86       1.0  T
   6   -180.5980612 -0.502182E-04  0.203E-02    0.86       1.0  T
   7   -180.5980741 -0.129368E-04  0.117E-02    0.86       1.0  T
   8   -180.5980765 -0.237921E-05  0.822E-03    0.86       1.3  T
   9   -180.5980779 -0.142797E-05  0.568E-03    0.86       1.9  T
  10   -180.5980781 -0.169801E-06  0.389E-03    0.86       2.7  T
  11   -180.5980782 -0.698734E-07  0.274E-03    0.86       3.8  T
  12   -180.5980784 -0.220538E-06  0.198E-03    0.86       5.3  T
  13   -180.5980785 -0.102012E-06  0.121E-03    0.86       8.7  T
  14   -180.5980785 -0.116458E-07  0.765E-04    0.86      13.8  T
  15   -180.5980785 -0.506049E-08  0.417E-04    0.86      25.3  T
     SCC iter.                  ...        0 min,  0.297 sec
     gradient                   ...        0 min,  0.049 sec
 * total energy  :  -178.8892897 Eh     change       -0.1984155E-02 Eh
   gradient norm :     0.0259055 Eh/α   predicted    -0.1581226E-02 ( -20.31%)
   displ. norm   :     0.6755194 α      lambda       -0.3253025E-02
   maximum displ.:     0.2841137 α      in ANC's #3, #1, #4, ...

........................................................................
.............................. CYCLE  188 ..............................
........................................................................

 iter      E             dE          RMSdq      gap      omega  full diag
   1   -180.5942428 -0.180594E+03  0.444E-01    0.81       0.0  T
   2   -180.5911262  0.311659E-02  0.238E-01    0.87       1.0  T
   3   -180.5880527  0.307349E-02  0.279E-01    0.81       1.0  T
   4   -180.5957410 -0.768825E-02  0.622E-02    0.85       1.0  T
   5   -180.5958406 -0.996623E-04  0.423E-02    0.85       1.0  T
   6   -180.5958848 -0.441185E-04  0.254E-02    0.85       1.0  T
   7   -180.5958988 -0.140180E-04  0.156E-02    0.85       1.0  T
   8   -180.5959022 -0.338955E-05  0.115E-02    0.85       1.0  T
   9   -180.5959055 -0.332222E-05  0.764E-03    0.85       1.4  T
  10   -180.5959062 -0.657846E-06  0.516E-03    0.85       2.0  T
  11   -180.5959064 -0.233627E-06  0.337E-03    0.85       3.1  T
  12   -180.5959065 -0.101338E-06  0.248E-03    0.85       4.2  T
  13   -180.5959067 -0.172321E-06  0.174E-03    0.85       6.1  T
  14   -180.5959067 -0.476273E-07  0.105E-03    0.85      10.1  T
  15   -180.5959067 -0.717236E-08  0.571E-04    0.85      18.4  T
  16   -180.5959067 -0.522462E-08  0.442E-04    0.85      23.8  T
     SCC iter.                  ...        0 min,  0.326 sec
     gradient                   ...        0 min,  0.051 sec
 * total energy  :  -178.8919401 Eh     change       -0.2650336E-02 Eh
   gradient norm :     0.0284155 Eh/α   predicted    -0.2368797E-02 ( -10.62%)
   displ. norm   :     0.6241643 α      lambda       -0.3739277E-02
   maximum displ.:     0.2496251 α      in ANC's #3, #1, #4, ...

........................................................................
.............................. CYCLE  189 ..............................
........................................................................

 iter      E             dE          RMSdq      gap      omega  full diag
   1   -180.5969012 -0.180597E+03  0.466E-01    0.77       0.0  T
   2   -180.5941590  0.274220E-02  0.232E-01    0.86       1.0  T
   3   -180.5909902  0.316883E-02  0.276E-01    0.76       1.0  T
   4   -180.5984623 -0.747216E-02  0.607E-02    0.81       1.0  T
   5   -180.5984987 -0.363381E-04  0.488E-02    0.82       1.0  T
   6   -180.5985651 -0.664134E-04  0.306E-02    0.81       1.0  T
   7   -180.5985765 -0.114335E-04  0.202E-02    0.81       1.0  T
   8   -180.5985820 -0.544556E-05  0.146E-02    0.81       1.0  T
   9   -180.5985860 -0.409461E-05  0.106E-02    0.81       1.0  T
  10   -180.5985879 -0.182499E-05  0.698E-03    0.81       1.5  T
  11   -180.5985882 -0.334807E-06  0.529E-03    0.81       2.0  T
  12   -180.5985890 -0.741596E-06  0.320E-03    0.81       3.3  T
  13   -180.5985892 -0.286442E-06  0.224E-03    0.81       4.7  T
  14   -180.5985893 -0.498156E-07  0.143E-03    0.81       7.4  T
  15   -180.5985893 -0.554061E-08  0.933E-04    0.81      11.3  T
  16   -180.5985893 -0.161167E-07  0.697E-04    0.81      15.1  T
     SCC iter.                  ...        0 min,  0.345 sec
     gradient                   ...        0 min,  0.049 sec
 * total energy  :  -178.8943542 Eh     change       -0.2414103E-02 Eh
   gradient norm :     0.0257361 Eh/α   predicted    -0.2598016E-02 (   7.62%)
   displ. norm   :     0.2875968 α      lambda       -0.1805720E-02
   maximum displ.:     0.1178428 α      in ANC's #3, #1, #11, ...

........................................................................
.............................. CYCLE  190 ..............................
........................................................................

 iter      E             dE          RMSdq      gap      omega  full diag
   1   -180.6031059 -0.180603E+03  0.193E-01    0.74       0.0  T
   2   -180.6019221  0.118382E-02  0.141E-01    0.82       1.0  T
   3   -180.6022377 -0.315597E-03  0.122E-01    0.76       1.0  T
   4   -180.6036376 -0.139994E-02  0.337E-02    0.77       1.0  T
   5   -180.6036555 -0.179028E-04  0.264E-02    0.78       1.0  T
   6   -180.6036665 -0.109949E-04  0.187E-02    0.78       1.0  T
   7   -180.6036703 -0.372852E-05  0.130E-02    0.78       1.0  T
   8   -180.6036740 -0.377354E-05  0.956E-03    0.78       1.1  T
   9   -180.6036749 -0.899103E-06  0.676E-03    0.78       1.6  T
  10   -180.6036754 -0.425634E-06  0.488E-03    0.78       2.2  T
  11   -180.6036758 -0.398723E-06  0.313E-03    0.78       3.4  T
  12   -180.6036760 -0.255902E-06  0.217E-03    0.78       4.9  T
  13   -180.6036761 -0.953569E-07  0.149E-03    0.78       7.1  T
  14   -180.6036762 -0.373015E-07  0.766E-04    0.78      13.8  T
  15   -180.6036762 -0.609185E-08  0.483E-04    0.78      21.8  T
     SCC iter.                  ...        0 min,  0.321 sec
     gradient                   ...        0 min,  0.050 sec
 * total energy  :  -178.8952875 Eh     change       -0.9332983E-03 Eh
   gradient norm :     0.0193294 Eh/α   predicted    -0.9775396E-03 (   4.74%)
   displ. norm   :     0.2462169 α      lambda       -0.1589749E-02
   maximum displ.:     0.0773982 α      in ANC's #1, #16, #11, ...

........................................................................
.............................. CYCLE  191 ..............................
........................................................................

 iter      E             dE          RMSdq      gap      omega  full diag
   1   -180.6094366 -0.180609E+03  0.228E-01    0.79       0.0  T
   2   -180.6093450  0.915957E-04  0.859E-02    0.78       1.0  T
   3   -180.6087343  0.610696E-03  0.109E-01    0.81       1.0  T
   4   -180.6095470 -0.812729E-03  0.260E-02    0.79       1.0  T
   5   -180.6095379  0.909241E-05  0.211E-02    0.79       1.0  T
   6   -180.6095546 -0.166748E-04  0.140E-02    0.79       1.0  T
   7   -180.6095630 -0.838132E-05  0.821E-03    0.79       1.3  T
   8   -180.6095652 -0.219596E-05  0.480E-03    0.79       2.2  T
   9   -180.6095655 -0.295727E-06  0.361E-03    0.79       2.9  T
  10   -180.6095657 -0.182217E-06  0.231E-03    0.79       4.6  T
  11   -180.6095657 -0.311846E-07  0.172E-03    0.79       6.1  T
  12   -180.6095658 -0.429024E-07  0.125E-03    0.79       8.4  T
  13   -180.6095658 -0.399774E-07  0.841E-04    0.79      12.5  T
  14   -180.6095658 -0.124596E-07  0.522E-04    0.79      20.2  T
     SCC iter.                  ...        0 min,  0.303 sec
     gradient                   ...        0 min,  0.052 sec
 * total energy  :  -178.8962007 Eh     change       -0.9132520E-03 Eh
   gradient norm :     0.0124959 Eh/α   predicted    -0.8430726E-03 (  -7.68%)
   displ. norm   :     0.3556828 α      lambda       -0.1003256E-02
   maximum displ.:     0.1578016 α      in ANC's #3, #1, #11, ...

........................................................................
.............................. CYCLE  192 ..............................
........................................................................

 iter      E             dE          RMSdq      gap      omega  full diag
   1   -180.6076987 -0.180608E+03  0.189E-01    0.80       0.0  T
   2   -180.6076915  0.718334E-05  0.677E-02    0.80       1.0  T
   3   -180.6074077  0.283850E-03  0.631E-02    0.80       1.0  T
   4   -180.6077059 -0.298253E-03  0.303E-02    0.81       1.0  T
   5   -180.6077575 -0.515591E-04  0.182E-02    0.80       1.0  T
   6   -180.6077661 -0.864154E-05  0.112E-02    0.80       1.0  T
   7   -180.6077691 -0.294815E-05  0.693E-03    0.80       1.5  T
   8   -180.6077700 -0.956012E-06  0.519E-03    0.80       2.0  T
   9   -180.6077704 -0.372455E-06  0.383E-03    0.80       2.8  T
  10   -180.6077705 -0.156341E-06  0.247E-03    0.80       4.3  T
  11   -180.6077706 -0.401746E-07  0.165E-03    0.80       6.4  T
  12   -180.6077707 -0.694857E-07  0.117E-03    0.80       9.0  T
  13   -180.6077707 -0.296066E-07  0.816E-04    0.80      12.9  T
  14   -180.6077707 -0.112415E-07  0.499E-04    0.80      21.1  T
     SCC iter.                  ...        0 min,  0.307 sec
     gradient                   ...        0 min,  0.048 sec
 * total energy  :  -178.8968507 Eh     change       -0.6500202E-03 Eh
   gradient norm :     0.0109940 Eh/α   predicted    -0.5650909E-03 ( -13.07%)
   displ. norm   :     0.4751663 α      lambda       -0.8927966E-03
   maximum displ.:     0.2236973 α      in ANC's #1, #3, #11, ...

........................................................................
.............................. CYCLE  193 ..............................
........................................................................

 iter      E             dE          RMSdq      gap      omega  full diag
   1   -180.6055595 -0.180606E+03  0.188E-01    0.77       0.0  T
   2   -180.6053286  0.230843E-03  0.895E-02    0.80       1.0  T
   3   -180.6046127  0.715949E-03  0.109E-01    0.76       1.0  T
   4   -180.6056692 -0.105655E-02  0.304E-02    0.78       1.0  T
   5   -180.6057020 -0.327761E-04  0.193E-02    0.78       1.0  T
   6   -180.6057130 -0.109778E-04  0.118E-02    0.78       1.0  T
   7   -180.6057166 -0.364213E-05  0.797E-03    0.78       1.3  T
   8   -180.6057182 -0.158404E-05  0.590E-03    0.79       1.8  T
   9   -180.6057185 -0.314498E-06  0.439E-03    0.78       2.4  T
  10   -180.6057187 -0.238510E-06  0.280E-03    0.79       3.8  T
  11   -180.6057188 -0.704503E-08  0.194E-03    0.78       5.4  T
  12   -180.6057189 -0.121006E-06  0.139E-03    0.79       7.6  T
  13   -180.6057189 -0.513597E-07  0.868E-04    0.79      12.1  T
  14   -180.6057189 -0.632713E-08  0.474E-04    0.79      22.3  T
     SCC iter.                  ...        0 min,  0.294 sec
     gradient                   ...        0 min,  0.048 sec
 * total energy  :  -178.8974688 Eh     change       -0.6180309E-03 Eh
   gradient norm :     0.0122045 Eh/α   predicted    -0.5471831E-03 ( -11.46%)
   displ. norm   :     0.4510777 α      lambda       -0.7561464E-03
   maximum displ.:     0.2239706 α      in ANC's #1, #3, #4, ...

........................................................................
.............................. CYCLE  194 ..............................
........................................................................

 iter      E             dE          RMSdq      gap      omega  full diag
   1   -180.6072063 -0.180607E+03  0.178E-01    0.77       0.0  T
   2   -180.6069900  0.216231E-03  0.804E-02    0.79       1.0  T
   3   -180.6060738  0.916276E-03  0.113E-01    0.76       1.0  T
   4   -180.6073314 -0.125767E-02  0.240E-02    0.78       1.0  T
   5   -180.6073284  0.303192E-05  0.197E-02    0.78       1.0  T
   6   -180.6073386 -0.102090E-04  0.131E-02    0.78       1.0  T
   7   -180.6073430 -0.434350E-05  0.962E-03    0.78       1.1  T
   8   -180.6073447 -0.174205E-05  0.710E-03    0.78       1.5  T
   9   -180.6073449 -0.220204E-06  0.542E-03    0.78       1.9  T
  10   -180.6073454 -0.490091E-06  0.329E-03    0.78       3.2  T
  11   -180.6073455 -0.131317E-06  0.199E-03    0.78       5.3  T
  12   -180.6073456 -0.931040E-07  0.146E-03    0.78       7.2  T
  13   -180.6073457 -0.563280E-07  0.968E-04    0.78      10.9  T
  14   -180.6073457 -0.137963E-07  0.560E-04    0.78      18.8  T
     SCC iter.                  ...        0 min,  0.304 sec
     gradient                   ...        0 min,  0.049 sec
 * total energy  :  -178.8980367 Eh     change       -0.5679573E-03 Eh
   gradient norm :     0.0101380 Eh/α   predicted    -0.4550033E-03 ( -19.89%)
   displ. norm   :     0.5020193 α      lambda       -0.7048660E-03
   maximum displ.:     0.2595169 α      in ANC's #1, #3, #4, ...

........................................................................
.............................. CYCLE  195 ..............................
........................................................................

 iter      E             dE          RMSdq      gap      omega  full diag
   1   -180.6109691 -0.180611E+03  0.195E-01    0.78       0.0  T
   2   -180.6108261  0.142994E-03  0.762E-02    0.78       1.0  T
   3   -180.6099065  0.919592E-03  0.107E-01    0.77       1.0  T
   4   -180.6110562 -0.114963E-02  0.225E-02    0.78       1.0  T
   5   -180.6110556  0.574517E-06  0.169E-02    0.77       1.0  T
   6   -180.6110603 -0.471092E-05  0.132E-02    0.78       1.0  T
   7   -180.6110662 -0.591852E-05  0.865E-03    0.77       1.2  T
   8   -180.6110674 -0.119835E-05  0.622E-03    0.78       1.7  T
   9   -180.6110675 -0.483339E-07  0.457E-03    0.78       2.3  T
  10   -180.6110678 -0.292261E-06  0.335E-03    0.78       3.1  T
  11   -180.6110680 -0.281628E-06  0.180E-03    0.78       5.8  T
  12   -180.6110681 -0.228699E-07  0.133E-03    0.78       7.9  T
  13   -180.6110681 -0.431706E-07  0.888E-04    0.78      11.9  T
  14   -180.6110681 -0.161555E-07  0.486E-04    0.78      21.7  T
     SCC iter.                  ...        0 min,  0.315 sec
     gradient                   ...        0 min,  0.049 sec
 * total energy  :  -178.8985570 Eh     change       -0.5203059E-03 Eh
   gradient norm :     0.0106656 Eh/α   predicted    -0.4412577E-03 ( -15.19%)
   displ. norm   :     0.5431812 α      lambda       -0.7105438E-03
   maximum displ.:     0.2851672 α      in ANC's #1, #3, #4, ...

........................................................................
.............................. CYCLE  196 ..............................
........................................................................

 iter      E             dE          RMSdq      gap      omega  full diag
   1   -180.6128091 -0.180613E+03  0.195E-01    0.77       0.0  T
   2   -180.6126476  0.161491E-03  0.777E-02    0.78       1.0  T
   3   -180.6116610  0.986629E-03  0.112E-01    0.76       1.0  T
   4   -180.6129146 -0.125356E-02  0.233E-02    0.77       1.0  T
   5   -180.6129070  0.756198E-05  0.189E-02    0.77       1.0  T
   6   -180.6129155 -0.845502E-05  0.133E-02    0.77       1.0  T
   7   -180.6129210 -0.549891E-05  0.836E-03    0.77       1.3  T
   8   -180.6129217 -0.769309E-06  0.631E-03    0.77       1.7  T
   9   -180.6129218 -0.108957E-06  0.448E-03    0.77       2.4  T
  10   -180.6129219 -0.142288E-07  0.346E-03    0.77       3.0  T
  11   -180.6129224 -0.565319E-06  0.177E-03    0.77       5.9  T
  12   -180.6129224 -0.510562E-08  0.142E-03    0.77       7.4  T
  13   -180.6129224 -0.212348E-07  0.959E-04    0.77      11.0  T
  14   -180.6129225 -0.211549E-07  0.590E-04    0.77      17.9  T
     SCC iter.                  ...        0 min,  0.304 sec
     gradient                   ...        0 min,  0.049 sec
 * total energy  :  -178.8990081 Eh     change       -0.4510279E-03 Eh
   gradient norm :     0.0100030 Eh/α   predicted    -0.4600972E-03 (   2.01%)
   displ. norm   :     0.4710937 α      lambda       -0.5718924E-03
   maximum displ.:     0.2548218 α      in ANC's #1, #3, #4, ...

........................................................................
.............................. CYCLE  197 ..............................
........................................................................

 iter      E             dE          RMSdq      gap      omega  full diag
   1   -180.6153264 -0.180615E+03  0.189E-01    0.78       0.0  T
   2   -180.6152943  0.320948E-04  0.601E-02    0.78       1.0  T
   3   -180.6149831  0.311183E-03  0.695E-02    0.79       1.0  T
   4   -180.6153636 -0.380477E-03  0.194E-02    0.78       1.0  T
   5   -180.6153662 -0.267929E-05  0.140E-02    0.78       1.0  T
   6   -180.6153704 -0.418160E-05  0.878E-03    0.78       1.2  T
   7   -180.6153736 -0.321794E-05  0.568E-03    0.78       1.9  T
   8   -180.6153748 -0.115595E-05  0.349E-03    0.78       3.0  T
   9   -180.6153748 -0.133113E-07  0.276E-03    0.78       3.8  T
  10   -180.6153748 -0.354918E-07  0.215E-03    0.78       4.9  T
  11   -180.6153750 -0.166467E-06  0.111E-03    0.78       9.5  T
  12   -180.6153750 -0.893490E-08  0.812E-04    0.78      13.0  T
  13   -180.6153750 -0.807717E-09  0.627E-04    0.78      16.8  T
     SCC iter.                  ...        0 min,  0.272 sec
     gradient                   ...        0 min,  0.049 sec
 * total energy  :  -178.8994229 Eh     change       -0.4148344E-03 Eh
   gradient norm :     0.0083247 Eh/α   predicted    -0.3494076E-03 ( -15.77%)
   displ. norm   :     0.4637864 α      lambda       -0.5165394E-03
   maximum displ.:     0.2644339 α      in ANC's #1, #3, #4, ...

........................................................................
.............................. CYCLE  198 ..............................
........................................................................

 iter      E             dE          RMSdq      gap      omega  full diag
   1   -180.6168513 -0.180617E+03  0.172E-01    0.80       0.0  T
   2   -180.6168619 -0.105607E-04  0.555E-02    0.78       1.0  T
   3   -180.6167956  0.662176E-04  0.415E-02    0.80       1.0  T
   4   -180.6168616 -0.659718E-04  0.223E-02    0.78       1.0  T
   5   -180.6168821 -0.205179E-04  0.106E-02    0.79       1.0  T
   6   -180.6168832 -0.109901E-05  0.697E-03    0.79       1.5  T
   7   -180.6168832  0.482923E-07  0.591E-03    0.79       1.8  T
   8   -180.6168852 -0.201052E-05  0.351E-03    0.79       3.0  T
   9   -180.6168853 -0.875204E-07  0.241E-03    0.79       4.4  T
  10   -180.6168853 -0.315380E-07  0.172E-03    0.79       6.1  T
  11   -180.6168854 -0.515287E-07  0.115E-03    0.79       9.2  T
  12   -180.6168854 -0.483610E-07  0.662E-04    0.79      15.9  T
  13   -180.6168854 -0.401667E-08  0.451E-04    0.79      23.4  T
     SCC iter.                  ...        0 min,  0.282 sec
     gradient                   ...        0 min,  0.049 sec
 * total energy  :  -178.8997994 Eh     change       -0.3765083E-03 Eh
   gradient norm :     0.0076058 Eh/α   predicted    -0.3138178E-03 ( -16.65%)
   displ. norm   :     0.5023494 α      lambda       -0.4824706E-03
   maximum displ.:     0.2865728 α      in ANC's #1, #3, #4, ...

........................................................................
.............................. CYCLE  199 ..............................
........................................................................

 iter      E             dE          RMSdq      gap      omega  full diag
   1   -180.6152501 -0.180615E+03  0.174E-01    0.80       0.0  T
   2   -180.6152493  0.810613E-06  0.597E-02    0.79       1.0  T
   3   -180.6150793  0.170014E-03  0.505E-02    0.81       1.0  T
   4   -180.6152418 -0.162474E-03  0.242E-02    0.79       1.0  T
   5   -180.6152778 -0.360461E-04  0.117E-02    0.79       1.0  T
   6   -180.6152819 -0.410529E-05  0.704E-03    0.79       1.5  T
   7   -180.6152830 -0.100792E-05  0.558E-03    0.79       1.9  T
   8   -180.6152841 -0.112455E-05  0.324E-03    0.79       3.3  T
   9   -180.6152842 -0.914063E-07  0.231E-03    0.79       4.6  T
  10   -180.6152842 -0.196052E-07  0.158E-03    0.79       6.7  T
  11   -180.6152842 -0.535391E-07  0.929E-04    0.79      11.3  T
  12   -180.6152843 -0.216712E-07  0.578E-04    0.79      18.2  T
     SCC iter.                  ...        0 min,  0.256 sec
     gradient                   ...        0 min,  0.049 sec
 * total energy  :  -178.9001458 Eh     change       -0.3463868E-03 Eh
   gradient norm :     0.0080849 Eh/α   predicted    -0.3021159E-03 ( -12.78%)
   displ. norm   :     0.4477106 α      lambda       -0.4203836E-03
   maximum displ.:     0.2753635 α      in ANC's #1, #3, #4, ...

........................................................................
.............................. CYCLE  200 ..............................
........................................................................

 iter      E             dE          RMSdq      gap      omega  full diag
   1   -180.6161359 -0.180616E+03  0.154E-01    0.80       0.0  T
   2   -180.6161304  0.559624E-05  0.552E-02    0.79       1.0  T
   3   -180.6159356  0.194775E-03  0.513E-02    0.80       1.0  T
   4   -180.6161328 -0.197221E-03  0.231E-02    0.79       1.0  T
   5   -180.6161658 -0.329546E-04  0.110E-02    0.79       1.0  T
   6   -180.6161672 -0.146094E-05  0.754E-03    0.79       1.4  T
   7   -180.6161686 -0.135827E-05  0.514E-03    0.79       2.1  T
   8   -180.6161693 -0.773959E-06  0.329E-03    0.79       3.2  T
   9   -180.6161695 -0.126347E-06  0.199E-03    0.79       5.3  T
  10   -180.6161694  0.240621E-07  0.147E-03    0.79       7.2  T
  11   -180.6161695 -0.690914E-07  0.773E-04    0.79      13.6  T
  12   -180.6161695 -0.703724E-08  0.577E-04    0.79      18.3  T
     SCC iter.                  ...        0 min,  0.235 sec
     gradient                   ...        0 min,  0.048 sec
 * total energy  :  -178.9004368 Eh     change       -0.2910020E-03 Eh
   gradient norm :     0.0085885 Eh/α   predicted    -0.2523237E-03 ( -13.29%)
   displ. norm   :     0.4835429 α      lambda       -0.3452111E-03
   maximum displ.:     0.2928078 α      in ANC's #1, #3, #4, ...

........................................................................
.............................. CYCLE  201 ..............................
........................................................................

 iter      E             dE          RMSdq      gap      omega  full diag
   1   -180.6137114 -0.180614E+03  0.165E-01    0.80       0.0  T
   2   -180.6137248 -0.134467E-04  0.587E-02    0.79       1.0  T
   3   -180.6136984  0.264012E-04  0.343E-02    0.79       1.0  T
   4   -180.6137253 -0.268568E-04  0.177E-02    0.79       1.0  T
   5   -180.6137287 -0.348107E-05  0.116E-02    0.79       1.0  T
   6   -180.6137319 -0.317197E-05  0.769E-03    0.79       1.4  T
   7   -180.6137342 -0.232738E-05  0.508E-03    0.79       2.1  T
   8   -180.6137348 -0.592885E-06  0.347E-03    0.79       3.0  T
   9   -180.6137348  0.945030E-08  0.270E-03    0.79       3.9  T
  10   -180.6137351 -0.272713E-06  0.167E-03    0.79       6.3  T
  11   -180.6137351 -0.471019E-07  0.100E-03    0.79      10.5  T
  12   -180.6137352 -0.206854E-07  0.738E-04    0.79      14.3  T
  13   -180.6137352 -0.100967E-07  0.513E-04    0.79      20.6  T
     SCC iter.                  ...        0 min,  0.253 sec
     gradient                   ...        0 min,  0.048 sec
 * total energy  :  -178.9006941 Eh     change       -0.2572576E-03 Eh
   gradient norm :     0.0083450 Eh/α   predicted    -0.2129684E-03 ( -17.22%)
   displ. norm   :     0.4065849 α      lambda       -0.4060614E-03
   maximum displ.:     0.2757441 α      in ANC's #1, #5, #3, ...

........................................................................
.............................. CYCLE  202 ..............................
........................................................................

 iter      E             dE          RMSdq      gap      omega  full diag
   1   -180.6193671 -0.180619E+03  0.159E-01    0.80       0.0  T
   2   -180.6193505  0.166530E-04  0.586E-02    0.79       1.0  T
   3   -180.6190434  0.307122E-03  0.628E-02    0.80       1.0  T
   4   -180.6193850 -0.341650E-03  0.217E-02    0.79       1.0  T
   5   -180.6194101 -0.250440E-04  0.114E-02    0.80       1.0  T
   6   -180.6194107 -0.682275E-06  0.938E-03    0.79       1.1  T
   7   -180.6194128 -0.203385E-05  0.497E-03    0.80       2.1  T
   8   -180.6194131 -0.282774E-06  0.374E-03    0.80       2.8  T
   9   -180.6194131 -0.884873E-07  0.297E-03    0.80       3.6  T
  10   -180.6194133 -0.193513E-06  0.196E-03    0.80       5.4  T
  11   -180.6194134 -0.595104E-07  0.112E-03    0.80       9.4  T
  12   -180.6194134 -0.269964E-08  0.875E-04    0.80      12.0  T
  13   -180.6194134 -0.396994E-08  0.675E-04    0.80      15.6  T
     SCC iter.                  ...        0 min,  0.292 sec
     gradient                   ...        0 min,  0.048 sec
 * total energy  :  -178.9009294 Eh     change       -0.2353387E-03 Eh
   gradient norm :     0.0084237 Eh/α   predicted    -0.2365958E-03 (   0.53%)
   displ. norm   :     0.4820587 α      lambda       -0.3919606E-03
   maximum displ.:     0.3126029 α      in ANC's #1, #3, #11, ...

........................................................................
.............................. CYCLE  203 ..............................
........................................................................

 iter      E             dE          RMSdq      gap      omega  full diag
   1   -180.6166315 -0.180617E+03  0.158E-01    0.78       0.0  T
   2   -180.6165682  0.633237E-04  0.639E-02    0.80       1.0  T
   3   -180.6160368  0.531389E-03  0.827E-02    0.77       1.0  T
   4   -180.6166878 -0.651059E-03  0.189E-02    0.79       1.0  T
   5   -180.6166888 -0.982591E-06  0.137E-02    0.79       1.0  T
   6   -180.6166955 -0.664372E-05  0.860E-03    0.79       1.2  T
   7   -180.6166981 -0.264870E-05  0.571E-03    0.79       1.8  T
   8   -180.6166988 -0.649548E-06  0.382E-03    0.79       2.8  T
   9   -180.6166989 -0.120458E-06  0.307E-03    0.79       3.4  T
  10   -180.6166990 -0.141604E-06  0.180E-03    0.79       5.8  T
  11   -180.6166991 -0.195325E-07  0.100E-03    0.79      10.5  T
  12   -180.6166991 -0.979074E-08  0.769E-04    0.79      13.7  T
  13   -180.6166991 -0.141542E-07  0.554E-04    0.79      19.0  T
     SCC iter.                  ...        0 min,  0.297 sec
     gradient                   ...        0 min,  0.051 sec
 * total energy  :  -178.9011857 Eh     change       -0.2562720E-03 Eh
   gradient norm :     0.0078470 Eh/α   predicted    -0.2415236E-03 (  -5.75%)
   displ. norm   :     0.3420420 α      lambda       -0.2576940E-03
   maximum displ.:     0.2452554 α      in ANC's #1, #3, #5, ...

........................................................................
.............................. CYCLE  204 ..............................
........................................................................

 iter      E             dE          RMSdq      gap      omega  full diag
   1   -180.6173759 -0.180617E+03  0.123E-01    0.81       0.0  T
   2   -180.6173671  0.882119E-05  0.417E-02    0.80       1.0  T
   3   -180.6172444  0.122647E-03  0.419E-02    0.81       1.0  T
   4   -180.6173932 -0.148769E-03  0.150E-02    0.80       1.0  T
   5   -180.6173993 -0.610897E-05  0.855E-03    0.80       1.2  T
   6   -180.6173994 -0.114426E-06  0.645E-03    0.80       1.6  T
   7   -180.6174009 -0.150290E-05  0.421E-03    0.80       2.5  T
   8   -180.6174012 -0.314214E-06  0.294E-03    0.80       3.6  T
   9   -180.6174015 -0.232542E-06  0.210E-03    0.80       5.0  T
  10   -180.6174015 -0.528150E-07  0.118E-03    0.80       8.9  T
  11   -180.6174015  0.828220E-08  0.827E-04    0.80      12.8  T
  12   -180.6174015 -0.244843E-07  0.537E-04    0.80      19.6  T
     SCC iter.                  ...        0 min,  0.264 sec
     gradient                   ...        0 min,  0.052 sec
 * total energy  :  -178.9013831 Eh     change       -0.1973983E-03 Eh
   gradient norm :     0.0064455 Eh/α   predicted    -0.1439243E-03 ( -27.09%)
   displ. norm   :     0.3780821 α      lambda       -0.2952338E-03
   maximum displ.:     0.2828856 α      in ANC's #1, #2, #14, ...

........................................................................
.............................. CYCLE  205 ..............................
........................................................................

 iter      E             dE          RMSdq      gap      omega  full diag
   1   -180.6192307 -0.180619E+03  0.138E-01    0.81       0.0  T
   2   -180.6191982  0.324433E-04  0.523E-02    0.80       1.0  T
   3   -180.6189119  0.286322E-03  0.597E-02    0.81       1.0  T
   4   -180.6192655 -0.353596E-03  0.173E-02    0.81       1.0  T
   5   -180.6192695 -0.399941E-05  0.124E-02    0.80       1.0  T
   6   -180.6192746 -0.512078E-05  0.723E-03    0.81       1.5  T
   7   -180.6192766 -0.192624E-05  0.518E-03    0.81       2.0  T
   8   -180.6192772 -0.615702E-06  0.299E-03    0.81       3.5  T
   9   -180.6192772 -0.487074E-07  0.216E-03    0.81       4.9  T
  10   -180.6192773 -0.442855E-07  0.132E-03    0.81       8.0  T
  11   -180.6192773  0.105184E-07  0.903E-04    0.81      11.7  T
  12   -180.6192773 -0.424943E-07  0.486E-04    0.81      21.7  T
     SCC iter.                  ...        0 min,  0.286 sec
     gradient                   ...        0 min,  0.052 sec
 * total energy  :  -178.9015783 Eh     change       -0.1952783E-03 Eh
   gradient norm :     0.0057891 Eh/α   predicted    -0.1687225E-03 ( -13.60%)
   displ. norm   :     0.3828252 α      lambda       -0.1949039E-03
   maximum displ.:     0.2794003 α      in ANC's #1, #5, #2, ...

........................................................................
.............................. CYCLE  206 ..............................
........................................................................

 iter      E             dE          RMSdq      gap      omega  full diag
   1   -180.6189349 -0.180619E+03  0.126E-01    0.83       0.0  T
   2   -180.6189252  0.974123E-05  0.465E-02    0.81       1.0  T
   3   -180.6188018  0.123343E-03  0.467E-02    0.84       1.0  T
   4   -180.6189529 -0.151006E-03  0.161E-02    0.81       1.0  T
   5   -180.6189621 -0.928543E-05  0.800E-03    0.82       1.3  T
   6   -180.6189619  0.213464E-06  0.602E-03    0.82       1.8  T
   7   -180.6189633 -0.139196E-05  0.398E-03    0.82       2.6  T
   8   -180.6189637 -0.412739E-06  0.293E-03    0.82       3.6  T
   9   -180.6189639 -0.157083E-06  0.206E-03    0.82       5.1  T
  10   -180.6189639 -0.317692E-07  0.136E-03    0.82       7.8  T
  11   -180.6189640 -0.375705E-07  0.778E-04    0.82      13.6  T
  12   -180.6189640 -0.194649E-07  0.528E-04    0.82      20.0  T
     SCC iter.                  ...        0 min,  0.284 sec
     gradient                   ...        0 min,  0.056 sec
 * total energy  :  -178.9017269 Eh     change       -0.1485781E-03 Eh
   gradient norm :     0.0061323 Eh/α   predicted    -0.1117359E-03 ( -24.80%)
   displ. norm   :     0.4270473 α      lambda       -0.1991199E-03
   maximum displ.:     0.3161827 α      in ANC's #1, #2, #5, ...

........................................................................
.............................. CYCLE  207 ..............................
........................................................................

 iter      E             dE          RMSdq      gap      omega  full diag
   1   -180.6181238 -0.180618E+03  0.129E-01    0.82       0.0  T
   2   -180.6181159  0.790364E-05  0.460E-02    0.81       1.0  T
   3   -180.6179636  0.152273E-03  0.450E-02    0.82       1.0  T
   4   -180.6181321 -0.168479E-03  0.175E-02    0.82       1.0  T
   5   -180.6181452 -0.130957E-04  0.101E-02    0.81       1.0  T
   6   -180.6181467 -0.151584E-05  0.671E-03    0.82       1.6  T
   7   -180.6181484 -0.176197E-05  0.439E-03    0.82       2.4  T
   8   -180.6181488 -0.377928E-06  0.295E-03    0.82       3.6  T
   9   -180.6181489 -0.720177E-07  0.202E-03    0.82       5.2  T
  10   -180.6181489  0.774963E-08  0.151E-03    0.82       7.0  T
  11   -180.6181490 -0.848624E-07  0.863E-04    0.82      12.2  T
  12   -180.6181490 -0.132410E-07  0.666E-04    0.82      15.8  T
     SCC iter.                  ...        0 min,  0.273 sec
     gradient                   ...        0 min,  0.051 sec
 * total energy  :  -178.9018882 Eh     change       -0.1612467E-03 Eh
   gradient norm :     0.0054647 Eh/α   predicted    -0.1177195E-03 ( -26.99%)
   displ. norm   :     0.4724273 α      lambda       -0.2362356E-03
   maximum displ.:     0.3499326 α      in ANC's #1, #2, #5, ...

........................................................................
.............................. CYCLE  208 ..............................
........................................................................

 iter      E             dE          RMSdq      gap      omega  full diag
   1   -180.6180043 -0.180618E+03  0.138E-01    0.81       0.0  T
   2   -180.6180000  0.437315E-05  0.493E-02    0.81       1.0  T
   3   -180.6178508  0.149204E-03  0.435E-02    0.81       1.0  T
   4   -180.6180103 -0.159491E-03  0.182E-02    0.82       1.0  T
   5   -180.6180242 -0.139440E-04  0.104E-02    0.81       1.0  T
   6   -180.6180252 -0.965657E-06  0.756E-03    0.82       1.4  T
   7   -180.6180274 -0.225918E-05  0.502E-03    0.81       2.1  T
   8   -180.6180278 -0.354042E-06  0.373E-03    0.81       2.8  T
   9   -180.6180279 -0.112486E-06  0.272E-03    0.81       3.9  T
  10   -180.6180279  0.268036E-07  0.217E-03    0.82       4.9  T
  11   -180.6180281 -0.229299E-06  0.103E-03    0.81      10.3  T
  12   -180.6180281 -0.984807E-08  0.809E-04    0.81      13.0  T
  13   -180.6180281 -0.253738E-08  0.577E-04    0.81      18.3  T
     SCC iter.                  ...        0 min,  0.285 sec
     gradient                   ...        0 min,  0.050 sec
 * total energy  :  -178.9020791 Eh     change       -0.1909679E-03 Eh
   gradient norm :     0.0055032 Eh/α   predicted    -0.1444838E-03 ( -24.34%)
   displ. norm   :     0.5541247 α      lambda       -0.2573163E-03
   maximum displ.:     0.4146719 α      in ANC's #1, #2, #5, ...

........................................................................
.............................. CYCLE  209 ..............................
........................................................................

 iter      E             dE          RMSdq      gap      omega  full diag
   1   -180.6185138 -0.180619E+03  0.142E-01    0.81       0.0  T
   2   -180.6184821  0.317090E-04  0.560E-02    0.81       1.0  T
   3   -180.6181325  0.349573E-03  0.652E-02    0.80       1.0  T
   4   -180.6185380 -0.405568E-03  0.184E-02    0.81       1.0  T
   5   -180.6185462 -0.810793E-05  0.122E-02    0.81       1.0  T
   6   -180.6185495 -0.338057E-05  0.789E-03    0.81       1.3  T
   7   -180.6185510 -0.147439E-05  0.547E-03    0.81       1.9  T
   8   -180.6185514 -0.349382E-06  0.414E-03    0.81       2.5  T
   9   -180.6185515 -0.184290E-06  0.293E-03    0.81       3.6  T
  10   -180.6185516 -0.724818E-07  0.203E-03    0.81       5.2  T
  11   -180.6185518 -0.168084E-06  0.125E-03    0.81       8.5  T
  12   -180.6185518 -0.195860E-07  0.104E-03    0.81      10.2  T
  13   -180.6185518 -0.151616E-07  0.674E-04    0.81      15.6  T
  14   -180.6185518 -0.690838E-08  0.434E-04    0.81      24.3  T
     SCC iter.                  ...        0 min,  0.414 sec
     gradient                   ...        0 min,  0.052 sec
 * total energy  :  -178.9022895 Eh     change       -0.2103591E-03 Eh
   gradient norm :     0.0062317 Eh/α   predicted    -0.1681672E-03 ( -20.06%)
   displ. norm   :     0.6127218 α      lambda       -0.2852630E-03
   maximum displ.:     0.4547437 α      in ANC's #1, #2, #5, ...

........................................................................
.............................. CYCLE  210 ..............................
........................................................................

 iter      E             dE          RMSdq      gap      omega  full diag
   1   -180.6189009 -0.180619E+03  0.160E-01    0.79       0.0  T
   2   -180.6188405  0.604669E-04  0.654E-02    0.81       1.0  T
   3   -180.6183525  0.487980E-03  0.807E-02    0.79       1.0  T
   4   -180.6189365 -0.584023E-03  0.200E-02    0.80       1.0  T
   5   -180.6189395 -0.297269E-05  0.162E-02    0.80       1.0  T
   6   -180.6189514 -0.119385E-04  0.822E-03    0.80       1.3  T
   7   -180.6189526 -0.122005E-05  0.586E-03    0.80       1.8  T
   8   -180.6189530 -0.399634E-06  0.446E-03    0.80       2.4  T
   9   -180.6189532 -0.220378E-06  0.323E-03    0.80       3.3  T
  10   -180.6189533 -0.992982E-07  0.214E-03    0.80       4.9  T
  11   -180.6189535 -0.144080E-06  0.138E-03    0.80       7.7  T
  12   -180.6189535 -0.454585E-07  0.103E-03    0.80      10.3  T
  13   -180.6189536 -0.154474E-07  0.687E-04    0.80      15.3  T
  14   -180.6189536 -0.533410E-08  0.440E-04    0.80      24.0  T
     SCC iter.                  ...        0 min,  0.341 sec
     gradient                   ...        0 min,  0.050 sec
 * total energy  :  -178.9025223 Eh     change       -0.2327641E-03 Eh
   gradient norm :     0.0069254 Eh/α   predicted    -0.1961852E-03 ( -15.72%)
   displ. norm   :     0.6167278 α      lambda       -0.3030358E-03
   maximum displ.:     0.4552347 α      in ANC's #1, #2, #5, ...

........................................................................
.............................. CYCLE  211 ..............................
........................................................................

 iter      E             dE          RMSdq      gap      omega  full diag
   1   -180.6192335 -0.180619E+03  0.148E-01    0.79       0.0  T
   2   -180.6192013  0.322631E-04  0.596E-02    0.80       1.0  T
   3   -180.6188187  0.382533E-03  0.688E-02    0.78       1.0  T
   4   -180.6192577 -0.439012E-03  0.182E-02    0.80       1.0  T
   5   -180.6192592 -0.150348E-05  0.132E-02    0.80       1.0  T
   6   -180.6192671 -0.786628E-05  0.751E-03    0.80       1.4  T
   7   -180.6192687 -0.162864E-05  0.521E-03    0.80       2.0  T
   8   -180.6192692 -0.438623E-06  0.371E-03    0.80       2.8  T
   9   -180.6192692 -0.177197E-07  0.275E-03    0.80       3.8  T
  10   -180.6192692 -0.410732E-07  0.197E-03    0.80       5.4  T
  11   -180.6192694 -0.193781E-06  0.102E-03    0.80      10.3  T
  12   -180.6192694 -0.780074E-08  0.802E-04    0.80      13.1  T
  13   -180.6192694 -0.543136E-08  0.566E-04    0.80      18.6  T
     SCC iter.                  ...        0 min,  0.280 sec
     gradient                   ...        0 min,  0.050 sec
 * total energy  :  -178.9027792 Eh     change       -0.2569815E-03 Eh
   gradient norm :     0.0068798 Eh/α   predicted    -0.2091547E-03 ( -18.61%)
   displ. norm   :     0.6376416 α      lambda       -0.3525259E-03
   maximum displ.:     0.4570170 α      in ANC's #1, #2, #5, ...

........................................................................
.............................. CYCLE  212 ..............................
........................................................................

 iter      E             dE          RMSdq      gap      omega  full diag
   1   -180.6211914 -0.180621E+03  0.144E-01    0.78       0.0  T
   2   -180.6211848  0.663743E-05  0.568E-02    0.79       1.0  T
   3   -180.6209884  0.196331E-03  0.522E-02    0.78       1.0  T
   4   -180.6211957 -0.207307E-03  0.202E-02    0.79       1.0  T
   5   -180.6212092 -0.134424E-04  0.118E-02    0.79       1.0  T
   6   -180.6212150 -0.579232E-05  0.673E-03    0.79       1.6  T
   7   -180.6212166 -0.162895E-05  0.461E-03    0.79       2.3  T
   8   -180.6212171 -0.513727E-06  0.291E-03    0.79       3.6  T
   9   -180.6212172 -0.361836E-07  0.201E-03    0.79       5.2  T
  10   -180.6212172 -0.889904E-08  0.121E-03    0.79       8.7  T
  11   -180.6212172 -0.500829E-07  0.712E-04    0.79      14.8  T
  12   -180.6212172 -0.151744E-07  0.482E-04    0.79      21.9  T
     SCC iter.                  ...        0 min,  0.248 sec
     gradient                   ...        0 min,  0.052 sec
 * total energy  :  -178.9030566 Eh     change       -0.2773233E-03 Eh
   gradient norm :     0.0069495 Eh/α   predicted    -0.2479344E-03 ( -10.60%)
   displ. norm   :     0.6970308 α      lambda       -0.3999722E-03
   maximum displ.:     0.4926714 α      in ANC's #1, #2, #5, ...

........................................................................
.............................. CYCLE  213 ..............................
........................................................................

 iter      E             dE          RMSdq      gap      omega  full diag
   1   -180.6195100 -0.180620E+03  0.171E-01    0.76       0.0  T
   2   -180.6195107 -0.739977E-06  0.641E-02    0.78       1.0  T
   3   -180.6193431  0.167629E-03  0.508E-02    0.77       1.0  T
   4   -180.6195091 -0.165989E-03  0.236E-02    0.77       1.0  T
   5   -180.6195348 -0.257260E-04  0.124E-02    0.78       1.0  T
   6   -180.6195394 -0.460399E-05  0.744E-03    0.78       1.4  T
   7   -180.6195421 -0.265560E-05  0.540E-03    0.77       2.0  T
   8   -180.6195431 -0.997023E-06  0.308E-03    0.78       3.4  T
   9   -180.6195431 -0.452889E-07  0.237E-03    0.78       4.4  T
  10   -180.6195431  0.122631E-07  0.155E-03    0.78       6.8  T
  11   -180.6195432 -0.715707E-07  0.890E-04    0.78      11.8  T
  12   -180.6195432 -0.166829E-07  0.546E-04    0.78      19.3  T
     SCC iter.                  ...        0 min,  0.276 sec
     gradient                   ...        0 min,  0.050 sec
 * total energy  :  -178.9033397 Eh     change       -0.2831737E-03 Eh
   gradient norm :     0.0083366 Eh/α   predicted    -0.2971597E-03 (   4.94%)
   displ. norm   :     0.6178597 α      lambda       -0.3240894E-03
   maximum displ.:     0.4424161 α      in ANC's #1, #2, #5, ...

........................................................................
.............................. CYCLE  214 ..............................
........................................................................

 iter      E             dE          RMSdq      gap      omega  full diag
   1   -180.6191573 -0.180619E+03  0.142E-01    0.76       0.0  T
   2   -180.6191617 -0.443412E-05  0.547E-02    0.77       1.0  T
   3   -180.6190813  0.804535E-04  0.360E-02    0.76       1.0  T
   4   -180.6191472 -0.659516E-04  0.213E-02    0.77       1.0  T
   5   -180.6191705 -0.232776E-04  0.102E-02    0.77       1.0  T
   6   -180.6191725 -0.197578E-05  0.739E-03    0.77       1.4  T
   7   -180.6191755 -0.299593E-05  0.443E-03    0.77       2.4  T
   8   -180.6191760 -0.477768E-06  0.278E-03    0.77       3.8  T
   9   -180.6191760 -0.235488E-07  0.182E-03    0.77       5.8  T
  10   -180.6191760  0.133626E-07  0.123E-03    0.77       8.6  T
  11   -180.6191760 -0.754605E-07  0.657E-04    0.77      16.0  T
  12   -180.6191761 -0.144307E-07  0.453E-04    0.77      23.2  T
     SCC iter.                  ...        0 min,  0.270 sec
     gradient                   ...        0 min,  0.052 sec
 * total energy  :  -178.9036089 Eh     change       -0.2691182E-03 Eh
   gradient norm :     0.0077542 Eh/α   predicted    -0.2239121E-03 ( -16.80%)
   displ. norm   :     0.6281947 α      lambda       -0.3859769E-03
   maximum displ.:     0.4596957 α      in ANC's #1, #2, #5, ...

........................................................................
.............................. CYCLE  215 ..............................
........................................................................

 iter      E             dE          RMSdq      gap      omega  full diag
   1   -180.6183307 -0.180618E+03  0.149E-01    0.76       0.0  T
   2   -180.6183056  0.250714E-04  0.602E-02    0.76       1.0  T
   3   -180.6179637  0.341928E-03  0.647E-02    0.78       1.0  T
   4   -180.6183441 -0.380450E-03  0.187E-02    0.76       1.0  T
   5   -180.6183502 -0.607183E-05  0.117E-02    0.76       1.0  T
   6   -180.6183567 -0.651010E-05  0.758E-03    0.76       1.4  T
   7   -180.6183592 -0.245799E-05  0.411E-03    0.76       2.6  T
   8   -180.6183594 -0.238560E-06  0.296E-03    0.76       3.6  T
   9   -180.6183594 -0.413257E-07  0.220E-03    0.76       4.8  T
  10   -180.6183595 -0.536073E-07  0.127E-03    0.76       8.3  T
  11   -180.6183595 -0.478590E-07  0.840E-04    0.76      12.6  T
  12   -180.6183596 -0.226965E-07  0.577E-04    0.76      18.3  T
     SCC iter.                  ...        0 min,  0.250 sec
     gradient                   ...        0 min,  0.051 sec
 * total energy  :  -178.9039065 Eh     change       -0.2976639E-03 Eh
   gradient norm :     0.0066560 Eh/α   predicted    -0.2691563E-03 (  -9.58%)
   displ. norm   :     0.5831074 α      lambda       -0.3772558E-03
   maximum displ.:     0.4036226 α      in ANC's #1, #2, #5, ...

........................................................................
.............................. CYCLE  216 ..............................
........................................................................

 iter      E             dE          RMSdq      gap      omega  full diag
   1   -180.6248038 -0.180625E+03  0.142E-01    0.75       0.0  T
   2   -180.6247896  0.141478E-04  0.584E-02    0.75       1.0  T
   3   -180.6245321  0.257479E-03  0.584E-02    0.76       1.0  T
   4   -180.6248179 -0.285733E-03  0.209E-02    0.75       1.0  T
   5   -180.6248350 -0.171766E-04  0.126E-02    0.76       1.0  T
   6   -180.6248385 -0.349030E-05  0.904E-03    0.75       1.2  T
   7   -180.6248432 -0.465723E-05  0.451E-03    0.76       2.3  T
   8   -180.6248436 -0.364241E-06  0.341E-03    0.76       3.1  T
   9   -180.6248437 -0.127507E-06  0.219E-03    0.76       4.8  T
  10   -180.6248437 -0.503908E-08  0.158E-03    0.76       6.7  T
  11   -180.6248437 -0.568455E-07  0.858E-04    0.76      12.3  T
  12   -180.6248438 -0.197389E-07  0.623E-04    0.76      16.9  T
     SCC iter.                  ...        0 min,  0.270 sec
     gradient                   ...        0 min,  0.051 sec
 * total energy  :  -178.9040802 Eh     change       -0.1736792E-03 Eh
   gradient norm :     0.0092261 Eh/α   predicted    -0.2527683E-03 (  45.54%)
   displ. norm   :     0.6323659 α      lambda       -0.4671186E-03
   maximum displ.:     0.4793385 α      in ANC's #1, #2, #5, ...

........................................................................
.............................. CYCLE  217 ..............................
........................................................................

 iter      E             dE          RMSdq      gap      omega  full diag
   1   -180.6158351 -0.180616E+03  0.162E-01    0.74       0.0  T
   2   -180.6158254  0.967913E-05  0.612E-02    0.76       1.0  T
   3   -180.6155686  0.256780E-03  0.582E-02    0.73       1.0  T
   4   -180.6158563 -0.287636E-03  0.176E-02    0.75       1.0  T
   5   -180.6158570 -0.757238E-06  0.111E-02    0.75       1.0  T
   6   -180.6158578 -0.779070E-06  0.857E-03    0.75       1.2  T
   7   -180.6158613 -0.351895E-05  0.537E-03    0.75       2.0  T
   8   -180.6158620 -0.647033E-06  0.387E-03    0.75       2.7  T
   9   -180.6158621 -0.105695E-06  0.258E-03    0.75       4.1  T
  10   -180.6158622 -0.871054E-07  0.140E-03    0.75       7.5  T
  11   -180.6158622 -0.316516E-07  0.837E-04    0.75      12.6  T
  12   -180.6158622 -0.108267E-07  0.674E-04    0.75      15.6  T
     SCC iter.                  ...        0 min,  0.252 sec
     gradient                   ...        0 min,  0.051 sec
 * total energy  :  -178.9043585 Eh     change       -0.2782704E-03 Eh
   gradient norm :     0.0088416 Eh/α   predicted    -0.3269649E-03 (  17.50%)
   displ. norm   :     0.4531843 α      lambda       -0.2922363E-03
   maximum displ.:     0.3466326 α      in ANC's #1, #2, #5, ...

........................................................................
.............................. CYCLE  218 ..............................
........................................................................

 iter      E             dE          RMSdq      gap      omega  full diag
   1   -180.6151933 -0.180615E+03  0.111E-01    0.74       0.0  T
   2   -180.6151932  0.146046E-06  0.408E-02    0.75       1.0  T
   3   -180.6151294  0.637607E-04  0.314E-02    0.74       1.0  T
   4   -180.6151944 -0.650240E-04  0.149E-02    0.75       1.0  T
   5   -180.6152003 -0.585415E-05  0.101E-02    0.75       1.0  T
   6   -180.6152048 -0.452871E-05  0.547E-03    0.75       1.9  T
   7   -180.6152056 -0.739830E-06  0.347E-03    0.75       3.0  T
   8   -180.6152058 -0.249583E-06  0.267E-03    0.75       4.0  T
   9   -180.6152060 -0.149270E-06  0.166E-03    0.75       6.3  T
  10   -180.6152060 -0.103105E-07  0.108E-03    0.75       9.8  T
  11   -180.6152060 -0.199734E-07  0.545E-04    0.75      19.3  T
  12   -180.6152060  0.696900E-10  0.434E-04    0.75      24.3  T
     SCC iter.                  ...        0 min,  0.258 sec
     gradient                   ...        0 min,  0.051 sec
 * total energy  :  -178.9045807 Eh     change       -0.2222625E-03 Eh
   gradient norm :     0.0075032 Eh/α   predicted    -0.1761321E-03 ( -20.75%)
   displ. norm   :     0.5783111 α      lambda       -0.3793123E-03
   maximum displ.:     0.4428626 α      in ANC's #1, #2, #5, ...

........................................................................
.............................. CYCLE  219 ..............................
........................................................................

 iter      E             dE          RMSdq      gap      omega  full diag
   1   -180.6174601 -0.180617E+03  0.137E-01    0.73       0.0  T
   2   -180.6174565  0.362270E-05  0.527E-02    0.74       1.0  T
   3   -180.6173196  0.136889E-03  0.495E-02    0.72       1.0  T
   4   -180.6174810 -0.161404E-03  0.162E-02    0.74       1.0  T
   5   -180.6174804  0.602530E-06  0.116E-02    0.74       1.0  T
   6   -180.6174814 -0.100234E-05  0.810E-03    0.74       1.3  T
   7   -180.6174849 -0.352921E-05  0.489E-03    0.74       2.2  T
   8   -180.6174855 -0.565870E-06  0.354E-03    0.74       3.0  T
   9   -180.6174856 -0.944758E-07  0.251E-03    0.74       4.2  T
  10   -180.6174856 -0.345752E-07  0.178E-03    0.74       5.9  T
  11   -180.6174857 -0.992210E-07  0.850E-04    0.74      12.4  T
  12   -180.6174857 -0.961566E-08  0.612E-04    0.74      17.2  T
     SCC iter.                  ...        0 min,  0.286 sec
     gradient                   ...        0 min,  0.050 sec
 * total energy  :  -178.9048784 Eh     change       -0.2976641E-03 Eh
   gradient norm :     0.0060263 Eh/α   predicted    -0.2530920E-03 ( -14.97%)
   displ. norm   :     0.6215369 α      lambda       -0.4381992E-03
   maximum displ.:     0.4716452 α      in ANC's #1, #2, #5, ...
 * RMSD in coord.:     1.0665499 α      energy gain  -0.2164810E-01 Eh

generating ANC from exact Hessian ...
Using Lindh-Hessian (1995)
 Shifting diagonal of input Hessian by   1.038143217838745E-002
 Lowest  eigenvalues of input Hessian
    0.010000    0.000000    0.000000    0.000000    0.000000    0.000000
    0.000000    0.010567    0.010730    0.010899    0.011122    0.011184
    0.011382    0.011549    0.011638    0.011959    0.012028    0.012352
 Highest eigenvalues
    2.030419    2.078185    2.179082    2.186899    2.229708    2.245067
 

........................................................................
.............................. CYCLE  220 ..............................
........................................................................

 iter      E             dE          RMSdq      gap      omega  full diag
   1   -180.6239790 -0.180624E+03  0.146E-01    0.71       0.0  T
   2   -180.6239501  0.289459E-04  0.634E-02    0.74       1.0  T
   3   -180.6235826  0.367498E-03  0.734E-02    0.70       1.0  T
   4   -180.6240211 -0.438509E-03  0.208E-02    0.73       1.0  T
   5   -180.6240174  0.365993E-05  0.170E-02    0.73       1.0  T
   6   -180.6240273 -0.985566E-05  0.110E-02    0.73       1.0  T
   7   -180.6240339 -0.667384E-05  0.557E-03    0.73       1.9  T
   8   -180.6240341 -0.204185E-06  0.466E-03    0.73       2.3  T
   9   -180.6240344 -0.237908E-06  0.289E-03    0.73       3.7  T
  10   -180.6240344  0.835138E-08  0.221E-03    0.73       4.8  T
  11   -180.6240345 -0.151268E-06  0.104E-03    0.73      10.1  T
  12   -180.6240345 -0.301685E-07  0.707E-04    0.73      14.9  T
  13   -180.6240346 -0.110816E-07  0.467E-04    0.73      22.6  T
     SCC iter.                  ...        0 min,  0.308 sec
     gradient                   ...        0 min,  0.050 sec
 * total energy  :  -178.9051404 Eh     change       -0.2620358E-03 Eh
   gradient norm :     0.0082071 Eh/α   predicted     0.0000000E+00 (-100.00%)
   displ. norm   :     0.1013958 α      lambda       -0.2394092E-03
   maximum displ.:     0.0733261 α      in ANC's #2, #6, #17, ...

........................................................................
.............................. CYCLE  221 ..............................
........................................................................

 iter      E             dE          RMSdq      gap      omega  full diag
   1   -180.6221118 -0.180622E+03  0.503E-02    0.73       0.0  T
   2   -180.6221101  0.173020E-05  0.205E-02    0.73       1.0  T
   3   -180.6220870  0.231268E-04  0.216E-02    0.74       1.0  T
   4   -180.6221172 -0.301876E-04  0.799E-03    0.73       1.3  T
   5   -180.6221182 -0.100452E-05  0.427E-03    0.73       2.5  T
   6   -180.6221178  0.383702E-06  0.338E-03    0.73       3.1  T
   7   -180.6221182 -0.459005E-06  0.211E-03    0.73       5.0  T
   8   -180.6221185 -0.215379E-06  0.111E-03    0.73       9.5  T
   9   -180.6221185  0.326315E-08  0.875E-04    0.73      12.0  T
  10   -180.6221185 -0.256741E-07  0.581E-04    0.73      18.1  T
     SCC iter.                  ...        0 min,  0.231 sec
     gradient                   ...        0 min,  0.051 sec
 * total energy  :  -178.9053196 Eh     change       -0.1791851E-03 Eh
   gradient norm :     0.0039634 Eh/α   predicted    -0.1211380E-03 ( -32.40%)
   displ. norm   :     0.2213659 α      lambda       -0.3256260E-03
   maximum displ.:     0.1633020 α      in ANC's #2, #6, #3, ...

........................................................................
.............................. CYCLE  222 ..............................
........................................................................

 iter      E             dE          RMSdq      gap      omega  full diag
   1   -180.6199240 -0.180620E+03  0.987E-02    0.73       0.0  T
   2   -180.6199049  0.190587E-04  0.350E-02    0.72       1.0  T
   3   -180.6197755  0.129406E-03  0.453E-02    0.74       1.0  T
   4   -180.6199453 -0.169834E-03  0.121E-02    0.72       1.0  T
   5   -180.6199432  0.216568E-05  0.947E-03    0.73       1.1  T
   6   -180.6199455 -0.231446E-05  0.595E-03    0.72       1.8  T
   7   -180.6199476 -0.212238E-05  0.315E-03    0.72       3.4  T
   8   -180.6199478 -0.222421E-06  0.209E-03    0.72       5.0  T
   9   -180.6199479 -0.316108E-07  0.166E-03    0.72       6.4  T
  10   -180.6199479 -0.479154E-07  0.109E-03    0.72       9.7  T
  11   -180.6199479 -0.219850E-07  0.696E-04    0.72      15.1  T
  12   -180.6199480 -0.103849E-07  0.526E-04    0.72      20.0  T
     SCC iter.                  ...        0 min,  0.304 sec
     gradient                   ...        0 min,  0.050 sec
 * total energy  :  -178.9054983 Eh     change       -0.1786708E-03 Eh
   gradient norm :     0.0059091 Eh/α   predicted    -0.1707914E-03 (  -4.41%)
   displ. norm   :     0.2192106 α      lambda       -0.2627170E-03
   maximum displ.:     0.1557047 α      in ANC's #2, #6, #3, ...

........................................................................
.............................. CYCLE  223 ..............................
........................................................................

 iter      E             dE          RMSdq      gap      omega  full diag
   1   -180.6190798 -0.180619E+03  0.997E-02    0.72       0.0  T
   2   -180.6190847 -0.491461E-05  0.290E-02    0.72       1.0  T
   3   -180.6190664  0.182426E-04  0.225E-02    0.72       1.0  T
   4   -180.6190834 -0.169586E-04  0.141E-02    0.72       1.0  T
   5   -180.6190900 -0.662888E-05  0.881E-03    0.72       1.2  T
   6   -180.6190921 -0.204078E-05  0.604E-03    0.72       1.7  T
   7   -180.6190939 -0.181460E-05  0.287E-03    0.72       3.7  T
   8   -180.6190940 -0.145442E-06  0.206E-03    0.72       5.1  T
   9   -180.6190941 -0.115168E-06  0.126E-03    0.72       8.4  T
  10   -180.6190942 -0.254617E-07  0.707E-04    0.72      14.9  T
  11   -180.6190942 -0.704549E-08  0.469E-04    0.72      22.5  T
     SCC iter.                  ...        0 min,  0.273 sec
     gradient                   ...        0 min,  0.050 sec
 * total energy  :  -178.9056602 Eh     change       -0.1618842E-03 Eh
   gradient norm :     0.0079686 Eh/α   predicted    -0.1376710E-03 ( -14.96%)
   displ. norm   :     0.2230767 α      lambda       -0.2624353E-03
   maximum displ.:     0.1586637 α      in ANC's #2, #6, #3, ...

........................................................................
.............................. CYCLE  224 ..............................
........................................................................

 iter      E             dE          RMSdq      gap      omega  full diag
   1   -180.6206489 -0.180621E+03  0.646E-02    0.74       0.0  T
   2   -180.6206454  0.355356E-05  0.275E-02    0.73       1.0  T
   3   -180.6206055  0.398192E-04  0.285E-02    0.75       1.0  T
   4   -180.6206531 -0.475474E-04  0.119E-02    0.73       1.0  T
   5   -180.6206566 -0.354872E-05  0.720E-03    0.73       1.5  T
   6   -180.6206574 -0.805651E-06  0.526E-03    0.73       2.0  T
   7   -180.6206591 -0.168150E-05  0.270E-03    0.73       3.9  T
   8   -180.6206593 -0.157323E-06  0.176E-03    0.73       6.0  T
   9   -180.6206593 -0.253861E-07  0.134E-03    0.73       7.9  T
  10   -180.6206593 -0.228175E-07  0.875E-04    0.73      12.0  T
  11   -180.6206593 -0.216542E-07  0.522E-04    0.73      20.2  T
     SCC iter.                  ...        0 min,  0.266 sec
     gradient                   ...        0 min,  0.048 sec
 * total energy  :  -178.9058728 Eh     change       -0.2126335E-03 Eh
   gradient norm :     0.0066947 Eh/α   predicted    -0.1377479E-03 ( -35.22%)
   displ. norm   :     0.4003138 α      lambda       -0.4838271E-03
   maximum displ.:     0.2769984 α      in ANC's #2, #6, #3, ...

........................................................................
.............................. CYCLE  225 ..............................
........................................................................

 iter      E             dE          RMSdq      gap      omega  full diag
   1   -180.6238953 -0.180624E+03  0.990E-02    0.71       0.0  T
   2   -180.6238749  0.203607E-04  0.433E-02    0.73       1.0  T
   3   -180.6237280  0.146972E-03  0.473E-02    0.71       1.0  T
   4   -180.6239017 -0.173699E-03  0.172E-02    0.72       1.0  T
   5   -180.6239152 -0.135608E-04  0.109E-02    0.72       1.0  T
   6   -180.6239206 -0.542522E-05  0.519E-03    0.72       2.0  T
   7   -180.6239212 -0.520855E-06  0.339E-03    0.72       3.1  T
   8   -180.6239214 -0.243739E-06  0.214E-03    0.72       4.9  T
   9   -180.6239214 -0.739507E-08  0.171E-03    0.72       6.2  T
  10   -180.6239215 -0.745333E-07  0.101E-03    0.72      10.5  T
  11   -180.6239215 -0.169920E-07  0.518E-04    0.72      20.3  T
  12   -180.6239215 -0.227828E-08  0.376E-04    0.72      28.0  T
     SCC iter.                  ...        0 min,  0.283 sec
     gradient                   ...        0 min,  0.052 sec
 * total energy  :  -178.9062293 Eh     change       -0.3564615E-03 Eh
   gradient norm :     0.0051907 Eh/α   predicted    -0.2806845E-03 ( -21.26%)
   displ. norm   :     0.5125701 α      lambda       -0.5098191E-03
   maximum displ.:     0.3515393 α      in ANC's #2, #6, #3, ...

........................................................................
.............................. CYCLE  226 ..............................
........................................................................

 iter      E             dE          RMSdq      gap      omega  full diag
   1   -180.6259930 -0.180626E+03  0.114E-01    0.74       0.0  T
   2   -180.6259862  0.688161E-05  0.456E-02    0.72       1.0  T
   3   -180.6258835  0.102653E-03  0.423E-02    0.75       1.0  T
   4   -180.6259882 -0.104732E-03  0.222E-02    0.73       1.0  T
   5   -180.6260087 -0.204590E-04  0.119E-02    0.73       1.0  T
   6   -180.6260127 -0.404209E-05  0.825E-03    0.73       1.3  T
   7   -180.6260156 -0.288709E-05  0.472E-03    0.73       2.2  T
   8   -180.6260159 -0.288009E-06  0.336E-03    0.73       3.1  T
   9   -180.6260159 -0.338691E-07  0.255E-03    0.73       4.1  T
  10   -180.6260162 -0.208883E-06  0.123E-03    0.73       8.6  T
  11   -180.6260162 -0.174919E-07  0.782E-04    0.73      13.5  T
  12   -180.6260162 -0.109501E-07  0.537E-04    0.73      19.6  T
     SCC iter.                  ...        0 min,  0.312 sec
     gradient                   ...        0 min,  0.050 sec
 * total energy  :  -178.9066288 Eh     change       -0.3995551E-03 Eh
   gradient norm :     0.0072105 Eh/α   predicted    -0.3218822E-03 ( -19.44%)
   displ. norm   :     0.5670242 α      lambda       -0.4861495E-03
   maximum displ.:     0.3903027 α      in ANC's #2, #6, #3, ...

........................................................................
.............................. CYCLE  227 ..............................
........................................................................

 iter      E             dE          RMSdq      gap      omega  full diag
   1   -180.6251219 -0.180625E+03  0.108E-01    0.74       0.0  T
   2   -180.6251185  0.346385E-05  0.432E-02    0.73       1.0  T
   3   -180.6250138  0.104707E-03  0.389E-02    0.74       1.0  T
   4   -180.6251173 -0.103496E-03  0.194E-02    0.73       1.0  T
   5   -180.6251339 -0.166286E-04  0.960E-03    0.73       1.1  T
   6   -180.6251382 -0.426272E-05  0.649E-03    0.73       1.6  T
   7   -180.6251402 -0.203726E-05  0.355E-03    0.73       3.0  T
   8   -180.6251404 -0.243861E-06  0.246E-03    0.73       4.3  T
   9   -180.6251404  0.221634E-07  0.184E-03    0.73       5.7  T
  10   -180.6251405 -0.641099E-07  0.108E-03    0.73       9.8  T
  11   -180.6251405 -0.295941E-07  0.643E-04    0.73      16.4  T
  12   -180.6251405 -0.887246E-08  0.461E-04    0.73      22.8  T
     SCC iter.                  ...        0 min,  0.269 sec
     gradient                   ...        0 min,  0.049 sec
 * total energy  :  -178.9070535 Eh     change       -0.4247110E-03 Eh
   gradient norm :     0.0080457 Eh/α   predicted    -0.3212276E-03 ( -24.37%)
   displ. norm   :     0.5818775 α      lambda       -0.5729083E-03
   maximum displ.:     0.4094267 α      in ANC's #2, #3, #6, ...

........................................................................
.............................. CYCLE  228 ..............................
........................................................................

 iter      E             dE          RMSdq      gap      omega  full diag
   1   -180.6241164 -0.180624E+03  0.103E-01    0.73       0.0  T
   2   -180.6241227 -0.632177E-05  0.419E-02    0.73       1.0  T
   3   -180.6240865  0.361529E-04  0.315E-02    0.73       1.0  T
   4   -180.6241166 -0.300393E-04  0.182E-02    0.73       1.0  T
   5   -180.6241247 -0.813055E-05  0.102E-02    0.73       1.0  T
   6   -180.6241302 -0.551339E-05  0.664E-03    0.73       1.6  T
   7   -180.6241325 -0.227769E-05  0.382E-03    0.73       2.8  T
   8   -180.6241328 -0.309705E-06  0.264E-03    0.73       4.0  T
   9   -180.6241328  0.122773E-07  0.200E-03    0.73       5.3  T
  10   -180.6241329 -0.778846E-07  0.116E-03    0.73       9.1  T
  11   -180.6241329 -0.228256E-07  0.820E-04    0.73      12.9  T
  12   -180.6241329 -0.177203E-07  0.581E-04    0.73      18.2  T
     SCC iter.                  ...        0 min,  0.280 sec
     gradient                   ...        0 min,  0.050 sec
 * total energy  :  -178.9075492 Eh     change       -0.4956971E-03 Eh
   gradient norm :     0.0070854 Eh/α   predicted    -0.3834432E-03 ( -22.65%)
   displ. norm   :     0.6079066 α      lambda       -0.6441617E-03
   maximum displ.:     0.4412346 α      in ANC's #2, #3, #6, ...

........................................................................
.............................. CYCLE  229 ..............................
........................................................................

 iter      E             dE          RMSdq      gap      omega  full diag
   1   -180.6246085 -0.180625E+03  0.110E-01    0.73       0.0  T
   2   -180.6245898  0.186727E-04  0.480E-02    0.72       1.0  T
   3   -180.6243897  0.200109E-03  0.530E-02    0.74       1.0  T
   4   -180.6246265 -0.236768E-03  0.191E-02    0.73       1.0  T
   5   -180.6246347 -0.823433E-05  0.121E-02    0.73       1.0  T
   6   -180.6246411 -0.636331E-05  0.822E-03    0.73       1.3  T
   7   -180.6246449 -0.381377E-05  0.388E-03    0.73       2.7  T
   8   -180.6246451 -0.159736E-06  0.287E-03    0.73       3.7  T
   9   -180.6246451 -0.279126E-07  0.222E-03    0.73       4.7  T
  10   -180.6246451 -0.589628E-07  0.135E-03    0.73       7.8  T
  11   -180.6246452 -0.259073E-07  0.939E-04    0.73      11.2  T
  12   -180.6246452 -0.233162E-07  0.651E-04    0.73      16.2  T
     SCC iter.                  ...        0 min,  0.270 sec
     gradient                   ...        0 min,  0.049 sec
 * total energy  :  -178.9080680 Eh     change       -0.5187197E-03 Eh
   gradient norm :     0.0064649 Eh/α   predicted    -0.4411090E-03 ( -14.96%)
   displ. norm   :     0.6737703 α      lambda       -0.6405932E-03
   maximum displ.:     0.4926656 α      in ANC's #2, #3, #14, ...

........................................................................
.............................. CYCLE  230 ..............................
........................................................................

 iter      E             dE          RMSdq      gap      omega  full diag
   1   -180.6238672 -0.180624E+03  0.122E-01    0.73       0.0  T
   2   -180.6238528  0.143312E-04  0.503E-02    0.73       1.0  T
   3   -180.6236705  0.182360E-03  0.557E-02    0.72       1.0  T
   4   -180.6238914 -0.220912E-03  0.195E-02    0.73       1.0  T
   5   -180.6238974 -0.601784E-05  0.128E-02    0.73       1.0  T
   6   -180.6239046 -0.719017E-05  0.878E-03    0.72       1.2  T
   7   -180.6239087 -0.410770E-05  0.412E-03    0.73       2.6  T
   8   -180.6239089 -0.236159E-06  0.287E-03    0.73       3.7  T
   9   -180.6239089 -0.173199E-08  0.232E-03    0.73       4.5  T
  10   -180.6239091 -0.122155E-06  0.136E-03    0.73       7.8  T
  11   -180.6239091 -0.178591E-07  0.962E-04    0.73      11.0  T
  12   -180.6239091 -0.290017E-07  0.623E-04    0.73      16.9  T
     SCC iter.                  ...        0 min,  0.255 sec
     gradient                   ...        0 min,  0.053 sec
 * total energy  :  -178.9085819 Eh     change       -0.5139349E-03 Eh
   gradient norm :     0.0077377 Eh/α   predicted    -0.4657022E-03 (  -9.38%)
   displ. norm   :     0.6479558 α      lambda       -0.6345492E-03
   maximum displ.:     0.4785565 α      in ANC's #2, #3, #12, ...

........................................................................
.............................. CYCLE  231 ..............................
........................................................................

 iter      E             dE          RMSdq      gap      omega  full diag
   1   -180.6239321 -0.180624E+03  0.117E-01    0.73       0.0  T
   2   -180.6239357 -0.363726E-05  0.450E-02    0.73       1.0  T
   3   -180.6238416  0.941182E-04  0.388E-02    0.74       1.0  T
   4   -180.6239277 -0.861437E-04  0.212E-02    0.73       1.0  T
   5   -180.6239522 -0.245012E-04  0.103E-02    0.73       1.0  T
   6   -180.6239560 -0.379566E-05  0.579E-03    0.73       1.8  T
   7   -180.6239570 -0.925413E-06  0.348E-03    0.73       3.0  T
   8   -180.6239572 -0.233447E-06  0.241E-03    0.73       4.4  T
   9   -180.6239572 -0.665850E-08  0.198E-03    0.73       5.3  T
  10   -180.6239573 -0.900882E-07  0.129E-03    0.73       8.2  T
  11   -180.6239573 -0.287499E-07  0.788E-04    0.73      13.4  T
  12   -180.6239573 -0.755915E-08  0.589E-04    0.73      17.9  T
     SCC iter.                  ...        0 min,  0.264 sec
     gradient                   ...        0 min,  0.049 sec
 * total energy  :  -178.9091055 Eh     change       -0.5235992E-03 Eh
   gradient norm :     0.0082465 Eh/α   predicted    -0.4504851E-03 ( -13.96%)
   displ. norm   :     0.6273756 α      lambda       -0.7037586E-03
   maximum displ.:     0.4739957 α      in ANC's #2, #12, #3, ...

........................................................................
.............................. CYCLE  232 ..............................
........................................................................

 iter      E             dE          RMSdq      gap      omega  full diag
   1   -180.6283778 -0.180628E+03  0.979E-02    0.73       0.0  T
   2   -180.6283577  0.200418E-04  0.429E-02    0.73       1.0  T
   3   -180.6281702  0.187506E-03  0.512E-02    0.74       1.0  T
   4   -180.6284012 -0.230935E-03  0.160E-02    0.73       1.0  T
   5   -180.6284055 -0.430592E-05  0.109E-02    0.73       1.0  T
   6   -180.6284103 -0.486226E-05  0.676E-03    0.73       1.6  T
   7   -180.6284122 -0.184997E-05  0.344E-03    0.73       3.1  T
   8   -180.6284123 -0.904649E-07  0.251E-03    0.73       4.2  T
   9   -180.6284123  0.183794E-07  0.210E-03    0.73       5.0  T
  10   -180.6284124 -0.122831E-06  0.113E-03    0.73       9.4  T
  11   -180.6284124 -0.662769E-08  0.847E-04    0.73      12.4  T
  12   -180.6284124 -0.195698E-07  0.601E-04    0.73      17.5  T
     SCC iter.                  ...        0 min,  0.272 sec
     gradient                   ...        0 min,  0.050 sec
 * total energy  :  -178.9096711 Eh     change       -0.5656472E-03 Eh
   gradient norm :     0.0070801 Eh/α   predicted    -0.4903804E-03 ( -13.31%)
   displ. norm   :     0.7533798 α      lambda       -0.7048846E-03
   maximum displ.:     0.5651428 α      in ANC's #2, #12, #3, ...

........................................................................
.............................. CYCLE  233 ..............................
........................................................................

 iter      E             dE          RMSdq      gap      omega  full diag
   1   -180.6284740 -0.180628E+03  0.111E-01    0.73       0.0  T
   2   -180.6284531  0.208477E-04  0.491E-02    0.73       1.0  T
   3   -180.6282528  0.200332E-03  0.548E-02    0.75       1.0  T
   4   -180.6284907 -0.237931E-03  0.186E-02    0.73       1.0  T
   5   -180.6284967 -0.594398E-05  0.130E-02    0.74       1.0  T
   6   -180.6285049 -0.819983E-05  0.672E-03    0.73       1.6  T
   7   -180.6285067 -0.185523E-05  0.319E-03    0.73       3.3  T
   8   -180.6285068 -0.876286E-07  0.237E-03    0.73       4.5  T
   9   -180.6285068 -0.166530E-07  0.188E-03    0.73       5.6  T
  10   -180.6285069 -0.772294E-07  0.115E-03    0.73       9.1  T
  11   -180.6285069 -0.132856E-07  0.897E-04    0.73      11.8  T
  12   -180.6285069 -0.250662E-07  0.595E-04    0.73      17.7  T
     SCC iter.                  ...        0 min,  0.258 sec
     gradient                   ...        0 min,  0.048 sec
 * total energy  :  -178.9102782 Eh     change       -0.6070232E-03 Eh
   gradient norm :     0.0074577 Eh/α   predicted    -0.5524842E-03 (  -8.98%)
   displ. norm   :     0.6637889 α      lambda       -0.6763961E-03
   maximum displ.:     0.5068729 α      in ANC's #2, #12, #14, ...

........................................................................
.............................. CYCLE  234 ..............................
........................................................................

 iter      E             dE          RMSdq      gap      omega  full diag
   1   -180.6316412 -0.180632E+03  0.932E-02    0.74       0.0  T
   2   -180.6316338  0.743182E-05  0.403E-02    0.74       1.0  T
   3   -180.6315183  0.115460E-03  0.407E-02    0.74       1.0  T
   4   -180.6316450 -0.126699E-03  0.171E-02    0.74       1.0  T
   5   -180.6316594 -0.143913E-04  0.857E-03    0.74       1.2  T
   6   -180.6316606 -0.118202E-05  0.600E-03    0.74       1.8  T
   7   -180.6316629 -0.231026E-05  0.279E-03    0.74       3.8  T
   8   -180.6316631 -0.160331E-06  0.216E-03    0.74       4.9  T
   9   -180.6316631 -0.410796E-07  0.164E-03    0.74       6.4  T
  10   -180.6316631 -0.245936E-07  0.104E-03    0.74      10.1  T
  11   -180.6316632 -0.709713E-08  0.706E-04    0.74      14.9  T
  12   -180.6316632 -0.129673E-07  0.502E-04    0.74      21.0  T
     SCC iter.                  ...        0 min,  0.258 sec
     gradient                   ...        0 min,  0.049 sec
 * total energy  :  -178.9108722 Eh     change       -0.5940081E-03 Eh
   gradient norm :     0.0080633 Eh/α   predicted    -0.4872194E-03 ( -17.98%)
   displ. norm   :     0.7208750 α      lambda       -0.7571651E-03
   maximum displ.:     0.5457029 α      in ANC's #2, #12, #14, ...

........................................................................
.............................. CYCLE  235 ..............................
........................................................................

 iter      E             dE          RMSdq      gap      omega  full diag
   1   -180.6333952 -0.180633E+03  0.108E-01    0.73       0.0  T
   2   -180.6333981 -0.288944E-05  0.452E-02    0.75       1.0  T
   3   -180.6333298  0.683734E-04  0.353E-02    0.74       1.0  T
   4   -180.6334025 -0.727879E-04  0.181E-02    0.75       1.0  T
   5   -180.6334126 -0.101077E-04  0.117E-02    0.74       1.0  T
   6   -180.6334181 -0.542122E-05  0.536E-03    0.74       2.0  T
   7   -180.6334187 -0.661581E-06  0.304E-03    0.74       3.5  T
   8   -180.6334187  0.626763E-07  0.254E-03    0.74       4.2  T
   9   -180.6334188 -0.148012E-06  0.190E-03    0.74       5.5  T
  10   -180.6334189 -0.121842E-06  0.101E-03    0.74      10.5  T
  11   -180.6334189 -0.646307E-08  0.624E-04    0.74      16.9  T
  12   -180.6334190 -0.575889E-08  0.467E-04    0.74      22.6  T
     SCC iter.                  ...        0 min,  0.249 sec
     gradient                   ...        0 min,  0.049 sec
 * total energy  :  -178.9115642 Eh     change       -0.6920754E-03 Eh
   gradient norm :     0.0085939 Eh/α   predicted    -0.5753178E-03 ( -16.87%)
   displ. norm   :     0.7821690 α      lambda       -0.9089338E-03
   maximum displ.:     0.5885862 α      in ANC's #2, #12, #14, ...

........................................................................
.............................. CYCLE  236 ..............................
........................................................................

 iter      E             dE          RMSdq      gap      omega  full diag
   1   -180.6364526 -0.180636E+03  0.107E-01    0.73       0.0  T
   2   -180.6364579 -0.533414E-05  0.483E-02    0.75       1.0  T
   3   -180.6363652  0.926655E-04  0.415E-02    0.73       1.0  T
   4   -180.6364636 -0.983847E-04  0.187E-02    0.75       1.0  T
   5   -180.6364689 -0.531255E-05  0.138E-02    0.75       1.0  T
   6   -180.6364789 -0.996641E-05  0.598E-03    0.75       1.8  T
   7   -180.6364803 -0.142532E-05  0.370E-03    0.75       2.8  T
   8   -180.6364807 -0.325076E-06  0.269E-03    0.75       3.9  T
   9   -180.6364808 -0.121466E-06  0.182E-03    0.75       5.8  T
  10   -180.6364808 -0.170861E-07  0.123E-03    0.75       8.5  T
  11   -180.6364808 -0.401350E-07  0.635E-04    0.75      16.6  T
  12   -180.6364808 -0.232313E-08  0.489E-04    0.75      21.6  T
     SCC iter.                  ...        0 min,  0.260 sec
     gradient                   ...        0 min,  0.051 sec
 * total energy  :  -178.9123904 Eh     change       -0.8261734E-03 Eh
   gradient norm :     0.0088858 Eh/α   predicted    -0.7325075E-03 ( -11.34%)
   displ. norm   :     0.8540796 α      lambda       -0.1042291E-02
   maximum displ.:     0.6314813 α      in ANC's #2, #12, #14, ...

........................................................................
.............................. CYCLE  237 ..............................
........................................................................

 iter      E             dE          RMSdq      gap      omega  full diag
   1   -180.6363686 -0.180636E+03  0.141E-01    0.75       0.0  T
   2   -180.6363776 -0.894951E-05  0.551E-02    0.76       1.0  T
   3   -180.6362588  0.118802E-03  0.448E-02    0.76       1.0  T
   4   -180.6363779 -0.119144E-03  0.236E-02    0.76       1.0  T
   5   -180.6363984 -0.204736E-04  0.128E-02    0.76       1.0  T
   6   -180.6364046 -0.622792E-05  0.895E-03    0.76       1.2  T
   7   -180.6364095 -0.490384E-05  0.409E-03    0.76       2.6  T
   8   -180.6364097 -0.186613E-06  0.320E-03    0.76       3.3  T
   9   -180.6364099 -0.154946E-06  0.224E-03    0.76       4.7  T
  10   -180.6364099 -0.405970E-07  0.140E-03    0.76       7.5  T
  11   -180.6364099 -0.111222E-07  0.876E-04    0.76      12.0  T
  12   -180.6364100 -0.280943E-07  0.578E-04    0.76      18.2  T
     SCC iter.                  ...        0 min,  0.260 sec
     gradient                   ...        0 min,  0.049 sec
 * total energy  :  -178.9133842 Eh     change       -0.9938144E-03 Eh
   gradient norm :     0.0090285 Eh/α   predicted    -0.9013004E-03 (  -9.31%)
   displ. norm   :     0.8825382 α      lambda       -0.1223373E-02
   maximum displ.:     0.6337714 α      in ANC's #2, #12, #13, ...

........................................................................
.............................. CYCLE  238 ..............................
........................................................................

 iter      E             dE          RMSdq      gap      omega  full diag
   1   -180.6360951 -0.180636E+03  0.162E-01    0.76       0.0  T
   2   -180.6361253 -0.301828E-04  0.612E-02    0.78       1.0  T
   3   -180.6360674  0.579220E-04  0.386E-02    0.78       1.0  T
   4   -180.6361142 -0.468197E-04  0.264E-02    0.79       1.0  T
   5   -180.6361436 -0.293929E-04  0.136E-02    0.78       1.0  T
   6   -180.6361486 -0.500291E-05  0.732E-03    0.79       1.4  T
   7   -180.6361491 -0.477076E-06  0.564E-03    0.78       1.9  T
   8   -180.6361495 -0.451525E-06  0.397E-03    0.78       2.7  T
   9   -180.6361496 -0.413493E-07  0.297E-03    0.78       3.5  T
  10   -180.6361496 -0.692756E-07  0.225E-03    0.78       4.7  T
  11   -180.6361499 -0.238485E-06  0.131E-03    0.78       8.0  T
  12   -180.6361499 -0.363371E-07  0.895E-04    0.78      11.8  T
  13   -180.6361499 -0.217170E-09  0.764E-04    0.78      13.8  T
     SCC iter.                  ...        0 min,  0.310 sec
     gradient                   ...        0 min,  0.050 sec
 * total energy  :  -178.9145628 Eh     change       -0.1178611E-02 Eh
   gradient norm :     0.0105949 Eh/α   predicted    -0.1088113E-02 (  -7.68%)
   displ. norm   :     0.8560250 α      lambda       -0.1475235E-02
   maximum displ.:     0.5526400 α      in ANC's #2, #12, #13, ...

........................................................................
.............................. CYCLE  239 ..............................
........................................................................

 iter      E             dE          RMSdq      gap      omega  full diag
   1   -180.6381063 -0.180638E+03  0.212E-01    0.79       0.0  T
   2   -180.6381378 -0.315343E-04  0.864E-02    0.80       1.0  T
   3   -180.6378781  0.259686E-03  0.823E-02    0.83       1.0  T
   4   -180.6382212 -0.343110E-03  0.320E-02    0.81       1.0  T
   5   -180.6382398 -0.186255E-04  0.209E-02    0.81       1.0  T
   6   -180.6382500 -0.101338E-04  0.117E-02    0.81       1.0  T
   7   -180.6382533 -0.329644E-05  0.918E-03    0.81       1.1  T
   8   -180.6382568 -0.350351E-05  0.551E-03    0.81       1.9  T
   9   -180.6382568 -0.599221E-07  0.432E-03    0.81       2.4  T
  10   -180.6382570 -0.114818E-06  0.323E-03    0.81       3.3  T
  11   -180.6382574 -0.400081E-06  0.199E-03    0.81       5.3  T
  12   -180.6382574 -0.702687E-07  0.140E-03    0.81       7.5  T
  13   -180.6382574 -0.144838E-07  0.110E-03    0.81       9.6  T
  14   -180.6382575 -0.217750E-07  0.781E-04    0.81      13.5  T
  15   -180.6382575 -0.108507E-07  0.435E-04    0.81      24.2  T
     SCC iter.                  ...        0 min,  0.319 sec
     gradient                   ...        0 min,  0.050 sec
 * total energy  :  -178.9159446 Eh     change       -0.1381729E-02 Eh
   gradient norm :     0.0160016 Eh/α   predicted    -0.1278130E-02 (  -7.50%)
   displ. norm   :     0.8819042 α      lambda       -0.1681629E-02
   maximum displ.:     0.5368122 α      in ANC's #2, #12, #13, ...

........................................................................
.............................. CYCLE  240 ..............................
........................................................................

 iter      E             dE          RMSdq      gap      omega  full diag
   1   -180.6370184 -0.180637E+03  0.268E-01    0.81       0.0  T
   2   -180.6369349  0.834606E-04  0.109E-01    0.83       1.0  T
   3   -180.6361952  0.739757E-03  0.129E-01    0.86       1.0  T
   4   -180.6372577 -0.106251E-02  0.349E-02    0.84       1.0  T
   5   -180.6372672 -0.954703E-05  0.269E-02    0.84       1.0  T
   6   -180.6372907 -0.234437E-04  0.168E-02    0.85       1.0  T
   7   -180.6373020 -0.113062E-04  0.108E-02    0.84       1.0  T
   8   -180.6373059 -0.391701E-05  0.619E-03    0.84       1.7  T
   9   -180.6373059 -0.202664E-07  0.496E-03    0.84       2.1  T
  10   -180.6373062 -0.301392E-06  0.345E-03    0.84       3.1  T
  11   -180.6373065 -0.320027E-06  0.221E-03    0.84       4.8  T
  12   -180.6373066 -0.877209E-07  0.145E-03    0.84       7.3  T
  13   -180.6373067 -0.294421E-07  0.106E-03    0.84       9.9  T
  14   -180.6373067 -0.473341E-08  0.740E-04    0.84      14.3  T
  15   -180.6373067 -0.119643E-07  0.533E-04    0.84      19.8  T
     SCC iter.                  ...        0 min,  0.318 sec
     gradient                   ...        0 min,  0.051 sec
 * total energy  :  -178.9176251 Eh     change       -0.1680562E-02 Eh
   gradient norm :     0.0230282 Eh/α   predicted    -0.1494761E-02 ( -11.06%)
   displ. norm   :     0.8584520 α      lambda       -0.2673534E-02
   maximum displ.:     0.4432228 α      in ANC's #12, #13, #2, ...

........................................................................
.............................. CYCLE  241 ..............................
........................................................................

 iter      E             dE          RMSdq      gap      omega  full diag
   1   -180.6399365 -0.180640E+03  0.509E-01    0.83       0.0  T
   2   -180.6385839  0.135256E-02  0.237E-01    0.81       1.0  T
   3   -180.6354963  0.308754E-02  0.288E-01    0.90       1.0  T
   4   -180.6412674 -0.577108E-02  0.634E-02    0.84       1.0  T
   5   -180.6412843 -0.168284E-04  0.498E-02    0.84       1.0  T
   6   -180.6413625 -0.782005E-04  0.335E-02    0.84       1.0  T
   7   -180.6414105 -0.480136E-04  0.203E-02    0.84       1.0  T
   8   -180.6414251 -0.146774E-04  0.112E-02    0.84       1.0  T
   9   -180.6414266 -0.145467E-05  0.780E-03    0.84       1.4  T
  10   -180.6414275 -0.931730E-06  0.508E-03    0.84       2.1  T
  11   -180.6414278 -0.290860E-06  0.373E-03    0.84       2.8  T
  12   -180.6414280 -0.198394E-06  0.244E-03    0.84       4.3  T
  13   -180.6414282 -0.135382E-06  0.187E-03    0.84       5.6  T
  14   -180.6414282 -0.175712E-07  0.134E-03    0.84       7.9  T
  15   -180.6414282 -0.481112E-07  0.810E-04    0.84      13.0  T
  16   -180.6414282  0.231421E-08  0.671E-04    0.84      15.7  T
     SCC iter.                  ...        0 min,  0.329 sec
     gradient                   ...        0 min,  0.049 sec
 * total energy  :  -178.9192923 Eh     change       -0.1667137E-02 Eh
   gradient norm :     0.0358471 Eh/α   predicted    -0.2321887E-02 (  39.27%)
   displ. norm   :     0.8268312 α      lambda       -0.1705293E-02
   maximum displ.:     0.5975401 α      in ANC's #2, #12, #14, ...

........................................................................
.............................. CYCLE  242 ..............................
........................................................................

 iter      E             dE          RMSdq      gap      omega  full diag
   1   -180.6309141 -0.180631E+03  0.158E-01    0.83       0.0  T
   2   -180.6308450  0.690285E-04  0.658E-02    0.81       1.0  T
   3   -180.6303463  0.498773E-03  0.917E-02    0.84       1.0  T
   4   -180.6310119 -0.665667E-03  0.225E-02    0.82       1.0  T
   5   -180.6310142 -0.229539E-05  0.144E-02    0.82       1.0  T
   6   -180.6310078  0.645911E-05  0.128E-02    0.82       1.0  T
   7   -180.6310205 -0.127344E-04  0.637E-03    0.82       1.7  T
   8   -180.6310215 -0.989968E-06  0.413E-03    0.82       2.6  T
   9   -180.6310217 -0.172916E-06  0.304E-03    0.82       3.5  T
  10   -180.6310217 -0.256101E-07  0.200E-03    0.82       5.3  T
  11   -180.6310218 -0.101513E-06  0.131E-03    0.82       8.0  T
  12   -180.6310218 -0.383883E-07  0.794E-04    0.82      13.3  T
  13   -180.6310218 -0.929941E-08  0.616E-04    0.82      17.1  T
     SCC iter.                  ...        0 min,  0.272 sec
     gradient                   ...        0 min,  0.049 sec
 * total energy  :  -178.9204636 Eh     change       -0.1171361E-02 Eh
   gradient norm :     0.0383106 Eh/α   predicted    -0.1435567E-02 (  22.56%)
   displ. norm   :     0.4371858 α      lambda       -0.3070984E-02
   maximum displ.:     0.1373408 α      in ANC's #40, #23, #17, ...

........................................................................
.............................. CYCLE  243 ..............................
........................................................................

 iter      E             dE          RMSdq      gap      omega  full diag
   1   -180.6196075 -0.180620E+03  0.360E-01    0.82       0.0  T
   2   -180.6195446  0.629318E-04  0.155E-01    0.86       1.0  T
   3   -180.6181019  0.144266E-02  0.170E-01    0.82       1.0  T
   4   -180.6200724 -0.197043E-02  0.668E-02    0.85       1.0  T
   5   -180.6202557 -0.183313E-03  0.427E-02    0.84       1.0  T
   6   -180.6203081 -0.524112E-04  0.241E-02    0.84       1.0  T
   7   -180.6203113 -0.317696E-05  0.194E-02    0.85       1.0  T
   8   -180.6203279 -0.166690E-04  0.112E-02    0.84       1.0  T
   9   -180.6203288 -0.884508E-06  0.836E-03    0.84       1.3  T
  10   -180.6203293 -0.479308E-06  0.591E-03    0.84       1.8  T
  11   -180.6203299 -0.573960E-06  0.410E-03    0.84       2.6  T
  12   -180.6203303 -0.400838E-06  0.261E-03    0.84       4.0  T
  13   -180.6203304 -0.763392E-07  0.208E-03    0.84       5.1  T
  14   -180.6203304 -0.767339E-07  0.128E-03    0.84       8.2  T
  15   -180.6203305 -0.411648E-07  0.731E-04    0.84      14.4  T
  16   -180.6203305  0.349519E-08  0.574E-04    0.84      18.4  T
     SCC iter.                  ...        0 min,  0.340 sec
     gradient                   ...        0 min,  0.049 sec
 * total energy  :  -178.9194659 Eh     change        0.9977273E-03 Eh
   gradient norm :     0.0469709 Eh/α   predicted    -0.1828977E-02 (-283.31%)
   displ. norm   :     0.4235782 α      lambda       -0.4704254E-02
   maximum displ.:     0.1900718 α      in ANC's #12, #2, #13, ...

........................................................................
.............................. CYCLE  244 ..............................
........................................................................

 iter      E             dE          RMSdq      gap      omega  full diag
   1   -180.6348387 -0.180635E+03  0.249E-01    0.85       0.0  T
   2   -180.6348542 -0.155013E-04  0.962E-02    0.82       1.0  T
   3   -180.6344081  0.446052E-03  0.101E-01    0.84       1.0  T
   4   -180.6350209 -0.612715E-03  0.387E-02    0.82       1.0  T
   5   -180.6350746 -0.537437E-04  0.260E-02    0.83       1.0  T
   6   -180.6351036 -0.289987E-04  0.137E-02    0.83       1.0  T
   7   -180.6351067 -0.309840E-05  0.969E-03    0.82       1.1  T
   8   -180.6351107 -0.404573E-05  0.570E-03    0.83       1.9  T
   9   -180.6351111 -0.365971E-06  0.428E-03    0.83       2.5  T
  10   -180.6351112 -0.771933E-07  0.326E-03    0.83       3.2  T
  11   -180.6351114 -0.195031E-06  0.226E-03    0.83       4.7  T
  12   -180.6351115 -0.817294E-07  0.152E-03    0.83       6.9  T
  13   -180.6351115 -0.347063E-07  0.113E-03    0.83       9.3  T
  14   -180.6351115 -0.217030E-07  0.715E-04    0.83      14.7  T
  15   -180.6351115 -0.137829E-07  0.413E-04    0.83      25.5  T
     SCC iter.                  ...        0 min,  0.338 sec
     gradient                   ...        0 min,  0.049 sec
 * total energy  :  -178.9226604 Eh     change       -0.3194526E-02 Eh
   gradient norm :     0.0262159 Eh/α   predicted    -0.2774151E-02 ( -13.16%)
   displ. norm   :     0.6181050 α      lambda       -0.2519254E-02
   maximum displ.:     0.3629493 α      in ANC's #12, #2, #13, ...

........................................................................
.............................. CYCLE  245 ..............................
........................................................................

 iter      E             dE          RMSdq      gap      omega  full diag
   1   -180.6436175 -0.180644E+03  0.259E-01    0.83       0.0  T
   2   -180.6432024  0.415104E-03  0.126E-01    0.77       1.0  T
   3   -180.6422516  0.950846E-03  0.155E-01    0.82       1.0  T
   4   -180.6440855 -0.183389E-02  0.350E-02    0.78       1.0  T
   5   -180.6441048 -0.193407E-04  0.252E-02    0.78       1.0  T
   6   -180.6441234 -0.186042E-04  0.177E-02    0.79       1.0  T
   7   -180.6441359 -0.124864E-04  0.104E-02    0.78       1.0  T
   8   -180.6441396 -0.373617E-05  0.575E-03    0.78       1.8  T
   9   -180.6441401 -0.492706E-06  0.390E-03    0.78       2.7  T
  10   -180.6441403 -0.156820E-06  0.265E-03    0.78       4.0  T
  11   -180.6441404 -0.128524E-06  0.188E-03    0.78       5.6  T
  12   -180.6441405 -0.349371E-07  0.133E-03    0.78       7.9  T
  13   -180.6441405 -0.428836E-07  0.101E-03    0.78      10.4  T
  14   -180.6441405 -0.561050E-08  0.696E-04    0.78      15.2  T
  15   -180.6441405 -0.153253E-07  0.372E-04    0.78      28.3  T
     SCC iter.                  ...        0 min,  0.331 sec
     gradient                   ...        0 min,  0.052 sec
 * total energy  :  -178.9245131 Eh     change       -0.1852691E-02 Eh
   gradient norm :     0.0205105 Eh/α   predicted    -0.1740865E-02 (  -6.04%)
   displ. norm   :     0.5735656 α      lambda       -0.1967633E-02
   maximum displ.:     0.3397030 α      in ANC's #2, #12, #13, ...

........................................................................
.............................. CYCLE  246 ..............................
........................................................................

 iter      E             dE          RMSdq      gap      omega  full diag
   1   -180.6536079 -0.180654E+03  0.146E-01    0.80       0.0  T
   2   -180.6536279 -0.200008E-04  0.564E-02    0.78       1.0  T
   3   -180.6535055  0.122396E-03  0.449E-02    0.78       1.0  T
   4   -180.6536207 -0.115205E-03  0.272E-02    0.78       1.0  T
   5   -180.6536607 -0.400266E-04  0.133E-02    0.78       1.0  T
   6   -180.6536607  0.553403E-07  0.103E-02    0.78       1.0  T
   7   -180.6536651 -0.437532E-05  0.555E-03    0.78       1.9  T
   8   -180.6536655 -0.426318E-06  0.416E-03    0.78       2.5  T
   9   -180.6536658 -0.273459E-06  0.305E-03    0.78       3.5  T
  10   -180.6536659 -0.137298E-06  0.179E-03    0.78       5.9  T
  11   -180.6536660 -0.731735E-07  0.111E-03    0.78       9.5  T
  12   -180.6536660 -0.364688E-07  0.760E-04    0.78      13.9  T
  13   -180.6536660 -0.159871E-07  0.454E-04    0.78      23.2  T
     SCC iter.                  ...        0 min,  0.279 sec
     gradient                   ...        0 min,  0.050 sec
 * total energy  :  -178.9260365 Eh     change       -0.1523397E-02 Eh
   gradient norm :     0.0136577 Eh/α   predicted    -0.1307481E-02 ( -14.17%)
   displ. norm   :     0.4683343 α      lambda       -0.1605775E-02
   maximum displ.:     0.2626852 α      in ANC's #2, #12, #13, ...

........................................................................
.............................. CYCLE  247 ..............................
........................................................................

 iter      E             dE          RMSdq      gap      omega  full diag
   1   -180.6631364 -0.180663E+03  0.149E-01    0.79       0.0  T
   2   -180.6631335  0.298648E-05  0.644E-02    0.79       1.0  T
   3   -180.6628364  0.297097E-03  0.671E-02    0.78       1.0  T
   4   -180.6631850 -0.348653E-03  0.286E-02    0.79       1.0  T
   5   -180.6632057 -0.206893E-04  0.159E-02    0.78       1.0  T
   6   -180.6632061 -0.441847E-06  0.119E-02    0.79       1.0  T
   7   -180.6632098 -0.365071E-05  0.757E-03    0.79       1.4  T
   8   -180.6632102 -0.453348E-06  0.595E-03    0.79       1.8  T
   9   -180.6632109 -0.641339E-06  0.415E-03    0.79       2.5  T
  10   -180.6632114 -0.525018E-06  0.227E-03    0.79       4.6  T
  11   -180.6632115 -0.492919E-07  0.154E-03    0.79       6.9  T
  12   -180.6632115 -0.668223E-07  0.109E-03    0.79       9.7  T
  13   -180.6632116 -0.322349E-07  0.611E-04    0.79      17.3  T
  14   -180.6632116 -0.383380E-08  0.379E-04    0.79      27.8  T
     SCC iter.                  ...        0 min,  0.307 sec
     gradient                   ...        0 min,  0.049 sec
 * total energy  :  -178.9269845 Eh     change       -0.9479778E-03 Eh
   gradient norm :     0.0131210 Eh/α   predicted    -0.9789937E-03 (   3.27%)
   displ. norm   :     0.8354816 α      lambda       -0.1345693E-02
   maximum displ.:     0.5549421 α      in ANC's #2, #12, #13, ...

........................................................................
.............................. CYCLE  248 ..............................
........................................................................

 iter      E             dE          RMSdq      gap      omega  full diag
   1   -180.6557931 -0.180656E+03  0.187E-01    0.77       0.0  T
   2   -180.6556597  0.133402E-03  0.905E-02    0.75       1.0  T
   3   -180.6547393  0.920403E-03  0.111E-01    0.75       1.0  T
   4   -180.6559050 -0.116572E-02  0.288E-02    0.76       1.0  T
   5   -180.6559399 -0.349060E-04  0.180E-02    0.75       1.0  T
   6   -180.6559456 -0.568997E-05  0.106E-02    0.75       1.0  T
   7   -180.6559491 -0.353294E-05  0.680E-03    0.75       1.6  T
   8   -180.6559508 -0.165702E-05  0.420E-03    0.75       2.5  T
   9   -180.6559510 -0.236419E-06  0.300E-03    0.75       3.5  T
  10   -180.6559511 -0.104841E-06  0.191E-03    0.75       5.5  T
  11   -180.6559512 -0.255878E-07  0.127E-03    0.75       8.3  T
  12   -180.6559512 -0.503764E-07  0.838E-04    0.75      12.6  T
  13   -180.6559512 -0.184455E-07  0.564E-04    0.75      18.7  T
     SCC iter.                  ...        0 min,  0.304 sec
     gradient                   ...        0 min,  0.053 sec
 * total energy  :  -178.9275200 Eh     change       -0.5354747E-03 Eh
   gradient norm :     0.0188984 Eh/α   predicted    -0.1142518E-02 ( 113.37%)
   displ. norm   :     0.1855447 α      lambda       -0.6580729E-03
   maximum displ.:     0.0860639 α      in ANC's #8, #30, #7, ...

........................................................................
.............................. CYCLE  249 ..............................
........................................................................

 iter      E             dE          RMSdq      gap      omega  full diag
   1   -180.6592010 -0.180659E+03  0.800E-02    0.76       0.0  T
   2   -180.6591741  0.268806E-04  0.405E-02    0.77       1.0  T
   3   -180.6590483  0.125807E-03  0.482E-02    0.75       1.0  T
   4   -180.6592269 -0.178590E-03  0.154E-02    0.77       1.0  T
   5   -180.6592295 -0.262340E-05  0.991E-03    0.76       1.1  T
   6   -180.6592304 -0.891110E-06  0.714E-03    0.76       1.5  T
   7   -180.6592329 -0.251301E-05  0.520E-03    0.77       2.0  T
   8   -180.6592337 -0.751384E-06  0.318E-03    0.77       3.3  T
   9   -180.6592337 -0.449969E-07  0.256E-03    0.77       4.1  T
  10   -180.6592338 -0.133802E-06  0.136E-03    0.77       7.8  T
  11   -180.6592338  0.231751E-09  0.972E-04    0.77      10.8  T
  12   -180.6592339 -0.246928E-07  0.698E-04    0.77      15.1  T
     SCC iter.                  ...        0 min,  0.250 sec
     gradient                   ...        0 min,  0.050 sec
 * total energy  :  -178.9279600 Eh     change       -0.4400023E-03 Eh
   gradient norm :     0.0128572 Eh/α   predicted    -0.3403640E-03 ( -22.64%)
   displ. norm   :     0.4405857 α      lambda       -0.9920500E-03
   maximum displ.:     0.2960604 α      in ANC's #2, #12, #7, ...

........................................................................
.............................. CYCLE  250 ..............................
........................................................................

 iter      E             dE          RMSdq      gap      omega  full diag
   1   -180.6641726 -0.180664E+03  0.134E-01    0.78       0.0  T
   2   -180.6640271  0.145562E-03  0.738E-02    0.80       1.0  T
   3   -180.6637356  0.291458E-03  0.845E-02    0.77       1.0  T
   4   -180.6643103 -0.574651E-03  0.240E-02    0.79       1.0  T
   5   -180.6643206 -0.103065E-04  0.169E-02    0.79       1.0  T
   6   -180.6643232 -0.257469E-05  0.118E-02    0.78       1.0  T
   7   -180.6643313 -0.811192E-05  0.816E-03    0.79       1.3  T
   8   -180.6643327 -0.145319E-05  0.484E-03    0.79       2.2  T
   9   -180.6643329 -0.197698E-06  0.403E-03    0.79       2.6  T
  10   -180.6643331 -0.216617E-06  0.216E-03    0.79       4.9  T
  11   -180.6643332 -0.350828E-07  0.142E-03    0.79       7.4  T
  12   -180.6643332 -0.131170E-07  0.101E-03    0.79      10.4  T
  13   -180.6643332 -0.985241E-08  0.798E-04    0.79      13.2  T
  14   -180.6643332 -0.185668E-07  0.402E-04    0.79      26.2  T
     SCC iter.                  ...        0 min,  0.300 sec
     gradient                   ...        0 min,  0.050 sec
 * total energy  :  -178.9283564 Eh     change       -0.3964288E-03 Eh
   gradient norm :     0.0162856 Eh/α   predicted    -0.5923153E-03 (  49.41%)
   displ. norm   :     0.3300035 α      lambda       -0.8025753E-03
   maximum displ.:     0.1456442 α      in ANC's #8, #3, #6, ...

........................................................................
.............................. CYCLE  251 ..............................
........................................................................

 iter      E             dE          RMSdq      gap      omega  full diag
   1   -180.6625373 -0.180663E+03  0.135E-01    0.77       0.0  T
   2   -180.6618304  0.706939E-03  0.110E-01    0.80       1.0  T
   3   -180.6623215 -0.491194E-03  0.812E-02    0.78       1.0  T
   4   -180.6628548 -0.533267E-03  0.215E-02    0.79       1.0  T
   5   -180.6628433  0.115223E-04  0.189E-02    0.79       1.0  T
   6   -180.6628623 -0.189970E-04  0.983E-03    0.79       1.1  T
   7   -180.6628652 -0.290499E-05  0.781E-03    0.79       1.3  T
   8   -180.6628665 -0.133816E-05  0.424E-03    0.79       2.5  T
   9   -180.6628667 -0.131941E-06  0.330E-03    0.79       3.2  T
  10   -180.6628667 -0.253928E-07  0.230E-03    0.79       4.6  T
  11   -180.6628668 -0.100784E-06  0.151E-03    0.79       7.0  T
  12   -180.6628669 -0.667180E-07  0.100E-03    0.79      10.5  T
  13   -180.6628669 -0.169063E-07  0.651E-04    0.79      16.2  T
  14   -180.6628669 -0.350852E-08  0.456E-04    0.79      23.1  T
     SCC iter.                  ...        0 min,  0.350 sec
     gradient                   ...        0 min,  0.051 sec
 * total energy  :  -178.9287845 Eh     change       -0.4280848E-03 Eh
   gradient norm :     0.0105689 Eh/α   predicted    -0.4449908E-03 (   3.95%)
   displ. norm   :     0.5599790 α      lambda       -0.7681738E-03
   maximum displ.:     0.4285154 α      in ANC's #2, #12, #7, ...

........................................................................
.............................. CYCLE  252 ..............................
........................................................................

 iter      E             dE          RMSdq      gap      omega  full diag
   1   -180.6581385 -0.180658E+03  0.135E-01    0.79       0.0  T
   2   -180.6577908  0.347632E-03  0.886E-02    0.79       1.0  T
   3   -180.6576020  0.188830E-03  0.886E-02    0.77       1.0  T
   4   -180.6583229 -0.720933E-03  0.182E-02    0.79       1.0  T
   5   -180.6583251 -0.216795E-05  0.148E-02    0.78       1.0  T
   6   -180.6583337 -0.863317E-05  0.763E-03    0.78       1.4  T
   7   -180.6583358 -0.209417E-05  0.528E-03    0.78       2.0  T
   8   -180.6583367 -0.880857E-06  0.291E-03    0.78       3.6  T
   9   -180.6583368 -0.114246E-06  0.206E-03    0.78       5.1  T
  10   -180.6583369 -0.346437E-07  0.133E-03    0.78       7.9  T
  11   -180.6583369 -0.161155E-07  0.940E-04    0.78      11.2  T
  12   -180.6583369 -0.160016E-07  0.689E-04    0.78      15.3  T
     SCC iter.                  ...        0 min,  0.270 sec
     gradient                   ...        0 min,  0.051 sec
 * total energy  :  -178.9291795 Eh     change       -0.3949690E-03 Eh
   gradient norm :     0.0109521 Eh/α   predicted    -0.5045317E-03 (  27.74%)
   displ. norm   :     0.3587230 α      lambda       -0.5536097E-03
   maximum displ.:     0.1901111 α      in ANC's #2, #12, #7, ...

........................................................................
.............................. CYCLE  253 ..............................
........................................................................

 iter      E             dE          RMSdq      gap      omega  full diag
   1   -180.6593874 -0.180659E+03  0.921E-02    0.78       0.0  T
   2   -180.6593280  0.594364E-04  0.448E-02    0.78       1.0  T
   3   -180.6591273  0.200614E-03  0.582E-02    0.78       1.0  T
   4   -180.6594236 -0.296289E-03  0.135E-02    0.78       1.0  T
   5   -180.6594273 -0.363120E-05  0.873E-03    0.78       1.2  T
   6   -180.6594299 -0.261980E-05  0.491E-03    0.78       2.1  T
   7   -180.6594306 -0.698955E-06  0.332E-03    0.78       3.2  T
   8   -180.6594310 -0.366957E-06  0.197E-03    0.78       5.4  T
   9   -180.6594309  0.201633E-07  0.181E-03    0.78       5.8  T
  10   -180.6594310 -0.662513E-07  0.106E-03    0.78      10.0  T
  11   -180.6594310 -0.112144E-07  0.713E-04    0.78      14.8  T
  12   -180.6594310 -0.357483E-08  0.564E-04    0.78      18.7  T
     SCC iter.                  ...        0 min,  0.260 sec
     gradient                   ...        0 min,  0.050 sec
 * total energy  :  -178.9295798 Eh     change       -0.4003783E-03 Eh
   gradient norm :     0.0082588 Eh/α   predicted    -0.3124266E-03 ( -21.97%)
   displ. norm   :     0.4715252 α      lambda       -0.7078070E-03
   maximum displ.:     0.2274556 α      in ANC's #2, #5, #6, ...

........................................................................
.............................. CYCLE  254 ..............................
........................................................................

 iter      E             dE          RMSdq      gap      omega  full diag
   1   -180.6608536 -0.180661E+03  0.136E-01    0.80       0.0  T
   2   -180.6601339  0.719738E-03  0.109E-01    0.81       1.0  T
   3   -180.6606131 -0.479194E-03  0.842E-02    0.79       1.0  T
   4   -180.6611615 -0.548428E-03  0.219E-02    0.80       1.0  T
   5   -180.6611628 -0.122683E-05  0.155E-02    0.80       1.0  T
   6   -180.6611731 -0.103689E-04  0.961E-03    0.80       1.1  T
   7   -180.6611776 -0.447299E-05  0.539E-03    0.80       2.0  T
   8   -180.6611784 -0.776222E-06  0.317E-03    0.80       3.3  T
   9   -180.6611785 -0.106656E-06  0.240E-03    0.80       4.4  T
  10   -180.6611785 -0.339716E-07  0.170E-03    0.80       6.2  T
  11   -180.6611785 -0.110288E-07  0.132E-03    0.80       8.0  T
  12   -180.6611786 -0.715737E-07  0.739E-04    0.80      14.3  T
  13   -180.6611786 -0.101138E-07  0.499E-04    0.80      21.1  T
     SCC iter.                  ...        0 min,  0.286 sec
     gradient                   ...        0 min,  0.050 sec
 * total energy  :  -178.9300438 Eh     change       -0.4639849E-03 Eh
   gradient norm :     0.0082148 Eh/α   predicted    -0.4325901E-03 (  -6.77%)
   displ. norm   :     0.5054690 α      lambda       -0.4121572E-03
   maximum displ.:     0.2939527 α      in ANC's #2, #5, #12, ...

........................................................................
.............................. CYCLE  255 ..............................
........................................................................

 iter      E             dE          RMSdq      gap      omega  full diag
   1   -180.6611957 -0.180661E+03  0.129E-01    0.80       0.0  T
   2   -180.6607790  0.416606E-03  0.888E-02    0.82       1.0  T
   3   -180.6607572  0.218722E-04  0.852E-02    0.80       1.0  T
   4   -180.6613681 -0.610912E-03  0.177E-02    0.81       1.0  T
   5   -180.6613596  0.851909E-05  0.151E-02    0.81       1.0  T
   6   -180.6613745 -0.149342E-04  0.810E-03    0.81       1.3  T
   7   -180.6613773 -0.283639E-05  0.464E-03    0.81       2.3  T
   8   -180.6613779 -0.549197E-06  0.258E-03    0.81       4.1  T
   9   -180.6613779 -0.422275E-07  0.199E-03    0.81       5.3  T
  10   -180.6613780 -0.439015E-07  0.126E-03    0.81       8.4  T
  11   -180.6613780 -0.184642E-08  0.972E-04    0.81      10.8  T
  12   -180.6613780 -0.343784E-07  0.616E-04    0.81      17.1  T
     SCC iter.                  ...        0 min,  0.260 sec
     gradient                   ...        0 min,  0.050 sec
 * total energy  :  -178.9303606 Eh     change       -0.3168203E-03 Eh
   gradient norm :     0.0080804 Eh/α   predicted    -0.2587351E-03 ( -18.33%)
   displ. norm   :     0.4559809 α      lambda       -0.4414518E-03
   maximum displ.:     0.2340372 α      in ANC's #2, #5, #6, ...

........................................................................
.............................. CYCLE  256 ..............................
........................................................................

 iter      E             dE          RMSdq      gap      omega  full diag
   1   -180.6652437 -0.180665E+03  0.117E-01    0.81       0.0  T
   2   -180.6649476  0.296060E-03  0.782E-02    0.82       1.0  T
   3   -180.6648631  0.845708E-04  0.792E-02    0.81       1.0  T
   4   -180.6653717 -0.508602E-03  0.178E-02    0.81       1.0  T
   5   -180.6653656  0.609396E-05  0.137E-02    0.81       1.0  T
   6   -180.6653765 -0.108919E-04  0.823E-03    0.81       1.3  T
   7   -180.6653800 -0.351868E-05  0.423E-03    0.81       2.5  T
   8   -180.6653803 -0.359163E-06  0.270E-03    0.81       3.9  T
   9   -180.6653804 -0.618486E-07  0.182E-03    0.81       5.8  T
  10   -180.6653804 -0.230050E-07  0.120E-03    0.81       8.8  T
  11   -180.6653804 -0.129205E-07  0.803E-04    0.81      13.1  T
  12   -180.6653805 -0.256182E-07  0.485E-04    0.81      21.8  T
     SCC iter.                  ...        0 min,  0.241 sec
     gradient                   ...        0 min,  0.050 sec
 * total energy  :  -178.9306663 Eh     change       -0.3056182E-03 Eh
   gradient norm :     0.0076121 Eh/α   predicted    -0.2666199E-03 ( -12.76%)
   displ. norm   :     0.4214438 α      lambda       -0.3647990E-03
   maximum displ.:     0.1851236 α      in ANC's #5, #2, #3, ...

........................................................................
.............................. CYCLE  257 ..............................
........................................................................

 iter      E             dE          RMSdq      gap      omega  full diag
   1   -180.6648181 -0.180665E+03  0.108E-01    0.81       0.0  T
   2   -180.6646773  0.140803E-03  0.627E-02    0.82       1.0  T
   3   -180.6643815  0.295749E-03  0.761E-02    0.81       1.0  T
   4   -180.6648847 -0.503217E-03  0.177E-02    0.82       1.0  T
   5   -180.6648837  0.101472E-05  0.133E-02    0.81       1.0  T
   6   -180.6648912 -0.749644E-05  0.658E-03    0.81       1.6  T
   7   -180.6648921 -0.932667E-06  0.446E-03    0.82       2.4  T
   8   -180.6648929 -0.740321E-06  0.277E-03    0.81       3.8  T
   9   -180.6648930 -0.146820E-06  0.168E-03    0.81       6.3  T
  10   -180.6648930  0.116198E-07  0.121E-03    0.81       8.7  T
  11   -180.6648931 -0.383823E-07  0.852E-04    0.81      12.4  T
  12   -180.6648931 -0.251164E-07  0.489E-04    0.81      21.5  T
     SCC iter.                  ...        0 min,  0.248 sec
     gradient                   ...        0 min,  0.048 sec
 * total energy  :  -178.9308755 Eh     change       -0.2092674E-03 Eh
   gradient norm :     0.0090074 Eh/α   predicted    -0.2148005E-03 (   2.64%)
   displ. norm   :     0.2427873 α      lambda       -0.2995635E-03
   maximum displ.:     0.1283754 α      in ANC's #2, #5, #1, ...

........................................................................
.............................. CYCLE  258 ..............................
........................................................................

 iter      E             dE          RMSdq      gap      omega  full diag
   1   -180.6679878 -0.180668E+03  0.765E-02    0.81       0.0  T
   2   -180.6679701  0.177429E-04  0.340E-02    0.81       1.0  T
   3   -180.6678697  0.100368E-03  0.415E-02    0.81       1.0  T
   4   -180.6680043 -0.134587E-03  0.135E-02    0.81       1.0  T
   5   -180.6680098 -0.550266E-05  0.817E-03    0.81       1.3  T
   6   -180.6680113 -0.149972E-05  0.530E-03    0.81       2.0  T
   7   -180.6680122 -0.902607E-06  0.324E-03    0.81       3.2  T
   8   -180.6680125 -0.254612E-06  0.234E-03    0.81       4.5  T
   9   -180.6680125 -0.561596E-07  0.159E-03    0.81       6.6  T
  10   -180.6680126 -0.256398E-07  0.112E-03    0.81       9.4  T
  11   -180.6680126 -0.153058E-07  0.794E-04    0.81      13.3  T
  12   -180.6680126 -0.233157E-07  0.476E-04    0.81      22.2  T
     SCC iter.                  ...        0 min,  0.247 sec
     gradient                   ...        0 min,  0.050 sec
 * total energy  :  -178.9310656 Eh     change       -0.1901169E-03 Eh
   gradient norm :     0.0074941 Eh/α   predicted    -0.1586156E-03 ( -16.57%)
   displ. norm   :     0.2962371 α      lambda       -0.2408031E-03
   maximum displ.:     0.1343248 α      in ANC's #5, #2, #3, ...
 * RMSD in coord.:     1.6392676 α      energy gain  -0.2618724E-01 Eh

generating ANC from exact Hessian ...
Using Lindh-Hessian (1995)
 Shifting diagonal of input Hessian by   1.058628493082346E-002
 Lowest  eigenvalues of input Hessian
    0.010000    0.000000    0.000000    0.000000    0.000000    0.000000
    0.000000    0.011000    0.011087    0.011201    0.011223    0.011601
    0.011636    0.011691    0.011821    0.012243    0.012531    0.012912
 Highest eigenvalues
    2.042491    2.085914    2.140706    2.169478    2.184350    2.228721
 

........................................................................
.............................. CYCLE  259 ..............................
........................................................................

 iter      E             dE          RMSdq      gap      omega  full diag
   1   -180.6672413 -0.180667E+03  0.850E-02    0.81       0.0  T
   2   -180.6672335  0.786173E-05  0.341E-02    0.81       1.0  T
   3   -180.6671209  0.112530E-03  0.389E-02    0.81       1.0  T
   4   -180.6672490 -0.128083E-03  0.151E-02    0.81       1.0  T
   5   -180.6672586 -0.955263E-05  0.760E-03    0.81       1.4  T
   6   -180.6672587 -0.983651E-07  0.548E-03    0.81       1.9  T
   7   -180.6672602 -0.153482E-05  0.305E-03    0.81       3.5  T
   8   -180.6672604 -0.217684E-06  0.202E-03    0.81       5.2  T
   9   -180.6672604 -0.139830E-07  0.171E-03    0.81       6.2  T
  10   -180.6672605 -0.370798E-07  0.114E-03    0.81       9.3  T
  11   -180.6672605 -0.208982E-07  0.764E-04    0.81      13.8  T
  12   -180.6672605 -0.125739E-07  0.508E-04    0.81      20.7  T
     SCC iter.                  ...        0 min,  0.262 sec
     gradient                   ...        0 min,  0.051 sec
 * total energy  :  -178.9312365 Eh     change       -0.1708649E-03 Eh
   gradient norm :     0.0079848 Eh/α   predicted     0.0000000E+00 (-100.00%)
   displ. norm   :     0.0715825 α      lambda       -0.1572306E-03
   maximum displ.:     0.0251672 α      in ANC's #4, #5, #1, ...

........................................................................
.............................. CYCLE  260 ..............................
........................................................................

 iter      E             dE          RMSdq      gap      omega  full diag
   1   -180.6669131 -0.180667E+03  0.363E-02    0.81       0.0  T
   2   -180.6669005  0.126466E-04  0.186E-02    0.81       1.0  T
   3   -180.6668674  0.330580E-04  0.242E-02    0.81       1.0  T
   4   -180.6669202 -0.527980E-04  0.628E-03    0.81       1.7  T
   5   -180.6669208 -0.632087E-06  0.404E-03    0.81       2.6  T
   6   -180.6669209 -0.563365E-07  0.267E-03    0.81       3.9  T
   7   -180.6669212 -0.280785E-06  0.158E-03    0.81       6.7  T
   8   -180.6669212 -0.653552E-07  0.100E-03    0.81      10.5  T
   9   -180.6669213 -0.354427E-08  0.705E-04    0.81      15.0  T
  10   -180.6669212  0.452519E-08  0.634E-04    0.81      16.6  T
     SCC iter.                  ...        0 min,  0.215 sec
     gradient                   ...        0 min,  0.049 sec
 * total energy  :  -178.9313661 Eh     change       -0.1295474E-03 Eh
   gradient norm :     0.0046229 Eh/α   predicted    -0.8362548E-04 ( -35.45%)
   displ. norm   :     0.2296433 α      lambda       -0.3427205E-03
   maximum displ.:     0.0904632 α      in ANC's #4, #1, #5, ...

........................................................................
.............................. CYCLE  261 ..............................
........................................................................

 iter      E             dE          RMSdq      gap      omega  full diag
   1   -180.6659568 -0.180666E+03  0.986E-02    0.79       0.0  T
   2   -180.6659218  0.349970E-04  0.500E-02    0.79       1.0  T
   3   -180.6658207  0.101190E-03  0.538E-02    0.80       1.0  T
   4   -180.6660013 -0.180655E-03  0.201E-02    0.79       1.0  T
   5   -180.6660126 -0.112637E-04  0.128E-02    0.80       1.0  T
   6   -180.6660121  0.436587E-06  0.916E-03    0.79       1.2  T
   7   -180.6660137 -0.152531E-05  0.658E-03    0.79       1.6  T
   8   -180.6660159 -0.220496E-05  0.369E-03    0.80       2.9  T
   9   -180.6660162 -0.327875E-06  0.261E-03    0.80       4.0  T
  10   -180.6660163 -0.907132E-07  0.159E-03    0.80       6.6  T
  11   -180.6660163 -0.312756E-07  0.115E-03    0.80       9.2  T
  12   -180.6660163 -0.253455E-07  0.796E-04    0.80      13.2  T
  13   -180.6660164 -0.159335E-07  0.551E-04    0.80      19.1  T
     SCC iter.                  ...        0 min,  0.271 sec
     gradient                   ...        0 min,  0.049 sec
 * total energy  :  -178.9315252 Eh     change       -0.1591976E-03 Eh
   gradient norm :     0.0068538 Eh/α   predicted    -0.1804131E-03 (  13.33%)
   displ. norm   :     0.2038866 α      lambda       -0.2471001E-03
   maximum displ.:     0.0773762 α      in ANC's #4, #5, #13, ...

........................................................................
.............................. CYCLE  262 ..............................
........................................................................

 iter      E             dE          RMSdq      gap      omega  full diag
   1   -180.6644672 -0.180664E+03  0.114E-01    0.79       0.0  T
   2   -180.6643461  0.121084E-03  0.601E-02    0.79       1.0  T
   3   -180.6640066  0.339548E-03  0.766E-02    0.79       1.0  T
   4   -180.6645222 -0.515626E-03  0.180E-02    0.79       1.0  T
   5   -180.6645266 -0.442570E-05  0.132E-02    0.79       1.0  T
   6   -180.6645323 -0.569903E-05  0.761E-03    0.79       1.4  T
   7   -180.6645332 -0.883882E-06  0.436E-03    0.79       2.4  T
   8   -180.6645334 -0.175757E-06  0.304E-03    0.79       3.5  T
   9   -180.6645335 -0.106623E-06  0.252E-03    0.79       4.2  T
  10   -180.6645336 -0.127676E-06  0.172E-03    0.79       6.1  T
  11   -180.6645336 -0.208425E-07  0.119E-03    0.79       8.9  T
  12   -180.6645337 -0.436677E-07  0.887E-04    0.79      11.9  T
  13   -180.6645337 -0.183904E-07  0.546E-04    0.79      19.3  T
     SCC iter.                  ...        0 min,  0.266 sec
     gradient                   ...        0 min,  0.049 sec
 * total energy  :  -178.9316417 Eh     change       -0.1164152E-03 Eh
   gradient norm :     0.0083318 Eh/α   predicted    -0.1286990E-03 (  10.55%)
   displ. norm   :     0.1675247 α      lambda       -0.1885111E-03
   maximum displ.:     0.0750947 α      in ANC's #4, #5, #12, ...

........................................................................
.............................. CYCLE  263 ..............................
........................................................................

 iter      E             dE          RMSdq      gap      omega  full diag
   1   -180.6651531 -0.180665E+03  0.547E-02    0.79       0.0  T
   2   -180.6651264  0.267364E-04  0.281E-02    0.78       1.0  T
   3   -180.6650852  0.411835E-04  0.339E-02    0.79       1.0  T
   4   -180.6651692 -0.839430E-04  0.101E-02    0.79       1.0  T
   5   -180.6651698 -0.662436E-06  0.698E-03    0.79       1.5  T
   6   -180.6651701 -0.304669E-06  0.473E-03    0.79       2.2  T
   7   -180.6651712 -0.101633E-05  0.325E-03    0.79       3.2  T
   8   -180.6651716 -0.407429E-06  0.196E-03    0.79       5.4  T
   9   -180.6651716 -0.219580E-07  0.153E-03    0.79       6.9  T
  10   -180.6651716 -0.204452E-07  0.904E-04    0.79      11.7  T
  11   -180.6651716 -0.176466E-07  0.628E-04    0.79      16.8  T
     SCC iter.                  ...        0 min,  0.232 sec
     gradient                   ...        0 min,  0.049 sec
 * total energy  :  -178.9317795 Eh     change       -0.1378382E-03 Eh
   gradient norm :     0.0064004 Eh/α   predicted    -0.9690498E-04 ( -29.70%)
   displ. norm   :     0.3647864 α      lambda       -0.3358826E-03
   maximum displ.:     0.1632282 α      in ANC's #4, #5, #13, ...

........................................................................
.............................. CYCLE  264 ..............................
........................................................................

 iter      E             dE          RMSdq      gap      omega  full diag
   1   -180.6655610 -0.180666E+03  0.105E-01    0.78       0.0  T
   2   -180.6654056  0.155394E-03  0.647E-02    0.78       1.0  T
   3   -180.6653370  0.686804E-04  0.655E-02    0.79       1.0  T
   4   -180.6656501 -0.313094E-03  0.213E-02    0.78       1.0  T
   5   -180.6656531 -0.300189E-05  0.146E-02    0.78       1.0  T
   6   -180.6656542 -0.111108E-05  0.933E-03    0.78       1.1  T
   7   -180.6656566 -0.242773E-05  0.747E-03    0.78       1.4  T
   8   -180.6656594 -0.280150E-05  0.385E-03    0.78       2.7  T
   9   -180.6656596 -0.246775E-06  0.281E-03    0.78       3.8  T
  10   -180.6656597 -0.695606E-07  0.161E-03    0.78       6.6  T
  11   -180.6656597 -0.296376E-07  0.113E-03    0.78       9.4  T
  12   -180.6656598 -0.148163E-07  0.800E-04    0.78      13.2  T
  13   -180.6656598 -0.652221E-08  0.619E-04    0.78      17.0  T
     SCC iter.                  ...        0 min,  0.263 sec
     gradient                   ...        0 min,  0.050 sec
 * total energy  :  -178.9319757 Eh     change       -0.1961909E-03 Eh
   gradient norm :     0.0063276 Eh/α   predicted    -0.1902981E-03 (  -3.00%)
   displ. norm   :     0.3398031 α      lambda       -0.2547240E-03
   maximum displ.:     0.1545771 α      in ANC's #4, #5, #13, ...

........................................................................
.............................. CYCLE  265 ..............................
........................................................................

 iter      E             dE          RMSdq      gap      omega  full diag
   1   -180.6651633 -0.180665E+03  0.111E-01    0.77       0.0  T
   2   -180.6651016  0.617338E-04  0.503E-02    0.77       1.0  T
   3   -180.6648890  0.212561E-03  0.637E-02    0.78       1.0  T
   4   -180.6652107 -0.321682E-03  0.189E-02    0.77       1.0  T
   5   -180.6652111 -0.395378E-06  0.136E-02    0.78       1.0  T
   6   -180.6652167 -0.557158E-05  0.758E-03    0.77       1.4  T
   7   -180.6652172 -0.536645E-06  0.596E-03    0.77       1.8  T
   8   -180.6652186 -0.135838E-05  0.395E-03    0.77       2.7  T
   9   -180.6652189 -0.283718E-06  0.285E-03    0.77       3.7  T
  10   -180.6652189 -0.802007E-07  0.181E-03    0.77       5.8  T
  11   -180.6652190 -0.181093E-07  0.133E-03    0.77       7.9  T
  12   -180.6652190 -0.492700E-07  0.931E-04    0.77      11.3  T
  13   -180.6652190 -0.102244E-07  0.674E-04    0.77      15.6  T
     SCC iter.                  ...        0 min,  0.267 sec
     gradient                   ...        0 min,  0.052 sec
 * total energy  :  -178.9321062 Eh     change       -0.1305519E-03 Eh
   gradient norm :     0.0082107 Eh/α   predicted    -0.1420734E-03 (   8.83%)
   displ. norm   :     0.2622275 α      lambda       -0.2415550E-03
   maximum displ.:     0.1192033 α      in ANC's #4, #5, #12, ...

........................................................................
.............................. CYCLE  266 ..............................
........................................................................

 iter      E             dE          RMSdq      gap      omega  full diag
   1   -180.6656452 -0.180666E+03  0.668E-02    0.78       0.0  T
   2   -180.6655711  0.740877E-04  0.424E-02    0.77       1.0  T
   3   -180.6655233  0.478424E-04  0.446E-02    0.78       1.0  T
   4   -180.6656836 -0.160281E-03  0.121E-02    0.77       1.0  T
   5   -180.6656810  0.254590E-05  0.965E-03    0.77       1.1  T
   6   -180.6656849 -0.382465E-05  0.515E-03    0.77       2.0  T
   7   -180.6656859 -0.109514E-05  0.412E-03    0.77       2.6  T
   8   -180.6656865 -0.589173E-06  0.216E-03    0.77       4.9  T
   9   -180.6656866 -0.208713E-07  0.163E-03    0.77       6.5  T
  10   -180.6656866 -0.264682E-07  0.962E-04    0.77      11.0  T
  11   -180.6656866  0.486619E-08  0.803E-04    0.77      13.1  T
     SCC iter.                  ...        0 min,  0.231 sec
     gradient                   ...        0 min,  0.049 sec
 * total energy  :  -178.9322924 Eh     change       -0.1861285E-03 Eh
   gradient norm :     0.0070178 Eh/α   predicted    -0.1290831E-03 ( -30.65%)
   displ. norm   :     0.4290218 α      lambda       -0.5138777E-03
   maximum displ.:     0.1950037 α      in ANC's #4, #5, #13, ...

........................................................................
.............................. CYCLE  267 ..............................
........................................................................

 iter      E             dE          RMSdq      gap      omega  full diag
   1   -180.6683521 -0.180668E+03  0.123E-01    0.77       0.0  T
   2   -180.6682993  0.528005E-04  0.559E-02    0.77       1.0  T
   3   -180.6680568  0.242433E-03  0.661E-02    0.78       1.0  T
   4   -180.6683936 -0.336781E-03  0.228E-02    0.77       1.0  T
   5   -180.6684000 -0.638910E-05  0.140E-02    0.77       1.0  T
   6   -180.6684032 -0.321215E-05  0.843E-03    0.77       1.3  T
   7   -180.6684066 -0.333887E-05  0.610E-03    0.77       1.7  T
   8   -180.6684079 -0.131784E-05  0.373E-03    0.77       2.8  T
   9   -180.6684080 -0.149103E-06  0.285E-03    0.77       3.7  T
  10   -180.6684081 -0.617790E-07  0.162E-03    0.77       6.5  T
  11   -180.6684081 -0.475665E-07  0.111E-03    0.77       9.5  T
  12   -180.6684082 -0.266388E-07  0.771E-04    0.77      13.7  T
  13   -180.6684082 -0.107302E-07  0.502E-04    0.77      21.0  T
     SCC iter.                  ...        0 min,  0.277 sec
     gradient                   ...        0 min,  0.051 sec
 * total energy  :  -178.9325825 Eh     change       -0.2901485E-03 Eh
   gradient norm :     0.0060689 Eh/α   predicted    -0.3042337E-03 (   4.85%)
   displ. norm   :     0.5651536 α      lambda       -0.3246094E-03
   maximum displ.:     0.2690776 α      in ANC's #4, #5, #13, ...

........................................................................
.............................. CYCLE  268 ..............................
........................................................................

 iter      E             dE          RMSdq      gap      omega  full diag
   1   -180.6646131 -0.180665E+03  0.138E-01    0.78       0.0  T
   2   -180.6644703  0.142769E-03  0.725E-02    0.76       1.0  T
   3   -180.6641443  0.326000E-03  0.859E-02    0.79       1.0  T
   4   -180.6646944 -0.550057E-03  0.258E-02    0.77       1.0  T
   5   -180.6646922  0.214142E-05  0.185E-02    0.77       1.0  T
   6   -180.6647064 -0.142107E-04  0.104E-02    0.77       1.0  T
   7   -180.6647106 -0.412060E-05  0.795E-03    0.77       1.3  T
   8   -180.6647125 -0.190201E-05  0.485E-03    0.77       2.2  T
   9   -180.6647126 -0.142411E-06  0.382E-03    0.77       2.8  T
  10   -180.6647128 -0.172711E-06  0.234E-03    0.77       4.5  T
  11   -180.6647128 -0.606131E-07  0.167E-03    0.77       6.3  T
  12   -180.6647129 -0.742289E-07  0.111E-03    0.77       9.5  T
  13   -180.6647129 -0.131165E-07  0.787E-04    0.77      13.4  T
  14   -180.6647129 -0.958673E-08  0.479E-04    0.77      22.0  T
     SCC iter.                  ...        0 min,  0.285 sec
     gradient                   ...        0 min,  0.050 sec
 * total energy  :  -178.9327509 Eh     change       -0.1683598E-03 Eh
   gradient norm :     0.0093353 Eh/α   predicted    -0.2141481E-03 (  27.20%)
   displ. norm   :     0.1884124 α      lambda       -0.3111932E-03
   maximum displ.:     0.0858727 α      in ANC's #4, #5, #8, ...

........................................................................
.............................. CYCLE  269 ..............................
........................................................................

 iter      E             dE          RMSdq      gap      omega  full diag
   1   -180.6689900 -0.180669E+03  0.689E-02    0.78       0.0  T
   2   -180.6689903 -0.219945E-06  0.274E-02    0.78       1.0  T
   3   -180.6689558  0.344748E-04  0.254E-02    0.78       1.0  T
   4   -180.6689918 -0.360455E-04  0.127E-02    0.78       1.0  T
   5   -180.6689974 -0.555333E-05  0.765E-03    0.78       1.4  T
   6   -180.6689993 -0.193422E-05  0.390E-03    0.78       2.7  T
   7   -180.6689999 -0.571038E-06  0.216E-03    0.78       4.9  T
   8   -180.6690001 -0.215673E-06  0.148E-03    0.78       7.1  T
   9   -180.6690001 -0.479185E-07  0.930E-04    0.78      11.3  T
  10   -180.6690002 -0.263188E-08  0.674E-04    0.78      15.6  T
     SCC iter.                  ...        0 min,  0.208 sec
     gradient                   ...        0 min,  0.051 sec
 * total energy  :  -178.9329405 Eh     change       -0.1895858E-03 Eh
   gradient norm :     0.0062868 Eh/α   predicted    -0.1611228E-03 ( -15.01%)
   displ. norm   :     0.4416523 α      lambda       -0.3662532E-03
   maximum displ.:     0.2202196 α      in ANC's #4, #5, #13, ...

........................................................................
.............................. CYCLE  270 ..............................
........................................................................

 iter      E             dE          RMSdq      gap      omega  full diag
   1   -180.6678765 -0.180668E+03  0.115E-01    0.76       0.0  T
   2   -180.6678789 -0.244879E-05  0.501E-02    0.78       1.0  T
   3   -180.6677990  0.798959E-04  0.482E-02    0.76       1.0  T
   4   -180.6678904 -0.914022E-04  0.218E-02    0.77       1.0  T
   5   -180.6678936 -0.317101E-05  0.161E-02    0.77       1.0  T
   6   -180.6679090 -0.153432E-04  0.744E-03    0.77       1.4  T
   7   -180.6679107 -0.174913E-05  0.448E-03    0.77       2.4  T
   8   -180.6679111 -0.422147E-06  0.313E-03    0.77       3.4  T
   9   -180.6679113 -0.164626E-06  0.217E-03    0.77       4.8  T
  10   -180.6679112  0.741736E-07  0.171E-03    0.77       6.1  T
  11   -180.6679114 -0.151955E-06  0.106E-03    0.77      10.0  T
  12   -180.6679114 -0.291530E-07  0.799E-04    0.77      13.2  T
  13   -180.6679114 -0.128348E-07  0.455E-04    0.77      23.2  T
     SCC iter.                  ...        0 min,  0.266 sec
     gradient                   ...        0 min,  0.050 sec
 * total energy  :  -178.9331443 Eh     change       -0.2038479E-03 Eh
   gradient norm :     0.0072307 Eh/α   predicted    -0.2188572E-03 (   7.36%)
   displ. norm   :     0.3205680 α      lambda       -0.3329962E-03
   maximum displ.:     0.1588098 α      in ANC's #4, #5, #13, ...

........................................................................
.............................. CYCLE  271 ..............................
........................................................................

 iter      E             dE          RMSdq      gap      omega  full diag
   1   -180.6688826 -0.180669E+03  0.829E-02    0.77       0.0  T
   2   -180.6688391  0.435457E-04  0.432E-02    0.77       1.0  T
   3   -180.6686576  0.181462E-03  0.533E-02    0.77       1.0  T
   4   -180.6689071 -0.249444E-03  0.147E-02    0.77       1.0  T
   5   -180.6689111 -0.404044E-05  0.102E-02    0.77       1.0  T
   6   -180.6689148 -0.366203E-05  0.478E-03    0.77       2.2  T
   7   -180.6689154 -0.603187E-06  0.293E-03    0.77       3.6  T
   8   -180.6689156 -0.167891E-06  0.214E-03    0.77       4.9  T
   9   -180.6689156 -0.207430E-07  0.165E-03    0.77       6.4  T
  10   -180.6689156 -0.369779E-07  0.115E-03    0.77       9.1  T
  11   -180.6689156 -0.147559E-07  0.795E-04    0.77      13.3  T
  12   -180.6689156 -0.154860E-07  0.542E-04    0.77      19.5  T
     SCC iter.                  ...        0 min,  0.262 sec
     gradient                   ...        0 min,  0.052 sec
 * total energy  :  -178.9333663 Eh     change       -0.2219412E-03 Eh
   gradient norm :     0.0064243 Eh/α   predicted    -0.1836096E-03 ( -17.27%)
   displ. norm   :     0.4505530 α      lambda       -0.2511180E-03
   maximum displ.:     0.2294225 α      in ANC's #4, #5, #13, ...

........................................................................
.............................. CYCLE  272 ..............................
........................................................................

 iter      E             dE          RMSdq      gap      omega  full diag
   1   -180.6664211 -0.180666E+03  0.943E-02    0.77       0.0  T
   2   -180.6664214 -0.307213E-06  0.431E-02    0.77       1.0  T
   3   -180.6663332  0.882279E-04  0.375E-02    0.76       1.0  T
   4   -180.6664088 -0.756789E-04  0.217E-02    0.77       1.0  T
   5   -180.6664338 -0.249293E-04  0.981E-03    0.77       1.1  T
   6   -180.6664372 -0.339570E-05  0.546E-03    0.77       1.9  T
   7   -180.6664383 -0.116903E-05  0.359E-03    0.77       2.9  T
   8   -180.6664387 -0.391150E-06  0.269E-03    0.77       3.9  T
   9   -180.6664387  0.170334E-08  0.200E-03    0.77       5.3  T
  10   -180.6664388 -0.598526E-07  0.139E-03    0.77       7.6  T
  11   -180.6664388 -0.504398E-07  0.775E-04    0.77      13.6  T
  12   -180.6664388 -0.588184E-08  0.546E-04    0.77      19.3  T
     SCC iter.                  ...        0 min,  0.281 sec
     gradient                   ...        0 min,  0.051 sec
 * total energy  :  -178.9335205 Eh     change       -0.1542062E-03 Eh
   gradient norm :     0.0082658 Eh/α   predicted    -0.1510512E-03 (  -2.05%)
   displ. norm   :     0.3127080 α      lambda       -0.4362200E-03
   maximum displ.:     0.1152687 α      in ANC's #4, #8, #5, ...

........................................................................
.............................. CYCLE  273 ..............................
........................................................................

 iter      E             dE          RMSdq      gap      omega  full diag
   1   -180.6705636 -0.180671E+03  0.105E-01    0.76       0.0  T
   2   -180.6703382  0.225440E-03  0.692E-02    0.77       1.0  T
   3   -180.6701947  0.143472E-03  0.742E-02    0.75       1.0  T
   4   -180.6706626 -0.467902E-03  0.165E-02    0.76       1.0  T
   5   -180.6706581  0.455182E-05  0.127E-02    0.76       1.0  T
   6   -180.6706664 -0.833225E-05  0.785E-03    0.76       1.3  T
   7   -180.6706703 -0.385956E-05  0.372E-03    0.76       2.8  T
   8   -180.6706706 -0.360561E-06  0.231E-03    0.76       4.6  T
   9   -180.6706707 -0.542079E-07  0.184E-03    0.76       5.7  T
  10   -180.6706707 -0.394838E-07  0.117E-03    0.76       9.0  T
  11   -180.6706707  0.179173E-08  0.836E-04    0.76      12.6  T
  12   -180.6706707 -0.147366E-07  0.599E-04    0.76      17.6  T
     SCC iter.                  ...        0 min,  0.250 sec
     gradient                   ...        0 min,  0.049 sec
 * total energy  :  -178.9335733 Eh     change       -0.5285942E-04 Eh
   gradient norm :     0.0094224 Eh/α   predicted    -0.2394415E-03 ( 352.98%)
   displ. norm   :     0.3555510 α      lambda       -0.4333306E-03
   maximum displ.:     0.1788219 α      in ANC's #4, #5, #15, ...

........................................................................
.............................. CYCLE  274 ..............................
........................................................................

 iter      E             dE          RMSdq      gap      omega  full diag
   1   -180.6663434 -0.180666E+03  0.101E-01    0.76       0.0  T
   2   -180.6663216  0.217963E-04  0.436E-02    0.76       1.0  T
   3   -180.6661705  0.151091E-03  0.495E-02    0.76       1.0  T
   4   -180.6663608 -0.190332E-03  0.172E-02    0.75       1.0  T
   5   -180.6663651 -0.429462E-05  0.111E-02    0.76       1.0  T
   6   -180.6663714 -0.626920E-05  0.638E-03    0.76       1.7  T
   7   -180.6663735 -0.214817E-05  0.369E-03    0.76       2.9  T
   8   -180.6663737 -0.225120E-06  0.250E-03    0.76       4.2  T
   9   -180.6663738 -0.644658E-07  0.201E-03    0.76       5.2  T
  10   -180.6663739 -0.715022E-07  0.133E-03    0.76       7.9  T
  11   -180.6663739 -0.173024E-07  0.923E-04    0.76      11.4  T
  12   -180.6663739 -0.212555E-07  0.627E-04    0.76      16.8  T
     SCC iter.                  ...        0 min,  0.243 sec
     gradient                   ...        0 min,  0.050 sec
 * total energy  :  -178.9337934 Eh     change       -0.2200789E-03 Eh
   gradient norm :     0.0068018 Eh/α   predicted    -0.2440579E-03 (  10.90%)
   displ. norm   :     0.1013938 α      lambda       -0.1774488E-03
   maximum displ.:     0.0422557 α      in ANC's #4, #15, #13, ...

........................................................................
.............................. CYCLE  275 ..............................
........................................................................

 iter      E             dE          RMSdq      gap      omega  full diag
   1   -180.6671829 -0.180667E+03  0.679E-02    0.77       0.0  T
   2   -180.6671554  0.274250E-04  0.301E-02    0.76       1.0  T
   3   -180.6670485  0.106918E-03  0.411E-02    0.77       1.0  T
   4   -180.6672012 -0.152740E-03  0.104E-02    0.76       1.0  T
   5   -180.6672029 -0.166911E-05  0.644E-03    0.76       1.6  T
   6   -180.6672025  0.380059E-06  0.521E-03    0.76       2.0  T
   7   -180.6672038 -0.125996E-05  0.317E-03    0.76       3.3  T
   8   -180.6672040 -0.211517E-06  0.188E-03    0.76       5.6  T
   9   -180.6672041 -0.111977E-06  0.120E-03    0.76       8.8  T
  10   -180.6672041 -0.243071E-07  0.714E-04    0.76      14.8  T
  11   -180.6672041 -0.271254E-08  0.518E-04    0.76      20.3  T
     SCC iter.                  ...        0 min,  0.235 sec
     gradient                   ...        0 min,  0.051 sec
 * total energy  :  -178.9338604 Eh     change       -0.6698741E-04 Eh
   gradient norm :     0.0058109 Eh/α   predicted    -0.8964070E-04 (  33.82%)
   displ. norm   :     0.1473134 α      lambda       -0.1504135E-03
   maximum displ.:     0.0703751 α      in ANC's #4, #5, #8, ...

........................................................................
.............................. CYCLE  276 ..............................
........................................................................

 iter      E             dE          RMSdq      gap      omega  full diag
   1   -180.6684299 -0.180668E+03  0.515E-02    0.76       0.0  T
   2   -180.6684297  0.229016E-06  0.199E-02    0.76       1.0  T
   3   -180.6684115  0.181625E-04  0.192E-02    0.76       1.0  T
   4   -180.6684296 -0.181190E-04  0.944E-03    0.76       1.1  T
   5   -180.6684331 -0.348174E-05  0.593E-03    0.76       1.8  T
   6   -180.6684344 -0.132711E-05  0.375E-03    0.76       2.8  T
   7   -180.6684350 -0.572590E-06  0.210E-03    0.76       5.0  T
   8   -180.6684351 -0.971083E-07  0.134E-03    0.76       7.9  T
   9   -180.6684351 -0.139556E-07  0.934E-04    0.76      11.3  T
  10   -180.6684351 -0.135542E-07  0.528E-04    0.76      20.0  T
     SCC iter.                  ...        0 min,  0.221 sec
     gradient                   ...        0 min,  0.051 sec
 * total energy  :  -178.9339660 Eh     change       -0.1055791E-03 Eh
   gradient norm :     0.0043702 Eh/α   predicted    -0.7684094E-04 ( -27.22%)
   displ. norm   :     0.3039695 α      lambda       -0.1785406E-03
   maximum displ.:     0.1515260 α      in ANC's #4, #5, #15, ...

........................................................................
.............................. CYCLE  277 ..............................
........................................................................

 iter      E             dE          RMSdq      gap      omega  full diag
   1   -180.6695168 -0.180670E+03  0.605E-02    0.76       0.0  T
   2   -180.6695187 -0.195514E-05  0.304E-02    0.76       1.0  T
   3   -180.6694928  0.259119E-04  0.247E-02    0.76       1.0  T
   4   -180.6695151 -0.223393E-04  0.134E-02    0.76       1.0  T
   5   -180.6695235 -0.836398E-05  0.708E-03    0.76       1.5  T
   6   -180.6695249 -0.136258E-05  0.350E-03    0.76       3.0  T
   7   -180.6695253 -0.415001E-06  0.235E-03    0.76       4.5  T
   8   -180.6695255 -0.178875E-06  0.143E-03    0.76       7.4  T
   9   -180.6695254  0.328860E-07  0.117E-03    0.76       9.0  T
  10   -180.6695255 -0.716155E-07  0.688E-04    0.76      15.3  T
  11   -180.6695255 -0.185251E-07  0.292E-04    0.76      36.1  T
     SCC iter.                  ...        0 min,  0.234 sec
     gradient                   ...        0 min,  0.049 sec
 * total energy  :  -178.9340798 Eh     change       -0.1138422E-03 Eh
   gradient norm :     0.0038701 Eh/α   predicted    -0.9751923E-04 ( -14.34%)
   displ. norm   :     0.2869341 α      lambda       -0.1120741E-03
   maximum displ.:     0.1439658 α      in ANC's #4, #5, #15, ...

........................................................................
.............................. CYCLE  278 ..............................
........................................................................

 iter      E             dE          RMSdq      gap      omega  full diag
   1   -180.6698149 -0.180670E+03  0.561E-02    0.76       0.0  T
   2   -180.6698142  0.625647E-06  0.281E-02    0.76       1.0  T
   3   -180.6697807  0.335306E-04  0.239E-02    0.76       1.0  T
   4   -180.6698141 -0.333556E-04  0.119E-02    0.76       1.0  T
   5   -180.6698200 -0.591590E-05  0.580E-03    0.76       1.8  T
   6   -180.6698205 -0.535142E-06  0.385E-03    0.76       2.7  T
   7   -180.6698210 -0.536057E-06  0.200E-03    0.76       5.3  T
   8   -180.6698210  0.231674E-08  0.176E-03    0.76       6.0  T
   9   -180.6698211 -0.786367E-07  0.118E-03    0.76       9.0  T
  10   -180.6698211 -0.228344E-07  0.765E-04    0.76      13.8  T
  11   -180.6698212 -0.176468E-07  0.437E-04    0.76      24.1  T
     SCC iter.                  ...        0 min,  0.256 sec
     gradient                   ...        0 min,  0.049 sec
 * total energy  :  -178.9341537 Eh     change       -0.7388292E-04 Eh
   gradient norm :     0.0039577 Eh/α   predicted    -0.6065294E-04 ( -17.91%)
   displ. norm   :     0.1562241 α      lambda       -0.1116239E-03
   maximum displ.:     0.0601953 α      in ANC's #32, #4, #2, ...

........................................................................
.............................. CYCLE  279 ..............................
........................................................................

 iter      E             dE          RMSdq      gap      omega  full diag
   1   -180.6741258 -0.180674E+03  0.544E-02    0.77       0.0  T
   2   -180.6740983  0.275020E-04  0.299E-02    0.76       1.0  T
   3   -180.6740052  0.930076E-04  0.388E-02    0.77       1.0  T
   4   -180.6741405 -0.135262E-03  0.905E-03    0.76       1.2  T
   5   -180.6741391  0.139838E-05  0.601E-03    0.76       1.8  T
   6   -180.6741401 -0.991670E-06  0.461E-03    0.76       2.3  T
   7   -180.6741416 -0.150609E-05  0.219E-03    0.76       4.8  T
   8   -180.6741417 -0.514727E-07  0.166E-03    0.76       6.3  T
   9   -180.6741417 -0.218057E-07  0.112E-03    0.76       9.4  T
  10   -180.6741417 -0.131307E-07  0.745E-04    0.76      14.1  T
  11   -180.6741417 -0.171323E-08  0.560E-04    0.76      18.8  T
     SCC iter.                  ...        0 min,  0.229 sec
     gradient                   ...        0 min,  0.050 sec
 * total energy  :  -178.9341707 Eh     change       -0.1701170E-04 Eh
   gradient norm :     0.0049087 Eh/α   predicted    -0.5717867E-04 ( 236.11%)
   displ. norm   :     0.3779247 α      lambda       -0.1589438E-03
   maximum displ.:     0.1889118 α      in ANC's #4, #5, #13, ...

........................................................................
.............................. CYCLE  280 ..............................
........................................................................

 iter      E             dE          RMSdq      gap      omega  full diag
   1   -180.6701546 -0.180670E+03  0.606E-02    0.76       0.0  T
   2   -180.6701584 -0.382768E-05  0.322E-02    0.76       1.0  T
   3   -180.6701422  0.162233E-04  0.198E-02    0.76       1.0  T
   4   -180.6701480 -0.583054E-05  0.132E-02    0.76       1.0  T
   5   -180.6701587 -0.106275E-04  0.587E-03    0.76       1.8  T
   6   -180.6701604 -0.178905E-05  0.370E-03    0.76       2.9  T
   7   -180.6701614 -0.991315E-06  0.147E-03    0.76       7.2  T
   8   -180.6701615 -0.306801E-07  0.100E-03    0.76      10.5  T
   9   -180.6701615  0.149997E-07  0.814E-04    0.76      12.9  T
  10   -180.6701615 -0.306677E-07  0.511E-04    0.76      20.6  T
     SCC iter.                  ...        0 min,  0.231 sec
     gradient                   ...        0 min,  0.052 sec
 * total energy  :  -178.9342121 Eh     change       -0.4136820E-04 Eh
   gradient norm :     0.0055950 Eh/α   predicted    -0.9082555E-04 ( 119.55%)
   displ. norm   :     0.1666402 α      lambda       -0.1006286E-03
   maximum displ.:     0.0816713 α      in ANC's #4, #5, #15, ...

........................................................................
.............................. CYCLE  281 ..............................
........................................................................

 iter      E             dE          RMSdq      gap      omega  full diag
   1   -180.6711059 -0.180671E+03  0.406E-02    0.76       0.0  T
   2   -180.6711062 -0.316694E-06  0.189E-02    0.76       1.0  T
   3   -180.6710906  0.156165E-04  0.171E-02    0.76       1.0  T
   4   -180.6711079 -0.173158E-04  0.793E-03    0.76       1.3  T
   5   -180.6711095 -0.155616E-05  0.389E-03    0.76       2.7  T
   6   -180.6711094  0.544957E-07  0.319E-03    0.76       3.3  T
   7   -180.6711100 -0.600091E-06  0.155E-03    0.76       6.8  T
   8   -180.6711101 -0.593631E-07  0.104E-03    0.76      10.1  T
   9   -180.6711101  0.116980E-07  0.871E-04    0.76      12.1  T
  10   -180.6711101 -0.256359E-07  0.455E-04    0.76      23.2  T
     SCC iter.                  ...        0 min,  0.222 sec
     gradient                   ...        0 min,  0.052 sec
 * total energy  :  -178.9342591 Eh     change       -0.4706885E-04 Eh
   gradient norm :     0.0027492 Eh/α   predicted    -0.5171540E-04 (   9.87%)
   displ. norm   :     0.0469063 α      lambda       -0.3890235E-04
   maximum displ.:     0.0137673 α      in ANC's #3, #8, #12, ...

   *** GEOMETRY OPTIMIZATION CONVERGED AFTER 281 ITERATIONS ***

------------------------------------------------------------------------
 total energy gain   :        -0.3331488 Eh     -209.0541 kcal/mol
 total RMSD          :         5.3953872 a0        2.8551 Å
 total power (kW/mol):        -3.1127479 (step)   -8.3358 (real)
------------------------------------------------------------------------

 ANCopt (total)                0 d,  0 h,  1 min, 44.931 sec
 optimizer setup                ...        0 min,  0.001 sec (  0.001%)
 model hessian                  ...        0 min,  0.548 sec (  0.522%)
 ANC generation                 ...        0 min,  0.104 sec (  0.099%)
 coordinate transformation      ...        0 min,  0.017 sec (  0.016%)
 single point calculation       ...        1 min, 43.683 sec ( 98.811%)
 optimization log               ...        0 min,  0.413 sec (  0.394%)
 hessian update                 ...        0 min,  0.031 sec (  0.030%)
 rational function              ...        0 min,  0.096 sec (  0.091%)

================
 final structure:
================
90
 xtb: 6.7.1pre (5071a88)
C            3.38864669476361       -2.62158347301444        7.82564732614354
C            2.16936230489098       -3.40355160122432        7.32284192825017
C            1.70275096508723       -4.38887361476693        8.41269318552680
C            2.51077694244175       -4.18570863411641        6.04787773805500
C            0.99094325336236       -2.46782637743762        7.11080992453431
N            0.94370001584142       -1.35020129036949        7.74581126031127
C           -0.25413924159680       -0.65413754781062        7.72840589516967
N           -1.43290469474884       -1.35816548620958        7.51097143255295
C           -1.29284903615975       -2.48174561515807        6.86108667664216
N           -0.08140712130413       -2.98325270900398        6.37385957227408
N           -2.34511033013399       -3.32892834846077        6.76212703290534
C           -2.33275300045230       -4.47493443559980        5.86689635019117
C           -3.76355946709923       -4.76531132904141        5.40837239607272
O           -4.63860074899757       -5.04004603921879        6.49156382457715
C           -4.33335614251586       -4.33076878559588        7.67516047985515
C           -3.60408006929124       -3.01475542235505        7.41309818994156
C           -0.19207773427243        0.70724384922507        7.94407955361656
C            1.12643397977409        1.37801972127096        7.98434676889348
N            1.18708020150871        2.73867644597001        7.55127576389815
C            0.03862049721785        3.37144428011465        7.29217917390713
N            0.09143701779156        4.65085317876939        6.87054280173930
C           -1.07620738646813        5.48880729198220        6.74940915977643
C           -0.99510034154785        6.58006309019523        7.83902244900195
O            0.34393064530486        6.85240759012973        8.20850028918996
C            1.22412842005002        6.77992910099570        7.11448464725950
C            1.34644719971977        5.32311847138348        6.60745308669187
N           -1.20919757405879        2.85437714725825        7.48537769644084
C           -1.33114251564692        1.57770874169649        7.80281919118210
N           -2.56859756662741        1.11879447069717        8.10572667287445
H            4.23021902747156       -3.29955851418170        7.96250687636015
H            3.15084893430292       -2.13866124537516        8.77038263432972
H            3.67070991024911       -1.82742944698282        7.09964009671471
H            2.50088553822517       -5.08918961988766        8.64704739468998
H            0.83425211656643       -4.94123394213696        8.06256120095268
H            1.43171214426750       -3.84950307891879        9.31644984204584
H            2.98542429897870       -3.52572532584490        5.31140836760974
H            3.20294585365089       -4.99143618200579        6.28857182043990
H            1.60386381198414       -4.61018549492506        5.60562520541861
H           -1.70567688770168       -4.25341838281042        4.98277108136130
H           -1.91530606111951       -5.34523133267572        6.39306763078773
H           -3.78404879743523       -5.65958258073824        4.77894619565804
H           -4.13090829850576       -3.89949985232335        4.82188776164140
H           -3.70729501032917       -4.96134391726065        8.32470016292717
H           -5.28571472848903       -4.14728273239438        8.17911661568001
H           -3.37541493530266       -2.51695599500555        8.35943680717697
H           -4.22630818427168       -2.32224430948621        6.77753542562144
H            1.79356912858960        1.16398356623870        8.82768012570338
H           -1.08350025824421        5.93118438681241        5.74810341640179
H           -1.96242141838037        4.86804961598212        6.86953212761536
H           -1.47710014203437        7.50226943193636        7.47927036130955
H           -1.48462747465378        6.25440734774636        8.75857984506666
H            2.18600507919637        7.13997112893646        7.47991145146069
H            0.88137096971507        7.44397353840162        6.30942250771982
H            1.56393375073737        5.30765648422715        5.52196893252913
H            2.13649618295801        4.78159955868848        7.14227068192789
H           -2.66014212629496        0.10709028785784        8.03203710530178
H           -3.32974449734064        1.67901631873439        7.73812740399458
Ti          -3.73725777226919       -0.41488855329927        4.70783224911663
Ti           0.24504071009864       -1.96413429746787        4.71035018522495
Ti           1.02737571157848       -3.04441693586997        1.93545064647256
Ti          -1.49689949559587        1.37903088035639        4.68451783836759
Ti           3.41144726491335       -0.58818276934105        5.03650453809656
Ti           1.70265340658836        1.49564097143488        6.01865624638863
Ti          -2.56979266125486       -2.00239408041091        2.56072637040084
Ti          -0.43947651501631        0.10223437849944        2.05526409313613
Ti           0.75437954894978       -0.84178567957078       -0.37411084487923
Ti           0.66009750503454        2.87038372301774        3.20104763322665
Ti           2.81761698171371       -0.48846421883921        2.11821162011908
Ti           2.27225811895588        1.97120113700783        0.64383403147307
C           -1.42668815980202        3.45786301473243        4.39880638353362
C            4.10951747523871       -1.89692573842765        2.93526729464047
C            3.00538883071833        1.84009546644779        3.90234201396067
C           -0.67158102263270        4.25143744476279        3.81366206849936
C            4.58930077867431       -1.94210397037083        4.08427409868026
C            2.28926432060850        2.83461461706612        4.38639284164096
C            3.71836985167050        0.81378472247658        3.50841119130193
O           -3.00873438256514        1.03376512764079        5.36437921516087
O           -3.72935799854333       -1.94931752062704        3.84346463319274
O            0.25242556086618       -3.18788993246943        3.49616425353493
O           -1.01868677548117       -0.90579663201807        4.54028676856347
O            1.83724675091222       -1.29826146333618        4.85174401863499
O            0.17226468577236        1.29820842065719        5.21744640077821
O            3.23249644181286        0.59097695233697        6.26816369437483
O           -1.16257033341089       -1.41913441850808        1.71201697629001
O           -0.15417925708028        0.53587668010208        0.35586922170444
O            1.61814496018721       -2.13481431634679        0.55046667752132
O           -1.40183949711421        1.23169193436350        2.89574061838421
O            1.16062663450200       -0.06075297781893        2.64112818974608
O            1.13892007858060        2.93124104615689        1.56542083848030
O            3.14502715980999        0.42884160478263        0.66953844865733
 
 Bond Distances (Angstroems)
 ---------------------------
C1-C2=1.5333         C1-H30=1.0893        C1-H31=1.0873        C1-H32=1.1124        C2-C1=1.5333         C2-C3=1.5415         
C2-C4=1.5342         C2-C5=1.5196         C3-C2=1.5415         C3-H33=1.0874        C3-H34=1.0872        C3-H35=1.0868        
C4-C2=1.5342         C4-H36=1.0969        C4-H37=1.0891        C4-H38=1.0947        C5-C2=1.5196         C5-N6=1.2863         
C5-N10=1.3995        C5-Ti59=2.5636       N6-C5=1.2863         N6-C7=1.3855         C7-N6=1.3855         C7-N8=1.3901         
C7-C17=1.3798        N8-C7=1.3901         N8-C9=1.3055         C9-N8=1.3055         C9-N10=1.3987        C9-N11=1.3545        
C9-Ti59=2.6942       N10-C5=1.3995        N10-C9=1.3987        N10-Ti59=1.9780      N11-C9=1.3545        N11-C12=1.4543       
N11-C16=1.4517       C12-N11=1.4543       C12-C13=1.5303       C12-H39=1.1063       C12-H40=1.0993       C13-C12=1.5303       
C13-O14=1.4193       C13-H41=1.0938       C13-H42=1.1084       O14-C13=1.4193       O14-C15=1.4132       C15-O14=1.4132       
C15-C16=1.5272       C15-H43=1.1007       C15-H44=1.0930       C16-N11=1.4517       C16-C15=1.5272       C16-H45=1.0935       
C16-H46=1.1272       C17-C7=1.3798        C17-C18=1.4799       C17-C28=1.4405       C17-Ti63=2.8140      C18-C17=1.4799       
C18-N19=1.4292       C18-H47=1.0964       C18-Ti63=2.0518      N19-C18=1.4292       N19-C20=1.3366       N19-Ti63=2.0396      
C20-N19=1.3366       C20-N21=1.3481       C20-N27=1.3645       C20-Ti63=2.8124      N21-C20=1.3481       N21-C22=1.4423       
N21-C26=1.4478       C22-N21=1.4423       C22-C23=1.5442       C22-H48=1.0947       C22-H49=1.0886       C23-C22=1.5442       
C23-O24=1.4155       C23-H50=1.1010       C23-H51=1.0915       O24-C23=1.4155       O24-C25=1.4060       C25-O24=1.4060       
C25-C26=1.5474       C25-H52=1.0901       C25-H53=1.0984       C26-N21=1.4478       C26-C25=1.5474       C26-H54=1.1072       
C26-H55=1.0970       N27-C20=1.3645       N27-C28=1.3212       C28-C17=1.4405       C28-N27=1.3212       C28-N29=1.3541       
N29-C28=1.3541       N29-H56=1.0185       N29-H57=1.0141       H30-C1=1.0893        H31-C1=1.0873        H32-C1=1.1124        
H33-C3=1.0874        H34-C3=1.0872        H35-C3=1.0868        H36-C4=1.0969        H37-C4=1.0891        H38-C4=1.0947        
H39-C12=1.1063       H40-C12=1.0993       H41-C13=1.0938       H42-C13=1.1084       H43-C15=1.1007       H44-C15=1.0930       
H45-C16=1.0935       H46-C16=1.1272       H47-C18=1.0964       H48-C22=1.0947       H49-C22=1.0886       H50-C23=1.1010       
H51-C23=1.0915       H52-C25=1.0901       H53-C25=1.0984       H54-C26=1.1072       H55-C26=1.0970       H56-N29=1.0185       
H57-N29=1.0141       Ti58-Ti61=2.8702     Ti58-Ti64=2.9143     Ti58-O77=1.7494      Ti58-O78=1.7612      Ti59-C5=2.5636       
Ti59-C9=2.6942       Ti59-N10=1.9780      Ti59-Ti60=3.0788     Ti59-Ti61=3.7699     Ti59-Ti62=3.4678     Ti59-Ti64=3.5420     
Ti59-Ti65=3.4334     Ti59-O79=1.7239      Ti59-O80=1.6571      Ti59-O81=1.7316      Ti60-Ti59=3.0788     Ti60-Ti64=3.7969     
Ti60-Ti65=3.4738     Ti60-Ti66=3.2032     Ti60-Ti68=3.1259     Ti60-O79=1.7484      Ti60-O84=2.7363      Ti60-O86=1.7591      
Ti61-Ti58=2.8702     Ti61-Ti59=3.7699     Ti61-Ti63=3.4685     Ti61-Ti65=3.1083     Ti61-Ti67=3.0129     Ti61-C70=2.0995      
Ti61-O77=1.6932      Ti61-O80=2.3388      Ti61-O82=1.7540      Ti61-O87=1.7974      Ti62-Ti59=3.4678     Ti62-Ti63=2.8683     
Ti62-Ti68=2.9798     Ti62-C71=2.5720      Ti62-C72=2.7107      Ti62-C74=2.0315      Ti62-C76=2.0964      Ti62-O81=1.7368      
Ti62-O83=1.7145      Ti63-C17=2.8140      Ti63-C18=2.0518      Ti63-N19=2.0396      Ti63-C20=2.8124      Ti63-Ti61=3.4685     
Ti63-Ti62=2.8683     Ti63-Ti67=3.3039     Ti63-C72=2.5089      Ti63-C75=2.1912      Ti63-O82=1.7387      Ti63-O83=1.7947      
Ti64-Ti58=2.9143     Ti64-Ti59=3.5420     Ti64-Ti60=3.7969     Ti64-Ti65=3.0370     Ti64-O78=1.7300      Ti64-O80=2.7436      
Ti64-O84=1.7438      Ti65-Ti59=3.4334     Ti65-Ti60=3.4738     Ti65-Ti61=3.1083     Ti65-Ti64=3.0370     Ti65-Ti66=2.8668     
Ti65-Ti67=3.1913     Ti65-Ti68=3.3108     Ti65-Ti69=3.5831     Ti65-O80=2.7435      Ti65-O84=1.7191      Ti65-O85=1.7769      
Ti65-O87=1.7053      Ti65-O88=1.7118      Ti66-Ti60=3.2032     Ti66-Ti65=2.8668     Ti66-Ti68=3.2548     Ti66-Ti69=3.3546     
Ti66-O85=1.8045      Ti66-O86=1.8091      Ti67-Ti61=3.0129     Ti67-Ti63=3.3039     Ti67-Ti65=3.1913     Ti67-Ti69=3.1539     
Ti67-C70=2.4768      Ti67-C72=2.6559      Ti67-C73=2.0139      Ti67-C75=2.0151      Ti67-O82=2.6030      Ti67-O87=2.6514      
Ti67-O89=1.7054      Ti68-Ti60=3.1259     Ti68-Ti62=2.9798     Ti68-Ti65=3.3108     Ti68-Ti66=3.2548     Ti68-Ti69=2.9191     
Ti68-C71=2.0785      Ti68-C76=2.1071      Ti68-O86=2.5704      Ti68-O88=1.7894      Ti68-O90=1.7457      Ti69-Ti65=3.5831     
Ti69-Ti66=3.3546     Ti69-Ti67=3.1539     Ti69-Ti68=2.9191     Ti69-O89=1.7480      Ti69-O90=1.7724      C70-Ti61=2.0995      
C70-Ti67=2.4768      C70-C73=1.2419       C71-Ti62=2.5720      C71-Ti68=2.0785      C71-C74=1.2460       C72-Ti62=2.7107      
C72-Ti63=2.5089      C72-Ti67=2.6559      C72-C75=1.3177       C72-C76=1.3103       C73-Ti67=2.0139      C73-C70=1.2419       
C74-Ti62=2.0315      C74-C71=1.2460       C75-Ti63=2.1912      C75-Ti67=2.0151      C75-C72=1.3177       C76-Ti62=2.0964      
C76-Ti68=2.1071      C76-C72=1.3103       O77-Ti58=1.7494      O77-Ti61=1.6932      O78-Ti58=1.7612      O78-Ti64=1.7300      
O79-Ti59=1.7239      O79-Ti60=1.7484      O80-Ti59=1.6571      O80-Ti61=2.3388      O80-Ti64=2.7436      O80-Ti65=2.7435      
O81-Ti59=1.7316      O81-Ti62=1.7368      O82-Ti61=1.7540      O82-Ti63=1.7387      O82-Ti67=2.6030      O83-Ti62=1.7145      
O83-Ti63=1.7947      O84-Ti60=2.7363      O84-Ti64=1.7438      O84-Ti65=1.7191      O85-Ti65=1.7769      O85-Ti66=1.8045      
O86-Ti60=1.7591      O86-Ti66=1.8091      O86-Ti68=2.5704      O87-Ti61=1.7974      O87-Ti65=1.7053      O87-Ti67=2.6514      
O88-Ti65=1.7118      O88-Ti68=1.7894      O89-Ti67=1.7054      O89-Ti69=1.7480      O90-Ti68=1.7457      O90-Ti69=1.7724      
 C  H  Rav=1.0969 sigma=0.0092  Rmin=1.0868  Rmax=1.1272    26
 C  C  Rav=1.4463 sigma=0.1113  Rmin=1.2419  Rmax=1.5474    15
 N  H  Rav=1.0163 sigma=0.0022  Rmin=1.0141  Rmax=1.0185     2
 N  C  Rav=1.3806 sigma=0.0513  Rmin=1.2863  Rmax=1.4543    17
 O  C  Rav=1.4135 sigma=0.0049  Rmin=1.4060  Rmax=1.4193     4
 Ti C  Rav=2.3608 sigma=0.2987  Rmin=2.0139  Rmax=2.8140    18
 Ti N  Rav=2.0088 sigma=0.0308  Rmin=1.9780  Rmax=2.0396     2
 Ti O  Rav=1.9267 sigma=0.3630  Rmin=1.6571  Rmax=2.7436    34
 Ti Ti Rav=3.2342 sigma=0.2681  Rmin=2.8668  Rmax=3.7969    26
 
 selected bond angles (degree)
 --------------------
H30-C1-C2=109.76               H31-C1-C2=109.73               H31-C1-H30=109.65              H32-C1-C2=110.59               
H32-C1-H30=109.30              H32-C1-H31=107.79              C3-C2-C1=109.56                C4-C2-C1=110.83                
C4-C2-C3=109.21                C5-C2-C1=110.39                C5-C2-C3=104.92                C5-C2-C4=111.75                
H33-C3-C2=109.99               H34-C3-C2=109.81               H34-C3-H33=109.18              H35-C3-C2=110.25               
H35-C3-H33=108.87              H35-C3-H34=108.71              H36-C4-C2=110.33               H37-C4-C2=109.57               
H37-C4-H36=108.57              H38-C4-C2=110.43               H38-C4-H36=108.70              H38-C4-H37=109.20              
N6-C5-C2=119.64                N10-C5-C2=116.16               N10-C5-N6=123.49               Ti59-C5-C2=118.51              
Ti59-C5-N6=106.31              Ti59-C5-N10= 49.94             C7-N6-C5=117.52                N8-C7-N6=118.73                
C17-C7-N6=117.06               C17-C7-N8=124.21               C9-N8-C7=115.01                N10-C9-N8=125.09               
N11-C9-N8=119.43               N11-C9-N10=115.03              Ti59-C9-N8=107.05              Ti59-C9-N10= 45.29             
Ti59-C9-N11=120.35             C9-N10-C5=110.37               Ti59-N10-C5= 97.28             Ti59-N10-C9=104.55             
 
 selected dihedral angles (degree)
 ---------------------------------
C3-C2-C1-H30= 65.62           C3-C2-C1-H31=305.07           C3-C2-C1-H32=186.29           C4-C2-C1-H30=305.04           
C4-C2-C1-H31=184.49           C4-C2-C1-H32= 65.71           C5-C2-C1-H30=180.69           C5-C2-C1-H31= 60.13           
C5-C2-C1-H32=301.36           H33-C3-C2-C1=299.82           H33-C3-C2-C4= 61.38           H33-C3-C2-C5=181.31           
H34-C3-C2-C1=179.65           H34-C3-C2-C4=301.21           H34-C3-C2-C5= 61.14           H35-C3-C2-C1= 59.90           
H35-C3-C2-C4=181.46           H35-C3-C2-C5=301.38           H36-C4-C2-C1=309.23           H36-C4-C2-C3=188.44           
H36-C4-C2-C5= 72.81           H37-C4-C2-C1= 68.72           H37-C4-C2-C3=307.93           H37-C4-C2-C5=192.30           
H38-C4-C2-C1=189.05           H38-C4-C2-C3= 68.25           H38-C4-C2-C5=312.62           N6-C5-C2-C1=336.68            
N6-C5-C2-C3= 94.64            N6-C5-C2-C4=212.86            N10-C5-C2-C1=165.96           N10-C5-C2-C3=283.92           
N10-C5-C2-C4= 42.14           Ti59-C5-C2-C1=109.28          Ti59-C5-C2-C3=227.23          Ti59-C5-C2-C4=345.45          
C7-N6-C5-C2=192.33            C7-N6-C5-N10=  2.33           C7-N6-C5-Ti59= 54.71          N8-C7-N6-C5= 24.41            
C17-C7-N6-C5=203.80           C9-N8-C7-N6=335.31            C9-N8-C7-C17=155.97           N10-C9-N8-C7=358.92           
N11-C9-N8-C7=170.82           Ti59-C9-N8-C7=312.06          C9-N10-C5-C2=145.13           C9-N10-C5-N6=334.80           
C9-N10-C5-Ti59=251.49         Ti59-N10-C5-C2=253.64         Ti59-N10-C5-N6= 83.31         C5-N10-C9-N8= 24.67           
C5-N10-C9-N11=212.45          C5-N10-C9-Ti59=103.65         Ti59-N10-C9-N8=281.02         Ti59-N10-C9-N11=108.81        
 
 CMA Distance (Angstroems)
 ---------------------------
R(CMA):  4.1806
           -------------------------------------------------
          |                Final Singlepoint                |
           -------------------------------------------------

          ...................................................
          :                      SETUP                      :
          :.................................................:
          :  # basis functions                 348          :
          :  # atomic orbitals                 336          :
          :  # shells                          164          :
          :  # electrons                       316          :
          :  max. iterations                   500          :
          :  Hamiltonian                  GFN2-xTB          :
          :  restarted?                      false          :
          :  GBSA solvation                  false          :
          :  PC potential                    false          :
          :  electronic temp.          300.0000000     K    :
          :  accuracy                    1.0000000          :
          :  -> integral cutoff          0.2500000E+02      :
          :  -> integral neglect         0.1000000E-07      :
          :  -> SCF convergence          0.1000000E-05 Eh   :
          :  -> wf. convergence          0.1000000E-03 e    :
          :  Broyden damping             0.4000000          :
          :  net charge                          0          :
          :  unpaired electrons                  0          :
          ...................................................

 iter      E             dE          RMSdq      gap      omega  full diag
   1   -180.6711101 -0.180671E+03  0.292E-04    0.76       0.0  T
   2   -180.6711101  0.838034E-08  0.384E-04    0.76      27.5  T
   3   -180.6711101 -0.126273E-07  0.184E-04    0.76      57.3  T

   *** convergence criteria satisfied after 3 iterations ***

         #    Occupation            Energy/Eh            Energy/eV
      -------------------------------------------------------------
         1        2.0000           -0.7957759             -21.6542
       ...           ...                  ...                  ...
       152        2.0000           -0.3435105              -9.3474
       153        2.0000           -0.3294299              -8.9642
       154        2.0000           -0.3211315              -8.7384
       155        2.0000           -0.3141389              -8.5482
       156        2.0000           -0.3033011              -8.2532
       157        2.0000           -0.3018892              -8.2148
       158        2.0000           -0.2964590              -8.0671 (HOMO)
       159        0.0000           -0.2685297              -7.3071 (LUMO)
       160                         -0.2634972              -7.1701
       161                         -0.2581214              -7.0238
       162                         -0.2563379              -6.9753
       163                         -0.2557275              -6.9587
       ...                                ...                  ...
       336                         15.0184719             408.6734
      -------------------------------------------------------------
                  HL-Gap            0.0279293 Eh            0.7600 eV
             Fermi-level           -0.2824948 Eh           -7.6871 eV

 SCC (total)                   0 d,  0 h,  0 min,  0.141 sec
 SCC setup                      ...        0 min,  0.000 sec (  0.000%)
 Dispersion                     ...        0 min,  0.001 sec (  0.709%)
 classical contributions        ...        0 min,  0.001 sec (  0.709%)
 integral evaluation            ...        0 min,  0.018 sec ( 12.766%)
 iterations                     ...        0 min,  0.068 sec ( 48.227%)
 molecular gradient             ...        0 min,  0.051 sec ( 36.170%)
 printout                       ...        0 min,  0.002 sec (  1.418%)

         :::::::::::::::::::::::::::::::::::::::::::::::::::::
         ::                     SUMMARY                     ::
         :::::::::::::::::::::::::::::::::::::::::::::::::::::
         :: total energy            -178.934259152147 Eh    ::
         :: gradient norm              0.002748761877 Eh/a0 ::
         :: HOMO-LUMO gap              0.759993985988 eV    ::
         ::.................................................::
         :: SCC energy              -180.661527397916 Eh    ::
         :: -> isotropic ES            1.167703296484 Eh    ::
         :: -> anisotropic ES         -0.575552112922 Eh    ::
         :: -> anisotropic XC         -0.037109418365 Eh    ::
         :: -> dispersion             -0.199437724480 Eh    ::
         :: repulsion energy           1.727268245769 Eh    ::
         :: add. restraining           0.000000000000 Eh    ::
         :: total charge              -0.000000000821 e     ::
         :::::::::::::::::::::::::::::::::::::::::::::::::::::

           -------------------------------------------------
          |                Property Printout                |
           -------------------------------------------------

    * Orbital Energies and Occupations

         #    Occupation            Energy/Eh            Energy/eV
      -------------------------------------------------------------
         1        2.0000           -0.7957759             -21.6542
       ...           ...                  ...                  ...
       146        2.0000           -0.3737510             -10.1703
       147        2.0000           -0.3642303              -9.9112
       148        2.0000           -0.3608584              -9.8195
       149        2.0000           -0.3521374              -9.5821
       150        2.0000           -0.3476865              -9.4610
       151        2.0000           -0.3464099              -9.4263
       152        2.0000           -0.3435105              -9.3474
       153        2.0000           -0.3294299              -8.9642
       154        2.0000           -0.3211315              -8.7384
       155        2.0000           -0.3141389              -8.5482
       156        2.0000           -0.3033011              -8.2532
       157        2.0000           -0.3018892              -8.2148
       158        2.0000           -0.2964590              -8.0671 (HOMO)
       159        0.0000           -0.2685297              -7.3071 (LUMO)
       160                         -0.2634972              -7.1701
       161                         -0.2581214              -7.0238
       162                         -0.2563379              -6.9753
       163                         -0.2557275              -6.9587
       164                         -0.2546043              -6.9281
       165                         -0.2524404              -6.8693
       166                         -0.2512359              -6.8365
       167                         -0.2501850              -6.8079
       168                         -0.2495489              -6.7906
       169                         -0.2468109              -6.7161
       ...                                ...                  ...
       336                         15.0184719             408.6734
      -------------------------------------------------------------
                  HL-Gap            0.0279293 Eh            0.7600 eV
             Fermi-level           -0.2824948 Eh           -7.6871 eV

     #   Z          covCN         q      C6AA      α(0)
     1   6 C        3.755    -0.142    23.297     6.882
     2   6 C        3.903     0.022    20.145     6.380
     3   6 C        3.766    -0.128    22.990     6.834
     4   6 C        3.755    -0.150    23.445     6.904
     5   6 C        3.437     0.197    19.828     6.771
     6   7 N        1.847    -0.303    28.704     7.940
     7   6 C        2.950     0.138    24.993     8.200
     8   7 N        1.840    -0.363    30.306     8.158
     9   6 C        3.205     0.252    22.300     7.692
    10   7 N        2.605    -0.419    30.907     8.257
    11   7 N        2.753    -0.089    22.982     7.120
    12   6 C        3.741    -0.021    21.027     6.542
    13   6 C        3.696     0.040    20.068     6.408
    14   8 O        1.699    -0.292    18.864     5.864
    15   6 C        3.700     0.059    19.750     6.356
    16   6 C        3.741    -0.032    21.223     6.573
    17   6 C        3.151    -0.064    29.279     8.850
    18   6 C        3.677    -0.092    22.500     6.796
    19   7 N        2.598    -0.296    27.640     7.808
    20   6 C        3.007     0.216    23.433     7.941
    21   7 N        2.755    -0.040    22.022     6.970
    22   6 C        3.749    -0.048    21.491     6.612
    23   6 C        3.709     0.058    19.732     6.349
    24   8 O        1.700    -0.292    18.853     5.862
    25   6 C        3.709     0.062    19.669     6.338
    26   6 C        3.746    -0.049    21.514     6.616
    27   7 N        1.855    -0.304    28.730     7.944
    28   6 C        2.876     0.185    24.040     8.038
    29   7 N        2.647    -0.252    26.547     7.652
    30   1 H        0.925     0.086     1.918     2.166
    31   1 H        0.925     0.097     1.814     2.106
    32   1 H        0.947     0.107     1.717     2.049
    33   1 H        0.925     0.069     2.098     2.265
    34   1 H        0.925     0.061     2.186     2.312
    35   1 H        0.925     0.064     2.155     2.296
    36   1 H        0.924     0.088     1.901     2.156
    37   1 H        0.925     0.084     1.933     2.174
    38   1 H        0.924     0.086     1.919     2.166
    39   1 H        0.922     0.090     1.878     2.143
    40   1 H        0.923     0.084     1.934     2.175
    41   1 H        0.924     0.082     1.961     2.190
    42   1 H        0.922     0.095     1.830     2.116
    43   1 H        0.923     0.059     2.216     2.328
    44   1 H        0.924     0.078     1.997     2.210
    45   1 H        0.924     0.094     1.841     2.122
    46   1 H        0.918     0.099     1.794     2.095
    47   1 H        0.924     0.110     1.693     2.035
    48   1 H        0.924     0.089     1.892     2.151
    49   1 H        0.925     0.105     1.736     2.061
    50   1 H        0.923     0.046     2.371     2.408
    51   1 H        0.924     0.072     2.066     2.248
    52   1 H        0.925     0.076     2.022     2.224
    53   1 H        0.923     0.048     2.341     2.393
    54   1 H        0.922     0.093     1.852     2.128
    55   1 H        0.924     0.107     1.719     2.050
    56   1 H        0.860     0.236     0.940     1.519
    57   1 H        0.860     0.230     0.965     1.539
    58  22 Ti       3.251     0.925   104.079    24.911
    59  22 Ti       5.256     1.435    85.146    14.981
    60  22 Ti       3.720     1.012   100.965    24.141
    61  22 Ti       6.162     1.411    85.374    15.001
    62  22 Ti       5.854     1.153    87.889    15.221
    63  22 Ti       6.368     1.134    88.083    15.237
    64  22 Ti       3.342     0.976   103.465    24.835
    65  22 Ti       6.915     1.603    83.575    14.842
    66  22 Ti       3.785     1.013    98.963    23.469
    67  22 Ti       6.131     1.104    88.379    15.263
    68  22 Ti       6.697     1.222    87.201    15.161
    69  22 Ti       3.463     1.020   102.869    24.748
    70   6 C        2.417    -0.257    35.700     9.741
    71   6 C        2.303    -0.296    38.259    10.042
    72   6 C        3.312    -0.019    26.455     8.208
    73   6 C        1.836    -0.249    38.641    10.042
    74   6 C        1.861    -0.264    39.121    10.103
    75   6 C        2.622    -0.415    40.319    10.386
    76   6 C        2.636    -0.425    40.703    10.436
    77   8 O        1.453    -0.827    31.553     7.570
    78   8 O        1.453    -0.798    30.685     7.466
    79   8 O        1.454    -0.901    33.892     7.846
    80   8 O        1.484    -0.998    37.213     8.225
    81   8 O        1.466    -0.940    35.181     7.995
    82   8 O        1.656    -0.973    36.124     8.114
    83   8 O        1.453    -0.779    30.118     7.396
    84   8 O        1.568    -0.962    35.809     8.074
    85   8 O        1.493    -0.899    33.766     7.835
    86   8 O        1.690    -0.859    32.265     7.669
    87   8 O        1.608    -0.983    36.512     8.155
    88   8 O        1.480    -1.036    38.667     8.383
    89   8 O        1.454    -0.797    30.646     7.461
    90   8 O        1.475    -0.821    31.311     7.544

 Mol. C6AA /au·bohr⁶  :     169142.779718
 Mol. C8AA /au·bohr⁸  :    7011368.061321
 Mol. α(0) /au        :        672.983744


Wiberg/Mayer (AO) data.
largest (>0.10) Wiberg bond orders for each atom

 ---------------------------------------------------------------------------
     #   Z sym  total        # sym  WBO       # sym  WBO       # sym  WBO
 ---------------------------------------------------------------------------
     1   6 C    3.968 --     2 C    0.994    30 H    0.975    31 H    0.973
                            32 H    0.845
     2   6 C    3.987 --     1 C    0.994     4 C    0.987     3 C    0.968
                             5 C    0.947
     3   6 C    3.977 --    35 H    0.983    34 H    0.980    33 H    0.980
                             2 C    0.968
     4   6 C    3.983 --     2 C    0.987    37 H    0.979    38 H    0.939
                            36 H    0.910
     5   6 C    3.946 --     6 N    1.577    10 N    1.089     2 C    0.947
     6   7 N    3.096 --     5 C    1.577     7 C    1.109
     7   6 C    3.960 --    17 C    1.393     6 N    1.109     8 N    1.107
     8   7 N    3.052 --     9 C    1.431     7 C    1.107    11 N    0.107
     9   6 C    3.962 --     8 N    1.431    11 N    1.194    10 N    1.066
    10   7 N    3.101 --     5 C    1.089     9 C    1.066    59 Ti   0.509
    11   7 N    3.437 --     9 C    1.194    16 C    0.976    12 C    0.975
                             8 N    0.107
    12   6 C    3.964 --    13 C    0.995    11 N    0.975    40 H    0.958
                            39 H    0.898
    13   6 C    3.949 --    12 C    0.995    14 O    0.986    41 H    0.960
                            42 H    0.911
    14   8 O    2.075 --    15 C    0.987    13 C    0.986
    15   6 C    3.955 --    16 C    1.000    14 O    0.987    44 H    0.965
                            43 H    0.963
    16   6 C    3.959 --    15 C    1.000    11 N    0.976    45 H    0.957
                            46 H    0.855
    17   6 C    3.956 --     7 C    1.393    28 C    1.109    18 C    1.024
    18   6 C    3.876 --    19 N    1.033    17 C    1.024    47 H    0.881
                            63 Ti   0.607
    19   7 N    3.214 --    20 C    1.297    18 C    1.033    63 Ti   0.501
                            21 N    0.101
    20   6 C    3.971 --    19 N    1.297    21 N    1.234    27 N    1.167
    21   7 N    3.517 --    20 C    1.234    22 C    0.986    26 C    0.985
                            19 N    0.101
    22   6 C    3.953 --    21 N    0.986    23 C    0.980    48 H    0.953
                            49 H    0.951
    23   6 C    3.951 --    24 O    0.988    22 C    0.980    51 H    0.971
                            50 H    0.967
    24   8 O    2.088 --    25 C    0.999    23 C    0.988
    25   6 C    3.955 --    24 O    0.999    26 C    0.981    52 H    0.969
                            53 H    0.967
    26   6 C    3.957 --    21 N    0.985    25 C    0.981    55 H    0.934
                            54 H    0.916
    27   7 N    3.027 --    28 C    1.377    20 C    1.167    29 N    0.100
    28   6 C    3.968 --    27 N    1.377    29 N    1.252    17 C    1.109
    29   7 N    3.341 --    28 C    1.252    57 H    0.901    56 H    0.874
                            27 N    0.100
    30   1 H    0.992 --     1 C    0.975
    31   1 H    0.990 --     1 C    0.973
    32   1 H    0.988 --     1 C    0.845    62 Ti   0.116
    33   1 H    0.993 --     3 C    0.980
    34   1 H    0.996 --     3 C    0.980
    35   1 H    0.996 --     3 C    0.983
    36   1 H    0.992 --     4 C    0.910
    37   1 H    0.992 --     4 C    0.979
    38   1 H    0.992 --     4 C    0.939
    39   1 H    0.991 --    12 C    0.898
    40   1 H    0.991 --    12 C    0.958
    41   1 H    0.993 --    13 C    0.960
    42   1 H    0.991 --    13 C    0.911
    43   1 H    0.994 --    15 C    0.963
    44   1 H    0.993 --    15 C    0.965
    45   1 H    0.991 --    16 C    0.957
    46   1 H    0.989 --    16 C    0.855
    47   1 H    0.986 --    18 C    0.881
    48   1 H    0.991 --    22 C    0.953
    49   1 H    0.989 --    22 C    0.951
    50   1 H    0.997 --    23 C    0.967
    51   1 H    0.995 --    23 C    0.971
    52   1 H    0.993 --    25 C    0.969
    53   1 H    0.997 --    25 C    0.967
    54   1 H    0.990 --    26 C    0.916
    55   1 H    0.988 --    26 C    0.934
    56   1 H    0.944 --    29 N    0.874
    57   1 H    0.946 --    29 N    0.901
    58  22 Ti   2.849 --    78 O    0.857    77 O    0.775    64 Ti   0.392
                            61 Ti   0.266    80 O    0.107
    59  22 Ti   4.005 --    80 O    0.931    79 O    0.800    81 O    0.637
                            10 N    0.509    60 Ti   0.154
    60  22 Ti   2.749 --    86 O    0.776    79 O    0.756    66 Ti   0.253
                            68 Ti   0.209    59 Ti   0.154    64 Ti   0.132
                            84 O    0.112
    61  22 Ti   3.918 --    77 O    0.979    70 C    0.648    82 O    0.600
                            87 O    0.548    58 Ti   0.266    80 O    0.197
                            67 Ti   0.147
    62  22 Ti   4.240 --    83 O    0.972    81 O    0.720    74 C    0.667
                            76 C    0.604    68 Ti   0.248    63 Ti   0.168
                            71 C    0.136    32 H    0.116    75 C    0.112
    63  22 Ti   4.281 --    83 O    0.744    82 O    0.665    18 C    0.607
                            19 N    0.501    75 C    0.476    62 Ti   0.168
                            67 Ti   0.143    72 C    0.101
    64  22 Ti   2.786 --    78 O    0.971    84 O    0.617    58 Ti   0.392
                            65 Ti   0.178    60 Ti   0.132    80 O    0.105
    65  22 Ti   3.775 --    85 O    0.747    84 O    0.725    87 O    0.708
                            88 O    0.607    66 Ti   0.195    64 Ti   0.178
    66  22 Ti   2.717 --    85 O    0.779    86 O    0.779    69 Ti   0.308
                            60 Ti   0.253    65 Ti   0.195    90 O    0.119
    67  22 Ti   4.138 --    89 O    0.964    75 C    0.865    73 C    0.730
                            69 Ti   0.231    70 C    0.188    76 C    0.185
                            61 Ti   0.147    63 Ti   0.143    82 O    0.134
                            87 O    0.122    72 C    0.100
    68  22 Ti   4.095 --    90 O    0.859    76 C    0.664    71 C    0.634
                            88 O    0.523    62 Ti   0.248    60 Ti   0.209
                            69 Ti   0.206    86 O    0.158    75 C    0.103
    69  22 Ti   2.748 --    89 O    0.798    90 O    0.791    66 Ti   0.308
                            67 Ti   0.231    68 Ti   0.206    85 O    0.123
    70   6 C    3.775 --    73 C    2.719    61 Ti   0.648    67 Ti   0.188
    71   6 C    3.792 --    74 C    2.716    68 Ti   0.634    62 Ti   0.136
    72   6 C    3.961 --    76 C    1.729    75 C    1.705    63 Ti   0.101
                            67 Ti   0.100
    73   6 C    3.694 --    70 C    2.719    67 Ti   0.730
    74   6 C    3.689 --    71 C    2.716    62 Ti   0.667
    75   6 C    3.737 --    72 C    1.705    67 Ti   0.865    63 Ti   0.476
                            76 C    0.155    62 Ti   0.112    68 Ti   0.103
    76   6 C    3.731 --    72 C    1.729    68 Ti   0.664    62 Ti   0.604
                            67 Ti   0.185    75 C    0.155
    77   8 O    1.965 --    61 Ti   0.979    58 Ti   0.775
    78   8 O    2.006 --    64 Ti   0.971    58 Ti   0.857
    79   8 O    1.865 --    59 Ti   0.800    60 Ti   0.756
    80   8 O    1.733 --    59 Ti   0.931    61 Ti   0.197    58 Ti   0.107
                            64 Ti   0.105
    81   8 O    1.812 --    62 Ti   0.720    59 Ti   0.637
    82   8 O    1.772 --    63 Ti   0.665    61 Ti   0.600    67 Ti   0.134
    83   8 O    2.028 --    62 Ti   0.972    63 Ti   0.744
    84   8 O    1.777 --    65 Ti   0.725    64 Ti   0.617    60 Ti   0.112
    85   8 O    1.863 --    66 Ti   0.779    65 Ti   0.747    69 Ti   0.123
    86   8 O    1.928 --    66 Ti   0.779    60 Ti   0.776    68 Ti   0.158
    87   8 O    1.744 --    65 Ti   0.708    61 Ti   0.548    67 Ti   0.122
    88   8 O    1.674 --    65 Ti   0.607    68 Ti   0.523
    89   8 O    2.014 --    67 Ti   0.964    69 Ti   0.798
    90   8 O    1.984 --    68 Ti   0.859    69 Ti   0.791    66 Ti   0.119
 ---------------------------------------------------------------------------

Topologies differ in total number of bonds
Writing topology from bond orders to xtbtopo.mol

molecular dipole:
                 x           y           z       tot (Debye)
 q only:       -2.167      -2.270       1.126
   full:       -1.242      -2.003       0.256       6.025
molecular quadrupole (traceless):
                xx          xy          yy          xz          yz          zz
 q only:      -37.313      13.252      12.853     -40.941     -31.408      24.460
  q+dip:      -29.409     -10.479      17.332      -5.536     -53.441      12.077
   full:      -23.645      -8.852      12.790      -7.146     -51.450      10.855

           -------------------------------------------------
          |                Geometry Summary                 |
           -------------------------------------------------

      molecular mass/u    :     1282.9465183
   center of mass at/Å    :        0.1828152      -0.0215785       4.4534196
  moments of inertia/u·Å² :        0.1331309E+05   0.1439830E+05   0.1797220E+05
rotational constants/cm⁻¹ :        0.1266245E-02   0.1170807E-02   0.9379838E-03

 * 96 selected distances

     #   Z          #   Z                                           value/Å
     1   6 C        2   6 C                                       1.5332783
     2   6 C        4   6 C                                       1.5342320
     2   6 C        5   6 C                                       1.5196089
     5   6 C        6   7 N                                       1.2862911
     8   7 N        9   6 C                                       1.3055261
     5   6 C       10   7 N                                       1.3995341
     9   6 C       10   7 N                                       1.3987464
     9   6 C       11   7 N                                       1.3545353
    11   7 N       12   6 C                                       1.4542768
    12   6 C       13   6 C                                       1.5302845
    13   6 C       14   8 O                                       1.4193239
    14   8 O       15   6 C                                       1.4132055
    11   7 N       16   6 C                                       1.4517139
    15   6 C       16   6 C                                       1.5272236
     7   6 C       17   6 C                                       1.3797559
    17   6 C       18   6 C                                       1.4798768
    18   6 C       19   7 N                                       1.4292010
    19   7 N       20   6 C                                       1.3365950
    20   6 C       21   7 N                                       1.3481299
    21   7 N       22   6 C                                       1.4423017
    23   6 C       24   8 O                                       1.4155175
    24   8 O       25   6 C                                       1.4060127
    21   7 N       26   6 C                                       1.4478286
    20   6 C       27   7 N                                       1.3644539
    17   6 C       28   6 C                                       1.4405320
    27   7 N       28   6 C                                       1.3211821
    28   6 C       29   7 N                                       1.3541236
     1   6 C       30   1 H                                       1.0893231
     1   6 C       31   1 H                                       1.0873301
     1   6 C       32   1 H                                       1.1123520
     3   6 C       33   1 H                                       1.0873746
     3   6 C       34   1 H                                       1.0871912
     3   6 C       35   1 H                                       1.0868114
     4   6 C       36   1 H                                       1.0969300
     4   6 C       37   1 H                                       1.0891412
     4   6 C       38   1 H                                       1.0946504
    12   6 C       39   1 H                                       1.1063325
    12   6 C       40   1 H                                       1.0993339
    13   6 C       41   1 H                                       1.0937634
    13   6 C       42   1 H                                       1.1083948
    15   6 C       43   1 H                                       1.1006723
    15   6 C       44   1 H                                       1.0929895
    16   6 C       45   1 H                                       1.0934574
    16   6 C       46   1 H                                       1.1272443
    18   6 C       47   1 H                                       1.0963996
    22   6 C       48   1 H                                       1.0946982
    22   6 C       49   1 H                                       1.0886437
    23   6 C       50   1 H                                       1.1010041
    23   6 C       51   1 H                                       1.0914552
    25   6 C       52   1 H                                       1.0901257
    25   6 C       53   1 H                                       1.0984366
    26   6 C       54   1 H                                       1.1071655
    26   6 C       55   1 H                                       1.0970188
    29   7 N       56   1 H                                       1.0185068
    29   7 N       57   1 H                                       1.0140624 (min)
    10   7 N       59  22 Ti                                      1.9779875
    18   6 C       63  22 Ti                                      2.0517806
    19   7 N       63  22 Ti                                      2.0395775
    62  22 Ti      63  22 Ti                                      2.8682610 (max)
    65  22 Ti      66  22 Ti                                      2.8667630
    68  22 Ti      71   6 C                                       2.0785455
    67  22 Ti      73   6 C                                       2.0139450
    70   6 C       73   6 C                                       1.2419104
    62  22 Ti      74   6 C                                       2.0315475
    71   6 C       74   6 C                                       1.2459735
    67  22 Ti      75   6 C                                       2.0150702
    72   6 C       75   6 C                                       1.3176525
    68  22 Ti      76   6 C                                       2.1070984
    72   6 C       76   6 C                                       1.3102815
    58  22 Ti      77   8 O                                       1.7493994
    61  22 Ti      77   8 O                                       1.6932410
    58  22 Ti      78   8 O                                       1.7611549
    64  22 Ti      78   8 O                                       1.7299789
    59  22 Ti      79   8 O                                       1.7239143
    60  22 Ti      79   8 O                                       1.7484164
    59  22 Ti      80   8 O                                       1.6571083
    59  22 Ti      81   8 O                                       1.7316176
    62  22 Ti      81   8 O                                       1.7367948
    61  22 Ti      82   8 O                                       1.7540396
    63  22 Ti      82   8 O                                       1.7386797
    62  22 Ti      83   8 O                                       1.7144754
    63  22 Ti      83   8 O                                       1.7947399
    64  22 Ti      84   8 O                                       1.7437817
    65  22 Ti      84   8 O                                       1.7190831
    65  22 Ti      85   8 O                                       1.7769028
    66  22 Ti      85   8 O                                       1.8045233
    60  22 Ti      86   8 O                                       1.7591380
    66  22 Ti      86   8 O                                       1.8091042
    61  22 Ti      87   8 O                                       1.7973507
    65  22 Ti      87   8 O                                       1.7053499
    65  22 Ti      88   8 O                                       1.7117629
    68  22 Ti      88   8 O                                       1.7894123
    67  22 Ti      89   8 O                                       1.7053593
    69  22 Ti      89   8 O                                       1.7479859
    68  22 Ti      90   8 O                                       1.7456523
    69  22 Ti      90   8 O                                       1.7723600

 * 9 distinct bonds (by element types)

   Z      Z             #   av. dist./Å        max./Å        min./Å
   1 H    6 C          26     1.0968554     1.1272443     1.0868114
   6 C    6 C          12     1.4217175     1.5342320     1.2419104
   1 H    7 N           2     1.0162846     1.0185068     1.0140624
   6 C    7 N          15     1.3796293     1.4542768     1.2862911
   6 C    8 O           4     1.4135149     1.4193239     1.4060127
   6 C   22 Ti          6     2.0496645     2.1070984     2.0139450
   7 N   22 Ti          2     2.0087825     2.0395775     1.9779875
   8 O   22 Ti         27     1.7452343     1.8091042     1.6571083
  22 Ti  22 Ti          2     2.8675120     2.8682610     2.8667630


optimized geometry written to: xtbopt.xyz


           -------------------------------------------------
          | TOTAL ENERGY             -178.934259152147 Eh   |
          | GRADIENT NORM               0.002748761877 Eh/α |
          | HOMO-LUMO GAP               0.759993985988 eV   |
           -------------------------------------------------

------------------------------------------------------------------------
 * finished run on 2026/09/02 at 20:07:53.601     
------------------------------------------------------------------------
 total:
 * wall-time:     0 d,  0 h,  1 min, 46.501 sec
 *  cpu-time:     0 d,  0 h,  5 min, 46.781 sec
 * ratio c/w:     3.256 speedup
 SCF:
 * wall-time:     0 d,  0 h,  0 min,  1.347 sec
 *  cpu-time:     0 d,  0 h,  0 min,  4.203 sec
 * ratio c/w:     3.120 speedup
 ANC optimizer:
 * wall-time:     0 d,  0 h,  1 min, 45.082 sec
 *  cpu-time:     0 d,  0 h,  5 min, 42.344 sec
 * ratio c/w:     3.258 speedup

