      -----------------------------------------------------------      
     |                   =====================                   |     
     |                           x T B                           |     
     |                   =====================                   |     
     |                         S. Grimme                         |     
     |          Mulliken Center for Theoretical Chemistry        |     
     |                    University of Bonn                     |     
      -----------------------------------------------------------      

   * xtb version 6.7.1pre (5071a88) compiled by 'Marcel@Raven' on 2024-07-23

   xtb is free software: you can redistribute it and/or modify it under
   the terms of the GNU Lesser General Public License as published by
   the Free Software Foundation, either version 3 of the License, or
   (at your option) any later version.
   
   xtb is distributed in the hope that it will be useful,
   but WITHOUT ANY WARRANTY; without even the implied warranty of
   MERCHANTABILITY or FITNESS FOR A PARTICULAR PURPOSE.  See the
   GNU Lesser General Public License for more details.
   
   Cite this work as:
   * C. Bannwarth, E. Caldeweyher, S. Ehlert, A. Hansen, P. Pracht,
     J. Seibert, S. Spicher, S. Grimme, WIREs Comput. Mol. Sci., 2020, 11,
     e01493. DOI: 10.1002/wcms.1493
   
   for GFN2-xTB:
   * C. Bannwarth, S. Ehlert and S. Grimme., J. Chem. Theory Comput., 2019,
     15, 1652-1671. DOI: 10.1021/acs.jctc.8b01176
   for GFN1-xTB:
   * S. Grimme, C. Bannwarth, P. Shushkov, J. Chem. Theory Comput., 2017,
     13, 1989-2009. DOI: 10.1021/acs.jctc.7b00118
   for GFN0-xTB:
   * P. Pracht, E. Caldeweyher, S. Ehlert, S. Grimme, ChemRxiv, 2019, preprint.
     DOI: 10.26434/chemrxiv.8326202.v1
   for GFN-FF:
   * S. Spicher and S. Grimme, Angew. Chem. Int. Ed., 2020, 59, 15665-15673.
     DOI: 10.1002/anie.202004239
   
   for ALPB and GBSA implicit solvation:
   * S. Ehlert, M. Stahn, S. Spicher, S. Grimme, J. Chem. Theory Comput.,
     2021, 17, 4250-4261. DOI: 10.1021/acs.jctc.1c00471
   
   for ddCOSMO and CPCM-X implicit solvation:
   * M. Stahn, S. Ehlert, S. Grimme, J. Phys. Chem. A,
     2023, XX, XXXX-XXXX. DOI: 10.1021/acs.jpca.3c04382
   
   for DFT-D4:
   * E. Caldeweyher, C. Bannwarth and S. Grimme, J. Chem. Phys., 2017,
     147, 034112. DOI: 10.1063/1.4993215
   * E. Caldeweyher, S. Ehlert, A. Hansen, H. Neugebauer, S. Spicher,
     C. Bannwarth and S. Grimme, J. Chem. Phys., 2019, 150, 154122.
     DOI: 10.1063/1.5090222
   * E. Caldeweyher, J.-M. Mewes, S. Ehlert and S. Grimme, Phys. Chem. Chem. Phys.
     2020, 22, 8499-8512. DOI: 10.1039/D0CP00502A
   
   for sTDA-xTB:
   * S. Grimme and C. Bannwarth, J. Chem. Phys., 2016, 145, 054103.
     DOI: 10.1063/1.4959605
   
   in the mass-spec context:
   * V. Asgeirsson, C. Bauer and S. Grimme, Chem. Sci., 2017, 8, 4879.
     DOI: 10.1039/c7sc00601b
   * J. Koopman and S. Grimme, ACS Omega 2019, 4, 12, 15120-15133.
     DOI: 10.1021/acsomega.9b02011
   
   for metadynamics refer to:
   * S. Grimme, J. Chem. Theory Comput., 2019, 155, 2847-2862
     DOI: 10.1021/acs.jctc.9b00143
   
   for SPH calculations refer to:
   * S. Spicher and S. Grimme, J. Chem. Theory Comput., 2021, 17, 1701-1714
     DOI: 10.1021/acs.jctc.0c01306
   
   for ONIOM refer to:
   * C. Plett, A. Katbashev, S. Ehlert, S. Grimme, M. Bursch,
     Phys. Chem. Chem. Phys., 2023, 25, 17860-17868. DOI: 10.1039/D3CP02178E
   
   for DIPRO refer to:
   * J. Kohn, N. Gildemeister, S. Grimme, D. Fazzi, A. Hansen,
     J. Chem. Phys., 2023, just accepted.
   
   for PTB refer to:
   * S. Grimme, M. Mueller, A. Hansen, J. Chem. Phys., 2023, 158, 124111.
     DOI: 10.1063/5.0137838
   
   with help from (in alphabetical order)
   P. Atkinson, C. Bannwarth, F. Bohle, G. Brandenburg, E. Caldeweyher
   M. Checinski, S. Dohm, S. Ehlert, S. Ehrlich, I. Gerasimov, C. Hölzer
   A. Katbashev, J. Kohn, J. Koopman, C. Lavigne, S. Lehtola, F. März, M. Müller,
   F. Musil, H. Neugebauer, J. Pisarek, C. Plett, P. Pracht, F. Pultar,
   J. Seibert, P. Shushkov, S. Spicher, M. Stahn, M. Steiner, T. Strunk,
   J. Stückrath, T. Rose, and J. Unsleber
   
 * started run on 2026/09/02 at 20:13:25.550     
   ID    Z sym.   atoms
    1   22 Ti     1-12
    2    6 C      13-19
    3    8 O      20-33

           -------------------------------------------------
          |                Calculation Setup                |
           -------------------------------------------------

          program call               : "c:\Users\Andre\Proyectos doctorado\nano-qsar-ai-papers\kras-pancreatic-gC3N4-ai\tools\xtb\xtb-6.7.1\bin\xtb.exe" "c:\Users\Andre\Proyectos doctorado\nano-qsar-ai-papers\mxene-glioblastoma-qsar-ai\calculations\gbm\Paxalisib\Paxalisib_mxene_frozen_from_opt.xyz" --gfn 2 --chrg 0 --uhf 0 --norestart
          coordinate file            : c:\Users\Andre\Proyectos doctorado\nano-qsar-ai-papers\mxene-glioblastoma-qsar-ai\calculations\gbm\Paxalisib\Paxalisib_mxene_frozen_from_opt.xyz
          omp threads                :                     4


molecular fragmentation (1/2 indicates fragments):
111111111111111111111222222222222
# atoms in fragment 1/2:    21    12
 fragment masses (1/2) :      690.47      191.99
CMA distance (Bohr)    :   0.978
constraining FC (au)   :  0.0500

           -------------------------------------------------
          |                 G F N 2 - x T B                 |
           -------------------------------------------------

        Reference                      10.1021/acs.jctc.8b01176
      * Hamiltonian:
        H0-scaling (s, p, d)           1.850000    2.230000    2.230000
        zeta-weighting                 0.500000
      * Dispersion:
        s8                             2.700000
        a1                             0.520000
        a2                             5.000000
        s9                             5.000000
      * Repulsion:
        kExp                           1.500000    1.000000
        rExp                           1.000000
      * Coulomb:
        alpha                          2.000000
        third order                    shell-resolved
        anisotropic                    true
        a3                             3.000000
        a5                             4.000000
        cn-shift                       1.200000
        cn-exp                         4.000000
        max-rad                        5.000000


          ...................................................
          :                      SETUP                      :
          :.................................................:
          :  # basis functions                 204          :
          :  # atomic orbitals                 192          :
          :  # shells                           78          :
          :  # electrons                       160          :
          :  max. iterations                   250          :
          :  Hamiltonian                  GFN2-xTB          :
          :  restarted?                      false          :
          :  GBSA solvation                  false          :
          :  PC potential                    false          :
          :  electronic temp.          300.0000000     K    :
          :  accuracy                    1.0000000          :
          :  -> integral cutoff          0.2500000E+02      :
          :  -> integral neglect         0.1000000E-07      :
          :  -> SCF convergence          0.1000000E-05 Eh   :
          :  -> wf. convergence          0.1000000E-03 e    :
          :  Broyden damping             0.4000000          :
          :  net charge                          0          :
          :  unpaired electrons                  0          :
          ...................................................

 iter      E             dE          RMSdq      gap      omega  full diag
   1    -90.8378130 -0.908378E+02  0.185E+01    0.01       0.0  T
   2    -65.0177591  0.258201E+02  0.201E+01    0.11       1.0  T
   3    -12.8017701  0.522160E+02  0.340E+01    0.07       1.0  T
   4    -90.4398247 -0.776381E+02  0.124E+01    0.03       1.0  T
   5    -90.3939111  0.459136E-01  0.118E+01    0.05       1.0  T
   6    -91.4462780 -0.105237E+01  0.987E+00    0.31       1.0  T
   7    -92.3036134 -0.857335E+00  0.784E+00    0.41       1.0  T
   8    -92.3081786 -0.456518E-02  0.741E+00    0.34       1.0  T
   9    -92.3210341 -0.128555E-01  0.706E+00    0.25       1.0  T
  10    -91.3737686  0.947265E+00  0.904E+00    0.02       1.0  T
  11    -92.3432781 -0.969509E+00  0.608E+00    0.17       1.0  T
  12    -91.6668507  0.676427E+00  0.688E+00    0.10       1.0  T
  13    -91.3530088  0.313842E+00  0.761E+00    0.02       1.0  T
  14    -91.6126689 -0.259660E+00  0.670E+00    0.15       1.0  T
  15    -91.7335024 -0.120833E+00  0.556E+00    0.12       1.0  T
  16    -92.5401911 -0.806689E+00  0.417E+00    0.30       1.0  T
  17    -92.5895847 -0.493936E-01  0.370E+00    0.35       1.0  T
  18    -92.6044945 -0.149098E-01  0.353E+00    0.48       1.0  T
  19    -92.6465180 -0.420235E-01  0.300E+00    0.57       1.0  T
  20    -92.6695769 -0.230589E-01  0.254E+00    0.46       1.0  T
  21    -92.6692002  0.376724E-03  0.223E+00    0.46       1.0  T
  22    -92.6815486 -0.123484E-01  0.143E+00    0.41       1.0  T
  23    -92.6864118 -0.486320E-02  0.124E+00    0.41       1.0  T
  24    -92.6888398 -0.242805E-02  0.143E+00    0.43       1.0  T
  25    -92.6935060 -0.466618E-02  0.101E+00    0.41       1.0  T
  26    -92.6964595 -0.295349E-02  0.846E-01    0.41       1.0  T
  27    -92.6981809 -0.172140E-02  0.748E-01    0.41       1.0  T
  28    -92.6982843 -0.103459E-03  0.601E-01    0.40       1.0  T
  29    -92.6975089  0.775491E-03  0.636E-01    0.39       1.0  T
  30    -92.6990468 -0.153791E-02  0.483E-01    0.40       1.0  T
  31    -92.6993094 -0.262669E-03  0.452E-01    0.40       1.0  T
  32    -92.6996944 -0.384959E-03  0.402E-01    0.40       1.0  T
  33    -92.6999182 -0.223848E-03  0.377E-01    0.40       1.0  T
  34    -92.7002945 -0.376264E-03  0.358E-01    0.41       1.0  T
  35    -92.7005147 -0.220143E-03  0.334E-01    0.41       1.0  T
  36    -92.7008223 -0.307602E-03  0.297E-01    0.41       1.0  T
  37    -92.7012898 -0.467568E-03  0.217E-01    0.41       1.0  T
  38    -92.7015658 -0.275959E-03  0.145E-01    0.41       1.0  T
  39    -92.7017162 -0.150449E-03  0.973E-02    0.42       1.0  T
  40    -92.7017668 -0.505585E-04  0.548E-02    0.42       1.0  T
  41    -92.7017815 -0.146607E-04  0.388E-02    0.42       1.0  T
  42    -92.7017889 -0.747484E-05  0.264E-02    0.42       1.0  T
  43    -92.7017916 -0.264032E-05  0.207E-02    0.42       1.0  T
  44    -92.7017938 -0.222487E-05  0.144E-02    0.42       1.2  T
  45    -92.7017950 -0.120258E-05  0.931E-03    0.42       1.9  T
  46    -92.7017954 -0.394691E-06  0.575E-03    0.42       3.0  T
  47    -92.7017955 -0.115501E-06  0.422E-03    0.42       4.1  T
  48    -92.7017956 -0.853004E-07  0.244E-03    0.42       7.1  T
  49    -92.7017956 -0.211821E-07  0.180E-03    0.42       9.7  T
  50    -92.7017956 -0.116784E-07  0.142E-03    0.42      12.3  T
  51    -92.7017956 -0.592240E-08  0.105E-03    0.42      16.5  T
  52    -92.7017956 -0.506415E-08  0.723E-04    0.42      24.1  T
  53    -92.7017956 -0.277988E-08  0.443E-04    0.42      39.3  T

   *** convergence criteria satisfied after 53 iterations ***

         #    Occupation            Energy/Eh            Energy/eV
      -------------------------------------------------------------
         1        2.0000           -0.8152132             -22.1831
       ...           ...                  ...                  ...
        74        2.0000           -0.3586975              -9.7607
        75        2.0000           -0.3465925              -9.4313
        76        2.0000           -0.3448019              -9.3825
        77        2.0000           -0.3340191              -9.0891
        78        2.0000           -0.3197967              -8.7021
        79        2.0000           -0.3173122              -8.6345
        80        1.9994           -0.3028990              -8.2423 (HOMO)
        81        0.0006           -0.2876034              -7.8261 (LUMO)
        82        0.0000           -0.2797348              -7.6120
        83                         -0.2753881              -7.4937
        84                         -0.2736689              -7.4469
        85                         -0.2722604              -7.4086
       ...                                ...                  ...
       192                         13.0182547             354.2447
      -------------------------------------------------------------
                  HL-Gap            0.0152956 Eh            0.4162 eV
             Fermi-level           -0.2952513 Eh           -8.0342 eV

 SCC (total)                   0 d,  0 h,  0 min,  0.446 sec
 SCC setup                      ...        0 min,  0.000 sec (  0.000%)
 Dispersion                     ...        0 min,  0.001 sec (  0.224%)
 classical contributions        ...        0 min,  0.000 sec (  0.000%)
 integral evaluation            ...        0 min,  0.008 sec (  1.794%)
 iterations                     ...        0 min,  0.417 sec ( 93.498%)
 molecular gradient             ...        0 min,  0.019 sec (  4.260%)
 printout                       ...        0 min,  0.001 sec (  0.224%)

         :::::::::::::::::::::::::::::::::::::::::::::::::::::
         ::                     SUMMARY                     ::
         :::::::::::::::::::::::::::::::::::::::::::::::::::::
         :: total energy             -92.001710355105 Eh    ::
         :: gradient norm              0.060443961728 Eh/a0 ::
         :: HOMO-LUMO gap              0.416215147211 eV    ::
         ::.................................................::
         :: SCC energy               -92.700209311385 Eh    ::
         :: -> isotropic ES            0.901662830370 Eh    ::
         :: -> anisotropic ES         -0.409690816921 Eh    ::
         :: -> anisotropic XC         -0.061183021510 Eh    ::
         :: -> dispersion             -0.088058571923 Eh    ::
         :: repulsion energy           0.698498956280 Eh    ::
         :: add. restraining           0.000000000000 Eh    ::
         :: total charge               0.000000000000 e     ::
         :::::::::::::::::::::::::::::::::::::::::::::::::::::

           -------------------------------------------------
          |                Property Printout                |
           -------------------------------------------------

    * Orbital Energies and Occupations

         #    Occupation            Energy/Eh            Energy/eV
      -------------------------------------------------------------
         1        2.0000           -0.8152132             -22.1831
       ...           ...                  ...                  ...
        68        2.0000           -0.3933630             -10.7040
        69        2.0000           -0.3924793             -10.6799
        70        2.0000           -0.3774985             -10.2723
        71        2.0000           -0.3678996             -10.0111
        72        2.0000           -0.3669982              -9.9865
        73        2.0000           -0.3632810              -9.8854
        74        2.0000           -0.3586975              -9.7607
        75        2.0000           -0.3465925              -9.4313
        76        2.0000           -0.3448019              -9.3825
        77        2.0000           -0.3340191              -9.0891
        78        2.0000           -0.3197967              -8.7021
        79        2.0000           -0.3173122              -8.6345
        80        1.9994           -0.3028990              -8.2423 (HOMO)
        81        0.0006           -0.2876034              -7.8261 (LUMO)
        82        0.0000           -0.2797348              -7.6120
        83                         -0.2753881              -7.4937
        84                         -0.2736689              -7.4469
        85                         -0.2722604              -7.4086
        86                         -0.2705042              -7.3608
        87                         -0.2672105              -7.2712
        88                         -0.2661946              -7.2435
        89                         -0.2648687              -7.2074
        90                         -0.2641004              -7.1865
        91                         -0.2631421              -7.1605
       ...                                ...                  ...
       192                         13.0182547             354.2447
      -------------------------------------------------------------
                  HL-Gap            0.0152956 Eh            0.4162 eV
             Fermi-level           -0.2952513 Eh           -8.0342 eV

     #   Z          covCN         q      C6AA      α(0)
     1  22 Ti       3.251     0.974   103.502    24.842
     2  22 Ti       3.643     1.327    98.629    24.093
     3  22 Ti       3.720     1.041   100.640    24.102
     4  22 Ti       6.140     1.386    85.616    15.023
     5  22 Ti       5.828     1.130    88.120    15.241
     6  22 Ti       4.391     1.049    88.922    15.350
     7  22 Ti       3.342     0.993   103.268    24.811
     8  22 Ti       6.915     1.581    83.779    14.861
     9  22 Ti       3.785     1.041    98.655    23.433
    10  22 Ti       6.131     1.101    88.411    15.266
    11  22 Ti       6.697     1.218    87.247    15.165
    12  22 Ti       3.463     1.038   102.661    24.723
    13   6 C        2.417    -0.237    35.072     9.655
    14   6 C        2.303    -0.283    37.841     9.987
    15   6 C        3.312    -0.029    26.684     8.244
    16   6 C        1.836    -0.216    37.538     9.898
    17   6 C        1.861    -0.235    38.129     9.974
    18   6 C        2.622    -0.364    38.496    10.148
    19   6 C        2.636    -0.400    39.785    10.318
    20   8 O        1.453    -0.783    30.232     7.410
    21   8 O        1.453    -0.756    29.463     7.315
    22   8 O        1.454    -0.855    32.411     7.673
    23   8 O        1.484    -0.933    34.928     7.968
    24   8 O        1.466    -0.890    33.516     7.804
    25   8 O        1.656    -0.924    34.426     7.921
    26   8 O        1.453    -0.749    29.247     7.288
    27   8 O        1.568    -0.944    35.170     8.002
    28   8 O        1.493    -0.878    33.067     7.754
    29   8 O        1.690    -0.842    31.727     7.605
    30   8 O        1.608    -0.958    35.627     8.056
    31   8 O        1.480    -1.023    38.180     8.330
    32   8 O        1.454    -0.776    30.036     7.386
    33   8 O        1.475    -0.799    30.669     7.466

 Mol. C6AA /au·bohr⁶  :      54057.988757
 Mol. C8AA /au·bohr⁸  :    3253763.195300
 Mol. α(0) /au        :        413.109760


Wiberg/Mayer (AO) data.
largest (>0.10) Wiberg bond orders for each atom

 ---------------------------------------------------------------------------
     #   Z sym  total        # sym  WBO       # sym  WBO       # sym  WBO
 ---------------------------------------------------------------------------
     1  22 Ti   2.704 --    21 O    0.906    20 O    0.837     7 Ti   0.397
                             4 Ti   0.285    23 O    0.129
     2  22 Ti   4.001 --    23 O    0.987    22 O    0.847    24 O    0.730
                             6 Ti   0.287     3 Ti   0.215     5 Ti   0.207
                             7 Ti   0.118
     3  22 Ti   2.766 --    29 O    0.775    22 O    0.739     9 Ti   0.232
                             2 Ti   0.215    11 Ti   0.195     7 Ti   0.134
                            27 O    0.111
     4  22 Ti   3.933 --    20 O    0.997    13 C    0.677    25 O    0.626
                            30 O    0.602     1 Ti   0.285    23 O    0.192
                            10 Ti   0.159     6 Ti   0.146
     5  22 Ti   4.193 --    26 O    0.978    24 O    0.686    17 C    0.685
                            19 C    0.599     6 Ti   0.283    11 Ti   0.254
                             2 Ti   0.207    18 C    0.132    14 C    0.127
     6  22 Ti   3.470 --    26 O    0.834    25 O    0.729    18 C    0.527
                             2 Ti   0.287     5 Ti   0.283    10 Ti   0.216
                             4 Ti   0.146    19 C    0.111    15 C    0.109
     7  22 Ti   2.756 --    21 O    1.001    27 O    0.629     1 Ti   0.397
                             8 Ti   0.170     3 Ti   0.134     2 Ti   0.118
                            23 O    0.103
     8  22 Ti   3.801 --    28 O    0.802    27 O    0.725    30 O    0.667
                            31 O    0.606     9 Ti   0.207     7 Ti   0.170
     9  22 Ti   2.682 --    29 O    0.791    28 O    0.749    12 Ti   0.295
                             3 Ti   0.232     8 Ti   0.207    33 O    0.120
    10  22 Ti   4.146 --    32 O    0.983    18 C    0.821    16 C    0.757
                            12 Ti   0.221     6 Ti   0.216    13 C    0.189
                             4 Ti   0.159    19 C    0.148    25 O    0.134
                            30 O    0.126
    11  22 Ti   4.084 --    33 O    0.887    14 C    0.652    19 C    0.648
                            31 O    0.497     5 Ti   0.254     3 Ti   0.195
                            12 Ti   0.194    29 O    0.161
    12  22 Ti   2.711 --    32 O    0.800    33 O    0.787     9 Ti   0.295
                            10 Ti   0.221    11 Ti   0.194    28 O    0.120
    13   6 C    3.792 --    16 C    2.716     4 Ti   0.677    10 Ti   0.189
    14   6 C    3.811 --    17 C    2.719    11 Ti   0.652     5 Ti   0.127
    15   6 C    3.966 --    19 C    1.780    18 C    1.685     6 Ti   0.109
    16   6 C    3.712 --    13 C    2.716    10 Ti   0.757
    17   6 C    3.700 --    14 C    2.719     5 Ti   0.685
    18   6 C    3.729 --    15 C    1.685    10 Ti   0.821     6 Ti   0.527
                             5 Ti   0.132    19 C    0.130
    19   6 C    3.748 --    15 C    1.780    11 Ti   0.648     5 Ti   0.599
                            10 Ti   0.148    18 C    0.130     6 Ti   0.111
    20   8 O    2.027 --     4 Ti   0.997     1 Ti   0.837
    21   8 O    2.061 --     7 Ti   1.001     1 Ti   0.906
    22   8 O    1.891 --     2 Ti   0.847     3 Ti   0.739
    23   8 O    1.813 --     2 Ti   0.987     4 Ti   0.192     1 Ti   0.129
                             7 Ti   0.103
    24   8 O    1.872 --     2 Ti   0.730     5 Ti   0.686
    25   8 O    1.839 --     6 Ti   0.729     4 Ti   0.626    10 Ti   0.134
    26   8 O    2.064 --     5 Ti   0.978     6 Ti   0.834
    27   8 O    1.805 --     8 Ti   0.725     7 Ti   0.629     3 Ti   0.111
    28   8 O    1.890 --     8 Ti   0.802     9 Ti   0.749    12 Ti   0.120
    29   8 O    1.952 --     9 Ti   0.791     3 Ti   0.775    11 Ti   0.161
    30   8 O    1.786 --     8 Ti   0.667     4 Ti   0.602    10 Ti   0.126
    31   8 O    1.696 --     8 Ti   0.606    11 Ti   0.497
    32   8 O    2.042 --    10 Ti   0.983    12 Ti   0.800
    33   8 O    2.012 --    11 Ti   0.887    12 Ti   0.787     9 Ti   0.120
 ---------------------------------------------------------------------------

Topologies differ in total number of bonds
Writing topology from bond orders to xtbtopo.mol

molecular dipole:
                 x           y           z       tot (Debye)
 q only:       -0.884      -1.766      -1.974
   full:       -1.325      -2.308       1.018       7.243
molecular quadrupole (traceless):
                xx          xy          yy          xz          yz          zz
 q only:       -8.147      19.709       1.962     -17.472      -9.344       6.185
  q+dip:      -37.903       1.535     -13.896      -0.401     -37.428      51.800
   full:      -34.869       2.485     -15.440      -1.073     -38.383      50.309


           -------------------------------------------------
          | TOTAL ENERGY              -92.001710355105 Eh   |
          | GRADIENT NORM               0.060443961728 Eh/α |
          | HOMO-LUMO GAP               0.416215147211 eV   |
           -------------------------------------------------

------------------------------------------------------------------------
 * finished run on 2026/09/02 at 20:13:26.043     
------------------------------------------------------------------------
 total:
 * wall-time:     0 d,  0 h,  0 min,  0.490 sec
 *  cpu-time:     0 d,  0 h,  0 min,  1.234 sec
 * ratio c/w:     2.519 speedup
 SCF:
 * wall-time:     0 d,  0 h,  0 min,  0.447 sec
 *  cpu-time:     0 d,  0 h,  0 min,  1.141 sec
 * ratio c/w:     2.552 speedup

