90
 energy: -178.934259152147 gnorm: 0.002748761877 xtb: 6.7.1pre (5071a88)
C            3.38864669476361       -2.62158347301444        7.82564732614354
C            2.16936230489098       -3.40355160122432        7.32284192825017
C            1.70275096508723       -4.38887361476693        8.41269318552680
C            2.51077694244175       -4.18570863411641        6.04787773805500
C            0.99094325336236       -2.46782637743762        7.11080992453431
N            0.94370001584142       -1.35020129036949        7.74581126031127
C           -0.25413924159680       -0.65413754781062        7.72840589516967
N           -1.43290469474884       -1.35816548620958        7.51097143255295
C           -1.29284903615975       -2.48174561515807        6.86108667664216
N           -0.08140712130413       -2.98325270900398        6.37385957227408
N           -2.34511033013399       -3.32892834846077        6.76212703290534
C           -2.33275300045230       -4.47493443559980        5.86689635019117
C           -3.76355946709923       -4.76531132904141        5.40837239607272
O           -4.63860074899757       -5.04004603921879        6.49156382457715
C           -4.33335614251586       -4.33076878559588        7.67516047985515
C           -3.60408006929124       -3.01475542235505        7.41309818994156
C           -0.19207773427243        0.70724384922507        7.94407955361656
C            1.12643397977409        1.37801972127096        7.98434676889348
N            1.18708020150871        2.73867644597001        7.55127576389815
C            0.03862049721785        3.37144428011465        7.29217917390713
N            0.09143701779156        4.65085317876939        6.87054280173930
C           -1.07620738646813        5.48880729198220        6.74940915977643
C           -0.99510034154785        6.58006309019523        7.83902244900195
O            0.34393064530486        6.85240759012973        8.20850028918996
C            1.22412842005002        6.77992910099570        7.11448464725950
C            1.34644719971977        5.32311847138348        6.60745308669187
N           -1.20919757405879        2.85437714725825        7.48537769644084
C           -1.33114251564692        1.57770874169649        7.80281919118210
N           -2.56859756662741        1.11879447069717        8.10572667287445
H            4.23021902747156       -3.29955851418170        7.96250687636015
H            3.15084893430292       -2.13866124537516        8.77038263432972
H            3.67070991024911       -1.82742944698282        7.09964009671471
H            2.50088553822517       -5.08918961988766        8.64704739468998
H            0.83425211656643       -4.94123394213696        8.06256120095268
H            1.43171214426750       -3.84950307891879        9.31644984204584
H            2.98542429897870       -3.52572532584490        5.31140836760974
H            3.20294585365089       -4.99143618200579        6.28857182043990
H            1.60386381198414       -4.61018549492506        5.60562520541861
H           -1.70567688770168       -4.25341838281042        4.98277108136130
H           -1.91530606111951       -5.34523133267572        6.39306763078773
H           -3.78404879743523       -5.65958258073824        4.77894619565804
H           -4.13090829850576       -3.89949985232335        4.82188776164140
H           -3.70729501032917       -4.96134391726065        8.32470016292717
H           -5.28571472848903       -4.14728273239438        8.17911661568001
H           -3.37541493530266       -2.51695599500555        8.35943680717697
H           -4.22630818427168       -2.32224430948621        6.77753542562144
H            1.79356912858960        1.16398356623870        8.82768012570338
H           -1.08350025824421        5.93118438681241        5.74810341640179
H           -1.96242141838037        4.86804961598212        6.86953212761536
H           -1.47710014203437        7.50226943193636        7.47927036130955
H           -1.48462747465378        6.25440734774636        8.75857984506666
H            2.18600507919637        7.13997112893646        7.47991145146069
H            0.88137096971507        7.44397353840162        6.30942250771982
H            1.56393375073737        5.30765648422715        5.52196893252913
H            2.13649618295801        4.78159955868848        7.14227068192789
H           -2.66014212629496        0.10709028785784        8.03203710530178
H           -3.32974449734064        1.67901631873439        7.73812740399458
Ti          -3.73725777226919       -0.41488855329927        4.70783224911663
Ti           0.24504071009864       -1.96413429746787        4.71035018522495
Ti           1.02737571157848       -3.04441693586997        1.93545064647256
Ti          -1.49689949559587        1.37903088035639        4.68451783836759
Ti           3.41144726491335       -0.58818276934105        5.03650453809656
Ti           1.70265340658836        1.49564097143488        6.01865624638863
Ti          -2.56979266125486       -2.00239408041091        2.56072637040084
Ti          -0.43947651501631        0.10223437849944        2.05526409313613
Ti           0.75437954894978       -0.84178567957078       -0.37411084487923
Ti           0.66009750503454        2.87038372301774        3.20104763322665
Ti           2.81761698171371       -0.48846421883921        2.11821162011908
Ti           2.27225811895588        1.97120113700783        0.64383403147307
C           -1.42668815980202        3.45786301473243        4.39880638353362
C            4.10951747523871       -1.89692573842765        2.93526729464047
C            3.00538883071833        1.84009546644779        3.90234201396067
C           -0.67158102263270        4.25143744476279        3.81366206849936
C            4.58930077867431       -1.94210397037083        4.08427409868026
C            2.28926432060850        2.83461461706612        4.38639284164096
C            3.71836985167050        0.81378472247658        3.50841119130193
O           -3.00873438256514        1.03376512764079        5.36437921516087
O           -3.72935799854333       -1.94931752062704        3.84346463319274
O            0.25242556086618       -3.18788993246943        3.49616425353493
O           -1.01868677548117       -0.90579663201807        4.54028676856347
O            1.83724675091222       -1.29826146333618        4.85174401863499
O            0.17226468577236        1.29820842065719        5.21744640077821
O            3.23249644181286        0.59097695233697        6.26816369437483
O           -1.16257033341089       -1.41913441850808        1.71201697629001
O           -0.15417925708028        0.53587668010208        0.35586922170444
O            1.61814496018721       -2.13481431634679        0.55046667752132
O           -1.40183949711421        1.23169193436350        2.89574061838421
O            1.16062663450200       -0.06075297781893        2.64112818974608
O            1.13892007858060        2.93124104615689        1.56542083848030
O            3.14502715980999        0.42884160478263        0.66953844865733
