33
 energy: -92.073543780389 gnorm: 0.003137469262 xtb: 6.7.1pre (5071a88)
Ti          -3.58952359198784       -0.51462860794993        5.10934139951860
Ti           0.30246529673516       -1.25755944039975        4.05964464204889
Ti           1.03792801201078       -3.11260281291296        2.03846037193445
Ti          -1.63624374793398        1.47402330074928        4.61217150804197
Ti           3.39846235254926       -0.81000017457277        5.04320256797258
Ti           1.28051432297387        0.90518997967718        6.15047764861275
Ti          -2.53228368298410       -1.83768386469936        2.69019221117772
Ti          -0.57121543306713        0.37708362404463        1.75427942791473
Ti           0.96504358476819       -1.00804611132935       -0.26150595216127
Ti           0.61893841689126        2.94285122291399        3.32249449667225
Ti           3.46151609369616       -0.59750157243409        1.98435412849448
Ti           2.08431248943672        1.90644069796571        0.76804325547536
C           -1.61593170569240        3.58075420516955        4.30931898347179
C            4.80001986142013       -1.88719617542909        2.87231921109698
C            3.11499258280344        1.82915939196139        3.72171869476471
C           -0.75096201942341        4.33703882322151        3.84295437312775
C            4.83954112159768       -1.99264931211041        4.10737808283671
C            2.51225954048012        2.94607764264362        3.85735463159744
C            3.72531051986056        0.64395846506110        3.61025994364557
O           -3.01584836050446        1.10893494855494        5.53480207867888
O           -3.50577171908207       -1.95018324510973        4.10045714636202
O           -0.00968891556586       -2.87957860443811        3.42757258693124
O           -0.95147089111714       -0.69519785883501        4.95921010235431
O            1.97712972045932       -1.62672707133791        4.45658780963226
O            0.05067053301935        1.68393521853267        5.20946640889959
O            2.78527185627227        0.08174771513967        6.41625578295749
O           -1.25962158000308       -1.22153332558046        1.64594019116963
O           -0.11448715789356        0.37530913341312        0.05515084519542
O            1.93455518065220       -2.08119971011037        0.85274019370476
O           -1.64387838369911        1.14998892786086        2.86558558194835
O            0.77483021713365       -0.03280887299526        2.82602877941603
O            0.62511708653711        2.48365690933193        1.63197893924484
O            3.25084939965702        0.60657055400324        0.72503392726250
