120
Everolimus - ETKDG+MMFF conformer
C    -11.300257     -1.387996     -1.100564
O    -10.568697     -2.027441     -0.062477
C     -9.371464     -1.312493      0.245300
C     -8.624687     -2.036282      1.365246
O     -7.429623     -1.345345      1.734533
C     -6.312044     -1.611619      0.856837
C     -5.426317     -2.647842      1.600622
C     -4.363980     -3.427941      0.803191
C     -4.334444     -3.180091     -0.729704
C     -3.854182     -1.819100     -1.219189
C     -4.820794     -0.778989     -1.813793
C     -5.873385     -1.406531     -2.738776
C     -5.352891      0.249668     -0.775948
O     -6.642128      0.714958     -1.263271
C     -4.483372      1.562994     -0.638696
O     -5.049316      2.655378     -0.526383
C     -2.916054      1.495617     -0.560676
O     -2.309906      0.546755     -1.031762
N     -2.243294      2.597508      0.026348
C     -2.401820      3.860593     -0.701978
C     -1.113545      4.277728     -1.443576
C     -0.249295      3.077601     -1.848370
C      0.129548      2.195629     -0.644999
C     -0.848213      2.400101      0.515894
C     -0.663163      1.512013      1.765709
O     -1.129623      1.823340      2.859365
O      0.030461      0.364522      1.540340
C     -0.251093     -0.798621      2.407751
C     -1.458466     -1.574823      1.728748
C     -0.949861     -1.971333      0.320525
O     -2.546616     -0.621613      1.660150
C     -3.093015     -0.165181      2.914423
C     -2.053800     -2.850922      2.380591
C     -2.995512     -3.780066      1.521336
C      1.066973     -1.559339      2.687254
C      2.012242     -1.814413      1.541065
C      2.969183     -1.002778      1.059108
C      3.275082      0.328269      1.537526
C      4.182016      1.190061      1.046616
C      5.080020      0.983660     -0.070415
C      5.930275      1.888654     -0.598436
C      6.063074      3.324639     -0.159077
C      6.834287      1.491143     -1.755531
C      8.353568      1.568236     -1.457317
C      9.120576      1.237095     -2.741460
C      8.734744      0.647664     -0.268773
C     10.213799      0.638832      0.160542
O     11.053504      0.068585     -0.841053
C     11.105301     -1.351477     -0.795863
C     10.703618      2.044047      0.549663
O      9.957756      2.885874      1.056103
C     12.170237      2.337643      0.362112
C     -5.617838     -0.257164      0.653021
H    -11.595113     -0.379092     -0.796251
H    -10.706343     -1.347038     -2.018776
H    -12.203682     -1.972177     -1.294957
H     -8.746483     -1.240581     -0.651151
H     -9.613596     -0.291518      0.564035
H     -8.411367     -3.078213      1.097079
H     -9.266975     -2.076223      2.252238
H     -6.686487     -2.022030     -0.079033
H     -6.108617     -3.397570      2.030725
H     -4.992240     -2.204477      2.493274
H     -4.813186     -4.439204      0.792815
H     -5.314023     -3.425747     -1.152411
H     -3.660992     -3.936568     -1.157385
H     -3.335680     -1.347009     -0.400294
H     -3.106045     -2.014205     -2.000619
H     -4.208921     -0.185287     -2.509809
H     -5.408549     -2.135694     -3.411653
H     -6.337708     -0.642282     -3.372025
H     -6.673199     -1.911659     -2.193944
H     -6.786707      1.596222     -0.858837
H     -3.201231      3.786264     -1.444615
H     -2.681346      4.633285      0.022188
H     -0.521370      4.935157     -0.793953
H     -1.373677      4.876156     -2.324176
H      0.660099      3.419775     -2.355066
H     -0.802439      2.473272     -2.578099
H      1.141844      2.449450     -0.305785
H      0.178165      1.148866     -0.963772
H     -0.576225      3.378754      0.946455
H     -0.544157     -0.429054      3.391847
H     -0.139359     -2.699418      0.385409
H     -0.604650     -1.115147     -0.262789
H     -1.691050     -2.469511     -0.291026
H     -3.537264      0.821136      2.749452
H     -2.378969     -0.089136      3.731764
H     -3.886935     -0.821876      3.259453
H     -2.583441     -2.610159      3.307786
H     -1.214962     -3.488108      2.690586
H     -2.363654     -4.291088      0.782325
H     -3.258402     -4.583613      2.228295
H      1.618224     -0.991006      3.448661
H      0.841674     -2.515736      3.173533
H      1.923137     -2.793844      1.073527
H      3.556871     -1.378290      0.225054
H      2.694337      0.678411      2.388998
H      4.254297      2.147647      1.557337
H      5.074442     -0.013182     -0.504746
H      6.111753      3.983971     -1.032653
H      5.220192      3.674165      0.441492
H      6.977113      3.461043      0.426927
H      6.597265      2.147574     -2.603797
H      6.594421      0.474653     -2.096072
H      8.595064      2.605474     -1.196579
H      8.731219      1.812611     -3.588590
H      9.039490      0.174062     -2.991153
H     10.179245      1.495625     -2.650218
H      8.144953      0.942908      0.607832
H      8.425626     -0.375028     -0.516245
H     10.311166      0.046861      1.080962
H     10.118476     -1.787968     -0.969843
H     11.776891     -1.692837     -1.588312
H     11.504764     -1.690002      0.164897
H     12.403254      3.322358      0.777274
H     12.413896      2.341458     -0.702972
H     12.765840      1.587280      0.887895
H     -6.187966      0.518960      1.184668
H     -4.668282     -0.291230      1.152076
