      -----------------------------------------------------------      
     |                   =====================                   |     
     |                           x T B                           |     
     |                   =====================                   |     
     |                         S. Grimme                         |     
     |          Mulliken Center for Theoretical Chemistry        |     
     |                    University of Bonn                     |     
      -----------------------------------------------------------      

   * xtb version 6.7.1pre (5071a88) compiled by 'Marcel@Raven' on 2024-07-23

   xtb is free software: you can redistribute it and/or modify it under
   the terms of the GNU Lesser General Public License as published by
   the Free Software Foundation, either version 3 of the License, or
   (at your option) any later version.
   
   xtb is distributed in the hope that it will be useful,
   but WITHOUT ANY WARRANTY; without even the implied warranty of
   MERCHANTABILITY or FITNESS FOR A PARTICULAR PURPOSE.  See the
   GNU Lesser General Public License for more details.
   
   Cite this work as:
   * C. Bannwarth, E. Caldeweyher, S. Ehlert, A. Hansen, P. Pracht,
     J. Seibert, S. Spicher, S. Grimme, WIREs Comput. Mol. Sci., 2020, 11,
     e01493. DOI: 10.1002/wcms.1493
   
   for GFN2-xTB:
   * C. Bannwarth, S. Ehlert and S. Grimme., J. Chem. Theory Comput., 2019,
     15, 1652-1671. DOI: 10.1021/acs.jctc.8b01176
   for GFN1-xTB:
   * S. Grimme, C. Bannwarth, P. Shushkov, J. Chem. Theory Comput., 2017,
     13, 1989-2009. DOI: 10.1021/acs.jctc.7b00118
   for GFN0-xTB:
   * P. Pracht, E. Caldeweyher, S. Ehlert, S. Grimme, ChemRxiv, 2019, preprint.
     DOI: 10.26434/chemrxiv.8326202.v1
   for GFN-FF:
   * S. Spicher and S. Grimme, Angew. Chem. Int. Ed., 2020, 59, 15665-15673.
     DOI: 10.1002/anie.202004239
   
   for ALPB and GBSA implicit solvation:
   * S. Ehlert, M. Stahn, S. Spicher, S. Grimme, J. Chem. Theory Comput.,
     2021, 17, 4250-4261. DOI: 10.1021/acs.jctc.1c00471
   
   for ddCOSMO and CPCM-X implicit solvation:
   * M. Stahn, S. Ehlert, S. Grimme, J. Phys. Chem. A,
     2023, XX, XXXX-XXXX. DOI: 10.1021/acs.jpca.3c04382
   
   for DFT-D4:
   * E. Caldeweyher, C. Bannwarth and S. Grimme, J. Chem. Phys., 2017,
     147, 034112. DOI: 10.1063/1.4993215
   * E. Caldeweyher, S. Ehlert, A. Hansen, H. Neugebauer, S. Spicher,
     C. Bannwarth and S. Grimme, J. Chem. Phys., 2019, 150, 154122.
     DOI: 10.1063/1.5090222
   * E. Caldeweyher, J.-M. Mewes, S. Ehlert and S. Grimme, Phys. Chem. Chem. Phys.
     2020, 22, 8499-8512. DOI: 10.1039/D0CP00502A
   
   for sTDA-xTB:
   * S. Grimme and C. Bannwarth, J. Chem. Phys., 2016, 145, 054103.
     DOI: 10.1063/1.4959605
   
   in the mass-spec context:
   * V. Asgeirsson, C. Bauer and S. Grimme, Chem. Sci., 2017, 8, 4879.
     DOI: 10.1039/c7sc00601b
   * J. Koopman and S. Grimme, ACS Omega 2019, 4, 12, 15120-15133.
     DOI: 10.1021/acsomega.9b02011
   
   for metadynamics refer to:
   * S. Grimme, J. Chem. Theory Comput., 2019, 155, 2847-2862
     DOI: 10.1021/acs.jctc.9b00143
   
   for SPH calculations refer to:
   * S. Spicher and S. Grimme, J. Chem. Theory Comput., 2021, 17, 1701-1714
     DOI: 10.1021/acs.jctc.0c01306
   
   for ONIOM refer to:
   * C. Plett, A. Katbashev, S. Ehlert, S. Grimme, M. Bursch,
     Phys. Chem. Chem. Phys., 2023, 25, 17860-17868. DOI: 10.1039/D3CP02178E
   
   for DIPRO refer to:
   * J. Kohn, N. Gildemeister, S. Grimme, D. Fazzi, A. Hansen,
     J. Chem. Phys., 2023, just accepted.
   
   for PTB refer to:
   * S. Grimme, M. Mueller, A. Hansen, J. Chem. Phys., 2023, 158, 124111.
     DOI: 10.1063/5.0137838
   
   with help from (in alphabetical order)
   P. Atkinson, C. Bannwarth, F. Bohle, G. Brandenburg, E. Caldeweyher
   M. Checinski, S. Dohm, S. Ehlert, S. Ehrlich, I. Gerasimov, C. Hölzer
   A. Katbashev, J. Kohn, J. Koopman, C. Lavigne, S. Lehtola, F. März, M. Müller,
   F. Musil, H. Neugebauer, J. Pisarek, C. Plett, P. Pracht, F. Pultar,
   J. Seibert, P. Shushkov, S. Spicher, M. Stahn, M. Steiner, T. Strunk,
   J. Stückrath, T. Rose, and J. Unsleber
   
 * started run on 2026/08/31 at 21:19:21.189     
   ID    Z sym.   atoms
    1    6 C      1, 3, 4, 6-13, 15, 17, 20-25, 28-30, 32-47, 49, 50, 52, 53,
                  133-139
    2    8 O      2, 5, 14, 16, 18, 26, 27, 31, 48, 51, 140-153
    3    7 N      19
    4    1 H      54-120
    5   22 Ti     121-132

           -------------------------------------------------
          |                Calculation Setup                |
           -------------------------------------------------

          program call               : "c:\Users\Andre\Proyectos doctorado\kras-pancreatic-gC3N4-ai\tools\xtb\xtb-6.7.1\bin\xtb.exe" "c:\Users\Andre\Proyectos doctorado\mxene-glioblastoma-qsar-ai\calculations\gbm\Everolimus\Everolimus_Ti12C7O14_phys_complex.xyz" --gfn 2 --sp --chrg 0 --uhf 0 --etemp 300 --iterations 500 --norestart
          coordinate file            : c:\Users\Andre\Proyectos doctorado\mxene-glioblastoma-qsar-ai\calculations\gbm\Everolimus\Everolimus_Ti12C7O14_phys_complex.xyz
          omp threads                :                    16


molecular fragmentation (1/2 indicates fragments):
111111111111111111111111111111111111111111111111111111111111111111111111
111111111111111111111111111111111111111111111111222222222222222222222222
222222222
# atoms in fragment 1/2:   120    33
 fragment masses (1/2) :      745.98      882.47
CMA distance (Bohr)    :  20.923
constraining FC (au)   :  0.0500

           -------------------------------------------------
          |                 G F N 2 - x T B                 |
           -------------------------------------------------

        Reference                      10.1021/acs.jctc.8b01176
      * Hamiltonian:
        H0-scaling (s, p, d)           1.850000    2.230000    2.230000
        zeta-weighting                 0.500000
      * Dispersion:
        s8                             2.700000
        a1                             0.520000
        a2                             5.000000
        s9                             5.000000
      * Repulsion:
        kExp                           1.500000    1.000000
        rExp                           1.000000
      * Coulomb:
        alpha                          2.000000
        third order                    shell-resolved
        anisotropic                    true
        a3                             3.000000
        a5                             4.000000
        cn-shift                       1.200000
        cn-exp                         4.000000
        max-rad                        5.000000


          ...................................................
          :                      SETUP                      :
          :.................................................:
          :  # basis functions                 483          :
          :  # atomic orbitals                 471          :
          :  # shells                          251          :
          :  # electrons                       460          :
          :  max. iterations                   500          :
          :  Hamiltonian                  GFN2-xTB          :
          :  restarted?                      false          :
          :  GBSA solvation                  false          :
          :  PC potential                    false          :
          :  electronic temp.          300.0000000     K    :
          :  accuracy                    1.0000000          :
          :  -> integral cutoff          0.2500000E+02      :
          :  -> integral neglect         0.1000000E-07      :
          :  -> SCF convergence          0.1000000E-05 Eh   :
          :  -> wf. convergence          0.1000000E-03 e    :
          :  Broyden damping             0.4000000          :
          :  net charge                          0          :
          :  unpaired electrons                  0          :
          ...................................................

 iter      E             dE          RMSdq      gap      omega  full diag
   1   -260.1521978 -0.260152E+03  0.977E+00    0.05       0.0  T
   2   -246.7049298  0.134473E+02  0.789E+00    0.08       1.0  T
   3   -193.4008242  0.533041E+02  0.154E+01    0.03       1.0  T
   4   -259.4307125 -0.660299E+02  0.720E+00    0.07       1.0  T
   5   -260.7645471 -0.133383E+01  0.503E+00    0.04       1.0  T
   6   -261.7978902 -0.103334E+01  0.350E+00    0.07       1.0  T
   7   -261.8959573 -0.980671E-01  0.277E+00    0.70       1.0  T
   8   -261.3152046  0.580753E+00  0.259E+00    0.06       1.0  T
   9   -261.5547739 -0.239569E+00  0.237E+00    0.03       1.0  T
  10   -262.0100448 -0.455271E+00  0.143E+00    0.31       1.0  T
  11   -260.9505657  0.105948E+01  0.385E+00    0.01       1.0  T
  12   -261.0233585 -0.727928E-01  0.366E+00    0.01       1.0  T
  13   -261.4065603 -0.383202E+00  0.245E+00    0.07       1.0  T
  14   -261.8434889 -0.436929E+00  0.134E+00    0.07       1.0  T
  15   -262.0942888 -0.250800E+00  0.118E+00    0.53       1.0  T
  16   -262.1217029 -0.274140E-01  0.111E+00    0.82       1.0  T
  17   -262.1316614 -0.995849E-02  0.980E-01    0.93       1.0  T
  18   -262.1425103 -0.108489E-01  0.811E-01    1.01       1.0  T
  19   -262.1524537 -0.994338E-02  0.669E-01    1.01       1.0  T
  20   -262.1673306 -0.148769E-01  0.385E-01    0.73       1.0  T
  21   -262.1729357 -0.560511E-02  0.268E-01    0.44       1.0  T
  22   -262.1750926 -0.215697E-02  0.207E-01    0.28       1.0  T
  23   -262.1755830 -0.490379E-03  0.177E-01    0.16       1.0  T
  24   -262.1769778 -0.139478E-02  0.139E-01    0.21       1.0  T
  25   -262.1772527 -0.274941E-03  0.124E-01    0.19       1.0  T
  26   -262.1776493 -0.396596E-03  0.112E-01    0.20       1.0  T
  27   -262.1778454 -0.196038E-03  0.954E-02    0.24       1.0  T
  28   -262.1779765 -0.131101E-03  0.907E-02    0.22       1.0  T
  29   -262.1780872 -0.110691E-03  0.782E-02    0.22       1.0  T
  30   -262.1781184 -0.312758E-04  0.662E-02    0.24       1.0  T
  31   -262.1781774 -0.589373E-04  0.611E-02    0.24       1.0  T
  32   -262.1782665 -0.891622E-04  0.526E-02    0.23       1.0  T
  33   -262.1783545 -0.879352E-04  0.378E-02    0.22       1.0  T
  34   -262.1783893 -0.347849E-04  0.273E-02    0.22       1.0  T
  35   -262.1784102 -0.209211E-04  0.172E-02    0.22       1.0  T
  36   -262.1784209 -0.107094E-04  0.958E-03    0.23       1.0  T
  37   -262.1784235 -0.262800E-05  0.619E-03    0.22       1.3  T
  38   -262.1784246 -0.111389E-05  0.396E-03    0.22       2.0  T
  39   -262.1784251 -0.452983E-06  0.338E-03    0.22       2.4  T
  40   -262.1784251  0.748668E-08  0.383E-03    0.22       2.1  T
  41   -262.1784254 -0.330583E-06  0.236E-03    0.22       3.4  T
  42   -262.1784256 -0.138978E-06  0.140E-03    0.22       5.8  T
  43   -262.1784256 -0.310408E-07  0.992E-04    0.22       8.2  T
  44   -262.1784256 -0.154604E-07  0.649E-04    0.22      12.5  T

   *** convergence criteria satisfied after 44 iterations ***

         #    Occupation            Energy/Eh            Energy/eV
      -------------------------------------------------------------
         1        2.0000           -0.8239858             -22.4218
       ...           ...                  ...                  ...
       224        2.0000           -0.3545612              -9.6481
       225        2.0000           -0.3543256              -9.6417
       226        2.0000           -0.3539744              -9.6321
       227        2.0000           -0.3482735              -9.4770
       228        2.0000           -0.3410970              -9.2817
       229        2.0000           -0.3267515              -8.8914
       230        1.9734           -0.3122765              -8.4975 (HOMO)
       231        0.0266           -0.3040919              -8.2748 (LUMO)
       232                         -0.2882860              -7.8447
       233                         -0.2878865              -7.8338
       234                         -0.2866201              -7.7993
       235                         -0.2857486              -7.7756
       ...                                ...                  ...
       471                         13.3308311             362.7504
      -------------------------------------------------------------
                  HL-Gap            0.0081846 Eh            0.2227 eV
             Fermi-level           -0.3081842 Eh           -8.3861 eV

 SCC (total)                   0 d,  0 h,  0 min,  1.735 sec
 SCC setup                      ...        0 min,  0.001 sec (  0.058%)
 Dispersion                     ...        0 min,  0.004 sec (  0.231%)
 classical contributions        ...        0 min,  0.000 sec (  0.000%)
 integral evaluation            ...        0 min,  0.016 sec (  0.922%)
 iterations                     ...        0 min,  1.660 sec ( 95.677%)
 molecular gradient             ...        0 min,  0.050 sec (  2.882%)
 printout                       ...        0 min,  0.004 sec (  0.231%)

         :::::::::::::::::::::::::::::::::::::::::::::::::::::
         ::                     SUMMARY                     ::
         :::::::::::::::::::::::::::::::::::::::::::::::::::::
         :: total energy            -259.602695189258 Eh    ::
         :: gradient norm              0.130958783795 Eh/a0 ::
         :: HOMO-LUMO gap              0.222714829065 eV    ::
         ::.................................................::
         :: SCC energy              -262.170583151535 Eh    ::
         :: -> isotropic ES            1.132562111028 Eh    ::
         :: -> anisotropic ES         -0.357067686487 Eh    ::
         :: -> anisotropic XC         -0.015064791406 Eh    ::
         :: -> dispersion             -0.226788003470 Eh    ::
         :: repulsion energy           2.567887962276 Eh    ::
         :: add. restraining           0.000000000000 Eh    ::
         :: total charge              -0.000000000002 e     ::
         :::::::::::::::::::::::::::::::::::::::::::::::::::::

           -------------------------------------------------
          |                Property Printout                |
           -------------------------------------------------

    * Orbital Energies and Occupations

         #    Occupation            Energy/Eh            Energy/eV
      -------------------------------------------------------------
         1        2.0000           -0.8239858             -22.4218
       ...           ...                  ...                  ...
       218        2.0000           -0.3802909             -10.3482
       219        2.0000           -0.3778086             -10.2807
       220        2.0000           -0.3737180             -10.1694
       221        2.0000           -0.3718703             -10.1191
       222        2.0000           -0.3642887              -9.9128
       223        2.0000           -0.3621582              -9.8548
       224        2.0000           -0.3545612              -9.6481
       225        2.0000           -0.3543256              -9.6417
       226        2.0000           -0.3539744              -9.6321
       227        2.0000           -0.3482735              -9.4770
       228        2.0000           -0.3410970              -9.2817
       229        2.0000           -0.3267515              -8.8914
       230        1.9734           -0.3122765              -8.4975 (HOMO)
       231        0.0266           -0.3040919              -8.2748 (LUMO)
       232                         -0.2882860              -7.8447
       233                         -0.2878865              -7.8338
       234                         -0.2866201              -7.7993
       235                         -0.2857486              -7.7756
       236                         -0.2828312              -7.6962
       237                         -0.2778336              -7.5602
       238                         -0.2770773              -7.5397
       239                         -0.2749403              -7.4815
       240                         -0.2747415              -7.4761
       241                         -0.2738587              -7.4521
       ...                                ...                  ...
       471                         13.3308311             362.7504
      -------------------------------------------------------------
                  HL-Gap            0.0081846 Eh            0.2227 eV
             Fermi-level           -0.3081842 Eh           -8.3861 eV

     #   Z          covCN         q      C6AA      α(0)
     1   6 C        3.651     0.037    20.256     6.464
     2   8 O        1.697    -0.328    19.490     5.960
     3   6 C        3.701     0.072    19.525     6.319
     4   6 C        3.686     0.074    19.537     6.328
     5   8 O        1.695    -0.334    19.596     5.977
     6   6 C        3.733     0.113    18.808     6.190
     7   6 C        3.796    -0.068    21.816     6.651
     8   6 C        3.836    -0.024    20.976     6.516
     9   6 C        3.795    -0.064    21.738     6.639
    10   6 C        3.801    -0.088    22.177     6.705
    11   6 C        3.844    -0.018    20.860     6.497
    12   6 C        3.748    -0.102    22.510     6.767
    13   6 C        3.760     0.126    18.576     6.144
    14   8 O        1.649    -0.458    22.001     6.332
    15   6 C        2.798     0.183    24.081     8.039
    16   8 O        0.856    -0.342    20.557     6.079
    17   6 C        2.750     0.254    22.737     7.808
    18   8 O        0.857    -0.369    21.070     6.154
    19   7 N        2.724    -0.117    23.554     7.208
    20   6 C        3.749     0.001    20.631     6.478
    21   6 C        3.798    -0.067    21.794     6.647
    22   6 C        3.799    -0.061    21.673     6.628
    23   6 C        3.799    -0.064    21.724     6.636
    24   6 C        3.789     0.024    20.187     6.399
    25   6 C        2.693     0.354    20.989     7.498
    26   8 O        0.856    -0.405    21.787     6.258
    27   8 O        1.694    -0.260    18.309     5.777
    28   6 C        3.719     0.103    18.988     6.224
    29   6 C        3.764     0.140    18.359     6.107
    30   6 C        3.755    -0.131    23.070     6.849
    31   8 O        1.693    -0.341    19.721     5.996
    32   6 C        3.627     0.040    20.319     6.493
    33   6 C        3.793    -0.066    21.768     6.644
    34   6 C        3.783    -0.063    21.725     6.640
    35   6 C        3.798    -0.061    21.675     6.629
    36   6 C        2.887    -0.039    28.969     8.824
    37   6 C        2.890    -0.033    28.813     8.800
    38   6 C        2.893    -0.038    28.940     8.820
    39   6 C        2.892    -0.035    28.860     8.808
    40   6 C        2.895    -0.056    29.385     8.888
    41   6 C        2.937     0.012    27.755     8.640
    42   6 C        3.752    -0.111    22.685     6.792
    43   6 C        3.807    -0.072    21.872     6.658
    44   6 C        3.844    -0.009    20.712     6.474
    45   6 C        3.751    -0.106    22.594     6.779
    46   6 C        3.798    -0.064    21.729     6.637
    47   6 C        3.742     0.094    19.094     6.234
    48   8 O        1.698    -0.315    19.264     5.926
    49   6 C        3.642     0.038    20.286     6.475
    50   6 C        2.808     0.230    23.169     7.886
    51   8 O        0.856    -0.364    20.974     6.140
    52   6 C        3.750    -0.132    23.104     6.855
    53   6 C        3.804    -0.079    22.014     6.680
    54   1 H        0.924     0.034     2.525     2.485
    55   1 H        0.924     0.035     2.515     2.480
    56   1 H        0.924     0.056     2.242     2.341
    57   1 H        0.924     0.040     2.455     2.450
    58   1 H        0.924     0.037     2.495     2.470
    59   1 H        0.924     0.035     2.513     2.479
    60   1 H        0.924     0.059     2.211     2.326
    61   1 H        0.925     0.047     2.355     2.400
    62   1 H        0.923     0.034     2.526     2.486
    63   1 H        0.925     0.046     2.364     2.405
    64   1 H        0.922     0.033     2.548     2.496
    65   1 H        0.924     0.039     2.462     2.454
    66   1 H        0.923     0.027     2.634     2.538
    67   1 H        0.926     0.093     1.852     2.128
    68   1 H        0.923     0.037     2.489     2.467
    69   1 H        0.923     0.047     2.355     2.400
    70   1 H        0.924     0.037     2.486     2.466
    71   1 H        0.924     0.050     2.314     2.379
    72   1 H        0.924     0.038     2.477     2.461
    73   1 H        0.803     0.304     0.709     1.322
    74   1 H        0.924     0.065     2.143     2.289
    75   1 H        0.924     0.057     2.236     2.339
    76   1 H        0.924     0.041     2.434     2.440
    77   1 H        0.924     0.045     2.386     2.415
    78   1 H        0.924     0.041     2.430     2.438
    79   1 H        0.924     0.043     2.411     2.428
    80   1 H        0.924     0.040     2.454     2.450
    81   1 H        0.924     0.063     2.159     2.298
    82   1 H        0.923     0.075     2.027     2.226
    83   1 H        0.924     0.050     2.316     2.380
    84   1 H        0.924     0.047     2.358     2.401
    85   1 H        0.924     0.072     2.068     2.249
    86   1 H        0.925     0.072     2.068     2.249
    87   1 H        0.924     0.058     2.219     2.329
    88   1 H        0.925     0.044     2.395     2.420
    89   1 H        0.925     0.036     2.507     2.476
    90   1 H        0.924     0.036     2.498     2.472
    91   1 H        0.923     0.031     2.576     2.510
    92   1 H        0.923     0.040     2.442     2.444
    93   1 H        0.923     0.034     2.532     2.489
    94   1 H        0.923     0.052     2.290     2.366
    95   1 H        0.924     0.042     2.420     2.433
    96   1 H        0.925     0.025     2.664     2.552
    97   1 H        0.925     0.036     2.504     2.475
    98   1 H        0.925     0.031     2.578     2.511
    99   1 H        0.925     0.029     2.603     2.523
   100   1 H        0.925     0.030     2.588     2.516
   101   1 H        0.924     0.044     2.398     2.422
   102   1 H        0.924     0.041     2.433     2.439
   103   1 H        0.924     0.063     2.161     2.299
   104   1 H        0.923     0.044     2.396     2.421
   105   1 H        0.923     0.034     2.532     2.488
   106   1 H        0.924     0.044     2.402     2.424
   107   1 H        0.924     0.032     2.553     2.499
   108   1 H        0.924     0.035     2.512     2.479
   109   1 H        0.924     0.045     2.385     2.415
   110   1 H        0.924     0.051     2.311     2.377
   111   1 H        0.924     0.038     2.477     2.461
   112   1 H        0.923     0.044     2.398     2.421
   113   1 H        0.924     0.036     2.497     2.471
   114   1 H        0.924     0.059     2.206     2.323
   115   1 H        0.924     0.029     2.599     2.521
   116   1 H        0.924     0.070     2.081     2.256
   117   1 H        0.924     0.085     1.928     2.171
   118   1 H        0.924     0.071     2.075     2.253
   119   1 H        0.923     0.062     2.181     2.309
   120   1 H        0.926     0.074     2.041     2.234
   121  22 Ti       3.637     1.055   101.747    24.482
   122  22 Ti       6.855     1.551    84.053    14.885
   123  22 Ti       3.227     1.049   102.625    24.737
   124  22 Ti       5.860     1.381    85.661    15.026
   125  22 Ti       5.627     1.124    88.178    15.246
   126  22 Ti       3.541     1.047   102.388    24.661
   127  22 Ti       2.352     0.883   202.625    34.854
   128  22 Ti       6.011     1.349    85.969    15.053
   129  22 Ti       3.414     1.009   103.040    24.778
   130  22 Ti       5.519     1.100    88.422    15.267
   131  22 Ti       5.687     1.191    87.513    15.188
   132  22 Ti       3.581     1.027   102.461    24.641
   133   6 C        2.246    -0.257    37.608     9.936
   134   6 C        2.142    -0.255    38.320    10.006
   135   6 C        2.248    -0.019    30.615     8.965
   136   6 C        1.838    -0.209    37.299     9.866
   137   6 C        1.894    -0.224    37.727     9.920
   138   6 C        1.821    -0.345    42.128    10.487
   139   6 C        2.631    -0.404    39.910    10.334
   140   8 O        1.554    -0.847    32.001     7.632
   141   8 O        1.464    -0.880    33.188     7.765
   142   8 O        1.557    -0.956    35.592     8.049
   143   8 O        1.523    -1.008    37.522     8.262
   144   8 O        1.523    -0.913    34.166     7.884
   145   8 O        1.458    -0.820    31.319     7.543
   146   8 O        1.455    -0.796    30.613     7.457
   147   8 O        0.727    -0.635    27.065     6.971
   148   8 O        1.453    -0.864    32.694     7.706
   149   8 O        1.476    -0.799    30.667     7.466
   150   8 O        1.603    -0.946    35.202     8.007
   151   8 O        1.547    -0.970    36.101     8.106
   152   8 O        1.700    -0.817    30.976     7.514
   153   8 O        1.453    -0.781    30.166     7.402

 Mol. C6AA /au·bohr⁶  :     343085.090017
 Mol. C8AA /au·bohr⁸  :   12111807.930141
 Mol. α(0) /au        :        947.328587


Wiberg/Mayer (AO) data.
largest (>0.10) Wiberg bond orders for each atom

 ---------------------------------------------------------------------------
     #   Z sym  total        # sym  WBO       # sym  WBO       # sym  WBO
 ---------------------------------------------------------------------------
     1   6 C    3.952 --     2 O    0.993    56 H    0.981    54 H    0.979
                            55 H    0.979
     2   8 O    2.050 --     1 C    0.993     3 C    0.978
     3   6 C    3.951 --     4 C    0.992     2 O    0.978    58 H    0.969
                            57 H    0.965
     4   6 C    3.954 --     3 C    0.992     5 O    0.988    59 H    0.969
                            60 H    0.969
     5   8 O    2.058 --     4 C    0.988     6 C    0.956
     6   6 C    3.945 --     7 C    0.985    53 C    0.984     5 O    0.956
                            61 H    0.955
     7   6 C    3.990 --     8 C    0.990     6 C    0.985    62 H    0.976
                            63 H    0.963
     8   6 C    3.985 --     9 C    0.994     7 C    0.990    34 C    0.983
                            64 H    0.970
     9   6 C    3.995 --    10 C    1.005     8 C    0.994    66 H    0.976
                            65 H    0.969
    10   6 C    3.987 --     9 C    1.005    11 C    0.989    68 H    0.977
                            67 H    0.954
    11   6 C    3.985 --    12 C    1.006    10 C    0.989    69 H    0.965
                            13 C    0.958
    12   6 C    3.994 --    11 C    1.006    71 H    0.985    70 H    0.983
                            72 H    0.979
    13   6 C    3.947 --    14 O    0.978    11 C    0.958    53 C    0.958
                            15 C    0.931
    14   8 O    1.946 --    13 C    0.978    73 H    0.874
    15   6 C    3.864 --    16 O    1.858    13 C    0.931    17 C    0.910
    16   8 O    2.082 --    15 C    1.858
    17   6 C    3.935 --    18 O    1.760    19 N    1.146    15 C    0.910
    18   8 O    2.067 --    17 C    1.760    19 N    0.166
    19   7 N    3.361 --    17 C    1.146    20 C    0.968    24 C    0.962
                            18 O    0.166
    20   6 C    3.964 --    21 C    0.989    74 H    0.972    75 H    0.972
                            19 N    0.968
    21   6 C    3.995 --    22 C    1.011    20 C    0.989    76 H    0.978
                            77 H    0.975
    22   6 C    3.991 --    21 C    1.011    23 C    1.001    78 H    0.977
                            79 H    0.975
    23   6 C    3.992 --    22 C    1.001    24 C    0.990    80 H    0.977
                            81 H    0.972
    24   6 C    3.969 --    23 C    0.990    19 N    0.962    82 H    0.944
                            25 C    0.941
    25   6 C    3.919 --    26 O    1.750    27 O    1.140    24 C    0.941
    26   8 O    2.039 --    25 C    1.750    27 O    0.167
    27   8 O    2.299 --    25 C    1.140    28 C    0.913    26 O    0.167
    28   6 C    3.911 --    35 C    0.974    83 H    0.954    29 C    0.939
                            27 O    0.913
    29   6 C    3.938 --    30 C    0.993    33 C    0.980    31 O    0.951
                            28 C    0.939
    30   6 C    3.983 --    29 C    0.993    85 H    0.976    84 H    0.975
                            86 H    0.968
    31   8 O    2.071 --    32 C    0.982    29 C    0.951
    32   6 C    3.948 --    31 O    0.982    87 H    0.975    88 H    0.966
                            89 H    0.963
    33   6 C    3.992 --    34 C    0.994    29 C    0.980    90 H    0.974
                            91 H    0.972
    34   6 C    3.986 --    33 C    0.994     8 C    0.983    93 H    0.979
                            92 H    0.976
    35   6 C    3.991 --    36 C    1.023    28 C    0.974    95 H    0.967
                            94 H    0.966
    36   6 C    3.941 --    37 C    1.804    35 C    1.023    96 H    0.967
                            39 C    0.118
    37   6 C    3.990 --    36 C    1.804    38 C    1.151    97 H    0.960
    38   6 C    3.980 --    39 C    1.716    37 C    1.151    98 H    0.963
                            41 C    0.113
    39   6 C    3.989 --    38 C    1.716    40 C    1.155    99 H    0.962
                            36 C    0.118
    40   6 C    3.988 --    41 C    1.755    39 C    1.155   100 H    0.958
    41   6 C    3.942 --    40 C    1.755    42 C    1.031    43 C    1.013
                            38 C    0.113
    42   6 C    3.995 --    41 C    1.031   102 H    0.979   101 H    0.974
                           103 H    0.961
    43   6 C    3.993 --    41 C    1.013    44 C    0.978   105 H    0.974
                           104 H    0.961
    44   6 C    3.987 --    45 C    1.010    46 C    0.995    43 C    0.978
                           106 H    0.967
    45   6 C    3.995 --    44 C    1.010   108 H    0.987   107 H    0.985
                           109 H    0.984
    46   6 C    3.992 --    44 C    0.995    47 C    0.978   110 H    0.971
                           111 H    0.971
    47   6 C    3.954 --    46 C    0.978    48 O    0.975    50 C    0.960
                           112 H    0.931
    48   8 O    2.070 --    49 C    0.992    47 C    0.975
    49   6 C    3.952 --    48 O    0.992   114 H    0.980   115 H    0.978
                           113 H    0.977
    50   6 C    3.915 --    51 O    1.853    52 C    1.019    47 C    0.960
    51   8 O    2.056 --    50 C    1.853
    52   6 C    3.993 --    50 C    1.019   116 H    0.982   118 H    0.960
                           117 H    0.953
    53   6 C    3.984 --     6 C    0.984   119 H    0.966    13 C    0.958
                           120 H    0.957
    54   1 H    0.999 --     1 C    0.979
    55   1 H    0.999 --     1 C    0.979
    56   1 H    0.996 --     1 C    0.981
    57   1 H    0.998 --     3 C    0.965
    58   1 H    0.999 --     3 C    0.969
    59   1 H    0.999 --     4 C    0.969
    60   1 H    0.996 --     4 C    0.969
    61   1 H    0.998 --     6 C    0.955
    62   1 H    0.998 --     7 C    0.976
    63   1 H    0.998 --     7 C    0.963
    64   1 H    0.998 --     8 C    0.970
    65   1 H    0.998 --     9 C    0.969
    66   1 H    0.999 --     9 C    0.976
    67   1 H    0.991 --    10 C    0.954
    68   1 H    0.998 --    10 C    0.977
    69   1 H    0.997 --    11 C    0.965
    70   1 H    0.997 --    12 C    0.983
    71   1 H    0.997 --    12 C    0.985
    72   1 H    0.999 --    12 C    0.979
    73   1 H    0.907 --    14 O    0.874
    74   1 H    0.995 --    20 C    0.972
    75   1 H    0.997 --    20 C    0.972
    76   1 H    0.998 --    21 C    0.978
    77   1 H    0.998 --    21 C    0.975
    78   1 H    0.997 --    22 C    0.977
    79   1 H    0.998 --    22 C    0.975
    80   1 H    0.998 --    23 C    0.977
    81   1 H    0.996 --    23 C    0.972
    82   1 H    0.994 --    24 C    0.944
    83   1 H    0.997 --    28 C    0.954
    84   1 H    0.997 --    30 C    0.975
    85   1 H    0.995 --    30 C    0.976
    86   1 H    0.995 --    30 C    0.968
    87   1 H    0.996 --    32 C    0.975
    88   1 H    0.998 --    32 C    0.966
    89   1 H    0.999 --    32 C    0.963
    90   1 H    0.999 --    33 C    0.974
    91   1 H    0.999 --    33 C    0.972
    92   1 H    0.998 --    34 C    0.976
    93   1 H    0.998 --    34 C    0.979
    94   1 H    0.996 --    35 C    0.966
    95   1 H    0.996 --    35 C    0.967
    96   1 H    0.999 --    36 C    0.967
    97   1 H    0.999 --    37 C    0.960
    98   1 H    0.998 --    38 C    0.963
    99   1 H    0.999 --    39 C    0.962
   100   1 H    0.999 --    40 C    0.958
   101   1 H    0.994 --    42 C    0.974
   102   1 H    0.998 --    42 C    0.979
   103   1 H    0.994 --    42 C    0.961
   104   1 H    0.993 --    43 C    0.961
   105   1 H    0.999 --    43 C    0.974
   106   1 H    0.998 --    44 C    0.967
   107   1 H    0.999 --    45 C    0.985
   108   1 H    0.999 --    45 C    0.987
   109   1 H    0.997 --    45 C    0.984
   110   1 H    0.997 --    46 C    0.971
   111   1 H    0.998 --    46 C    0.971
   112   1 H    0.998 --    47 C    0.931
   113   1 H    0.999 --    49 C    0.977
   114   1 H    0.996 --    49 C    0.980
   115   1 H    0.999 --    49 C    0.978
   116   1 H    0.995 --    52 C    0.982
   117   1 H    0.993 --    52 C    0.953
   118   1 H    0.995 --    52 C    0.960
   119   1 H    0.996 --    53 C    0.966
   120   1 H    0.994 --    53 C    0.957
   121  22 Ti   2.822 --   140 O    0.844   141 O    0.813   127 Ti   0.331
                           122 Ti   0.202   124 Ti   0.198
   122  22 Ti   3.852 --   141 O    0.753   144 O    0.745   142 O    0.691
                           143 O    0.605   121 Ti   0.202   123 Ti   0.188
                           125 Ti   0.138   126 Ti   0.136
   123  22 Ti   2.721 --   149 O    0.962   142 O    0.599   129 Ti   0.371
                           122 Ti   0.188   127 Ti   0.140   144 O    0.110
   124  22 Ti   3.917 --   145 O    0.939   133 C    0.719   140 O    0.706
                           143 O    0.562   126 Ti   0.210   121 Ti   0.198
                           130 Ti   0.178   150 O    0.124
   125  22 Ti   4.067 --   139 C    0.888   146 O    0.775   137 C    0.744
                           144 O    0.602   131 Ti   0.283   126 Ti   0.174
                           138 C    0.158   134 C    0.152   122 Ti   0.138
   126  22 Ti   2.645 --   146 O    0.972   145 O    0.710   124 Ti   0.210
                           125 Ti   0.174   122 Ti   0.136   141 O    0.122
   127  22 Ti   3.769 --   147 O    1.997   128 Ti   0.609   121 Ti   0.331
                           142 O    0.153   140 O    0.147   123 Ti   0.140
                           150 O    0.112
   128  22 Ti   4.015 --   150 O    0.801   148 O    0.753   151 O    0.714
                           127 Ti   0.609   152 O    0.195   129 Ti   0.166
                           132 Ti   0.147   130 Ti   0.141
   129  22 Ti   2.745 --   148 O    0.835   149 O    0.764   123 Ti   0.371
                           132 Ti   0.221   128 Ti   0.166   131 Ti   0.130
   130  22 Ti   4.002 --   138 C    1.049   136 C    0.728   152 O    0.616
                           150 O    0.443   139 C    0.226   132 Ti   0.200
                           124 Ti   0.178   133 C    0.156   128 Ti   0.141
   131  22 Ti   4.078 --   153 O    0.968   134 C    0.670   139 C    0.651
                           151 O    0.442   125 Ti   0.283   132 Ti   0.210
                           138 C    0.140   129 Ti   0.130   149 O    0.114
   132  22 Ti   2.789 --   152 O    0.900   153 O    0.734   129 Ti   0.221
                           131 Ti   0.210   130 Ti   0.200   128 Ti   0.147
   133   6 C    3.842 --   136 C    2.739   124 Ti   0.719   130 Ti   0.156
   134   6 C    3.781 --   137 C    2.732   131 Ti   0.670   125 Ti   0.152
   135   6 C    3.979 --   138 C    2.009   139 C    1.604
   136   6 C    3.707 --   133 C    2.739   130 Ti   0.728
   137   6 C    3.748 --   134 C    2.732   125 Ti   0.744
   138   6 C    3.754 --   135 C    2.009   130 Ti   1.049   125 Ti   0.158
                           131 Ti   0.140
   139   6 C    3.812 --   135 C    1.604   125 Ti   0.888   131 Ti   0.651
                           130 Ti   0.226
   140   8 O    1.934 --   121 Ti   0.844   124 Ti   0.706   127 Ti   0.147
   141   8 O    1.894 --   121 Ti   0.813   122 Ti   0.753   126 Ti   0.122
   142   8 O    1.783 --   122 Ti   0.691   123 Ti   0.599   127 Ti   0.153
   143   8 O    1.718 --   122 Ti   0.605   124 Ti   0.562
   144   8 O    1.847 --   122 Ti   0.745   125 Ti   0.602   123 Ti   0.110
   145   8 O    1.974 --   124 Ti   0.939   126 Ti   0.710
   146   8 O    2.016 --   126 Ti   0.972   125 Ti   0.775
   147   8 O    2.172 --   127 Ti   1.997
   148   8 O    1.911 --   129 Ti   0.835   128 Ti   0.753
   149   8 O    2.008 --   123 Ti   0.962   129 Ti   0.764   131 Ti   0.114
   150   8 O    1.799 --   128 Ti   0.801   130 Ti   0.443   124 Ti   0.124
                           127 Ti   0.112
   151   8 O    1.771 --   128 Ti   0.714   131 Ti   0.442
   152   8 O    1.986 --   132 Ti   0.900   130 Ti   0.616   128 Ti   0.195
   153   8 O    2.032 --   131 Ti   0.968   132 Ti   0.734
 ---------------------------------------------------------------------------

Topologies differ in total number of bonds
Writing topology from bond orders to xtbtopo.mol

molecular dipole:
                 x           y           z       tot (Debye)
 q only:        3.208      -2.241      -2.380
   full:        2.074      -2.468      -1.391       8.925
molecular quadrupole (traceless):
                xx          xy          yy          xz          yz          zz
 q only:       -0.736     -16.286      24.095      45.266     -60.139     -23.359
  q+dip:        6.520     -28.339       3.566      85.443     -79.307     -10.086
   full:        9.699     -28.452       2.605      86.640     -78.956     -12.304


           -------------------------------------------------
          | TOTAL ENERGY             -259.602695189258 Eh   |
          | GRADIENT NORM               0.130958783795 Eh/α |
          | HOMO-LUMO GAP               0.222714829065 eV   |
           -------------------------------------------------

------------------------------------------------------------------------
 * finished run on 2026/08/31 at 21:19:22.997     
------------------------------------------------------------------------
 total:
 * wall-time:     0 d,  0 h,  0 min,  1.807 sec
 *  cpu-time:     0 d,  0 h,  0 min, 19.125 sec
 * ratio c/w:    10.584 speedup
 SCF:
 * wall-time:     0 d,  0 h,  0 min,  1.736 sec
 *  cpu-time:     0 d,  0 h,  0 min, 18.500 sec
 * ratio c/w:    10.657 speedup

normal termination of xtb
