153
Drug@Ti12C7O14 non-overlapping complex
C    -11.300257     -1.387996      9.669256
O    -10.568697     -2.027441     10.707343
C     -9.371464     -1.312493     11.015120
C     -8.624687     -2.036282     12.135066
O     -7.429623     -1.345345     12.504353
C     -6.312044     -1.611619     11.626657
C     -5.426317     -2.647842     12.370442
C     -4.363980     -3.427941     11.573011
C     -4.334444     -3.180091     10.040116
C     -3.854182     -1.819100      9.550631
C     -4.820794     -0.778989      8.956027
C     -5.873385     -1.406531      8.031044
C     -5.352891      0.249668      9.993872
O     -6.642128      0.714958      9.506549
C     -4.483372      1.562994     10.131124
O     -5.049316      2.655378     10.243437
C     -2.916054      1.495617     10.209144
O     -2.309906      0.546755      9.738058
N     -2.243294      2.597508     10.796168
C     -2.401820      3.860593     10.067842
C     -1.113545      4.277728      9.326244
C     -0.249295      3.077601      8.921450
C      0.129548      2.195629     10.124821
C     -0.848213      2.400101     11.285714
C     -0.663163      1.512013     12.535529
O     -1.129623      1.823340     13.629185
O      0.030461      0.364522     12.310160
C     -0.251093     -0.798621     13.177571
C     -1.458466     -1.574823     12.498568
C     -0.949861     -1.971333     11.090345
O     -2.546616     -0.621613     12.429970
C     -3.093015     -0.165181     13.684243
C     -2.053800     -2.850922     13.150411
C     -2.995512     -3.780066     12.291156
C      1.066973     -1.559339     13.457074
C      2.012242     -1.814413     12.310885
C      2.969183     -1.002778     11.828928
C      3.275082      0.328269     12.307346
C      4.182016      1.190061     11.816436
C      5.080020      0.983660     10.699405
C      5.930275      1.888654     10.171384
C      6.063074      3.324639     10.610743
C      6.834287      1.491143      9.014289
C      8.353568      1.568236      9.312503
C      9.120576      1.237095      8.028360
C      8.734744      0.647664     10.501047
C     10.213799      0.638832     10.930362
O     11.053504      0.068585      9.928767
C     11.105301     -1.351477      9.973957
C     10.703618      2.044047     11.319483
O      9.957756      2.885874     11.825923
C     12.170237      2.337643     11.131932
C     -5.617838     -0.257164     11.422841
H    -11.595113     -0.379092      9.973569
H    -10.706343     -1.347038      8.751044
H    -12.203682     -1.972177      9.474863
H     -8.746483     -1.240581     10.118669
H     -9.613596     -0.291518     11.333855
H     -8.411367     -3.078213     11.866899
H     -9.266975     -2.076223     13.022058
H     -6.686487     -2.022030     10.690787
H     -6.108617     -3.397570     12.800545
H     -4.992240     -2.204477     13.263094
H     -4.813186     -4.439204     11.562635
H     -5.314023     -3.425747      9.617409
H     -3.660992     -3.936568      9.612435
H     -3.335680     -1.347009     10.369526
H     -3.106045     -2.014205      8.769201
H     -4.208921     -0.185287      8.260011
H     -5.408549     -2.135694      7.358167
H     -6.337708     -0.642282      7.397795
H     -6.673199     -1.911659      8.575876
H     -6.786707      1.596222      9.910983
H     -3.201231      3.786264      9.325205
H     -2.681346      4.633285     10.792008
H     -0.521370      4.935157      9.975867
H     -1.373677      4.876156      8.445644
H      0.660099      3.419775      8.414754
H     -0.802439      2.473272      8.191721
H      1.141844      2.449450     10.464035
H      0.178165      1.148866      9.806048
H     -0.576225      3.378754     11.716275
H     -0.544157     -0.429054     14.161667
H     -0.139359     -2.699418     11.155229
H     -0.604650     -1.115147     10.507031
H     -1.691050     -2.469511     10.478794
H     -3.537264      0.821136     13.519272
H     -2.378969     -0.089136     14.501584
H     -3.886935     -0.821876     14.029273
H     -2.583441     -2.610159     14.077606
H     -1.214962     -3.488108     13.460406
H     -2.363654     -4.291088     11.552145
H     -3.258402     -4.583613     12.998115
H      1.618224     -0.991006     14.218481
H      0.841674     -2.515736     13.943353
H      1.923137     -2.793844     11.843347
H      3.556871     -1.378290     10.994874
H      2.694337      0.678411     13.158818
H      4.254297      2.147647     12.327157
H      5.074442     -0.013182     10.265074
H      6.111753      3.983971      9.737167
H      5.220192      3.674165     11.211312
H      6.977113      3.461043     11.196747
H      6.597265      2.147574      8.166023
H      6.594421      0.474653      8.673748
H      8.595064      2.605474      9.573241
H      8.731219      1.812611      7.181230
H      9.039490      0.174062      7.778667
H     10.179245      1.495625      8.119602
H      8.144953      0.942908     11.377652
H      8.425626     -0.375028     10.253575
H     10.311166      0.046861     11.850782
H     10.118476     -1.787968      9.799977
H     11.776891     -1.692837      9.181508
H     11.504764     -1.690002     10.934717
H     12.403254      3.322358     11.547094
H     12.413896      2.341458     10.066848
H     12.765840      1.587280     11.657715
H     -6.187966      0.518960     11.954488
H     -4.668282     -0.291230     11.921896
Ti     -2.141866     -3.008818      2.119748
Ti      0.288991     -1.694759      1.432425
Ti      1.903098     -3.067749     -0.729322
Ti     -2.521502     -0.251928      1.303687
Ti      2.142050      0.499533      2.204434
Ti     -0.681448      0.189635      3.681230
Ti     -2.036770     -3.077740     -1.200512
Ti     -0.605340     -0.770900     -2.035132
Ti      1.945488     -1.587317     -3.412400
Ti     -1.878170      1.746573     -1.240030
Ti      2.412512      0.454231     -0.774247
Ti      0.817742      1.838452     -2.940004
C     -3.678414      1.281398      0.600737
C      4.128193      0.482847      0.387293
C      0.455479      2.267202      0.349695
C     -3.666709      2.118834     -0.313920
C      4.115962      0.632239      1.621354
C     -0.635167      2.741046     -0.118921
C      1.630072      1.780996      0.734224
O     -3.093456     -1.956907      1.037949
O     -0.487250     -2.605849      2.701203
O      0.314079     -2.888890      0.145001
O     -0.800785     -0.435934      0.971227
O      1.902865     -1.158331      1.469449
O     -2.322673     -0.113878      3.024800
O      1.013786      0.441598      3.568761
O     -1.772019     -4.587905     -1.652810
O      0.190605     -1.189189     -3.534030
O      2.831420     -2.170248     -1.918042
O     -2.054558     -0.224445     -1.337505
O      0.768511     -0.390574     -1.063664
O     -0.900039      1.649313     -2.818565
O      2.415313      1.357463     -2.264115
