153
Drug@Ti3C2O2 complex
C    -11.300257     -1.387996      4.399436
O    -10.568697     -2.027441      5.437523
C     -9.371464     -1.312493      5.745300
C     -8.624687     -2.036282      6.865246
O     -7.429623     -1.345345      7.234533
C     -6.312044     -1.611619      6.356837
C     -5.426317     -2.647842      7.100622
C     -4.363980     -3.427941      6.303191
C     -4.334444     -3.180091      4.770296
C     -3.854182     -1.819100      4.280811
C     -4.820794     -0.778989      3.686207
C     -5.873385     -1.406531      2.761224
C     -5.352891      0.249668      4.724052
O     -6.642128      0.714958      4.236729
C     -4.483372      1.562994      4.861304
O     -5.049316      2.655378      4.973617
C     -2.916054      1.495617      4.939324
O     -2.309906      0.546755      4.468238
N     -2.243294      2.597508      5.526348
C     -2.401820      3.860593      4.798022
C     -1.113545      4.277728      4.056424
C     -0.249295      3.077601      3.651630
C      0.129548      2.195629      4.855001
C     -0.848213      2.400101      6.015894
C     -0.663163      1.512013      7.265709
O     -1.129623      1.823340      8.359365
O      0.030461      0.364522      7.040340
C     -0.251093     -0.798621      7.907751
C     -1.458466     -1.574823      7.228748
C     -0.949861     -1.971333      5.820525
O     -2.546616     -0.621613      7.160150
C     -3.093015     -0.165181      8.414423
C     -2.053800     -2.850922      7.880591
C     -2.995512     -3.780066      7.021336
C      1.066973     -1.559339      8.187254
C      2.012242     -1.814413      7.041065
C      2.969183     -1.002778      6.559108
C      3.275082      0.328269      7.037526
C      4.182016      1.190061      6.546616
C      5.080020      0.983660      5.429585
C      5.930275      1.888654      4.901564
C      6.063074      3.324639      5.340923
C      6.834287      1.491143      3.744469
C      8.353568      1.568236      4.042683
C      9.120576      1.237095      2.758540
C      8.734744      0.647664      5.231227
C     10.213799      0.638832      5.660542
O     11.053504      0.068585      4.658947
C     11.105301     -1.351477      4.704137
C     10.703618      2.044047      6.049663
O      9.957756      2.885874      6.556103
C     12.170237      2.337643      5.862112
C     -5.617838     -0.257164      6.153021
H    -11.595113     -0.379092      4.703749
H    -10.706343     -1.347038      3.481224
H    -12.203682     -1.972177      4.205043
H     -8.746483     -1.240581      4.848849
H     -9.613596     -0.291518      6.064035
H     -8.411367     -3.078213      6.597079
H     -9.266975     -2.076223      7.752238
H     -6.686487     -2.022030      5.420967
H     -6.108617     -3.397570      7.530725
H     -4.992240     -2.204477      7.993274
H     -4.813186     -4.439204      6.292815
H     -5.314023     -3.425747      4.347589
H     -3.660992     -3.936568      4.342615
H     -3.335680     -1.347009      5.099706
H     -3.106045     -2.014205      3.499381
H     -4.208921     -0.185287      2.990191
H     -5.408549     -2.135694      2.088347
H     -6.337708     -0.642282      2.127975
H     -6.673199     -1.911659      3.306056
H     -6.786707      1.596222      4.641163
H     -3.201231      3.786264      4.055385
H     -2.681346      4.633285      5.522188
H     -0.521370      4.935157      4.706047
H     -1.373677      4.876156      3.175824
H      0.660099      3.419775      3.144934
H     -0.802439      2.473272      2.921901
H      1.141844      2.449450      5.194215
H      0.178165      1.148866      4.536228
H     -0.576225      3.378754      6.446455
H     -0.544157     -0.429054      8.891847
H     -0.139359     -2.699418      5.885409
H     -0.604650     -1.115147      5.237211
H     -1.691050     -2.469511      5.208974
H     -3.537264      0.821136      8.249452
H     -2.378969     -0.089136      9.231764
H     -3.886935     -0.821876      8.759453
H     -2.583441     -2.610159      8.807786
H     -1.214962     -3.488108      8.190586
H     -2.363654     -4.291088      6.282325
H     -3.258402     -4.583613      7.728295
H      1.618224     -0.991006      8.948661
H      0.841674     -2.515736      8.673533
H      1.923137     -2.793844      6.573527
H      3.556871     -1.378290      5.725054
H      2.694337      0.678411      7.888998
H      4.254297      2.147647      7.057337
H      5.074442     -0.013182      4.995254
H      6.111753      3.983971      4.467347
H      5.220192      3.674165      5.941492
H      6.977113      3.461043      5.926927
H      6.597265      2.147574      2.896203
H      6.594421      0.474653      3.403928
H      8.595064      2.605474      4.303421
H      8.731219      1.812611      1.911410
H      9.039490      0.174062      2.508847
H     10.179245      1.495625      2.849782
H      8.144953      0.942908      6.107832
H      8.425626     -0.375028      4.983755
H     10.311166      0.046861      6.580962
H     10.118476     -1.787968      4.530157
H     11.776891     -1.692837      3.911688
H     11.504764     -1.690002      5.664897
H     12.403254      3.322358      6.277274
H     12.413896      2.341458      4.797028
H     12.765840      1.587280      6.387895
H     -6.187966      0.518960      6.684668
H     -4.668282     -0.291230      6.652076
Ti     -3.000000     -2.600000      1.250000
Ti      0.000000     -2.600000      1.250000
Ti      3.000000     -2.600000      1.250000
Ti     -1.500000      0.000000      1.250000
Ti      1.500000      0.000000      1.250000
Ti      0.000000      2.600000      1.250000
Ti     -3.000000     -2.600000     -1.250000
Ti      0.000000     -2.600000     -1.250000
Ti      3.000000     -2.600000     -1.250000
Ti     -1.500000      0.000000     -1.250000
Ti      1.500000      0.000000     -1.250000
Ti      0.000000      2.600000     -1.250000
C     -1.500000     -1.300000      0.000000
C      1.500000     -1.300000      0.000000
C      0.000000      1.300000      0.000000
C     -3.000000      0.000000      0.000000
C      3.000000      0.000000      0.000000
C     -1.500000      2.600000      0.000000
C      1.500000      2.600000      0.000000
O     -3.000000     -2.600000      2.450000
O      0.000000     -2.600000      2.450000
O      3.000000     -2.600000      2.450000
O     -1.500000      0.000000      2.450000
O      1.500000      0.000000      2.450000
O     -1.500000      2.600000      2.450000
O      1.500000      2.600000      2.450000
O     -3.000000     -2.600000     -2.450000
O      0.000000     -2.600000     -2.450000
O      3.000000     -2.600000     -2.450000
O     -1.500000      0.000000     -2.450000
O      1.500000      0.000000     -2.450000
O     -1.500000      2.600000     -2.450000
O      1.500000      2.600000     -2.450000
