      -----------------------------------------------------------      
     |                   =====================                   |     
     |                           x T B                           |     
     |                   =====================                   |     
     |                         S. Grimme                         |     
     |          Mulliken Center for Theoretical Chemistry        |     
     |                    University of Bonn                     |     
      -----------------------------------------------------------      

   * xtb version 6.7.1pre (5071a88) compiled by 'Marcel@Raven' on 2024-07-23

   xtb is free software: you can redistribute it and/or modify it under
   the terms of the GNU Lesser General Public License as published by
   the Free Software Foundation, either version 3 of the License, or
   (at your option) any later version.
   
   xtb is distributed in the hope that it will be useful,
   but WITHOUT ANY WARRANTY; without even the implied warranty of
   MERCHANTABILITY or FITNESS FOR A PARTICULAR PURPOSE.  See the
   GNU Lesser General Public License for more details.
   
   Cite this work as:
   * C. Bannwarth, E. Caldeweyher, S. Ehlert, A. Hansen, P. Pracht,
     J. Seibert, S. Spicher, S. Grimme, WIREs Comput. Mol. Sci., 2020, 11,
     e01493. DOI: 10.1002/wcms.1493
   
   for GFN2-xTB:
   * C. Bannwarth, S. Ehlert and S. Grimme., J. Chem. Theory Comput., 2019,
     15, 1652-1671. DOI: 10.1021/acs.jctc.8b01176
   for GFN1-xTB:
   * S. Grimme, C. Bannwarth, P. Shushkov, J. Chem. Theory Comput., 2017,
     13, 1989-2009. DOI: 10.1021/acs.jctc.7b00118
   for GFN0-xTB:
   * P. Pracht, E. Caldeweyher, S. Ehlert, S. Grimme, ChemRxiv, 2019, preprint.
     DOI: 10.26434/chemrxiv.8326202.v1
   for GFN-FF:
   * S. Spicher and S. Grimme, Angew. Chem. Int. Ed., 2020, 59, 15665-15673.
     DOI: 10.1002/anie.202004239
   
   for ALPB and GBSA implicit solvation:
   * S. Ehlert, M. Stahn, S. Spicher, S. Grimme, J. Chem. Theory Comput.,
     2021, 17, 4250-4261. DOI: 10.1021/acs.jctc.1c00471
   
   for ddCOSMO and CPCM-X implicit solvation:
   * M. Stahn, S. Ehlert, S. Grimme, J. Phys. Chem. A,
     2023, XX, XXXX-XXXX. DOI: 10.1021/acs.jpca.3c04382
   
   for DFT-D4:
   * E. Caldeweyher, C. Bannwarth and S. Grimme, J. Chem. Phys., 2017,
     147, 034112. DOI: 10.1063/1.4993215
   * E. Caldeweyher, S. Ehlert, A. Hansen, H. Neugebauer, S. Spicher,
     C. Bannwarth and S. Grimme, J. Chem. Phys., 2019, 150, 154122.
     DOI: 10.1063/1.5090222
   * E. Caldeweyher, J.-M. Mewes, S. Ehlert and S. Grimme, Phys. Chem. Chem. Phys.
     2020, 22, 8499-8512. DOI: 10.1039/D0CP00502A
   
   for sTDA-xTB:
   * S. Grimme and C. Bannwarth, J. Chem. Phys., 2016, 145, 054103.
     DOI: 10.1063/1.4959605
   
   in the mass-spec context:
   * V. Asgeirsson, C. Bauer and S. Grimme, Chem. Sci., 2017, 8, 4879.
     DOI: 10.1039/c7sc00601b
   * J. Koopman and S. Grimme, ACS Omega 2019, 4, 12, 15120-15133.
     DOI: 10.1021/acsomega.9b02011
   
   for metadynamics refer to:
   * S. Grimme, J. Chem. Theory Comput., 2019, 155, 2847-2862
     DOI: 10.1021/acs.jctc.9b00143
   
   for SPH calculations refer to:
   * S. Spicher and S. Grimme, J. Chem. Theory Comput., 2021, 17, 1701-1714
     DOI: 10.1021/acs.jctc.0c01306
   
   for ONIOM refer to:
   * C. Plett, A. Katbashev, S. Ehlert, S. Grimme, M. Bursch,
     Phys. Chem. Chem. Phys., 2023, 25, 17860-17868. DOI: 10.1039/D3CP02178E
   
   for DIPRO refer to:
   * J. Kohn, N. Gildemeister, S. Grimme, D. Fazzi, A. Hansen,
     J. Chem. Phys., 2023, just accepted.
   
   for PTB refer to:
   * S. Grimme, M. Mueller, A. Hansen, J. Chem. Phys., 2023, 158, 124111.
     DOI: 10.1063/5.0137838
   
   with help from (in alphabetical order)
   P. Atkinson, C. Bannwarth, F. Bohle, G. Brandenburg, E. Caldeweyher
   M. Checinski, S. Dohm, S. Ehlert, S. Ehrlich, I. Gerasimov, C. Hölzer
   A. Katbashev, J. Kohn, J. Koopman, C. Lavigne, S. Lehtola, F. März, M. Müller,
   F. Musil, H. Neugebauer, J. Pisarek, C. Plett, P. Pracht, F. Pultar,
   J. Seibert, P. Shushkov, S. Spicher, M. Stahn, M. Steiner, T. Strunk,
   J. Stückrath, T. Rose, and J. Unsleber
   
 * started run on 2026/08/31 at 21:55:30.178     
   ID    Z sym.   atoms
    1    6 C      1, 3, 5-7, 9-12, 14, 17-20, 22, 23, 27, 28, 30-32, 61-67
    2    7 N      2, 13, 16, 33
    3    8 O      4, 8, 15, 68-81
    4   17 Cl     21
    5    9 F      24-26, 29
    6    1 H      34-48
    7   22 Ti     49-60

           -------------------------------------------------
          |                Calculation Setup                |
           -------------------------------------------------

          program call               : "c:\Users\Andre\Proyectos doctorado\kras-pancreatic-gC3N4-ai\tools\xtb\xtb-6.7.1\bin\xtb.exe" "c:\Users\Andre\Proyectos doctorado\mxene-glioblastoma-qsar-ai\calculations\gbm\Regorafenib\Regorafenib_Ti12C7O14_clean_complex.xyz" --gfn 2 --sp --chrg 0 --uhf 0 --etemp 500 --acc 1.0 --iterations 500 --norestart
          coordinate file            : c:\Users\Andre\Proyectos doctorado\mxene-glioblastoma-qsar-ai\calculations\gbm\Regorafenib\Regorafenib_Ti12C7O14_clean_complex.xyz
          omp threads                :                    16


molecular fragmentation (1/2 indicates fragments):
111111111111111111111111111111111111111111111111222222222222222222222222
222222222
# atoms in fragment 1/2:    48    33
 fragment masses (1/2) :      482.82      882.47
CMA distance (Bohr)    :  21.281
constraining FC (au)   :  0.0500

           -------------------------------------------------
          |                 G F N 2 - x T B                 |
           -------------------------------------------------

        Reference                      10.1021/acs.jctc.8b01176
      * Hamiltonian:
        H0-scaling (s, p, d)           1.850000    2.230000    2.230000
        zeta-weighting                 0.500000
      * Dispersion:
        s8                             2.700000
        a1                             0.520000
        a2                             5.000000
        s9                             5.000000
      * Repulsion:
        kExp                           1.500000    1.000000
        rExp                           1.000000
      * Coulomb:
        alpha                          2.000000
        third order                    shell-resolved
        anisotropic                    true
        a3                             3.000000
        a5                             4.000000
        cn-shift                       1.200000
        cn-exp                         4.000000
        max-rad                        5.000000


          ...................................................
          :                      SETUP                      :
          :.................................................:
          :  # basis functions                 357          :
          :  # atomic orbitals                 344          :
          :  # shells                          160          :
          :  # electrons                       332          :
          :  max. iterations                   500          :
          :  Hamiltonian                  GFN2-xTB          :
          :  restarted?                      false          :
          :  GBSA solvation                  false          :
          :  PC potential                    false          :
          :  electronic temp.          500.0000000     K    :
          :  accuracy                    1.0000000          :
          :  -> integral cutoff          0.2500000E+02      :
          :  -> integral neglect         0.1000000E-07      :
          :  -> SCF convergence          0.1000000E-05 Eh   :
          :  -> wf. convergence          0.1000000E-03 e    :
          :  Broyden damping             0.4000000          :
          :  net charge                          0          :
          :  unpaired electrons                  0          :
          ...................................................

 iter      E             dE          RMSdq      gap      omega  full diag
   1   -190.8118869 -0.190812E+03  0.138E+01    0.12       0.0  T
   2   -153.8692251  0.369427E+02  0.141E+01    0.03       1.0  T
   3     23.7218639  0.177591E+03  0.289E+01    0.03       1.0  T
   4   -159.0676562 -0.182790E+03  0.135E+01    0.13       1.0  T
   5    -83.9258324  0.751418E+02  0.176E+01    0.00       1.0  T
   6   -191.5908900 -0.107665E+03  0.800E+00    0.44       1.0  T
   7   -193.2742257 -0.168334E+01  0.588E+00    0.30       1.0  T
   8   -192.1579340  0.111629E+01  0.595E+00    0.13       1.0  T
   9   -188.6623725  0.349556E+01  0.621E+00    0.25       1.0  T
  10   -191.8453205 -0.318295E+01  0.529E+00    0.01       1.0  T
  11   -188.9990129  0.284631E+01  0.540E+00    0.05       1.0  T
  12   -188.9633004  0.357125E-01  0.537E+00    0.06       1.0  T
  13   -190.8397516 -0.187645E+01  0.462E+00    0.18       1.0  T
  14   -189.9786678  0.861084E+00  0.435E+00    0.02       1.0  T
  15   -192.5048477 -0.252618E+01  0.335E+00    0.22       1.0  T
  16   -190.9209692  0.158388E+01  0.363E+00    0.08       1.0  T
  17   -193.2448227 -0.232385E+01  0.214E+00    0.08       1.0  T
  18   -192.7782139  0.466609E+00  0.224E+00    0.06       1.0  T
  19   -193.5908752 -0.812661E+00  0.207E+00    0.07       1.0  T
  20   -193.5431124  0.477628E-01  0.196E+00    0.04       1.0  T
  21   -193.7513600 -0.208248E+00  0.208E+00    0.32       1.0  T
  22   -193.7677109 -0.163509E-01  0.174E+00    0.37       1.0  T
  23   -193.7893356 -0.216247E-01  0.131E+00    0.41       1.0  T
  24   -193.7976716 -0.833604E-02  0.105E+00    0.53       1.0  T
  25   -193.8069608 -0.928921E-02  0.773E-01    0.77       1.0  T
  26   -193.8130497 -0.608883E-02  0.711E-01    0.83       1.0  T
  27   -193.8190904 -0.604073E-02  0.539E-01    0.86       1.0  T
  28   -193.8213584 -0.226802E-02  0.466E-01    0.82       1.0  T
  29   -193.8243402 -0.298179E-02  0.386E-01    0.75       1.0  T
  30   -193.8253070 -0.966771E-03  0.336E-01    0.74       1.0  T
  31   -193.8270730 -0.176604E-02  0.274E-01    0.75       1.0  T
  32   -193.8280253 -0.952288E-03  0.252E-01    0.77       1.0  T
  33   -193.8289494 -0.924072E-03  0.215E-01    0.77       1.0  T
  34   -193.8296978 -0.748406E-03  0.163E-01    0.75       1.0  T
  35   -193.8300008 -0.303017E-03  0.131E-01    0.73       1.0  T
  36   -193.8303227 -0.321888E-03  0.111E-01    0.71       1.0  T
  37   -193.8305839 -0.261175E-03  0.962E-02    0.69       1.0  T
  38   -193.8306647 -0.807990E-04  0.787E-02    0.68       1.0  T
  39   -193.8307721 -0.107393E-03  0.689E-02    0.67       1.0  T
  40   -193.8308036 -0.314845E-04  0.637E-02    0.67       1.0  T
  41   -193.8308341 -0.305294E-04  0.570E-02    0.67       1.0  T
  42   -193.8308545 -0.204339E-04  0.542E-02    0.66       1.0  T
  43   -193.8308951 -0.405724E-04  0.495E-02    0.66       1.0  T
  44   -193.8309606 -0.655190E-04  0.398E-02    0.65       1.0  T
  45   -193.8310129 -0.523422E-04  0.303E-02    0.64       1.0  T
  46   -193.8310197 -0.674455E-05  0.285E-02    0.63       1.0  T
  47   -193.8310323 -0.125684E-04  0.250E-02    0.63       1.0  T
  48   -193.8310355 -0.322268E-05  0.241E-02    0.63       1.0  T
  49   -193.8310470 -0.115607E-04  0.205E-02    0.63       1.0  T
  50   -193.8310634 -0.163565E-04  0.151E-02    0.62       1.0  T
  51   -193.8310748 -0.113793E-04  0.984E-03    0.62       1.1  T
  52   -193.8310808 -0.606554E-05  0.509E-03    0.61       2.2  T
  53   -193.8310812 -0.383103E-06  0.396E-03    0.61       2.8  T
  54   -193.8310816 -0.403159E-06  0.284E-03    0.61       3.9  T
  55   -193.8310819 -0.221831E-06  0.203E-03    0.61       5.5  T
  56   -193.8310819 -0.863046E-07  0.159E-03    0.61       7.0  T
  57   -193.8310819 -0.842059E-08  0.151E-03    0.61       7.4  T
  58   -193.8310820 -0.707654E-07  0.114E-03    0.61       9.7  T
  59   -193.8310821 -0.356382E-07  0.878E-04    0.61      12.7  T
  60   -193.8310821 -0.278160E-07  0.663E-04    0.61      16.8  T

   *** convergence criteria satisfied after 60 iterations ***

         #    Occupation            Energy/Eh            Energy/eV
      -------------------------------------------------------------
         1        2.0000           -1.0660721             -29.0093
       ...           ...                  ...                  ...
       160        2.0000           -0.3606792              -9.8146
       161        2.0000           -0.3540746              -9.6349
       162        2.0000           -0.3523483              -9.5879
       163        2.0000           -0.3475488              -9.4573
       164        2.0000           -0.3400641              -9.2536
       165        2.0000           -0.3249423              -8.8421
       166        1.9975           -0.3103317              -8.4446 (HOMO)
       167        0.0011           -0.2877795              -7.8309 (LUMO)
       168        0.0006           -0.2868160              -7.8047
       169        0.0003           -0.2858872              -7.7794
       170        0.0003           -0.2857830              -7.7766
       171        0.0002           -0.2849191              -7.7530
       ...           ...                  ...                  ...
       344                         13.3269683             362.6453
      -------------------------------------------------------------
                  HL-Gap            0.0225523 Eh            0.6137 eV
             Fermi-level           -0.2997315 Eh           -8.1561 eV

 SCC (total)                   0 d,  0 h,  0 min,  3.959 sec
 SCC setup                      ...        0 min,  0.001 sec (  0.025%)
 Dispersion                     ...        0 min,  0.003 sec (  0.076%)
 classical contributions        ...        0 min,  0.000 sec (  0.000%)
 integral evaluation            ...        0 min,  0.012 sec (  0.303%)
 iterations                     ...        0 min,  3.919 sec ( 98.990%)
 molecular gradient             ...        0 min,  0.023 sec (  0.581%)
 printout                       ...        0 min,  0.001 sec (  0.025%)

         :::::::::::::::::::::::::::::::::::::::::::::::::::::
         ::                     SUMMARY                     ::
         :::::::::::::::::::::::::::::::::::::::::::::::::::::
         :: total energy            -192.074210856514 Eh    ::
         :: gradient norm              0.096097927742 Eh/a0 ::
         :: HOMO-LUMO gap              0.613678306946 eV    ::
         ::.................................................::
         :: SCC energy              -193.830081554076 Eh    ::
         :: -> isotropic ES            1.064342579366 Eh    ::
         :: -> anisotropic ES         -0.380685882937 Eh    ::
         :: -> anisotropic XC         -0.054806785782 Eh    ::
         :: -> dispersion             -0.142553110515 Eh    ::
         :: repulsion energy           1.755870697562 Eh    ::
         :: add. restraining           0.000000000000 Eh    ::
         :: total charge              -0.000000000001 e     ::
         :::::::::::::::::::::::::::::::::::::::::::::::::::::

           -------------------------------------------------
          |                Property Printout                |
           -------------------------------------------------

    * Orbital Energies and Occupations

         #    Occupation            Energy/Eh            Energy/eV
      -------------------------------------------------------------
         1        2.0000           -1.0660721             -29.0093
       ...           ...                  ...                  ...
       154        2.0000           -0.3887251             -10.5777
       155        2.0000           -0.3886293             -10.5751
       156        2.0000           -0.3837636             -10.4427
       157        2.0000           -0.3794087             -10.3242
       158        2.0000           -0.3708370             -10.0910
       159        2.0000           -0.3630155              -9.8782
       160        2.0000           -0.3606792              -9.8146
       161        2.0000           -0.3540746              -9.6349
       162        2.0000           -0.3523483              -9.5879
       163        2.0000           -0.3475488              -9.4573
       164        2.0000           -0.3400641              -9.2536
       165        2.0000           -0.3249423              -8.8421
       166        1.9975           -0.3103317              -8.4446 (HOMO)
       167        0.0011           -0.2877795              -7.8309 (LUMO)
       168        0.0006           -0.2868160              -7.8047
       169        0.0003           -0.2858872              -7.7794
       170        0.0003           -0.2857830              -7.7766
       171        0.0002           -0.2849191              -7.7530
       172        0.0000           -0.2821823              -7.6786
       173        0.0000           -0.2816126              -7.6631
       174        0.0000           -0.2769393              -7.5359
       175        0.0000           -0.2759350              -7.5086
       176        0.0000           -0.2752092              -7.4888
       177        0.0000           -0.2740386              -7.4570
       ...           ...                  ...                  ...
       344                         13.3269683             362.6453
      -------------------------------------------------------------
                  HL-Gap            0.0225523 Eh            0.6137 eV
             Fermi-level           -0.2997315 Eh           -8.1561 eV

     #   Z          covCN         q      C6AA      α(0)
     1   6 C        3.687    -0.041    21.512     6.639
     2   7 N        2.683    -0.167    24.614     7.368
     3   6 C        2.756     0.258    22.651     7.794
     4   8 O        0.857    -0.428    22.239     6.323
     5   6 C        2.947     0.065    26.554     8.452
     6   6 C        2.909    -0.047    29.164     8.855
     7   6 C        2.888     0.161    24.513     8.117
     8   8 O        1.708    -0.254    18.211     5.762
     9   6 C        2.872     0.140    24.952     8.188
    10   6 C        2.911    -0.060    29.483     8.904
    11   6 C        2.914    -0.049    29.207     8.862
    12   6 C        2.895     0.058    26.690     8.470
    13   7 N        2.703    -0.174    24.774     7.392
    14   6 C        2.681     0.325    21.471     7.583
    15   8 O        0.857    -0.432    22.340     6.337
    16   7 N        2.703    -0.176    24.819     7.399
    17   6 C        2.893     0.087    26.072     8.372
    18   6 C        2.914    -0.039    28.980     8.828
    19   6 C        2.956    -0.038    28.955     8.826
    20   6 C        2.879     0.096    25.873     8.339
    21  17 Cl       0.962    -0.127   103.124    15.536
    22   6 C        2.984    -0.030    28.737     8.793
    23   6 C        3.331     0.484    17.376     6.611
    24   9 F        0.788    -0.200    11.233     3.959
    25   9 F        0.788    -0.210    11.335     3.977
    26   9 F        0.788    -0.199    11.226     3.958
    27   6 C        2.923    -0.051    29.265     8.871
    28   6 C        2.783     0.146    24.814     8.159
    29   9 F        0.787    -0.222    11.470     4.001
    30   6 C        2.911    -0.070    29.749     8.944
    31   6 C        2.905    -0.062    29.530     8.910
    32   6 C        2.886     0.057    26.728     8.476
    33   7 N        1.832    -0.246    27.274     7.739
    34   1 H        0.924     0.056     2.246     2.344
    35   1 H        0.924     0.055     2.260     2.351
    36   1 H        0.924     0.081     1.973     2.197
    37   1 H        0.860     0.191     1.151     1.681
    38   1 H        0.925     0.089     1.892     2.151
    39   1 H        0.925     0.061     2.187     2.313
    40   1 H        0.925     0.096     1.822     2.111
    41   1 H        0.860     0.192     1.147     1.678
    42   1 H        0.860     0.185     1.187     1.707
    43   1 H        0.925     0.104     1.753     2.071
    44   1 H        0.925     0.085     1.925     2.170
    45   1 H        0.925     0.070     2.086     2.259
    46   1 H        0.925     0.083     1.949     2.183
    47   1 H        0.925     0.048     2.342     2.393
    48   1 H        0.925     0.052     2.294     2.368
    49  22 Ti       3.637     1.050   101.800    24.489
    50  22 Ti       6.855     1.550    84.067    14.886
    51  22 Ti       3.227     1.048   102.639    24.738
    52  22 Ti       5.860     1.379    85.679    15.028
    53  22 Ti       5.627     1.120    88.214    15.249
    54  22 Ti       3.541     1.043   102.434    24.667
    55  22 Ti       2.352     0.881   202.653    34.856
    56  22 Ti       6.011     1.348    85.972    15.054
    57  22 Ti       3.414     1.008   103.053    24.779
    58  22 Ti       5.519     1.096    88.455    15.270
    59  22 Ti       5.687     1.189    87.531    15.190
    60  22 Ti       3.581     1.026   102.472    24.642
    61   6 C        2.246    -0.257    37.629     9.939
    62   6 C        2.142    -0.255    38.323    10.007
    63   6 C        2.248    -0.019    30.614     8.965
    64   6 C        1.838    -0.209    37.291     9.865
    65   6 C        1.894    -0.224    37.731     9.921
    66   6 C        1.821    -0.346    42.149    10.490
    67   6 C        2.631    -0.404    39.910    10.334
    68   8 O        1.554    -0.846    31.981     7.630
    69   8 O        1.464    -0.880    33.189     7.765
    70   8 O        1.557    -0.955    35.573     8.047
    71   8 O        1.523    -1.007    37.484     8.258
    72   8 O        1.523    -0.912    34.151     7.882
    73   8 O        1.458    -0.820    31.332     7.544
    74   8 O        1.455    -0.796    30.606     7.456
    75   8 O        0.727    -0.635    27.072     6.972
    76   8 O        1.453    -0.864    32.688     7.705
    77   8 O        1.476    -0.799    30.656     7.464
    78   8 O        1.603    -0.946    35.190     8.006
    79   8 O        1.547    -0.969    36.077     8.103
    80   8 O        1.700    -0.817    30.964     7.513
    81   8 O        1.453    -0.781    30.158     7.401

 Mol. C6AA /au·bohr⁶  :     177771.985051
 Mol. C8AA /au·bohr⁸  :    7673736.140561
 Mol. α(0) /au        :        712.834137


Wiberg/Mayer (AO) data.
largest (>0.10) Wiberg bond orders for each atom

 ---------------------------------------------------------------------------
     #   Z sym  total        # sym  WBO       # sym  WBO       # sym  WBO
 ---------------------------------------------------------------------------
     1   6 C    3.966 --     2 N    1.011    35 H    0.982    36 H    0.976
                            34 H    0.971
     2   7 N    3.456 --     3 C    1.246     1 C    1.011    37 H    0.928
                             4 O    0.214
     3   6 C    3.959 --     4 O    1.667     2 N    1.246     5 C    0.979
     4   8 O    2.007 --     3 C    1.667     2 N    0.214
     5   6 C    3.976 --     6 C    1.420    33 N    1.370     3 C    0.979
     6   6 C    3.982 --     5 C    1.420     7 C    1.374    38 H    0.958
     7   6 C    3.933 --     6 C    1.374    31 C    1.373     8 O    1.021
     8   8 O    2.274 --     7 C    1.021     9 C    1.014
     9   6 C    3.927 --    10 C    1.379    30 C    1.372     8 O    1.014
    10   6 C    3.987 --    11 C    1.444     9 C    1.379    39 H    0.967
    11   6 C    3.980 --    10 C    1.444    12 C    1.376    40 H    0.958
                            30 C    0.102
    12   6 C    3.960 --    11 C    1.376    28 C    1.321    13 N    1.077
    13   7 N    3.445 --    14 C    1.134    12 C    1.077    41 H    0.929
                            15 O    0.137
    14   6 C    3.958 --    15 O    1.643    13 N    1.134    16 N    1.118
    15   8 O    1.993 --    14 C    1.643    13 N    0.137    16 N    0.130
    16   7 N    3.444 --    14 C    1.118    17 C    1.091    42 H    0.932
                            15 O    0.130
    17   6 C    3.966 --    27 C    1.369    18 C    1.362    16 N    1.091
    18   6 C    3.980 --    19 C    1.454    17 C    1.362    43 H    0.955
    19   6 C    3.983 --    18 C    1.454    20 C    1.389    44 H    0.963
                            27 C    0.106
    20   6 C    3.922 --    19 C    1.389    22 C    1.369    21 Cl   1.006
    21  17 Cl   1.152 --    20 C    1.006
    22   6 C    3.971 --    27 C    1.408    20 C    1.369    23 C    0.960
    23   6 C    3.834 --    22 C    0.960    26 F    0.948    24 F    0.948
                            25 F    0.942
    24   9 F    1.077 --    23 C    0.948
    25   9 F    1.064 --    23 C    0.942
    26   9 F    1.078 --    23 C    0.948
    27   6 C    3.982 --    22 C    1.408    17 C    1.369    45 H    0.962
                            19 C    0.106
    28   6 C    3.879 --    30 C    1.417    12 C    1.321    29 F    0.957
    29   9 F    1.092 --    28 C    0.957
    30   6 C    3.981 --    28 C    1.417     9 C    1.372    46 H    0.962
                            11 C    0.102
    31   6 C    3.988 --    32 C    1.440     7 C    1.373    47 H    0.966
    32   6 C    3.980 --    31 C    1.440    33 N    1.436    48 H    0.963
    33   7 N    3.051 --    32 C    1.436     5 C    1.370
    34   1 H    0.995 --     1 C    0.971
    35   1 H    0.996 --     1 C    0.982
    36   1 H    0.993 --     1 C    0.976
    37   1 H    0.963 --     2 N    0.928
    38   1 H    0.992 --     6 C    0.958
    39   1 H    0.996 --    10 C    0.967
    40   1 H    0.990 --    11 C    0.958
    41   1 H    0.963 --    13 N    0.929
    42   1 H    0.965 --    16 N    0.932
    43   1 H    0.988 --    18 C    0.955
    44   1 H    0.992 --    19 C    0.963
    45   1 H    0.995 --    27 C    0.962
    46   1 H    0.993 --    30 C    0.962
    47   1 H    0.997 --    31 C    0.966
    48   1 H    0.997 --    32 C    0.963
    49  22 Ti   2.824 --    68 O    0.845    69 O    0.814    55 Ti   0.331
                            50 Ti   0.201    52 Ti   0.198
    50  22 Ti   3.855 --    69 O    0.753    72 O    0.747    70 O    0.692
                            71 O    0.605    49 Ti   0.201    51 Ti   0.189
                            53 Ti   0.138    54 Ti   0.137
    51  22 Ti   2.723 --    77 O    0.963    70 O    0.599    57 Ti   0.371
                            50 Ti   0.189    55 Ti   0.140    72 O    0.110
    52  22 Ti   3.919 --    73 O    0.938    61 C    0.721    68 O    0.707
                            71 O    0.561    54 Ti   0.211    49 Ti   0.198
                            58 Ti   0.177    78 O    0.124
    53  22 Ti   4.074 --    67 C    0.893    74 O    0.773    65 C    0.744
                            72 O    0.601    59 Ti   0.284    54 Ti   0.174
                            66 C    0.161    62 C    0.152    50 Ti   0.138
    54  22 Ti   2.650 --    74 O    0.975    73 O    0.711    52 Ti   0.211
                            53 Ti   0.174    50 Ti   0.137    69 O    0.123
    55  22 Ti   3.767 --    75 O    1.997    56 Ti   0.607    49 Ti   0.331
                            70 O    0.152    68 O    0.147    51 Ti   0.140
                            78 O    0.112
    56  22 Ti   4.017 --    78 O    0.802    76 O    0.753    79 O    0.715
                            55 Ti   0.607    80 O    0.196    57 Ti   0.166
                            60 Ti   0.148    58 Ti   0.141
    57  22 Ti   2.745 --    76 O    0.835    77 O    0.764    51 Ti   0.371
                            60 Ti   0.221    56 Ti   0.166    59 Ti   0.130
    58  22 Ti   4.010 --    66 C    1.056    64 C    0.726    80 O    0.615
                            78 O    0.442    67 C    0.232    60 Ti   0.200
                            52 Ti   0.177    61 C    0.155    56 Ti   0.141
    59  22 Ti   4.082 --    81 O    0.968    62 C    0.670    67 C    0.653
                            79 O    0.442    53 Ti   0.284    60 Ti   0.210
                            66 C    0.141    57 Ti   0.130    77 O    0.114
    60  22 Ti   2.792 --    80 O    0.900    81 O    0.734    57 Ti   0.221
                            59 Ti   0.210    58 Ti   0.200    56 Ti   0.148
    61   6 C    3.843 --    64 C    2.739    52 Ti   0.721    58 Ti   0.155
    62   6 C    3.781 --    65 C    2.732    59 Ti   0.670    53 Ti   0.152
    63   6 C    3.979 --    66 C    2.008    67 C    1.603
    64   6 C    3.705 --    61 C    2.739    58 Ti   0.726
    65   6 C    3.748 --    62 C    2.732    53 Ti   0.744
    66   6 C    3.767 --    63 C    2.008    58 Ti   1.056    53 Ti   0.161
                            59 Ti   0.141
    67   6 C    3.828 --    63 C    1.603    53 Ti   0.893    59 Ti   0.653
                            58 Ti   0.232
    68   8 O    1.935 --    49 Ti   0.845    52 Ti   0.707    55 Ti   0.147
    69   8 O    1.894 --    49 Ti   0.814    50 Ti   0.753    54 Ti   0.123
    70   8 O    1.784 --    50 Ti   0.692    51 Ti   0.599    55 Ti   0.152
    71   8 O    1.720 --    50 Ti   0.605    52 Ti   0.561
    72   8 O    1.848 --    50 Ti   0.747    53 Ti   0.601    51 Ti   0.110
    73   8 O    1.974 --    52 Ti   0.938    54 Ti   0.711
    74   8 O    2.017 --    54 Ti   0.975    53 Ti   0.773
    75   8 O    2.172 --    55 Ti   1.997
    76   8 O    1.911 --    57 Ti   0.835    56 Ti   0.753
    77   8 O    2.009 --    51 Ti   0.963    57 Ti   0.764    59 Ti   0.114
    78   8 O    1.799 --    56 Ti   0.802    58 Ti   0.442    52 Ti   0.124
                            55 Ti   0.112
    79   8 O    1.772 --    56 Ti   0.715    59 Ti   0.442
    80   8 O    1.987 --    60 Ti   0.900    58 Ti   0.615    56 Ti   0.196
    81   8 O    2.032 --    59 Ti   0.968    60 Ti   0.734
 ---------------------------------------------------------------------------

Topologies differ in total number of bonds
Writing topology from bond orders to xtbtopo.mol

molecular dipole:
                 x           y           z       tot (Debye)
 q only:        2.657      -2.117      -1.137
   full:        0.514      -2.445      -0.031       6.352
molecular quadrupole (traceless):
                xx          xy          yy          xz          yz          zz
 q only:      -68.396     -23.787      18.403      -1.485     -46.002      49.993
  q+dip:      -63.630     -32.843      -8.415       5.664     -68.135      72.044
   full:      -63.431     -31.497      -4.367       7.192     -66.695      67.798


           -------------------------------------------------
          | TOTAL ENERGY             -192.074210856514 Eh   |
          | GRADIENT NORM               0.096097927742 Eh/α |
          | HOMO-LUMO GAP               0.613678306946 eV   |
           -------------------------------------------------

------------------------------------------------------------------------
 * finished run on 2026/08/31 at 21:55:34.199     
------------------------------------------------------------------------
 total:
 * wall-time:     0 d,  0 h,  0 min,  4.018 sec
 *  cpu-time:     0 d,  0 h,  0 min, 11.125 sec
 * ratio c/w:     2.769 speedup
 SCF:
 * wall-time:     0 d,  0 h,  0 min,  3.961 sec
 *  cpu-time:     0 d,  0 h,  0 min, 11.016 sec
 * ratio c/w:     2.781 speedup

normal termination of xtb
