      -----------------------------------------------------------      
     |                   =====================                   |     
     |                           x T B                           |     
     |                   =====================                   |     
     |                         S. Grimme                         |     
     |          Mulliken Center for Theoretical Chemistry        |     
     |                    University of Bonn                     |     
      -----------------------------------------------------------      

   * xtb version 6.7.1pre (5071a88) compiled by 'Marcel@Raven' on 2024-07-23

   xtb is free software: you can redistribute it and/or modify it under
   the terms of the GNU Lesser General Public License as published by
   the Free Software Foundation, either version 3 of the License, or
   (at your option) any later version.
   
   xtb is distributed in the hope that it will be useful,
   but WITHOUT ANY WARRANTY; without even the implied warranty of
   MERCHANTABILITY or FITNESS FOR A PARTICULAR PURPOSE.  See the
   GNU Lesser General Public License for more details.
   
   Cite this work as:
   * C. Bannwarth, E. Caldeweyher, S. Ehlert, A. Hansen, P. Pracht,
     J. Seibert, S. Spicher, S. Grimme, WIREs Comput. Mol. Sci., 2020, 11,
     e01493. DOI: 10.1002/wcms.1493
   
   for GFN2-xTB:
   * C. Bannwarth, S. Ehlert and S. Grimme., J. Chem. Theory Comput., 2019,
     15, 1652-1671. DOI: 10.1021/acs.jctc.8b01176
   for GFN1-xTB:
   * S. Grimme, C. Bannwarth, P. Shushkov, J. Chem. Theory Comput., 2017,
     13, 1989-2009. DOI: 10.1021/acs.jctc.7b00118
   for GFN0-xTB:
   * P. Pracht, E. Caldeweyher, S. Ehlert, S. Grimme, ChemRxiv, 2019, preprint.
     DOI: 10.26434/chemrxiv.8326202.v1
   for GFN-FF:
   * S. Spicher and S. Grimme, Angew. Chem. Int. Ed., 2020, 59, 15665-15673.
     DOI: 10.1002/anie.202004239
   
   for ALPB and GBSA implicit solvation:
   * S. Ehlert, M. Stahn, S. Spicher, S. Grimme, J. Chem. Theory Comput.,
     2021, 17, 4250-4261. DOI: 10.1021/acs.jctc.1c00471
   
   for ddCOSMO and CPCM-X implicit solvation:
   * M. Stahn, S. Ehlert, S. Grimme, J. Phys. Chem. A,
     2023, XX, XXXX-XXXX. DOI: 10.1021/acs.jpca.3c04382
   
   for DFT-D4:
   * E. Caldeweyher, C. Bannwarth and S. Grimme, J. Chem. Phys., 2017,
     147, 034112. DOI: 10.1063/1.4993215
   * E. Caldeweyher, S. Ehlert, A. Hansen, H. Neugebauer, S. Spicher,
     C. Bannwarth and S. Grimme, J. Chem. Phys., 2019, 150, 154122.
     DOI: 10.1063/1.5090222
   * E. Caldeweyher, J.-M. Mewes, S. Ehlert and S. Grimme, Phys. Chem. Chem. Phys.
     2020, 22, 8499-8512. DOI: 10.1039/D0CP00502A
   
   for sTDA-xTB:
   * S. Grimme and C. Bannwarth, J. Chem. Phys., 2016, 145, 054103.
     DOI: 10.1063/1.4959605
   
   in the mass-spec context:
   * V. Asgeirsson, C. Bauer and S. Grimme, Chem. Sci., 2017, 8, 4879.
     DOI: 10.1039/c7sc00601b
   * J. Koopman and S. Grimme, ACS Omega 2019, 4, 12, 15120-15133.
     DOI: 10.1021/acsomega.9b02011
   
   for metadynamics refer to:
   * S. Grimme, J. Chem. Theory Comput., 2019, 155, 2847-2862
     DOI: 10.1021/acs.jctc.9b00143
   
   for SPH calculations refer to:
   * S. Spicher and S. Grimme, J. Chem. Theory Comput., 2021, 17, 1701-1714
     DOI: 10.1021/acs.jctc.0c01306
   
   for ONIOM refer to:
   * C. Plett, A. Katbashev, S. Ehlert, S. Grimme, M. Bursch,
     Phys. Chem. Chem. Phys., 2023, 25, 17860-17868. DOI: 10.1039/D3CP02178E
   
   for DIPRO refer to:
   * J. Kohn, N. Gildemeister, S. Grimme, D. Fazzi, A. Hansen,
     J. Chem. Phys., 2023, just accepted.
   
   for PTB refer to:
   * S. Grimme, M. Mueller, A. Hansen, J. Chem. Phys., 2023, 158, 124111.
     DOI: 10.1063/5.0137838
   
   with help from (in alphabetical order)
   P. Atkinson, C. Bannwarth, F. Bohle, G. Brandenburg, E. Caldeweyher
   M. Checinski, S. Dohm, S. Ehlert, S. Ehrlich, I. Gerasimov, C. Hölzer
   A. Katbashev, J. Kohn, J. Koopman, C. Lavigne, S. Lehtola, F. März, M. Müller,
   F. Musil, H. Neugebauer, J. Pisarek, C. Plett, P. Pracht, F. Pultar,
   J. Seibert, P. Shushkov, S. Spicher, M. Stahn, M. Steiner, T. Strunk,
   J. Stückrath, T. Rose, and J. Unsleber
   
 * started run on 2026/08/31 at 20:35:54.067     
   ID    Z sym.   atoms
    1    6 C      1, 3, 5-7, 9-12, 14, 17-20, 22, 23, 27, 28, 30-32, 61-67
    2    7 N      2, 13, 16, 33
    3    8 O      4, 8, 15, 68-81
    4   17 Cl     21
    5    9 F      24-26, 29
    6    1 H      34-48
    7   22 Ti     49-60

           -------------------------------------------------
          |                Calculation Setup                |
           -------------------------------------------------

          program call               : "c:\Users\Andre\Proyectos doctorado\kras-pancreatic-gC3N4-ai\tools\xtb\xtb-6.7.1\bin\xtb.exe" "c:\Users\Andre\Proyectos doctorado\mxene-glioblastoma-qsar-ai\calculations\gbm\Regorafenib\Regorafenib_Ti3C2O2_complex.xyz" --gfn 2 --sp --chrg 0 --uhf 0 --iterations 500 --norestart
          coordinate file            : c:\Users\Andre\Proyectos doctorado\mxene-glioblastoma-qsar-ai\calculations\gbm\Regorafenib\Regorafenib_Ti3C2O2_complex.xyz
          omp threads                :                    16


molecular fragmentation (1/2 indicates fragments):
111111111111111111111111111111111111111111111111222222222222222222222222
222222222
# atoms in fragment 1/2:    48    33
 fragment masses (1/2) :      482.82      882.47
CMA distance (Bohr)    :  10.291
constraining FC (au)   :  0.0500

           -------------------------------------------------
          |                 G F N 2 - x T B                 |
           -------------------------------------------------

        Reference                      10.1021/acs.jctc.8b01176
      * Hamiltonian:
        H0-scaling (s, p, d)           1.850000    2.230000    2.230000
        zeta-weighting                 0.500000
      * Dispersion:
        s8                             2.700000
        a1                             0.520000
        a2                             5.000000
        s9                             5.000000
      * Repulsion:
        kExp                           1.500000    1.000000
        rExp                           1.000000
      * Coulomb:
        alpha                          2.000000
        third order                    shell-resolved
        anisotropic                    true
        a3                             3.000000
        a5                             4.000000
        cn-shift                       1.200000
        cn-exp                         4.000000
        max-rad                        5.000000


          ...................................................
          :                      SETUP                      :
          :.................................................:
          :  # basis functions                 357          :
          :  # atomic orbitals                 344          :
          :  # shells                          160          :
          :  # electrons                       332          :
          :  max. iterations                   500          :
          :  Hamiltonian                  GFN2-xTB          :
          :  restarted?                      false          :
          :  GBSA solvation                  false          :
          :  PC potential                    false          :
          :  electronic temp.          300.0000000     K    :
          :  accuracy                    1.0000000          :
          :  -> integral cutoff          0.2500000E+02      :
          :  -> integral neglect         0.1000000E-07      :
          :  -> SCF convergence          0.1000000E-05 Eh   :
          :  -> wf. convergence          0.1000000E-03 e    :
          :  Broyden damping             0.4000000          :
          :  net charge                          0          :
          :  unpaired electrons                  0          :
          ...................................................

 iter      E             dE          RMSdq      gap      omega  full diag
   1   -189.4145555 -0.189415E+03  0.126E+01    0.03       0.0  T
   2   -151.8681332  0.375464E+02  0.160E+01    0.05       1.0  T
   3    -71.4425679  0.804256E+02  0.240E+01    0.23       1.0  T
   4   -176.5874198 -0.105145E+03  0.102E+01    0.02       1.0  T
   5    -97.2984281  0.792890E+02  0.184E+01    0.01       1.0  T
   6   -190.1245021 -0.928261E+02  0.833E+00    0.16       1.0  T
   7   -178.3253245  0.117992E+02  0.913E+00    0.07       1.0  T
   8   -185.4084193 -0.708309E+01  0.712E+00    0.07       1.0  T
   9   -187.7369384 -0.232852E+01  0.706E+00    0.25       1.0  T
  10   -190.9973810 -0.326044E+01  0.584E+00    0.22       1.0  T
  11   -190.8951912  0.102190E+00  0.556E+00    0.36       1.0  T
  12   -191.8166070 -0.921416E+00  0.456E+00    0.11       1.0  T
  13   -191.9688245 -0.152218E+00  0.436E+00    0.13       1.0  T
  14   -192.2735922 -0.304768E+00  0.407E+00    0.04       1.0  T
  15   -192.2753102 -0.171803E-02  0.406E+00    0.05       1.0  T
  16   -192.2591153  0.161949E-01  0.402E+00    0.03       1.0  T
  17   -192.3067100 -0.475947E-01  0.347E+00    0.02       1.0  T
  18   -191.5160637  0.790646E+00  0.320E+00    0.03       1.0  T
  19   -192.6903147 -0.117425E+01  0.253E+00    0.13       1.0  T
  20   -190.2301406  0.246017E+01  0.367E+00    0.02       1.0  T
  21   -190.8573095 -0.627169E+00  0.329E+00    0.11       1.0  T
  22   -192.1256174 -0.126831E+01  0.235E+00    0.08       1.0  T
  23   -191.0274187  0.109820E+01  0.296E+00    0.08       1.0  T
  24   -192.5541274 -0.152671E+01  0.188E+00    0.04       1.0  T
  25   -192.8104144 -0.256287E+00  0.148E+00    0.20       1.0  T
  26   -192.8237492 -0.133348E-01  0.130E+00    0.18       1.0  T
  27   -192.8375512 -0.138021E-01  0.123E+00    0.18       1.0  T
  28   -192.8409586 -0.340736E-02  0.114E+00    0.18       1.0  T
  29   -192.8502088 -0.925021E-02  0.106E+00    0.17       1.0  T
  30   -192.8606564 -0.104476E-01  0.869E-01    0.15       1.0  T
  31   -192.8663788 -0.572235E-02  0.798E-01    0.14       1.0  T
  32   -192.8635840  0.279473E-02  0.781E-01    0.14       1.0  T
  33   -192.8643538 -0.769751E-03  0.738E-01    0.13       1.0  T
  34   -192.8669845 -0.263067E-02  0.699E-01    0.13       1.0  T
  35   -192.8748147 -0.783027E-02  0.619E-01    0.14       1.0  T
  36   -192.8766162 -0.180143E-02  0.595E-01    0.14       1.0  T
  37   -192.8771219 -0.505702E-03  0.585E-01    0.14       1.0  T
  38   -192.8805041 -0.338225E-02  0.524E-01    0.14       1.0  T
  39   -192.8842636 -0.375949E-02  0.443E-01    0.14       1.0  T
  40   -192.8855717 -0.130810E-02  0.416E-01    0.15       1.0  T
  41   -192.8850075  0.564219E-03  0.409E-01    0.14       1.0  T
  42   -192.8881375 -0.313003E-02  0.382E-01    0.15       1.0  T
  43   -192.8905959 -0.245842E-02  0.365E-01    0.15       1.0  T
  44   -192.8913452 -0.749279E-03  0.350E-01    0.15       1.0  T
  45   -192.8937630 -0.241775E-02  0.330E-01    0.15       1.0  T
  46   -192.8949152 -0.115222E-02  0.313E-01    0.15       1.0  T
  47   -192.8964371 -0.152191E-02  0.287E-01    0.15       1.0  T
  48   -192.8990226 -0.258552E-02  0.245E-01    0.16       1.0  T
  49   -192.8999459 -0.923334E-03  0.228E-01    0.16       1.0  T
  50   -192.9012191 -0.127314E-02  0.201E-01    0.16       1.0  T
  51   -192.9050943 -0.387517E-02  0.134E-01    0.16       1.0  T
  52   -192.9053280 -0.233752E-03  0.132E-01    0.16       1.0  T
  53   -192.9063146 -0.986561E-03  0.158E-01    0.13       1.0  T
  54   -192.9064527 -0.138155E-03  0.143E-01    0.13       1.0  T
  55   -192.8972972  0.915557E-02  0.331E-01    0.08       1.0  T
  56   -192.8972401  0.570825E-04  0.332E-01    0.08       1.0  T
  57   -192.9020389 -0.479884E-02  0.261E-01    0.10       1.0  T
  58   -192.9062533 -0.421435E-02  0.157E-01    0.11       1.0  T
  59   -192.9014162  0.483701E-02  0.249E-01    0.09       1.0  T
  60   -192.9049616 -0.354536E-02  0.183E-01    0.11       1.0  T
  61   -192.9013570  0.360456E-02  0.239E-01    0.09       1.0  T
  62   -192.9067969 -0.543987E-02  0.119E-01    0.12       1.0  T
  63   -192.9027002  0.409670E-02  0.204E-01    0.10       1.0  T
  64   -192.9043218 -0.162154E-02  0.173E-01    0.10       1.0  T
  65   -192.9077665 -0.344475E-02  0.623E-02    0.13       1.0  T
  66   -192.9079554 -0.188868E-03  0.429E-02    0.13       1.0  T
  67   -192.9080048 -0.494146E-04  0.325E-02    0.13       1.0  T
  68   -192.9079320  0.728288E-04  0.347E-02    0.14       1.0  T
  69   -192.9075128  0.419185E-03  0.595E-02    0.15       1.0  T
  70   -192.9077313 -0.218547E-03  0.495E-02    0.15       1.0  T
  71   -192.9080993 -0.367995E-03  0.180E-02    0.14       1.0  T
  72   -192.9079913  0.107990E-03  0.304E-02    0.14       1.0  T
  73   -192.9080115 -0.201921E-04  0.278E-02    0.14       1.0  T
  74   -192.9081335 -0.122017E-03  0.667E-03    0.14       1.7  T
  75   -192.9080986  0.349733E-04  0.153E-02    0.13       1.0  T
  76   -192.9081206 -0.220490E-04  0.109E-02    0.13       1.0  T
  77   -192.9081042  0.164077E-04  0.151E-02    0.13       1.0  T
  78   -192.9081293 -0.251255E-04  0.870E-03    0.13       1.3  T
  79   -192.9081298 -0.431422E-06  0.822E-03    0.13       1.4  T
  80   -192.9081391 -0.931424E-05  0.155E-03    0.14       7.2  T
  81   -192.9081390  0.109631E-06  0.164E-03    0.14       6.8  T
  82   -192.9081392 -0.249085E-06  0.754E-04    0.14      14.7  T
  83   -192.9081393 -0.347255E-07  0.384E-04    0.14      29.0  T

   *** convergence criteria satisfied after 83 iterations ***

         #    Occupation            Energy/Eh            Energy/eV
      -------------------------------------------------------------
         1        2.0000           -1.0665157             -29.0214
       ...           ...                  ...                  ...
       160        2.0000           -0.4021837             -10.9440
       161        2.0000           -0.4014938             -10.9252
       162        2.0000           -0.4010418             -10.9129
       163        1.9995           -0.3973574             -10.8126
       164        1.9681           -0.3933206             -10.7028
       165        1.9187           -0.3924068             -10.6779
       166        1.8674           -0.3919162             -10.6646 (HOMO)
       167        0.1382           -0.3869326             -10.5290 (LUMO)
       168        0.0953           -0.3865577             -10.5188
       169        0.0127           -0.3846042             -10.4656
       170                         -0.3697591             -10.0617
       171                         -0.3646751              -9.9233
       ...                                ...                  ...
       344                         18.0613456             491.4742
      -------------------------------------------------------------
                  HL-Gap            0.0049836 Eh            0.1356 eV
             Fermi-level           -0.3894032 Eh          -10.5962 eV

 SCC (total)                   0 d,  0 h,  0 min,  2.316 sec
 SCC setup                      ...        0 min,  0.002 sec (  0.086%)
 Dispersion                     ...        0 min,  0.001 sec (  0.043%)
 classical contributions        ...        0 min,  0.000 sec (  0.000%)
 integral evaluation            ...        0 min,  0.010 sec (  0.432%)
 iterations                     ...        0 min,  2.270 sec ( 98.014%)
 molecular gradient             ...        0 min,  0.030 sec (  1.295%)
 printout                       ...        0 min,  0.003 sec (  0.130%)

         :::::::::::::::::::::::::::::::::::::::::::::::::::::
         ::                     SUMMARY                     ::
         :::::::::::::::::::::::::::::::::::::::::::::::::::::
         :: total energy            -187.014624999465 Eh    ::
         :: gradient norm              5.391894641295 Eh/a0 ::
         :: HOMO-LUMO gap              0.135610078701 eV    ::
         ::.................................................::
         :: SCC energy              -192.904412244807 Eh    ::
         :: -> isotropic ES            0.882396906215 Eh    ::
         :: -> anisotropic ES          0.011345622197 Eh    ::
         :: -> anisotropic XC         -0.090035988760 Eh    ::
         :: -> dispersion             -0.153033067857 Eh    ::
         :: repulsion energy           5.889787245343 Eh    ::
         :: add. restraining           0.000000000000 Eh    ::
         :: total charge              -0.000000000002 e     ::
         :::::::::::::::::::::::::::::::::::::::::::::::::::::

           -------------------------------------------------
          |                Property Printout                |
           -------------------------------------------------

    * Orbital Energies and Occupations

         #    Occupation            Energy/Eh            Energy/eV
      -------------------------------------------------------------
         1        2.0000           -1.0665157             -29.0214
       ...           ...                  ...                  ...
       154        2.0000           -0.4167572             -11.3405
       155        2.0000           -0.4154362             -11.3046
       156        2.0000           -0.4120530             -11.2125
       157        2.0000           -0.4095574             -11.1446
       158        2.0000           -0.4078757             -11.0989
       159        2.0000           -0.4066843             -11.0664
       160        2.0000           -0.4021837             -10.9440
       161        2.0000           -0.4014938             -10.9252
       162        2.0000           -0.4010418             -10.9129
       163        1.9995           -0.3973574             -10.8126
       164        1.9681           -0.3933206             -10.7028
       165        1.9187           -0.3924068             -10.6779
       166        1.8674           -0.3919162             -10.6646 (HOMO)
       167        0.1382           -0.3869326             -10.5290 (LUMO)
       168        0.0953           -0.3865577             -10.5188
       169        0.0127           -0.3846042             -10.4656
       170                         -0.3697591             -10.0617
       171                         -0.3646751              -9.9233
       172                         -0.3630931              -9.8803
       173                         -0.3618552              -9.8466
       174                         -0.3542786              -9.6404
       175                         -0.3519495              -9.5770
       176                         -0.3510220              -9.5518
       177                         -0.3501508              -9.5281
       ...                                ...                  ...
       344                         18.0613456             491.4742
      -------------------------------------------------------------
                  HL-Gap            0.0049836 Eh            0.1356 eV
             Fermi-level           -0.3894032 Eh          -10.5962 eV

     #   Z          covCN         q      C6AA      α(0)
     1   6 C        3.687    -0.044    21.568     6.648
     2   7 N        2.683    -0.162    24.497     7.351
     3   6 C        2.756     0.261    22.610     7.787
     4   8 O        0.857    -0.414    21.963     6.283
     5   6 C        2.946     0.063    26.578     8.455
     6   6 C        2.910    -0.046    29.134     8.851
     7   6 C        2.887     0.166    24.421     8.102
     8   8 O        1.708    -0.237    17.925     5.716
     9   6 C        2.870     0.144    24.871     8.175
    10   6 C        2.911    -0.055    29.370     8.887
    11   6 C        2.918    -0.056    29.381     8.889
    12   6 C        2.898     0.067    26.508     8.442
    13   7 N        2.704    -0.172    24.713     7.383
    14   6 C        2.684     0.326    21.459     7.581
    15   8 O        0.857    -0.352    20.749     6.107
    16   7 N        2.705    -0.171    24.695     7.381
    17   6 C        2.893     0.089    26.029     8.365
    18   6 C        2.919    -0.049    29.207     8.862
    19   6 C        2.956    -0.038    28.941     8.824
    20   6 C        2.879     0.094    25.902     8.343
    21  17 Cl       0.963    -0.126   103.091    15.534
    22   6 C        2.984    -0.028    28.701     8.788
    23   6 C        3.331     0.484    17.370     6.611
    24   9 F        0.788    -0.192    11.152     3.945
    25   9 F        0.788    -0.195    11.185     3.951
    26   9 F        0.788    -0.203    11.271     3.966
    27   6 C        2.918    -0.042    29.055     8.839
    28   6 C        2.775     0.176    24.213     8.059
    29   9 F        0.787    -0.181    11.039     3.925
    30   6 C        2.912    -0.069    29.721     8.940
    31   6 C        2.905    -0.058    29.436     8.896
    32   6 C        2.886     0.067    26.509     8.441
    33   7 N        1.833    -0.219    26.620     7.646
    34   1 H        0.924     0.059     2.205     2.322
    35   1 H        0.924     0.083     1.949     2.183
    36   1 H        0.924     0.057     2.235     2.338
    37   1 H        0.860     0.196     1.126     1.662
    38   1 H        0.925     0.098     1.804     2.101
    39   1 H        0.925     0.078     2.004     2.214
    40   1 H        0.925     0.064     2.155     2.296
    41   1 H        0.860     0.190     1.158     1.686
    42   1 H        0.860     0.191     1.152     1.681
    43   1 H        0.925     0.063     2.163     2.300
    44   1 H        0.925     0.082     1.953     2.186
    45   1 H        0.925     0.132     1.519     1.927
    46   1 H        0.925     0.091     1.870     2.139
    47   1 H        0.925     0.116     1.647     2.007
    48   1 H        0.925     0.083     1.946     2.181
    49  22 Ti       4.151     0.793    91.384    16.204
    50  22 Ti       6.350     0.763    91.922    15.566
    51  22 Ti       4.151     0.801    91.302    16.197
    52  22 Ti       7.449     1.037    89.053    15.321
    53  22 Ti       7.449     1.041    89.015    15.318
    54  22 Ti       6.519     1.083    88.593    15.282
    55  22 Ti       4.151     0.819    91.109    16.180
    56  22 Ti       6.350     0.775    91.790    15.555
    57  22 Ti       4.151     0.822    91.073    16.177
    58  22 Ti       7.449     1.065    88.777    15.297
    59  22 Ti       7.449     1.066    88.767    15.296
    60  22 Ti       6.519     1.084    88.586    15.281
    61   6 C        5.128    -0.741    40.099     8.993
    62   6 C        5.128    -0.739    40.036     8.986
    63   6 C        5.649    -0.578    34.313     8.319
    64   6 C        2.445    -0.401    40.380    10.368
    65   6 C        2.445    -0.387    39.888    10.305
    66   6 C        2.445    -0.326    37.736    10.023
    67   6 C        2.445    -0.320    37.539     9.997
    68   8 O        0.728    -0.539    24.732     6.664
    69   8 O        0.729    -0.578    25.643     6.786
    70   8 O        0.728    -0.540    24.754     6.667
    71   8 O        0.729    -0.642    27.255     6.996
    72   8 O        0.729    -0.618    26.649     6.918
    73   8 O        0.753    -0.565    25.321     6.744
    74   8 O        0.753    -0.538    24.700     6.661
    75   8 O        0.728    -0.529    24.504     6.633
    76   8 O        0.729    -0.570    25.458     6.761
    77   8 O        0.728    -0.532    24.564     6.641
    78   8 O        0.729    -0.649    27.426     7.018
    79   8 O        0.729    -0.649    27.441     7.020
    80   8 O        0.753    -0.559    25.196     6.727
    81   8 O        0.753    -0.558    25.174     6.724

 Mol. C6AA /au·bohr⁶  :     168964.545148
 Mol. C8AA /au·bohr⁸  :    7327197.330520
 Mol. α(0) /au        :        634.815809


Wiberg/Mayer (AO) data.
largest (>0.10) Wiberg bond orders for each atom

 ---------------------------------------------------------------------------
     #   Z sym  total        # sym  WBO       # sym  WBO       # sym  WBO
 ---------------------------------------------------------------------------
     1   6 C    3.963 --     2 N    1.011    34 H    0.981    35 H    0.975
                            36 H    0.971
     2   7 N    3.452 --     3 C    1.250     1 C    1.011    37 H    0.926
                             4 O    0.209
     3   6 C    3.955 --     4 O    1.662     2 N    1.250     5 C    0.976
     4   8 O    1.992 --     3 C    1.662     2 N    0.209
     5   6 C    3.962 --     6 C    1.421    33 N    1.363     3 C    0.976
     6   6 C    3.968 --     5 C    1.421     7 C    1.367    38 H    0.956
     7   6 C    3.932 --    31 C    1.373     6 C    1.367     8 O    1.029
     8   8 O    2.276 --     7 C    1.029     9 C    1.019
     9   6 C    3.904 --    30 C    1.373    10 C    1.359     8 O    1.019
    10   6 C    3.964 --    11 C    1.459     9 C    1.359    39 H    0.965
    11   6 C    3.968 --    10 C    1.459    12 C    1.360    40 H    0.964
                            30 C    0.100
    12   6 C    3.932 --    11 C    1.360    28 C    1.307    13 N    1.087
    13   7 N    3.372 --    14 C    1.088    12 C    1.087    41 H    0.927
                            15 O    0.123
    14   6 C    3.957 --    15 O    1.697    16 N    1.105    13 N    1.088
    15   8 O    2.108 --    14 C    1.697    16 N    0.134    13 N    0.123
    16   7 N    3.439 --    14 C    1.105    17 C    1.100    42 H    0.931
                            15 O    0.134
    17   6 C    3.963 --    27 C    1.366    18 C    1.352    16 N    1.100
    18   6 C    3.983 --    19 C    1.462    17 C    1.352    43 H    0.964
    19   6 C    3.983 --    18 C    1.462    20 C    1.382    44 H    0.964
                            27 C    0.105
    20   6 C    3.926 --    19 C    1.382    22 C    1.372    21 Cl   1.005
    21  17 Cl   1.149 --    20 C    1.005
    22   6 C    3.969 --    27 C    1.407    20 C    1.372    23 C    0.958
    23   6 C    3.831 --    22 C    0.958    24 F    0.952    25 F    0.943
                            26 F    0.942
    24   9 F    1.082 --    23 C    0.952
    25   9 F    1.104 --    23 C    0.943
    26   9 F    1.071 --    23 C    0.942
    27   6 C    3.975 --    22 C    1.407    17 C    1.366    45 H    0.925
                            19 C    0.105
    28   6 C    3.876 --    30 C    1.408    12 C    1.307    29 F    0.993
    29   9 F    1.135 --    28 C    0.993
    30   6 C    3.977 --    28 C    1.408     9 C    1.373    46 H    0.959
                            11 C    0.100
    31   6 C    3.971 --    32 C    1.426     7 C    1.373    47 H    0.910
    32   6 C    3.975 --    33 N    1.438    31 C    1.426    48 H    0.903
    33   7 N    3.040 --    32 C    1.438     5 C    1.363
    34   1 H    0.995 --     1 C    0.981
    35   1 H    0.993 --     1 C    0.975
    36   1 H    0.995 --     1 C    0.971
    37   1 H    0.961 --     2 N    0.926
    38   1 H    0.990 --     6 C    0.956
    39   1 H    0.993 --    10 C    0.965
    40   1 H    0.995 --    11 C    0.964
    41   1 H    0.963 --    13 N    0.927
    42   1 H    0.963 --    16 N    0.931
    43   1 H    0.996 --    18 C    0.964
    44   1 H    0.992 --    19 C    0.964
    45   1 H    0.983 --    27 C    0.925
    46   1 H    0.991 --    30 C    0.959
    47   1 H    0.983 --    31 C    0.910
    48   1 H    0.992 --    32 C    0.903
    49  22 Ti   4.004 --    68 O    2.012    55 Ti   0.572    50 Ti   0.309
                            61 C    0.275    52 Ti   0.201    64 C    0.163
                            56 Ti   0.101
    50  22 Ti   4.430 --    69 O    1.912    56 Ti   0.369    51 Ti   0.310
                            49 Ti   0.309    61 C    0.259    62 C    0.257
                            52 Ti   0.125    53 Ti   0.120    57 Ti   0.111
                            55 Ti   0.111    65 C    0.102
    51  22 Ti   3.991 --    70 O    2.021    57 Ti   0.584    50 Ti   0.310
                            62 C    0.280    53 Ti   0.195    65 C    0.168
                            56 Ti   0.104
    52  22 Ti   4.447 --    71 O    1.767    64 C    0.646    61 C    0.501
                            73 O    0.229    49 Ti   0.201    58 Ti   0.161
                            54 Ti   0.142    63 C    0.132    50 Ti   0.125
    53  22 Ti   4.444 --    72 O    1.784    65 C    0.623    62 C    0.483
                            74 O    0.230    51 Ti   0.195    59 Ti   0.159
                            54 Ti   0.152    63 C    0.144    50 Ti   0.120
    54  22 Ti   4.442 --    73 O    1.120    74 O    1.115    63 C    0.497
                            66 C    0.426    67 C    0.415    60 Ti   0.267
                            53 Ti   0.152    52 Ti   0.142
    55  22 Ti   4.004 --    75 O    2.027    49 Ti   0.572    56 Ti   0.325
                            61 C    0.279    58 Ti   0.192    64 C    0.180
                            50 Ti   0.111
    56  22 Ti   4.456 --    76 O    1.913    50 Ti   0.369    55 Ti   0.325
                            57 Ti   0.324    61 C    0.267    62 C    0.264
                            58 Ti   0.131    59 Ti   0.131    51 Ti   0.104
                            49 Ti   0.101
    57  22 Ti   4.020 --    77 O    2.024    51 Ti   0.584    56 Ti   0.324
                            62 C    0.283    59 Ti   0.193    65 C    0.183
                            50 Ti   0.111
    58  22 Ti   4.420 --    78 O    1.743    64 C    0.639    61 C    0.509
                            80 O    0.226    55 Ti   0.192    63 C    0.165
                            52 Ti   0.161    60 Ti   0.156    56 Ti   0.131
    59  22 Ti   4.425 --    79 O    1.744    65 C    0.632    62 C    0.508
                            81 O    0.228    57 Ti   0.193    63 C    0.168
                            53 Ti   0.159    60 Ti   0.159    56 Ti   0.131
    60  22 Ti   4.442 --    80 O    1.114    81 O    1.112    63 C    0.496
                            66 C    0.423    67 C    0.420    54 Ti   0.267
                            59 Ti   0.159    58 Ti   0.156
    61   6 C    3.676 --    64 C    0.879    58 Ti   0.509    52 Ti   0.501
                            55 Ti   0.279    49 Ti   0.275    56 Ti   0.267
                            50 Ti   0.259
    62   6 C    3.679 --    65 C    0.889    59 Ti   0.508    53 Ti   0.483
                            57 Ti   0.283    51 Ti   0.280    56 Ti   0.264
                            50 Ti   0.257
    63   6 C    3.795 --    67 C    0.824    66 C    0.823    54 Ti   0.497
                            60 Ti   0.496    59 Ti   0.168    58 Ti   0.165
                            53 Ti   0.144    52 Ti   0.132
    64   6 C    3.327 --    61 C    0.879    52 Ti   0.646    58 Ti   0.639
                            66 C    0.259    55 Ti   0.180    49 Ti   0.163
    65   6 C    3.331 --    62 C    0.889    59 Ti   0.632    53 Ti   0.623
                            67 C    0.271    57 Ti   0.183    51 Ti   0.168
                            50 Ti   0.102
    66   6 C    3.359 --    63 C    0.823    54 Ti   0.426    60 Ti   0.423
                            80 O    0.394    73 O    0.379    64 C    0.259
                            67 C    0.146
    67   6 C    3.372 --    63 C    0.824    60 Ti   0.420    54 Ti   0.415
                            74 O    0.394    81 O    0.387    65 C    0.271
                            66 C    0.146
    68   8 O    2.266 --    49 Ti   2.012
    69   8 O    2.229 --    50 Ti   1.912
    70   8 O    2.266 --    51 Ti   2.021
    71   8 O    2.142 --    52 Ti   1.767
    72   8 O    2.167 --    53 Ti   1.784
    73   8 O    2.162 --    54 Ti   1.120    66 C    0.379    52 Ti   0.229
                            80 O    0.137
    74   8 O    2.184 --    54 Ti   1.115    67 C    0.394    53 Ti   0.230
                            81 O    0.140
    75   8 O    2.276 --    55 Ti   2.027
    76   8 O    2.238 --    56 Ti   1.913
    77   8 O    2.274 --    57 Ti   2.024
    78   8 O    2.133 --    58 Ti   1.743
    79   8 O    2.132 --    59 Ti   1.744
    80   8 O    2.167 --    60 Ti   1.114    66 C    0.394    58 Ti   0.226
                            73 O    0.137
    81   8 O    2.167 --    60 Ti   1.112    67 C    0.387    59 Ti   0.228
                            74 O    0.140
 ---------------------------------------------------------------------------

Topologies differ in total number of bonds
Writing topology from bond orders to xtbtopo.mol

molecular dipole:
                 x           y           z       tot (Debye)
 q only:       -0.812     -11.199       5.141
   full:        0.299      -6.605       3.359      18.850
molecular quadrupole (traceless):
                xx          xy          yy          xz          yz          zz
 q only:       29.320     -48.801      40.261      46.234     -40.436     -69.581
  q+dip:       25.951     -46.251      59.429      61.206     -46.139     -85.380
   full:       23.514     -44.010      67.065      61.097     -43.812     -90.579


           -------------------------------------------------
          | TOTAL ENERGY             -187.014624999465 Eh   |
          | GRADIENT NORM               5.391894641295 Eh/α |
          | HOMO-LUMO GAP               0.135610078701 eV   |
           -------------------------------------------------

------------------------------------------------------------------------
 * finished run on 2026/08/31 at 20:35:56.447     
------------------------------------------------------------------------
 total:
 * wall-time:     0 d,  0 h,  0 min,  2.378 sec
 *  cpu-time:     0 d,  0 h,  0 min, 19.766 sec
 * ratio c/w:     8.312 speedup
 SCF:
 * wall-time:     0 d,  0 h,  0 min,  2.317 sec
 *  cpu-time:     0 d,  0 h,  0 min, 19.234 sec
 * ratio c/w:     8.301 speedup

normal termination of xtb
