81
Drug@Ti12C7O14 non-overlapping complex
C     -8.889815      2.914411     11.962332
N     -7.686486      2.219789     11.595724
C     -7.000280      1.410810     12.476356
O     -7.287228      1.281290     13.660632
C     -5.850937      0.669457     11.862581
C     -5.057349     -0.145559     12.653311
C     -4.000290     -0.804205     12.038878
O     -3.242808     -1.637086     12.830907
C     -1.877061     -1.603071     12.670019
C     -1.213822     -2.830459     12.644623
C      0.177726     -2.874036     12.513665
C      0.912888     -1.688308     12.399266
N      2.314961     -1.794595     12.261319
C      3.098833     -0.892706     11.552834
O      2.661881     -0.047429     10.784956
N      4.439127     -1.130784     11.814058
C      5.550884     -0.520173     11.201632
C      6.803024     -0.742589     11.780681
C      7.951625     -0.176163     11.223887
C      7.862705      0.614525     10.075875
Cl      9.328863      1.276853      9.451349
C      6.622728      0.843177      9.470930
C      6.499256      1.683151      8.228174
F      6.921781      2.965098      8.407789
F      5.219787      1.786214      7.766537
F      7.215980      1.186486      7.181230
C      5.471246      0.264742     10.047548
C      0.235122     -0.463802     12.485903
F      0.904791      0.696788     12.530677
C     -1.150548     -0.414706     12.621764
C     -3.791653     -0.664927     10.667913
C     -4.638890      0.172304      9.962272
N     -5.664268      0.848497     10.522249
H     -9.012267      3.772532     11.297649
H     -8.838320      3.250066     13.001361
H     -9.734934      2.231715     11.842276
H     -7.402804      2.157230     10.620896
H     -5.253178     -0.259589     13.713845
H     -1.781459     -3.754858     12.722125
H      0.668875     -3.842946     12.482868
H      2.705506     -2.724251     12.312685
H      4.616526     -1.644565     12.665155
H      6.905892     -1.352003     12.675133
H      8.916552     -0.355707     11.693286
H      4.511590      0.440522      9.564675
H     -1.635019      0.552145     12.709772
H     -2.996856     -1.193879     10.154053
H     -4.511880      0.320592      8.892989
Ti     -2.141866     -3.008818      2.119748
Ti      0.288991     -1.694759      1.432425
Ti      1.903098     -3.067749     -0.729322
Ti     -2.521502     -0.251928      1.303687
Ti      2.142050      0.499533      2.204434
Ti     -0.681448      0.189635      3.681230
Ti     -2.036770     -3.077740     -1.200512
Ti     -0.605340     -0.770900     -2.035132
Ti      1.945488     -1.587317     -3.412400
Ti     -1.878170      1.746573     -1.240030
Ti      2.412512      0.454231     -0.774247
Ti      0.817742      1.838452     -2.940004
C     -3.678414      1.281398      0.600737
C      4.128193      0.482847      0.387293
C      0.455479      2.267202      0.349695
C     -3.666709      2.118834     -0.313920
C      4.115962      0.632239      1.621354
C     -0.635167      2.741046     -0.118921
C      1.630072      1.780996      0.734224
O     -3.093456     -1.956907      1.037949
O     -0.487250     -2.605849      2.701203
O      0.314079     -2.888890      0.145001
O     -0.800785     -0.435934      0.971227
O      1.902865     -1.158331      1.469449
O     -2.322673     -0.113878      3.024800
O      1.013786      0.441598      3.568761
O     -1.772019     -4.587905     -1.652810
O      0.190605     -1.189189     -3.534030
O      2.831420     -2.170248     -1.918042
O     -2.054558     -0.224445     -1.337505
O      0.768511     -0.390574     -1.063664
O     -0.900039      1.649313     -2.818565
O      2.415313      1.357463     -2.264115
