64
Drug@Ti12C7O14 non-overlapping complex
O      4.156435      1.459464      7.516668
N      4.150347      0.259631      7.799717
N      2.791287     -0.308251      8.114447
C      2.822063     -1.701894      8.562110
C      3.141906     -1.846266     10.047019
Cl      1.777075     -1.330726     11.071485
C      1.625736      0.426652      7.864390
O      1.566162      1.481772      7.237374
N      0.470221     -0.157263      8.368658
C     -0.828605      0.493504      8.199263
C     -1.002960      1.670110      9.180110
C     -1.727518      1.247658     10.453672
C     -3.130346      0.712560     10.159548
C     -3.257671      0.059961      8.782098
C     -1.941978     -0.559778      8.331088
H      3.596572     -2.217199      7.979717
H      1.878694     -2.201984      8.315853
H      4.017005     -1.256727     10.335736
H      3.337560     -2.895561     10.286669
H      0.594999     -0.605136      9.268233
H     -0.854469      0.903275      7.181230
H     -0.038611      2.123105      9.436929
H     -1.594384      2.455084      8.690801
H     -1.141245      0.472984     10.963287
H     -1.796572      2.092358     11.148487
H     -3.861578      1.526869     10.231021
H     -3.401013     -0.009381     10.939605
H     -4.047681     -0.699104      8.806593
H     -3.571582      0.813237      8.048525
H     -1.654261     -1.339274      9.049437
H     -2.075586     -1.069677      7.369286
Ti     -2.141866     -3.008818      2.119748
Ti      0.288991     -1.694759      1.432425
Ti      1.903098     -3.067749     -0.729322
Ti     -2.521502     -0.251928      1.303687
Ti      2.142050      0.499533      2.204434
Ti     -0.681448      0.189635      3.681230
Ti     -2.036770     -3.077740     -1.200512
Ti     -0.605340     -0.770900     -2.035132
Ti      1.945488     -1.587317     -3.412400
Ti     -1.878170      1.746573     -1.240030
Ti      2.412512      0.454231     -0.774247
Ti      0.817742      1.838452     -2.940004
C     -3.678414      1.281398      0.600737
C      4.128193      0.482847      0.387293
C      0.455479      2.267202      0.349695
C     -3.666709      2.118834     -0.313920
C      4.115962      0.632239      1.621354
C     -0.635167      2.741046     -0.118921
C      1.630072      1.780996      0.734224
O     -3.093456     -1.956907      1.037949
O     -0.487250     -2.605849      2.701203
O      0.314079     -2.888890      0.145001
O     -0.800785     -0.435934      0.971227
O      1.902865     -1.158331      1.469449
O     -2.322673     -0.113878      3.024800
O      1.013786      0.441598      3.568761
O     -1.772019     -4.587905     -1.652810
O      0.190605     -1.189189     -3.534030
O      2.831420     -2.170248     -1.918042
O     -2.054558     -0.224445     -1.337505
O      0.768511     -0.390574     -1.063664
O     -0.900039      1.649313     -2.818565
O      2.415313      1.357463     -2.264115
