      -----------------------------------------------------------      
     |                   =====================                   |     
     |                           x T B                           |     
     |                   =====================                   |     
     |                         S. Grimme                         |     
     |          Mulliken Center for Theoretical Chemistry        |     
     |                    University of Bonn                     |     
      -----------------------------------------------------------      

   * xtb version 6.7.1pre (5071a88) compiled by 'Marcel@Raven' on 2024-07-23

   xtb is free software: you can redistribute it and/or modify it under
   the terms of the GNU Lesser General Public License as published by
   the Free Software Foundation, either version 3 of the License, or
   (at your option) any later version.
   
   xtb is distributed in the hope that it will be useful,
   but WITHOUT ANY WARRANTY; without even the implied warranty of
   MERCHANTABILITY or FITNESS FOR A PARTICULAR PURPOSE.  See the
   GNU Lesser General Public License for more details.
   
   Cite this work as:
   * C. Bannwarth, E. Caldeweyher, S. Ehlert, A. Hansen, P. Pracht,
     J. Seibert, S. Spicher, S. Grimme, WIREs Comput. Mol. Sci., 2020, 11,
     e01493. DOI: 10.1002/wcms.1493
   
   for GFN2-xTB:
   * C. Bannwarth, S. Ehlert and S. Grimme., J. Chem. Theory Comput., 2019,
     15, 1652-1671. DOI: 10.1021/acs.jctc.8b01176
   for GFN1-xTB:
   * S. Grimme, C. Bannwarth, P. Shushkov, J. Chem. Theory Comput., 2017,
     13, 1989-2009. DOI: 10.1021/acs.jctc.7b00118
   for GFN0-xTB:
   * P. Pracht, E. Caldeweyher, S. Ehlert, S. Grimme, ChemRxiv, 2019, preprint.
     DOI: 10.26434/chemrxiv.8326202.v1
   for GFN-FF:
   * S. Spicher and S. Grimme, Angew. Chem. Int. Ed., 2020, 59, 15665-15673.
     DOI: 10.1002/anie.202004239
   
   for ALPB and GBSA implicit solvation:
   * S. Ehlert, M. Stahn, S. Spicher, S. Grimme, J. Chem. Theory Comput.,
     2021, 17, 4250-4261. DOI: 10.1021/acs.jctc.1c00471
   
   for ddCOSMO and CPCM-X implicit solvation:
   * M. Stahn, S. Ehlert, S. Grimme, J. Phys. Chem. A,
     2023, XX, XXXX-XXXX. DOI: 10.1021/acs.jpca.3c04382
   
   for DFT-D4:
   * E. Caldeweyher, C. Bannwarth and S. Grimme, J. Chem. Phys., 2017,
     147, 034112. DOI: 10.1063/1.4993215
   * E. Caldeweyher, S. Ehlert, A. Hansen, H. Neugebauer, S. Spicher,
     C. Bannwarth and S. Grimme, J. Chem. Phys., 2019, 150, 154122.
     DOI: 10.1063/1.5090222
   * E. Caldeweyher, J.-M. Mewes, S. Ehlert and S. Grimme, Phys. Chem. Chem. Phys.
     2020, 22, 8499-8512. DOI: 10.1039/D0CP00502A
   
   for sTDA-xTB:
   * S. Grimme and C. Bannwarth, J. Chem. Phys., 2016, 145, 054103.
     DOI: 10.1063/1.4959605
   
   in the mass-spec context:
   * V. Asgeirsson, C. Bauer and S. Grimme, Chem. Sci., 2017, 8, 4879.
     DOI: 10.1039/c7sc00601b
   * J. Koopman and S. Grimme, ACS Omega 2019, 4, 12, 15120-15133.
     DOI: 10.1021/acsomega.9b02011
   
   for metadynamics refer to:
   * S. Grimme, J. Chem. Theory Comput., 2019, 155, 2847-2862
     DOI: 10.1021/acs.jctc.9b00143
   
   for SPH calculations refer to:
   * S. Spicher and S. Grimme, J. Chem. Theory Comput., 2021, 17, 1701-1714
     DOI: 10.1021/acs.jctc.0c01306
   
   for ONIOM refer to:
   * C. Plett, A. Katbashev, S. Ehlert, S. Grimme, M. Bursch,
     Phys. Chem. Chem. Phys., 2023, 25, 17860-17868. DOI: 10.1039/D3CP02178E
   
   for DIPRO refer to:
   * J. Kohn, N. Gildemeister, S. Grimme, D. Fazzi, A. Hansen,
     J. Chem. Phys., 2023, just accepted.
   
   for PTB refer to:
   * S. Grimme, M. Mueller, A. Hansen, J. Chem. Phys., 2023, 158, 124111.
     DOI: 10.1063/5.0137838
   
   with help from (in alphabetical order)
   P. Atkinson, C. Bannwarth, F. Bohle, G. Brandenburg, E. Caldeweyher
   M. Checinski, S. Dohm, S. Ehlert, S. Ehrlich, I. Gerasimov, C. Hölzer
   A. Katbashev, J. Kohn, J. Koopman, C. Lavigne, S. Lehtola, F. März, M. Müller,
   F. Musil, H. Neugebauer, J. Pisarek, C. Plett, P. Pracht, F. Pultar,
   J. Seibert, P. Shushkov, S. Spicher, M. Stahn, M. Steiner, T. Strunk,
   J. Stückrath, T. Rose, and J. Unsleber
   
 * started run on 2026/08/31 at 21:18:43.091     
   ID    Z sym.   atoms
    1    8 O      1, 8, 51-64
    2    7 N      2, 3, 9
    3    6 C      4, 5, 7, 10-15, 44-50
    4   17 Cl     6
    5    1 H      16-31
    6   22 Ti     32-43

           -------------------------------------------------
          |                Calculation Setup                |
           -------------------------------------------------

          program call               : "c:\Users\Andre\Proyectos doctorado\kras-pancreatic-gC3N4-ai\tools\xtb\xtb-6.7.1\bin\xtb.exe" "c:\Users\Andre\Proyectos doctorado\mxene-glioblastoma-qsar-ai\calculations\gbm\Lomustine\Lomustine_Ti12C7O14_phys_complex.xyz" --gfn 2 --sp --chrg 0 --uhf 0 --etemp 300 --iterations 500 --norestart
          coordinate file            : c:\Users\Andre\Proyectos doctorado\mxene-glioblastoma-qsar-ai\calculations\gbm\Lomustine\Lomustine_Ti12C7O14_phys_complex.xyz
          omp threads                :                    16


molecular fragmentation (1/2 indicates fragments):
1111111111111111111111111111111222222222222222222222222222222222
# atoms in fragment 1/2:    31    33
 fragment masses (1/2) :      233.70      882.47
CMA distance (Bohr)    :  17.212
constraining FC (au)   :  0.0500

           -------------------------------------------------
          |                 G F N 2 - x T B                 |
           -------------------------------------------------

        Reference                      10.1021/acs.jctc.8b01176
      * Hamiltonian:
        H0-scaling (s, p, d)           1.850000    2.230000    2.230000
        zeta-weighting                 0.500000
      * Dispersion:
        s8                             2.700000
        a1                             0.520000
        a2                             5.000000
        s9                             5.000000
      * Repulsion:
        kExp                           1.500000    1.000000
        rExp                           1.000000
      * Coulomb:
        alpha                          2.000000
        third order                    shell-resolved
        anisotropic                    true
        a3                             3.000000
        a5                             4.000000
        cn-shift                       1.200000
        cn-exp                         4.000000
        max-rad                        5.000000


          ...................................................
          :                      SETUP                      :
          :.................................................:
          :  # basis functions                 286          :
          :  # atomic orbitals                 273          :
          :  # shells                          125          :
          :  # electrons                       246          :
          :  max. iterations                   500          :
          :  Hamiltonian                  GFN2-xTB          :
          :  restarted?                      false          :
          :  GBSA solvation                  false          :
          :  PC potential                    false          :
          :  electronic temp.          300.0000000     K    :
          :  accuracy                    1.0000000          :
          :  -> integral cutoff          0.2500000E+02      :
          :  -> integral neglect         0.1000000E-07      :
          :  -> SCF convergence          0.1000000E-05 Eh   :
          :  -> wf. convergence          0.1000000E-03 e    :
          :  Broyden damping             0.4000000          :
          :  net charge                          0          :
          :  unpaired electrons                  0          :
          ...................................................

 iter      E             dE          RMSdq      gap      omega  full diag
   1   -138.6702249 -0.138670E+03  0.157E+01    0.11       0.0  T
   2    -95.4723792  0.431978E+02  0.179E+01    0.13       1.0  T
   3     20.3914160  0.115864E+03  0.312E+01    0.01       1.0  T
   4   -134.2299299 -0.154621E+03  0.123E+01    0.12       1.0  T
   5   -138.2693458 -0.403942E+01  0.982E+00    0.04       1.0  T
   6   -140.3574675 -0.208812E+01  0.786E+00    0.29       1.0  T
   7   -141.4613033 -0.110384E+01  0.651E+00    0.44       1.0  T
   8   -140.7260782  0.735225E+00  0.668E+00    0.18       1.0  T
   9   -141.5344497 -0.808372E+00  0.542E+00    0.28       1.0  T
  10   -140.9720540  0.562396E+00  0.473E+00    0.04       1.0  T
  11   -141.6584707 -0.686417E+00  0.399E+00    0.42       1.0  T
  12   -141.5943839  0.640868E-01  0.359E+00    0.08       1.0  T
  13   -141.8132665 -0.218883E+00  0.289E+00    0.18       1.0  T
  14   -141.1492223  0.664044E+00  0.467E+00    0.09       1.0  T
  15   -141.3896628 -0.240440E+00  0.384E+00    0.01       1.0  T
  16   -141.0437439  0.345919E+00  0.429E+00    0.14       1.0  T
  17   -141.8241896 -0.780446E+00  0.186E+00    0.14       1.0  T
  18   -141.8645720 -0.403824E-01  0.157E+00    0.17       1.0  T
  19   -141.9149293 -0.503572E-01  0.152E+00    0.37       1.0  T
  20   -141.9313792 -0.164499E-01  0.138E+00    0.40       1.0  T
  21   -141.9401789 -0.879971E-02  0.127E+00    0.34       1.0  T
  22   -141.9604576 -0.202787E-01  0.102E+00    0.21       1.0  T
  23   -141.8393528  0.121105E+00  0.133E+00    0.01       1.0  T
  24   -141.9732678 -0.133915E+00  0.764E-01    0.32       1.0  T
  25   -141.9842903 -0.110225E-01  0.590E-01    0.31       1.0  T
  26   -141.9932713 -0.898098E-02  0.449E-01    0.22       1.0  T
  27   -141.9977041 -0.443286E-02  0.325E-01    0.21       1.0  T
  28   -141.9984531 -0.748946E-03  0.303E-01    0.23       1.0  T
  29   -141.9977766  0.676465E-03  0.308E-01    0.27       1.0  T
  30   -141.9971062  0.670359E-03  0.303E-01    0.33       1.0  T
  31   -141.9980149 -0.908673E-03  0.276E-01    0.31       1.0  T
  32   -141.9986842 -0.669292E-03  0.247E-01    0.28       1.0  T
  33   -142.0004315 -0.174725E-02  0.191E-01    0.22       1.0  T
  34   -142.0036336 -0.320215E-02  0.353E-02    0.14       1.0  T
  35   -142.0036706 -0.370250E-04  0.211E-02    0.14       1.0  T
  36   -142.0036787 -0.806823E-05  0.167E-02    0.14       1.0  T
  37   -142.0036834 -0.472163E-05  0.176E-02    0.14       1.0  T
  38   -142.0036875 -0.411539E-05  0.157E-02    0.14       1.0  T
  39   -142.0036672  0.203073E-04  0.222E-02    0.14       1.0  T
  40   -142.0036888 -0.215867E-04  0.114E-02    0.14       1.1  T
  41   -142.0036894 -0.586432E-06  0.109E-02    0.14       1.1  T
  42   -142.0036910 -0.160616E-05  0.795E-03    0.14       1.6  T
  43   -142.0036911 -0.101299E-06  0.735E-03    0.14       1.7  T
  44   -142.0036916 -0.523378E-06  0.696E-03    0.14       1.8  T
  45   -142.0036919 -0.234676E-06  0.555E-03    0.14       2.3  T
  46   -142.0036919 -0.583669E-07  0.521E-03    0.14       2.4  T
  47   -142.0036922 -0.279064E-06  0.437E-03    0.14       2.9  T
  48   -142.0036922  0.295092E-07  0.369E-03    0.14       3.4  T
  49   -142.0036925 -0.357988E-06  0.192E-03    0.14       6.5  T
  50   -142.0036926 -0.110455E-06  0.987E-04    0.14      12.7  T
  51   -142.0036927 -0.658403E-07  0.275E-04    0.14      45.5  T

   *** convergence criteria satisfied after 51 iterations ***

         #    Occupation            Energy/Eh            Energy/eV
      -------------------------------------------------------------
         1        2.0000           -1.0698001             -29.1107
       ...           ...                  ...                  ...
       117        2.0000           -0.3623149              -9.8591
       118        2.0000           -0.3522053              -9.5840
       119        2.0000           -0.3501280              -9.5275
       120        2.0000           -0.3459882              -9.4148
       121        2.0000           -0.3407864              -9.2733
       122        2.0000           -0.3276677              -8.9163
       123        1.8714           -0.3140935              -8.5469 (HOMO)
       124        0.1286           -0.3090053              -8.4085 (LUMO)
       125                         -0.2891184              -7.8673
       126                         -0.2882782              -7.8444
       127                         -0.2871713              -7.8143
       128                         -0.2866757              -7.8008
       ...                                ...                  ...
       273                         13.3827692             364.1637
      -------------------------------------------------------------
                  HL-Gap            0.0050883 Eh            0.1385 eV
             Fermi-level           -0.3115494 Eh           -8.4777 eV

 SCC (total)                   0 d,  0 h,  0 min,  0.668 sec
 SCC setup                      ...        0 min,  0.001 sec (  0.150%)
 Dispersion                     ...        0 min,  0.001 sec (  0.150%)
 classical contributions        ...        0 min,  0.000 sec (  0.000%)
 integral evaluation            ...        0 min,  0.006 sec (  0.898%)
 iterations                     ...        0 min,  0.645 sec ( 96.557%)
 molecular gradient             ...        0 min,  0.014 sec (  2.096%)
 printout                       ...        0 min,  0.001 sec (  0.150%)

         :::::::::::::::::::::::::::::::::::::::::::::::::::::
         ::                     SUMMARY                     ::
         :::::::::::::::::::::::::::::::::::::::::::::::::::::
         :: total energy            -140.867395782753 Eh    ::
         :: gradient norm              0.105997544646 Eh/a0 ::
         :: HOMO-LUMO gap              0.138459055062 eV    ::
         ::.................................................::
         :: SCC energy              -142.001228771470 Eh    ::
         :: -> isotropic ES            0.967580791776 Eh    ::
         :: -> anisotropic ES         -0.380094714538 Eh    ::
         :: -> anisotropic XC         -0.044721645761 Eh    ::
         :: -> dispersion             -0.120597137479 Eh    ::
         :: repulsion energy           1.133832988717 Eh    ::
         :: add. restraining           0.000000000000 Eh    ::
         :: total charge               0.000000000000 e     ::
         :::::::::::::::::::::::::::::::::::::::::::::::::::::

           -------------------------------------------------
          |                Property Printout                |
           -------------------------------------------------

    * Orbital Energies and Occupations

         #    Occupation            Energy/Eh            Energy/eV
      -------------------------------------------------------------
         1        2.0000           -1.0698001             -29.1107
       ...           ...                  ...                  ...
       111        2.0000           -0.3884103             -10.5692
       112        2.0000           -0.3842532             -10.4561
       113        2.0000           -0.3800633             -10.3420
       114        2.0000           -0.3723658             -10.1326
       115        2.0000           -0.3712224             -10.1015
       116        2.0000           -0.3645399              -9.9196
       117        2.0000           -0.3623149              -9.8591
       118        2.0000           -0.3522053              -9.5840
       119        2.0000           -0.3501280              -9.5275
       120        2.0000           -0.3459882              -9.4148
       121        2.0000           -0.3407864              -9.2733
       122        2.0000           -0.3276677              -8.9163
       123        1.8714           -0.3140935              -8.5469 (HOMO)
       124        0.1286           -0.3090053              -8.4085 (LUMO)
       125                         -0.2891184              -7.8673
       126                         -0.2882782              -7.8444
       127                         -0.2871713              -7.8143
       128                         -0.2866757              -7.8008
       129                         -0.2840952              -7.7306
       130                         -0.2785664              -7.5802
       131                         -0.2775864              -7.5535
       132                         -0.2755935              -7.4993
       133                         -0.2751341              -7.4868
       134                         -0.2744626              -7.4685
       ...                                ...                  ...
       273                         13.3827692             364.1637
      -------------------------------------------------------------
                  HL-Gap            0.0050883 Eh            0.1385 eV
             Fermi-level           -0.3115494 Eh           -8.4777 eV

     #   Z          covCN         q      C6AA      α(0)
     1   8 O        0.924    -0.241    18.723     5.803
     2   7 N        1.891     0.077    20.550     6.720
     3   7 N        2.791    -0.093    23.059     7.132
     4   6 C        3.756    -0.018    20.941     6.525
     5   6 C        3.712     0.017    20.419     6.457
     6  17 Cl       0.912    -0.184   104.912    15.670
     7   6 C        2.682     0.320    21.559     7.598
     8   8 O        0.858    -0.416    22.011     6.290
     9   7 N        2.689    -0.239    26.241     7.608
    10   6 C        3.787     0.040    19.917     6.356
    11   6 C        3.801    -0.070    21.839     6.653
    12   6 C        3.801    -0.060    21.647     6.624
    13   6 C        3.802    -0.061    21.678     6.629
    14   6 C        3.801    -0.063    21.701     6.632
    15   6 C        3.803    -0.074    21.915     6.665
    16   1 H        0.924     0.085     1.928     2.172
    17   1 H        0.924     0.080     1.978     2.200
    18   1 H        0.924     0.085     1.925     2.170
    19   1 H        0.924     0.075     2.029     2.227
    20   1 H        0.861     0.196     1.129     1.665
    21   1 H        0.924     0.071     2.076     2.253
    22   1 H        0.924     0.053     2.280     2.361
    23   1 H        0.924     0.048     2.339     2.392
    24   1 H        0.924     0.034     2.529     2.487
    25   1 H        0.924     0.037     2.492     2.469
    26   1 H        0.924     0.035     2.517     2.481
    27   1 H        0.924     0.033     2.539     2.492
    28   1 H        0.924     0.038     2.473     2.459
    29   1 H        0.924     0.040     2.443     2.444
    30   1 H        0.923     0.052     2.298     2.370
    31   1 H        0.924     0.039     2.465     2.455
    32  22 Ti       3.637     1.050   101.800    24.489
    33  22 Ti       6.855     1.552    84.050    14.885
    34  22 Ti       3.227     1.050   102.620    24.736
    35  22 Ti       5.860     1.380    85.668    15.027
    36  22 Ti       5.627     1.146    87.960    15.227
    37  22 Ti       3.541     1.041   102.459    24.670
    38  22 Ti       2.352     0.883   202.622    34.854
    39  22 Ti       6.011     1.350    85.962    15.053
    40  22 Ti       3.414     1.010   103.028    24.776
    41  22 Ti       5.519     1.104    88.383    15.263
    42  22 Ti       5.687     1.194    87.484    15.186
    43  22 Ti       3.581     1.029   102.438    24.638
    44   6 C        2.246    -0.256    37.599     9.935
    45   6 C        2.142    -0.257    38.376    10.014
    46   6 C        2.248    -0.017    30.546     8.955
    47   6 C        1.838    -0.209    37.290     9.865
    48   6 C        1.894    -0.219    37.574     9.900
    49   6 C        1.821    -0.340    41.907    10.459
    50   6 C        2.631    -0.396    39.641    10.299
    51   8 O        1.554    -0.847    32.008     7.633
    52   8 O        1.464    -0.882    33.250     7.772
    53   8 O        1.557    -0.956    35.612     8.052
    54   8 O        1.523    -1.008    37.513     8.261
    55   8 O        1.523    -0.916    34.272     7.896
    56   8 O        1.458    -0.823    31.403     7.553
    57   8 O        1.455    -0.789    30.405     7.432
    58   8 O        0.727    -0.635    27.059     6.971
    59   8 O        1.453    -0.864    32.698     7.707
    60   8 O        1.476    -0.800    30.684     7.468
    61   8 O        1.603    -0.945    35.159     8.003
    62   8 O        1.547    -0.970    36.107     8.107
    63   8 O        1.700    -0.817    30.985     7.515
    64   8 O        1.453    -0.781    30.167     7.402

 Mol. C6AA /au·bohr⁶  :     112615.541085
 Mol. C8AA /au·bohr⁸  :    5412134.259133
 Mol. α(0) /au        :        572.460367


Wiberg/Mayer (AO) data.
largest (>0.10) Wiberg bond orders for each atom

 ---------------------------------------------------------------------------
     #   Z sym  total        # sym  WBO       # sym  WBO       # sym  WBO
 ---------------------------------------------------------------------------
     1   8 O    2.056 --     2 N    1.773     3 N    0.220
     2   7 N    2.888 --     1 O    1.773     3 N    1.037
     3   7 N    3.501 --     7 C    1.077     2 N    1.037     4 C    0.997
                             1 O    0.220     8 O    0.102
     4   6 C    3.971 --     5 C    1.008     3 N    0.997    17 H    0.960
                            16 H    0.955
     5   6 C    3.938 --     4 C    1.008    19 H    0.975    18 H    0.974
                             6 Cl   0.950
     6  17 Cl   1.036 --     5 C    0.950
     7   6 C    3.954 --     8 O    1.653     9 N    1.156     3 N    1.077
     8   8 O    2.025 --     7 C    1.653     9 N    0.162     3 N    0.102
     9   7 N    3.333 --     7 C    1.156    10 C    0.981    20 H    0.903
                             8 O    0.162
    10   6 C    3.958 --    15 C    0.989    11 C    0.981     9 N    0.981
                            21 H    0.916
    11   6 C    3.991 --    12 C    1.011    10 C    0.981    23 H    0.975
                            22 H    0.973
    12   6 C    3.996 --    11 C    1.011    13 C    1.005    24 H    0.979
                            25 H    0.978
    13   6 C    3.997 --    14 C    1.005    12 C    1.005    27 H    0.981
                            26 H    0.981
    14   6 C    3.994 --    15 C    1.009    13 C    1.005    28 H    0.977
                            29 H    0.977
    15   6 C    3.990 --    14 C    1.009    10 C    0.989    30 H    0.973
                            31 H    0.959
    16   1 H    0.992 --     4 C    0.955
    17   1 H    0.993 --     4 C    0.960
    18   1 H    0.993 --     5 C    0.974
    19   1 H    0.994 --     5 C    0.975
    20   1 H    0.960 --     9 N    0.903
    21   1 H    0.995 --    10 C    0.916
    22   1 H    0.997 --    11 C    0.973
    23   1 H    0.997 --    11 C    0.975
    24   1 H    0.999 --    12 C    0.979
    25   1 H    0.998 --    12 C    0.978
    26   1 H    0.999 --    13 C    0.981
    27   1 H    0.999 --    13 C    0.981
    28   1 H    0.998 --    14 C    0.977
    29   1 H    0.998 --    14 C    0.977
    30   1 H    0.996 --    15 C    0.973
    31   1 H    0.998 --    15 C    0.959
    32  22 Ti   2.828 --    51 O    0.848    52 O    0.811    38 Ti   0.331
                            33 Ti   0.204    35 Ti   0.198    37 Ti   0.101
    33  22 Ti   3.852 --    52 O    0.752    55 O    0.733    53 O    0.689
                            54 O    0.614    32 Ti   0.204    34 Ti   0.186
                            36 Ti   0.141    37 Ti   0.135
    34  22 Ti   2.719 --    60 O    0.960    53 O    0.601    40 Ti   0.371
                            33 Ti   0.186    38 Ti   0.140    55 O    0.110
    35  22 Ti   3.917 --    56 O    0.947    44 C    0.718    51 O    0.701
                            54 O    0.565    37 Ti   0.205    32 Ti   0.198
                            41 Ti   0.179    61 O    0.122
    36  22 Ti   4.042 --    50 C    0.855    57 O    0.792    48 C    0.743
                            55 O    0.609    42 Ti   0.278    37 Ti   0.174
                            45 C    0.152    33 Ti   0.141    49 C    0.139
    37  22 Ti   2.735 --    57 O    0.958    56 O    0.693    35 Ti   0.205
                            36 Ti   0.174    33 Ti   0.135    52 O    0.123
                            32 Ti   0.101
    38  22 Ti   3.768 --    58 O    1.997    39 Ti   0.608    32 Ti   0.331
                            53 O    0.152    51 O    0.148    34 Ti   0.140
                            61 O    0.111
    39  22 Ti   4.012 --    61 O    0.801    59 O    0.753    62 O    0.712
                            38 Ti   0.608    63 O    0.195    40 Ti   0.166
                            43 Ti   0.148    41 Ti   0.141
    40  22 Ti   2.745 --    59 O    0.834    60 O    0.764    34 Ti   0.371
                            43 Ti   0.220    39 Ti   0.166    42 Ti   0.132
    41  22 Ti   3.983 --    49 C    1.035    47 C    0.731    63 O    0.617
                            61 O    0.446    50 C    0.213    43 Ti   0.199
                            35 Ti   0.179    44 C    0.158    39 Ti   0.141
    42  22 Ti   4.071 --    64 O    0.970    45 C    0.672    50 C    0.642
                            62 O    0.444    36 Ti   0.278    43 Ti   0.211
                            49 C    0.136    40 Ti   0.132    60 O    0.115
    43  22 Ti   2.786 --    63 O    0.899    64 O    0.733    40 Ti   0.220
                            42 Ti   0.211    41 Ti   0.199    39 Ti   0.148
    44   6 C    3.839 --    47 C    2.738    35 Ti   0.718    41 Ti   0.158
    45   6 C    3.784 --    48 C    2.731    42 Ti   0.672    36 Ti   0.152
    46   6 C    3.978 --    49 C    2.005    50 C    1.613
    47   6 C    3.708 --    44 C    2.738    41 Ti   0.731
    48   6 C    3.746 --    45 C    2.731    36 Ti   0.743
    49   6 C    3.702 --    46 C    2.005    41 Ti   1.035    36 Ti   0.139
                            42 Ti   0.136
    50   6 C    3.750 --    46 C    1.613    36 Ti   0.855    42 Ti   0.642
                            41 Ti   0.213
    51   8 O    1.934 --    32 Ti   0.848    35 Ti   0.701    38 Ti   0.148
    52   8 O    1.890 --    32 Ti   0.811    33 Ti   0.752    37 Ti   0.123
    53   8 O    1.782 --    33 Ti   0.689    34 Ti   0.601    38 Ti   0.152
    54   8 O    1.715 --    33 Ti   0.614    35 Ti   0.565
    55   8 O    1.842 --    33 Ti   0.733    36 Ti   0.609    34 Ti   0.110
    56   8 O    1.967 --    35 Ti   0.947    37 Ti   0.693
    57   8 O    2.026 --    37 Ti   0.958    36 Ti   0.792
    58   8 O    2.172 --    38 Ti   1.997
    59   8 O    1.911 --    40 Ti   0.834    39 Ti   0.753
    60   8 O    2.007 --    34 Ti   0.960    40 Ti   0.764    42 Ti   0.115
    61   8 O    1.800 --    39 Ti   0.801    41 Ti   0.446    35 Ti   0.122
                            38 Ti   0.111
    62   8 O    1.771 --    39 Ti   0.712    42 Ti   0.444
    63   8 O    1.986 --    43 Ti   0.899    41 Ti   0.617    39 Ti   0.195
    64   8 O    2.031 --    42 Ti   0.970    43 Ti   0.733
 ---------------------------------------------------------------------------

Topologies differ in total number of bonds
Writing topology from bond orders to xtbtopo.mol

molecular dipole:
                 x           y           z       tot (Debye)
 q only:       -0.350      -3.069      -1.118
   full:       -1.498      -3.160      -0.271       8.916
molecular quadrupole (traceless):
                xx          xy          yy          xz          yz          zz
 q only:      -35.834     -24.051      -5.572     -51.876     -55.932      41.406
  q+dip:      -26.958     -30.026     -25.607     -15.108     -73.942      52.565
   full:      -24.366     -28.273     -25.145     -16.404     -70.212      49.511


           -------------------------------------------------
          | TOTAL ENERGY             -140.867395782753 Eh   |
          | GRADIENT NORM               0.105997544646 Eh/α |
          | HOMO-LUMO GAP               0.138459055062 eV   |
           -------------------------------------------------

------------------------------------------------------------------------
 * finished run on 2026/08/31 at 21:18:43.804     
------------------------------------------------------------------------
 total:
 * wall-time:     0 d,  0 h,  0 min,  0.712 sec
 *  cpu-time:     0 d,  0 h,  0 min,  6.922 sec
 * ratio c/w:     9.722 speedup
 SCF:
 * wall-time:     0 d,  0 h,  0 min,  0.669 sec
 *  cpu-time:     0 d,  0 h,  0 min,  6.406 sec
 * ratio c/w:     9.576 speedup

normal termination of xtb
