      -----------------------------------------------------------      
     |                   =====================                   |     
     |                           x T B                           |     
     |                   =====================                   |     
     |                         S. Grimme                         |     
     |          Mulliken Center for Theoretical Chemistry        |     
     |                    University of Bonn                     |     
      -----------------------------------------------------------      

   * xtb version 6.7.1pre (5071a88) compiled by 'Marcel@Raven' on 2024-07-23

   xtb is free software: you can redistribute it and/or modify it under
   the terms of the GNU Lesser General Public License as published by
   the Free Software Foundation, either version 3 of the License, or
   (at your option) any later version.
   
   xtb is distributed in the hope that it will be useful,
   but WITHOUT ANY WARRANTY; without even the implied warranty of
   MERCHANTABILITY or FITNESS FOR A PARTICULAR PURPOSE.  See the
   GNU Lesser General Public License for more details.
   
   Cite this work as:
   * C. Bannwarth, E. Caldeweyher, S. Ehlert, A. Hansen, P. Pracht,
     J. Seibert, S. Spicher, S. Grimme, WIREs Comput. Mol. Sci., 2020, 11,
     e01493. DOI: 10.1002/wcms.1493
   
   for GFN2-xTB:
   * C. Bannwarth, S. Ehlert and S. Grimme., J. Chem. Theory Comput., 2019,
     15, 1652-1671. DOI: 10.1021/acs.jctc.8b01176
   for GFN1-xTB:
   * S. Grimme, C. Bannwarth, P. Shushkov, J. Chem. Theory Comput., 2017,
     13, 1989-2009. DOI: 10.1021/acs.jctc.7b00118
   for GFN0-xTB:
   * P. Pracht, E. Caldeweyher, S. Ehlert, S. Grimme, ChemRxiv, 2019, preprint.
     DOI: 10.26434/chemrxiv.8326202.v1
   for GFN-FF:
   * S. Spicher and S. Grimme, Angew. Chem. Int. Ed., 2020, 59, 15665-15673.
     DOI: 10.1002/anie.202004239
   
   for ALPB and GBSA implicit solvation:
   * S. Ehlert, M. Stahn, S. Spicher, S. Grimme, J. Chem. Theory Comput.,
     2021, 17, 4250-4261. DOI: 10.1021/acs.jctc.1c00471
   
   for ddCOSMO and CPCM-X implicit solvation:
   * M. Stahn, S. Ehlert, S. Grimme, J. Phys. Chem. A,
     2023, XX, XXXX-XXXX. DOI: 10.1021/acs.jpca.3c04382
   
   for DFT-D4:
   * E. Caldeweyher, C. Bannwarth and S. Grimme, J. Chem. Phys., 2017,
     147, 034112. DOI: 10.1063/1.4993215
   * E. Caldeweyher, S. Ehlert, A. Hansen, H. Neugebauer, S. Spicher,
     C. Bannwarth and S. Grimme, J. Chem. Phys., 2019, 150, 154122.
     DOI: 10.1063/1.5090222
   * E. Caldeweyher, J.-M. Mewes, S. Ehlert and S. Grimme, Phys. Chem. Chem. Phys.
     2020, 22, 8499-8512. DOI: 10.1039/D0CP00502A
   
   for sTDA-xTB:
   * S. Grimme and C. Bannwarth, J. Chem. Phys., 2016, 145, 054103.
     DOI: 10.1063/1.4959605
   
   in the mass-spec context:
   * V. Asgeirsson, C. Bauer and S. Grimme, Chem. Sci., 2017, 8, 4879.
     DOI: 10.1039/c7sc00601b
   * J. Koopman and S. Grimme, ACS Omega 2019, 4, 12, 15120-15133.
     DOI: 10.1021/acsomega.9b02011
   
   for metadynamics refer to:
   * S. Grimme, J. Chem. Theory Comput., 2019, 155, 2847-2862
     DOI: 10.1021/acs.jctc.9b00143
   
   for SPH calculations refer to:
   * S. Spicher and S. Grimme, J. Chem. Theory Comput., 2021, 17, 1701-1714
     DOI: 10.1021/acs.jctc.0c01306
   
   for ONIOM refer to:
   * C. Plett, A. Katbashev, S. Ehlert, S. Grimme, M. Bursch,
     Phys. Chem. Chem. Phys., 2023, 25, 17860-17868. DOI: 10.1039/D3CP02178E
   
   for DIPRO refer to:
   * J. Kohn, N. Gildemeister, S. Grimme, D. Fazzi, A. Hansen,
     J. Chem. Phys., 2023, just accepted.
   
   for PTB refer to:
   * S. Grimme, M. Mueller, A. Hansen, J. Chem. Phys., 2023, 158, 124111.
     DOI: 10.1063/5.0137838
   
   with help from (in alphabetical order)
   P. Atkinson, C. Bannwarth, F. Bohle, G. Brandenburg, E. Caldeweyher
   M. Checinski, S. Dohm, S. Ehlert, S. Ehrlich, I. Gerasimov, C. Hölzer
   A. Katbashev, J. Kohn, J. Koopman, C. Lavigne, S. Lehtola, F. März, M. Müller,
   F. Musil, H. Neugebauer, J. Pisarek, C. Plett, P. Pracht, F. Pultar,
   J. Seibert, P. Shushkov, S. Spicher, M. Stahn, M. Steiner, T. Strunk,
   J. Stückrath, T. Rose, and J. Unsleber
   
 * started run on 2026/08/31 at 21:54:45.640     
   ID    Z sym.   atoms
    1    8 O      1, 8
    2    7 N      2, 3, 9
    3    6 C      4, 5, 7, 10-15
    4   17 Cl     6
    5    1 H      16-31

           -------------------------------------------------
          |                Calculation Setup                |
           -------------------------------------------------

          program call               : "c:\Users\Andre\Proyectos doctorado\kras-pancreatic-gC3N4-ai\tools\xtb\xtb-6.7.1\bin\xtb.exe" "c:\Users\Andre\Proyectos doctorado\mxene-glioblastoma-qsar-ai\calculations\gbm\Lomustine\Lomustine_drug.xyz" --gfn 2 --sp --chrg 0 --uhf 0 --etemp 500 --acc 1.0 --iterations 500 --norestart
          coordinate file            : c:\Users\Andre\Proyectos doctorado\mxene-glioblastoma-qsar-ai\calculations\gbm\Lomustine\Lomustine_drug.xyz
          omp threads                :                    16


           -------------------------------------------------
          |                 G F N 2 - x T B                 |
           -------------------------------------------------

        Reference                      10.1021/acs.jctc.8b01176
      * Hamiltonian:
        H0-scaling (s, p, d)           1.850000    2.230000    2.230000
        zeta-weighting                 0.500000
      * Dispersion:
        s8                             2.700000
        a1                             0.520000
        a2                             5.000000
        s9                             5.000000
      * Repulsion:
        kExp                           1.500000    1.000000
        rExp                           1.000000
      * Coulomb:
        alpha                          2.000000
        third order                    shell-resolved
        anisotropic                    true
        a3                             3.000000
        a5                             4.000000
        cn-shift                       1.200000
        cn-exp                         4.000000
        max-rad                        5.000000


          ...................................................
          :                      SETUP                      :
          :.................................................:
          :  # basis functions                  82          :
          :  # atomic orbitals                  81          :
          :  # shells                           47          :
          :  # electrons                        86          :
          :  max. iterations                   500          :
          :  Hamiltonian                  GFN2-xTB          :
          :  restarted?                      false          :
          :  GBSA solvation                  false          :
          :  PC potential                    false          :
          :  electronic temp.          500.0000000     K    :
          :  accuracy                    1.0000000          :
          :  -> integral cutoff          0.2500000E+02      :
          :  -> integral neglect         0.1000000E-07      :
          :  -> SCF convergence          0.1000000E-05 Eh   :
          :  -> wf. convergence          0.1000000E-03 e    :
          :  Broyden damping             0.4000000          :
          :  net charge                          0          :
          :  unpaired electrons                  0          :
          ...................................................

 iter      E             dE          RMSdq      gap      omega  full diag
   1    -49.1288524 -0.491289E+02  0.413E+00    2.41       0.0  T
   2    -49.2567499 -0.127898E+00  0.221E+00    1.70       1.0  T
   3    -49.2702720 -0.135221E-01  0.129E+00    1.68       1.0  T
   4    -49.2757864 -0.551435E-02  0.382E-01    1.56       1.0  T
   5    -49.2779501 -0.216375E-02  0.108E-01    1.53       1.0  T
   6    -49.2780265 -0.763809E-04  0.533E-02    1.55       1.0  T
   7    -49.2780360 -0.946655E-05  0.239E-02    1.56       1.0  T
   8    -49.2780386 -0.260473E-05  0.135E-02    1.55       1.3  T
   9    -49.2780400 -0.141062E-05  0.919E-03    1.56       2.0  T
  10    -49.2780408 -0.804615E-06  0.594E-03    1.56       3.0  T
  11    -49.2780412 -0.448815E-06  0.231E-03    1.56       7.8  T
  12    -49.2780413 -0.533535E-07  0.122E-03    1.56      14.7  T
  13    -49.2780413 -0.121027E-07  0.602E-04    1.56      29.8  T
  14    -49.2780413 -0.282620E-08  0.424E-04    1.56      42.3  T

   *** convergence criteria satisfied after 14 iterations ***

         #    Occupation            Energy/Eh            Energy/eV
      -------------------------------------------------------------
         1        2.0000           -1.0740717             -29.2270
       ...           ...                  ...                  ...
        37        2.0000           -0.4369756             -11.8907
        38        2.0000           -0.4365650             -11.8795
        39        2.0000           -0.4338688             -11.8062
        40        2.0000           -0.4273114             -11.6277
        41        2.0000           -0.4234662             -11.5231
        42        2.0000           -0.4080149             -11.1027
        43        2.0000           -0.3962849             -10.7835 (HOMO)
        44                         -0.3391316              -9.2282 (LUMO)
        45                         -0.2148559              -5.8465
        46                         -0.1849366              -5.0324
        47                         -0.1434121              -3.9024
        48                         -0.0196230              -0.5340
       ...                                ...                  ...
        81                          0.5743763              15.6296
      -------------------------------------------------------------
                  HL-Gap            0.0571533 Eh            1.5552 eV
             Fermi-level           -0.3677077 Eh          -10.0058 eV

 SCC (total)                   0 d,  0 h,  0 min,  0.045 sec
 SCC setup                      ...        0 min,  0.000 sec (  0.000%)
 Dispersion                     ...        0 min,  0.001 sec (  2.223%)
 classical contributions        ...        0 min,  0.001 sec (  2.222%)
 integral evaluation            ...        0 min,  0.001 sec (  2.222%)
 iterations                     ...        0 min,  0.035 sec ( 77.777%)
 molecular gradient             ...        0 min,  0.006 sec ( 13.333%)
 printout                       ...        0 min,  0.001 sec (  2.223%)

         :::::::::::::::::::::::::::::::::::::::::::::::::::::
         ::                     SUMMARY                     ::
         :::::::::::::::::::::::::::::::::::::::::::::::::::::
         :: total energy             -48.817051907290 Eh    ::
         :: gradient norm              0.126991872993 Eh/a0 ::
         :: HOMO-LUMO gap              1.555221189410 eV    ::
         ::.................................................::
         :: SCC energy               -49.277760182283 Eh    ::
         :: -> isotropic ES            0.059756215942 Eh    ::
         :: -> anisotropic ES          0.005025358753 Eh    ::
         :: -> anisotropic XC          0.023279128185 Eh    ::
         :: -> dispersion             -0.027157098856 Eh    ::
         :: repulsion energy           0.460708274992 Eh    ::
         :: add. restraining           0.000000000000 Eh    ::
         :: total charge               0.000000000018 e     ::
         :::::::::::::::::::::::::::::::::::::::::::::::::::::

           -------------------------------------------------
          |                Property Printout                |
           -------------------------------------------------

    * Orbital Energies and Occupations

         #    Occupation            Energy/Eh            Energy/eV
      -------------------------------------------------------------
         1        2.0000           -1.0740717             -29.2270
       ...           ...                  ...                  ...
        31        2.0000           -0.4784929             -13.0205
        32        2.0000           -0.4771619             -12.9842
        33        2.0000           -0.4697624             -12.7829
        34        2.0000           -0.4646355             -12.6434
        35        2.0000           -0.4492064             -12.2235
        36        2.0000           -0.4426165             -12.0442
        37        2.0000           -0.4369756             -11.8907
        38        2.0000           -0.4365650             -11.8795
        39        2.0000           -0.4338688             -11.8062
        40        2.0000           -0.4273114             -11.6277
        41        2.0000           -0.4234662             -11.5231
        42        2.0000           -0.4080149             -11.1027
        43        2.0000           -0.3962849             -10.7835 (HOMO)
        44                         -0.3391316              -9.2282 (LUMO)
        45                         -0.2148559              -5.8465
        46                         -0.1849366              -5.0324
        47                         -0.1434121              -3.9024
        48                         -0.0196230              -0.5340
        49                         -0.0129003              -0.3510
        50                         -0.0044542              -0.1212
        51                          0.0004223               0.0115
        52                          0.0024966               0.0679
        53                          0.0058233               0.1585
        54                          0.0535757               1.4579
       ...                                ...                  ...
        81                          0.5743763              15.6296
      -------------------------------------------------------------
                  HL-Gap            0.0571533 Eh            1.5552 eV
             Fermi-level           -0.3677077 Eh          -10.0058 eV

     #   Z          covCN         q      C6AA      α(0)
     1   8 O        0.924    -0.211    18.219     5.724
     2   7 N        1.891     0.113    19.931     6.618
     3   7 N        2.791    -0.089    22.970     7.118
     4   6 C        3.764    -0.013    20.851     6.509
     5   6 C        3.713     0.022    20.337     6.444
     6  17 Cl       0.919    -0.185   104.947    15.673
     7   6 C        2.682     0.323    21.506     7.589
     8   8 O        0.858    -0.410    21.873     6.270
     9   7 N        2.688    -0.220    25.799     7.544
    10   6 C        3.787     0.049    19.767     6.332
    11   6 C        3.802    -0.062    21.684     6.630
    12   6 C        3.801    -0.056    21.586     6.615
    13   6 C        3.802    -0.057    21.606     6.618
    14   6 C        3.801    -0.053    21.534     6.607
    15   6 C        3.802    -0.066    21.772     6.643
    16   1 H        0.924     0.092     1.864     2.135
    17   1 H        0.924     0.081     1.969     2.194
    18   1 H        0.924     0.067     2.115     2.274
    19   1 H        0.924     0.082     1.954     2.186
    20   1 H        0.860     0.171     1.265     1.762
    21   1 H        0.924     0.064     2.157     2.297
    22   1 H        0.924     0.051     2.309     2.376
    23   1 H        0.923     0.031     2.579     2.511
    24   1 H        0.924     0.035     2.518     2.482
    25   1 H        0.924     0.035     2.511     2.478
    26   1 H        0.924     0.031     2.570     2.507
    27   1 H        0.924     0.030     2.582     2.513
    28   1 H        0.924     0.033     2.542     2.493
    29   1 H        0.924     0.026     2.650     2.546
    30   1 H        0.924     0.047     2.360     2.402
    31   1 H        0.924     0.039     2.458     2.452

 Mol. C6AA /au·bohr⁶  :       9761.767835
 Mol. C8AA /au·bohr⁸  :     229656.120825
 Mol. α(0) /au        :        146.542676


Wiberg/Mayer (AO) data.
largest (>0.10) Wiberg bond orders for each atom

 ---------------------------------------------------------------------------
     #   Z sym  total        # sym  WBO       # sym  WBO       # sym  WBO
 ---------------------------------------------------------------------------
     1   8 O    2.158 --     2 N    1.836     3 N    0.248
     2   7 N    3.008 --     1 O    1.836     3 N    1.079
     3   7 N    3.544 --     2 N    1.079     7 C    1.065     4 C    0.990
                             1 O    0.248
     4   6 C    3.964 --     5 C    0.999     3 N    0.990    16 H    0.962
                            17 H    0.960
     5   6 C    3.941 --     4 C    0.999    19 H    0.975    18 H    0.975
                             6 Cl   0.959
     6  17 Cl   1.005 --     5 C    0.959
     7   6 C    3.958 --     8 O    1.668     9 N    1.164     3 N    1.065
     8   8 O    2.027 --     7 C    1.668     9 N    0.171
     9   7 N    3.358 --     7 C    1.164    10 C    0.974    20 H    0.932
                             8 O    0.171
    10   6 C    3.961 --    15 C    0.991    11 C    0.982     9 N    0.974
                            21 H    0.964
    11   6 C    3.993 --    12 C    1.009    10 C    0.982    22 H    0.976
                            23 H    0.976
    12   6 C    3.996 --    11 C    1.009    13 C    1.005    24 H    0.979
                            25 H    0.977
    13   6 C    3.997 --    12 C    1.005    14 C    1.004    26 H    0.981
                            27 H    0.981
    14   6 C    3.998 --    15 C    1.011    13 C    1.004    29 H    0.979
                            28 H    0.978
    15   6 C    3.994 --    14 C    1.011    10 C    0.991    30 H    0.975
                            31 H    0.975
    16   1 H    0.992 --     4 C    0.962
    17   1 H    0.993 --     4 C    0.960
    18   1 H    0.995 --     5 C    0.975
    19   1 H    0.993 --     5 C    0.975
    20   1 H    0.971 --     9 N    0.932
    21   1 H    0.996 --    10 C    0.964
    22   1 H    0.997 --    11 C    0.976
    23   1 H    0.999 --    11 C    0.976
    24   1 H    0.999 --    12 C    0.979
    25   1 H    0.998 --    12 C    0.977
    26   1 H    0.999 --    13 C    0.981
    27   1 H    0.999 --    13 C    0.981
    28   1 H    0.999 --    14 C    0.978
    29   1 H    0.999 --    14 C    0.979
    30   1 H    0.997 --    15 C    0.975
    31   1 H    0.998 --    15 C    0.975
 ---------------------------------------------------------------------------

Topologies differ in total number of bonds
Writing topology from bond orders to xtbtopo.mol

molecular dipole:
                 x           y           z       tot (Debye)
 q only:       -0.839       1.501      -0.492
   full:       -0.909       1.813      -0.412       5.260
molecular quadrupole (traceless):
                xx          xy          yy          xz          yz          zz
 q only:        7.818       8.361     -16.936      -2.870       4.389       9.118
  q+dip:        6.325      10.906     -17.498      -1.816       6.119      11.172
   full:        5.131      10.756     -16.818      -2.183       5.954      11.687


           -------------------------------------------------
          | TOTAL ENERGY              -48.817051907290 Eh   |
          | GRADIENT NORM               0.126991872993 Eh/α |
          | HOMO-LUMO GAP               1.555221189410 eV   |
           -------------------------------------------------

------------------------------------------------------------------------
 * finished run on 2026/08/31 at 21:54:45.724     
------------------------------------------------------------------------
 total:
 * wall-time:     0 d,  0 h,  0 min,  0.081 sec
 *  cpu-time:     0 d,  0 h,  0 min,  0.219 sec
 * ratio c/w:     2.701 speedup
 SCF:
 * wall-time:     0 d,  0 h,  0 min,  0.046 sec
 *  cpu-time:     0 d,  0 h,  0 min,  0.203 sec
 * ratio c/w:     4.416 speedup

normal termination of xtb
