      -----------------------------------------------------------      
     |                   =====================                   |     
     |                           x T B                           |     
     |                   =====================                   |     
     |                         S. Grimme                         |     
     |          Mulliken Center for Theoretical Chemistry        |     
     |                    University of Bonn                     |     
      -----------------------------------------------------------      

   * xtb version 6.7.1pre (5071a88) compiled by 'Marcel@Raven' on 2024-07-23

   xtb is free software: you can redistribute it and/or modify it under
   the terms of the GNU Lesser General Public License as published by
   the Free Software Foundation, either version 3 of the License, or
   (at your option) any later version.
   
   xtb is distributed in the hope that it will be useful,
   but WITHOUT ANY WARRANTY; without even the implied warranty of
   MERCHANTABILITY or FITNESS FOR A PARTICULAR PURPOSE.  See the
   GNU Lesser General Public License for more details.
   
   Cite this work as:
   * C. Bannwarth, E. Caldeweyher, S. Ehlert, A. Hansen, P. Pracht,
     J. Seibert, S. Spicher, S. Grimme, WIREs Comput. Mol. Sci., 2020, 11,
     e01493. DOI: 10.1002/wcms.1493
   
   for GFN2-xTB:
   * C. Bannwarth, S. Ehlert and S. Grimme., J. Chem. Theory Comput., 2019,
     15, 1652-1671. DOI: 10.1021/acs.jctc.8b01176
   for GFN1-xTB:
   * S. Grimme, C. Bannwarth, P. Shushkov, J. Chem. Theory Comput., 2017,
     13, 1989-2009. DOI: 10.1021/acs.jctc.7b00118
   for GFN0-xTB:
   * P. Pracht, E. Caldeweyher, S. Ehlert, S. Grimme, ChemRxiv, 2019, preprint.
     DOI: 10.26434/chemrxiv.8326202.v1
   for GFN-FF:
   * S. Spicher and S. Grimme, Angew. Chem. Int. Ed., 2020, 59, 15665-15673.
     DOI: 10.1002/anie.202004239
   
   for ALPB and GBSA implicit solvation:
   * S. Ehlert, M. Stahn, S. Spicher, S. Grimme, J. Chem. Theory Comput.,
     2021, 17, 4250-4261. DOI: 10.1021/acs.jctc.1c00471
   
   for ddCOSMO and CPCM-X implicit solvation:
   * M. Stahn, S. Ehlert, S. Grimme, J. Phys. Chem. A,
     2023, XX, XXXX-XXXX. DOI: 10.1021/acs.jpca.3c04382
   
   for DFT-D4:
   * E. Caldeweyher, C. Bannwarth and S. Grimme, J. Chem. Phys., 2017,
     147, 034112. DOI: 10.1063/1.4993215
   * E. Caldeweyher, S. Ehlert, A. Hansen, H. Neugebauer, S. Spicher,
     C. Bannwarth and S. Grimme, J. Chem. Phys., 2019, 150, 154122.
     DOI: 10.1063/1.5090222
   * E. Caldeweyher, J.-M. Mewes, S. Ehlert and S. Grimme, Phys. Chem. Chem. Phys.
     2020, 22, 8499-8512. DOI: 10.1039/D0CP00502A
   
   for sTDA-xTB:
   * S. Grimme and C. Bannwarth, J. Chem. Phys., 2016, 145, 054103.
     DOI: 10.1063/1.4959605
   
   in the mass-spec context:
   * V. Asgeirsson, C. Bauer and S. Grimme, Chem. Sci., 2017, 8, 4879.
     DOI: 10.1039/c7sc00601b
   * J. Koopman and S. Grimme, ACS Omega 2019, 4, 12, 15120-15133.
     DOI: 10.1021/acsomega.9b02011
   
   for metadynamics refer to:
   * S. Grimme, J. Chem. Theory Comput., 2019, 155, 2847-2862
     DOI: 10.1021/acs.jctc.9b00143
   
   for SPH calculations refer to:
   * S. Spicher and S. Grimme, J. Chem. Theory Comput., 2021, 17, 1701-1714
     DOI: 10.1021/acs.jctc.0c01306
   
   for ONIOM refer to:
   * C. Plett, A. Katbashev, S. Ehlert, S. Grimme, M. Bursch,
     Phys. Chem. Chem. Phys., 2023, 25, 17860-17868. DOI: 10.1039/D3CP02178E
   
   for DIPRO refer to:
   * J. Kohn, N. Gildemeister, S. Grimme, D. Fazzi, A. Hansen,
     J. Chem. Phys., 2023, just accepted.
   
   for PTB refer to:
   * S. Grimme, M. Mueller, A. Hansen, J. Chem. Phys., 2023, 158, 124111.
     DOI: 10.1063/5.0137838
   
   with help from (in alphabetical order)
   P. Atkinson, C. Bannwarth, F. Bohle, G. Brandenburg, E. Caldeweyher
   M. Checinski, S. Dohm, S. Ehlert, S. Ehrlich, I. Gerasimov, C. Hölzer
   A. Katbashev, J. Kohn, J. Koopman, C. Lavigne, S. Lehtola, F. März, M. Müller,
   F. Musil, H. Neugebauer, J. Pisarek, C. Plett, P. Pracht, F. Pultar,
   J. Seibert, P. Shushkov, S. Spicher, M. Stahn, M. Steiner, T. Strunk,
   J. Stückrath, T. Rose, and J. Unsleber
   
 * started run on 2026/08/31 at 21:54:45.772     
   ID    Z sym.   atoms
    1    8 O      1, 8, 51-64
    2    7 N      2, 3, 9
    3    6 C      4, 5, 7, 10-15, 44-50
    4   17 Cl     6
    5    1 H      16-31
    6   22 Ti     32-43

           -------------------------------------------------
          |                Calculation Setup                |
           -------------------------------------------------

          program call               : "c:\Users\Andre\Proyectos doctorado\kras-pancreatic-gC3N4-ai\tools\xtb\xtb-6.7.1\bin\xtb.exe" "c:\Users\Andre\Proyectos doctorado\mxene-glioblastoma-qsar-ai\calculations\gbm\Lomustine\Lomustine_Ti12C7O14_clean_complex.xyz" --gfn 2 --sp --chrg 0 --uhf 0 --etemp 500 --acc 1.0 --iterations 500 --norestart
          coordinate file            : c:\Users\Andre\Proyectos doctorado\mxene-glioblastoma-qsar-ai\calculations\gbm\Lomustine\Lomustine_Ti12C7O14_clean_complex.xyz
          omp threads                :                    16


molecular fragmentation (1/2 indicates fragments):
1111111111111111111111111111111222222222222222222222222222222222
# atoms in fragment 1/2:    31    33
 fragment masses (1/2) :      233.70      882.47
CMA distance (Bohr)    :  17.203
constraining FC (au)   :  0.0500

           -------------------------------------------------
          |                 G F N 2 - x T B                 |
           -------------------------------------------------

        Reference                      10.1021/acs.jctc.8b01176
      * Hamiltonian:
        H0-scaling (s, p, d)           1.850000    2.230000    2.230000
        zeta-weighting                 0.500000
      * Dispersion:
        s8                             2.700000
        a1                             0.520000
        a2                             5.000000
        s9                             5.000000
      * Repulsion:
        kExp                           1.500000    1.000000
        rExp                           1.000000
      * Coulomb:
        alpha                          2.000000
        third order                    shell-resolved
        anisotropic                    true
        a3                             3.000000
        a5                             4.000000
        cn-shift                       1.200000
        cn-exp                         4.000000
        max-rad                        5.000000


          ...................................................
          :                      SETUP                      :
          :.................................................:
          :  # basis functions                 286          :
          :  # atomic orbitals                 273          :
          :  # shells                          125          :
          :  # electrons                       246          :
          :  max. iterations                   500          :
          :  Hamiltonian                  GFN2-xTB          :
          :  restarted?                      false          :
          :  GBSA solvation                  false          :
          :  PC potential                    false          :
          :  electronic temp.          500.0000000     K    :
          :  accuracy                    1.0000000          :
          :  -> integral cutoff          0.2500000E+02      :
          :  -> integral neglect         0.1000000E-07      :
          :  -> SCF convergence          0.1000000E-05 Eh   :
          :  -> wf. convergence          0.1000000E-03 e    :
          :  Broyden damping             0.4000000          :
          :  net charge                          0          :
          :  unpaired electrons                  0          :
          ...................................................

 iter      E             dE          RMSdq      gap      omega  full diag
   1   -138.7719239 -0.138772E+03  0.154E+01    0.11       0.0  T
   2   -100.0562362  0.387157E+02  0.173E+01    0.03       1.0  T
   3      9.3600740  0.109416E+03  0.304E+01    0.00       1.0  T
   4   -133.5568842 -0.142917E+03  0.124E+01    0.03       1.0  T
   5   -137.7900635 -0.423318E+01  0.991E+00    0.13       1.0  T
   6   -140.2381508 -0.244809E+01  0.739E+00    0.21       1.0  T
   7   -141.2924288 -0.105428E+01  0.625E+00    0.05       1.0  T
   8   -140.6748011  0.617628E+00  0.627E+00    0.26       1.0  T
   9   -141.5114322 -0.836631E+00  0.504E+00    0.33       1.0  T
  10   -140.8882159  0.623216E+00  0.459E+00    0.07       1.0  T
  11   -141.6102075 -0.721992E+00  0.366E+00    0.14       1.0  T
  12   -141.4831125  0.127095E+00  0.341E+00    0.04       1.0  T
  13   -141.2154631  0.267649E+00  0.428E+00    0.02       1.0  T
  14   -140.9344915  0.280972E+00  0.447E+00    0.37       1.0  T
  15   -141.4288577 -0.494366E+00  0.348E+00    0.03       1.0  T
  16   -141.0972077  0.331650E+00  0.382E+00    0.16       1.0  T
  17   -141.3953579 -0.298150E+00  0.262E+00    0.05       1.0  T
  18   -141.8531694 -0.457812E+00  0.234E+00    0.27       1.0  T
  19   -141.8734716 -0.203022E-01  0.202E+00    0.27       1.0  T
  20   -141.8907001 -0.172285E-01  0.162E+00    0.15       1.0  T
  21   -141.9442321 -0.535320E-01  0.130E+00    0.18       1.0  T
  22   -141.9631170 -0.188849E-01  0.113E+00    0.17       1.0  T
  23   -141.9767233 -0.136063E-01  0.908E-01    0.19       1.0  T
  24   -141.9668543  0.986903E-02  0.728E-01    0.10       1.0  T
  25   -141.9891859 -0.223317E-01  0.582E-01    0.28       1.0  T
  26   -141.9800431  0.914281E-02  0.544E-01    0.12       1.0  T
  27   -141.9962311 -0.161880E-01  0.417E-01    0.18       1.0  T
  28   -141.9985960 -0.236490E-02  0.348E-01    0.20       1.0  T
  29   -141.9991334 -0.537454E-03  0.314E-01    0.22       1.0  T
  30   -141.9990307  0.102755E-03  0.296E-01    0.24       1.0  T
  31   -141.9996061 -0.575411E-03  0.259E-01    0.26       1.0  T
  32   -141.9990633  0.542761E-03  0.243E-01    0.29       1.0  T
  33   -141.9998888 -0.825462E-03  0.194E-01    0.28       1.0  T
  34   -142.0014290 -0.154020E-02  0.109E-01    0.23       1.0  T
  35   -142.0009621  0.466869E-03  0.117E-01    0.20       1.0  T
  36   -142.0012691 -0.307029E-03  0.969E-02    0.21       1.0  T
  37   -142.0014251 -0.155972E-03  0.806E-02    0.22       1.0  T
  38   -142.0014955 -0.704096E-04  0.724E-02    0.22       1.0  T
  39   -142.0015069 -0.113968E-04  0.643E-02    0.22       1.0  T
  40   -142.0015286 -0.217071E-04  0.516E-02    0.22       1.0  T
  41   -142.0015453 -0.167177E-04  0.455E-02    0.22       1.0  T
  42   -142.0015708 -0.255017E-04  0.396E-02    0.23       1.0  T
  43   -142.0015853 -0.144525E-04  0.312E-02    0.23       1.0  T
  44   -142.0015950 -0.970986E-05  0.228E-02    0.23       1.0  T
  45   -142.0016044 -0.934319E-05  0.160E-02    0.23       1.0  T
  46   -142.0016098 -0.539559E-05  0.973E-03    0.23       1.3  T
  47   -142.0016126 -0.281072E-05  0.680E-03    0.23       1.8  T
  48   -142.0016134 -0.856077E-06  0.351E-03    0.23       3.6  T
  49   -142.0016138 -0.377789E-06  0.126E-03    0.23       9.9  T
  50   -142.0016138  0.311530E-09  0.128E-03    0.23       9.8  T
  51   -142.0016138 -0.691438E-08  0.103E-03    0.23      12.2  T
  52   -142.0016138 -0.448929E-08  0.806E-04    0.23      15.5  T
  53   -142.0016138 -0.206203E-07  0.451E-04    0.23      27.7  T

   *** convergence criteria satisfied after 53 iterations ***

         #    Occupation            Energy/Eh            Energy/eV
      -------------------------------------------------------------
         1        2.0000           -1.0575614             -28.7777
       ...           ...                  ...                  ...
       117        2.0000           -0.3683851             -10.0243
       118        2.0000           -0.3604454              -9.8082
       119        2.0000           -0.3566565              -9.7051
       120        2.0000           -0.3528477              -9.6015
       121        2.0000           -0.3454651              -9.4006
       122        2.0000           -0.3350933              -9.1184
       123        1.8730           -0.3215473              -8.7497 (HOMO)
       124        0.1271           -0.3130264              -8.5179 (LUMO)
       125        0.0000           -0.2936798              -7.9914
       126        0.0000           -0.2924349              -7.9576
       127        0.0000           -0.2912375              -7.9250
       128                         -0.2903026              -7.8995
       ...                                ...                  ...
       273                         13.4071517             364.8272
      -------------------------------------------------------------
                  HL-Gap            0.0085209 Eh            0.2319 eV
             Fermi-level           -0.3172867 Eh           -8.6338 eV

 SCC (total)                   0 d,  0 h,  0 min,  2.005 sec
 SCC setup                      ...        0 min,  0.001 sec (  0.050%)
 Dispersion                     ...        0 min,  0.001 sec (  0.050%)
 classical contributions        ...        0 min,  0.000 sec (  0.000%)
 integral evaluation            ...        0 min,  0.009 sec (  0.449%)
 iterations                     ...        0 min,  1.971 sec ( 98.304%)
 molecular gradient             ...        0 min,  0.018 sec (  0.898%)
 printout                       ...        0 min,  0.005 sec (  0.249%)

         :::::::::::::::::::::::::::::::::::::::::::::::::::::
         ::                     SUMMARY                     ::
         :::::::::::::::::::::::::::::::::::::::::::::::::::::
         :: total energy            -140.864329616793 Eh    ::
         :: gradient norm              0.106721250915 Eh/a0 ::
         :: HOMO-LUMO gap              0.231864723612 eV    ::
         ::.................................................::
         :: SCC energy              -141.999191766148 Eh    ::
         :: -> isotropic ES            0.966670569627 Eh    ::
         :: -> anisotropic ES         -0.378456055811 Eh    ::
         :: -> anisotropic XC         -0.043047105946 Eh    ::
         :: -> dispersion             -0.118503896674 Eh    ::
         :: repulsion energy           1.134862149355 Eh    ::
         :: add. restraining           0.000000000000 Eh    ::
         :: total charge               0.000000000000 e     ::
         :::::::::::::::::::::::::::::::::::::::::::::::::::::

           -------------------------------------------------
          |                Property Printout                |
           -------------------------------------------------

    * Orbital Energies and Occupations

         #    Occupation            Energy/Eh            Energy/eV
      -------------------------------------------------------------
         1        2.0000           -1.0575614             -28.7777
       ...           ...                  ...                  ...
       111        2.0000           -0.3953439             -10.7579
       112        2.0000           -0.3902245             -10.6185
       113        2.0000           -0.3853928             -10.4871
       114        2.0000           -0.3789615             -10.3121
       115        2.0000           -0.3754498             -10.2165
       116        2.0000           -0.3709478             -10.0940
       117        2.0000           -0.3683851             -10.0243
       118        2.0000           -0.3604454              -9.8082
       119        2.0000           -0.3566565              -9.7051
       120        2.0000           -0.3528477              -9.6015
       121        2.0000           -0.3454651              -9.4006
       122        2.0000           -0.3350933              -9.1184
       123        1.8730           -0.3215473              -8.7497 (HOMO)
       124        0.1271           -0.3130264              -8.5179 (LUMO)
       125        0.0000           -0.2936798              -7.9914
       126        0.0000           -0.2924349              -7.9576
       127        0.0000           -0.2912375              -7.9250
       128                         -0.2903026              -7.8995
       129                         -0.2895414              -7.8788
       130                         -0.2831967              -7.7062
       131                         -0.2824699              -7.6864
       132                         -0.2810199              -7.6469
       133                         -0.2796999              -7.6110
       134                         -0.2793562              -7.6017
       ...                                ...                  ...
       273                         13.4071517             364.8272
      -------------------------------------------------------------
                  HL-Gap            0.0085209 Eh            0.2319 eV
             Fermi-level           -0.3172867 Eh           -8.6338 eV

     #   Z          covCN         q      C6AA      α(0)
     1   8 O        0.924    -0.241    18.717     5.802
     2   7 N        1.891     0.083    20.455     6.705
     3   7 N        2.791    -0.099    23.177     7.150
     4   6 C        3.764    -0.019    20.953     6.525
     5   6 C        3.713     0.017    20.422     6.457
     6  17 Cl       0.919    -0.186   104.993    15.676
     7   6 C        2.682     0.319    21.571     7.600
     8   8 O        0.858    -0.418    22.035     6.294
     9   7 N        2.688    -0.229    26.012     7.575
    10   6 C        3.787     0.045    19.841     6.344
    11   6 C        3.802    -0.066    21.773     6.643
    12   6 C        3.801    -0.062    21.692     6.631
    13   6 C        3.802    -0.062    21.697     6.632
    14   6 C        3.801    -0.062    21.699     6.632
    15   6 C        3.802    -0.085    22.122     6.696
    16   1 H        0.924     0.092     1.862     2.134
    17   1 H        0.924     0.077     2.014     2.220
    18   1 H        0.924     0.068     2.110     2.272
    19   1 H        0.924     0.086     1.917     2.165
    20   1 H        0.860     0.173     1.252     1.753
    21   1 H        0.924     0.068     2.110     2.272
    22   1 H        0.924     0.058     2.226     2.333
    23   1 H        0.923     0.038     2.470     2.458
    24   1 H        0.924     0.038     2.482     2.464
    25   1 H        0.924     0.041     2.439     2.443
    26   1 H        0.924     0.036     2.506     2.476
    27   1 H        0.924     0.037     2.486     2.466
    28   1 H        0.924     0.040     2.448     2.447
    29   1 H        0.924     0.037     2.493     2.469
    30   1 H        0.924     0.058     2.217     2.328
    31   1 H        0.924     0.063     2.167     2.302
    32  22 Ti       3.637     1.057   101.723    24.479
    33  22 Ti       6.855     1.554    84.029    14.883
    34  22 Ti       3.227     1.053   102.583    24.732
    35  22 Ti       5.860     1.381    85.662    15.027
    36  22 Ti       5.627     1.133    88.087    15.238
    37  22 Ti       3.541     1.031   102.581    24.685
    38  22 Ti       2.352     0.885   202.576    34.850
    39  22 Ti       6.011     1.350    85.962    15.053
    40  22 Ti       3.414     1.012   103.004    24.773
    41  22 Ti       5.519     1.108    88.339    15.260
    42  22 Ti       5.687     1.197    87.455    15.183
    43  22 Ti       3.581     1.030   102.421    24.636
    44   6 C        2.246    -0.256    37.597     9.934
    45   6 C        2.142    -0.253    38.266     9.999
    46   6 C        2.248    -0.018    30.575     8.959
    47   6 C        1.838    -0.208    37.271     9.863
    48   6 C        1.894    -0.222    37.663     9.912
    49   6 C        1.821    -0.341    41.942    10.464
    50   6 C        2.631    -0.398    39.723    10.309
    51   8 O        1.554    -0.848    32.028     7.635
    52   8 O        1.464    -0.880    33.194     7.766
    53   8 O        1.557    -0.957    35.632     8.054
    54   8 O        1.523    -1.008    37.513     8.261
    55   8 O        1.523    -0.913    34.190     7.887
    56   8 O        1.458    -0.821    31.360     7.548
    57   8 O        1.455    -0.799    30.689     7.466
    58   8 O        0.727    -0.633    27.010     6.964
    59   8 O        1.453    -0.864    32.698     7.707
    60   8 O        1.476    -0.800    30.692     7.469
    61   8 O        1.603    -0.945    35.168     8.004
    62   8 O        1.547    -0.970    36.115     8.108
    63   8 O        1.700    -0.817    30.973     7.514
    64   8 O        1.453    -0.781    30.157     7.401

 Mol. C6AA /au·bohr⁶  :     112585.532769
 Mol. C8AA /au·bohr⁸  :    5411556.687048
 Mol. α(0) /au        :        572.383152


Wiberg/Mayer (AO) data.
largest (>0.10) Wiberg bond orders for each atom

 ---------------------------------------------------------------------------
     #   Z sym  total        # sym  WBO       # sym  WBO       # sym  WBO
 ---------------------------------------------------------------------------
     1   8 O    2.056 --     2 N    1.777     3 N    0.218
     2   7 N    2.891 --     1 O    1.777     3 N    1.035
     3   7 N    3.507 --     7 C    1.083     2 N    1.035     4 C    0.993
                             1 O    0.218     8 O    0.104
     4   6 C    3.962 --     5 C    1.000     3 N    0.993    16 H    0.962
                            17 H    0.956
     5   6 C    3.940 --     4 C    1.000    18 H    0.975    19 H    0.975
                             6 Cl   0.958
     6  17 Cl   1.004 --     5 C    0.958
     7   6 C    3.954 --     8 O    1.661     9 N    1.150     3 N    1.083
     8   8 O    2.009 --     7 C    1.661     9 N    0.163     3 N    0.104
     9   7 N    3.342 --     7 C    1.150    10 C    0.977    20 H    0.930
                             8 O    0.163
    10   6 C    3.963 --    15 C    0.991    11 C    0.982     9 N    0.977
                            21 H    0.960
    11   6 C    3.990 --    12 C    1.009    10 C    0.982    22 H    0.975
                            23 H    0.975
    12   6 C    3.996 --    11 C    1.009    13 C    1.005    24 H    0.979
                            25 H    0.977
    13   6 C    3.995 --    12 C    1.005    14 C    1.004    26 H    0.981
                            27 H    0.980
    14   6 C    3.996 --    15 C    1.010    13 C    1.004    29 H    0.977
                            28 H    0.975
    15   6 C    3.980 --    14 C    1.010    10 C    0.991    30 H    0.965
                            31 H    0.892
    16   1 H    0.991 --     4 C    0.962
    17   1 H    0.994 --     4 C    0.956
    18   1 H    0.995 --     5 C    0.975
    19   1 H    0.992 --     5 C    0.975
    20   1 H    0.970 --     9 N    0.930
    21   1 H    0.995 --    10 C    0.960
    22   1 H    0.997 --    11 C    0.975
    23   1 H    0.998 --    11 C    0.975
    24   1 H    0.999 --    12 C    0.979
    25   1 H    0.998 --    12 C    0.977
    26   1 H    0.999 --    13 C    0.981
    27   1 H    0.998 --    13 C    0.980
    28   1 H    0.998 --    14 C    0.975
    29   1 H    0.998 --    14 C    0.977
    30   1 H    0.996 --    15 C    0.965
    31   1 H    0.996 --    15 C    0.892
    32  22 Ti   2.827 --    51 O    0.845    52 O    0.812    38 Ti   0.332
                            33 Ti   0.203    35 Ti   0.199
    33  22 Ti   3.848 --    52 O    0.753    55 O    0.739    53 O    0.687
                            54 O    0.612    32 Ti   0.203    34 Ti   0.186
                            36 Ti   0.141    37 Ti   0.130
    34  22 Ti   2.718 --    60 O    0.957    53 O    0.601    40 Ti   0.371
                            33 Ti   0.186    38 Ti   0.140    55 O    0.110
    35  22 Ti   3.918 --    56 O    0.942    44 C    0.717    51 O    0.702
                            54 O    0.567    37 Ti   0.206    32 Ti   0.199
                            41 Ti   0.179    61 O    0.123
    36  22 Ti   4.049 --    50 C    0.865    57 O    0.783    48 C    0.745
                            55 O    0.608    42 Ti   0.278    37 Ti   0.173
                            45 C    0.152    49 C    0.146    33 Ti   0.141
    37  22 Ti   2.753 --    57 O    0.953    56 O    0.700    35 Ti   0.206
                            36 Ti   0.173    33 Ti   0.130    52 O    0.123
    38  22 Ti   3.775 --    58 O    1.998    39 Ti   0.611    32 Ti   0.332
                            53 O    0.153    51 O    0.148    34 Ti   0.140
                            61 O    0.111
    39  22 Ti   4.012 --    61 O    0.797    59 O    0.755    62 O    0.710
                            38 Ti   0.611    63 O    0.194    40 Ti   0.167
                            43 Ti   0.147    41 Ti   0.142
    40  22 Ti   2.744 --    59 O    0.833    60 O    0.765    34 Ti   0.371
                            43 Ti   0.220    39 Ti   0.167    42 Ti   0.131
    41  22 Ti   3.978 --    49 C    1.029    47 C    0.731    63 O    0.621
                            61 O    0.449    50 C    0.207    43 Ti   0.200
                            35 Ti   0.179    44 C    0.158    39 Ti   0.142
    42  22 Ti   4.067 --    64 O    0.971    45 C    0.671    50 C    0.641
                            62 O    0.445    36 Ti   0.278    43 Ti   0.211
                            49 C    0.134    40 Ti   0.131    60 O    0.115
    43  22 Ti   2.782 --    63 O    0.897    64 O    0.733    40 Ti   0.220
                            42 Ti   0.211    41 Ti   0.200    39 Ti   0.147
    44   6 C    3.839 --    47 C    2.739    35 Ti   0.717    41 Ti   0.158
    45   6 C    3.782 --    48 C    2.732    42 Ti   0.671    36 Ti   0.152
    46   6 C    3.978 --    49 C    2.009    50 C    1.608
    47   6 C    3.709 --    44 C    2.739    41 Ti   0.731
    48   6 C    3.749 --    45 C    2.732    36 Ti   0.745
    49   6 C    3.702 --    46 C    2.009    41 Ti   1.029    36 Ti   0.146
                            42 Ti   0.134
    50   6 C    3.750 --    46 C    1.608    36 Ti   0.865    42 Ti   0.641
                            41 Ti   0.207
    51   8 O    1.933 --    32 Ti   0.845    35 Ti   0.702    38 Ti   0.148
    52   8 O    1.893 --    32 Ti   0.812    33 Ti   0.753    37 Ti   0.123
    53   8 O    1.782 --    33 Ti   0.687    34 Ti   0.601    38 Ti   0.153
    54   8 O    1.714 --    33 Ti   0.612    35 Ti   0.567
    55   8 O    1.845 --    33 Ti   0.739    36 Ti   0.608    34 Ti   0.110
    56   8 O    1.973 --    35 Ti   0.942    37 Ti   0.700
    57   8 O    2.013 --    37 Ti   0.953    36 Ti   0.783
    58   8 O    2.174 --    38 Ti   1.998
    59   8 O    1.911 --    40 Ti   0.833    39 Ti   0.755
    60   8 O    2.007 --    34 Ti   0.957    40 Ti   0.765    42 Ti   0.115
    61   8 O    1.799 --    39 Ti   0.797    41 Ti   0.449    35 Ti   0.123
                            38 Ti   0.111
    62   8 O    1.770 --    39 Ti   0.710    42 Ti   0.445
    63   8 O    1.986 --    43 Ti   0.897    41 Ti   0.621    39 Ti   0.194
    64   8 O    2.032 --    42 Ti   0.971    43 Ti   0.733
 ---------------------------------------------------------------------------

Topologies differ in total number of bonds
Writing topology from bond orders to xtbtopo.mol

molecular dipole:
                 x           y           z       tot (Debye)
 q only:       -0.854       0.808      -2.767
   full:       -2.176       0.823      -2.284       8.287
molecular quadrupole (traceless):
                xx          xy          yy          xz          yz          zz
 q only:       -7.069       8.110       0.302     -76.700      42.174       6.767
  q+dip:        7.354       4.936     -16.198     -46.328      33.947       8.844
   full:        8.764       6.611     -14.158     -47.162      36.550       5.394


           -------------------------------------------------
          | TOTAL ENERGY             -140.864329616793 Eh   |
          | GRADIENT NORM               0.106721250915 Eh/α |
          | HOMO-LUMO GAP               0.231864723612 eV   |
           -------------------------------------------------

------------------------------------------------------------------------
 * finished run on 2026/08/31 at 21:54:47.832     
------------------------------------------------------------------------
 total:
 * wall-time:     0 d,  0 h,  0 min,  2.058 sec
 *  cpu-time:     0 d,  0 h,  0 min,  8.062 sec
 * ratio c/w:     3.918 speedup
 SCF:
 * wall-time:     0 d,  0 h,  0 min,  2.007 sec
 *  cpu-time:     0 d,  0 h,  0 min,  7.812 sec
 * ratio c/w:     3.893 speedup

normal termination of xtb
