64
Drug@Ti3C2O2 complex
O      4.156435      1.459464      4.028059
N      4.150347      0.259631      4.311108
N      2.791287     -0.308251      4.625838
C      2.822063     -1.701894      5.073501
C      3.141906     -1.846266      6.558410
Cl      1.777075     -1.330726      7.582876
C      1.625736      0.426652      4.375781
O      1.566162      1.481772      3.748765
N      0.470221     -0.157263      4.880049
C     -0.828605      0.493504      4.710654
C     -1.002960      1.670110      5.691501
C     -1.727518      1.247658      6.965063
C     -3.130346      0.712560      6.670939
C     -3.257671      0.059961      5.293489
C     -1.941978     -0.559778      4.842479
H      3.596572     -2.217199      4.491108
H      1.878694     -2.201984      4.827244
H      4.017005     -1.256727      6.847127
H      3.337560     -2.895561      6.798060
H      0.594999     -0.605136      5.779624
H     -0.854469      0.903275      3.692621
H     -0.038611      2.123105      5.948320
H     -1.594384      2.455084      5.202192
H     -1.141245      0.472984      7.474678
H     -1.796572      2.092358      7.659878
H     -3.861578      1.526869      6.742412
H     -3.401013     -0.009381      7.450996
H     -4.047681     -0.699104      5.317984
H     -3.571582      0.813237      4.559916
H     -1.654261     -1.339274      5.560828
H     -2.075586     -1.069677      3.880677
Ti     -3.000000     -2.600000      1.250000
Ti      0.000000     -2.600000      1.250000
Ti      3.000000     -2.600000      1.250000
Ti     -1.500000      0.000000      1.250000
Ti      1.500000      0.000000      1.250000
Ti      0.000000      2.600000      1.250000
Ti     -3.000000     -2.600000     -1.250000
Ti      0.000000     -2.600000     -1.250000
Ti      3.000000     -2.600000     -1.250000
Ti     -1.500000      0.000000     -1.250000
Ti      1.500000      0.000000     -1.250000
Ti      0.000000      2.600000     -1.250000
C     -1.500000     -1.300000      0.000000
C      1.500000     -1.300000      0.000000
C      0.000000      1.300000      0.000000
C     -3.000000      0.000000      0.000000
C      3.000000      0.000000      0.000000
C     -1.500000      2.600000      0.000000
C      1.500000      2.600000      0.000000
O     -3.000000     -2.600000      2.450000
O      0.000000     -2.600000      2.450000
O      3.000000     -2.600000      2.450000
O     -1.500000      0.000000      2.450000
O      1.500000      0.000000      2.450000
O     -1.500000      2.600000      2.450000
O      1.500000      2.600000      2.450000
O     -3.000000     -2.600000     -2.450000
O      0.000000     -2.600000     -2.450000
O      3.000000     -2.600000     -2.450000
O     -1.500000      0.000000     -2.450000
O      1.500000      0.000000     -2.450000
O     -1.500000      2.600000     -2.450000
O      1.500000      2.600000     -2.450000
