89
Drug@Ti12C7O14 clean complex
C     -3.308747     -0.952498     12.289769
C     -2.013812     -0.549408     11.603432
C     -1.585767     -1.165436     10.485743
C     -0.251780     -0.825299      9.913651
O      0.104216     -1.427478      8.898267
N      0.504616      0.133659     10.583094
C      0.032891      0.819878     11.702568
O      0.662820      1.753456     12.214467
N     -1.226025      0.433414     12.208962
C     -1.643019      1.124457     13.398604
C     -2.803673      1.908022     13.406065
C     -3.182735      2.589481     14.567364
C     -2.401958      2.490262     15.721662
I     -2.973061      3.504917     17.442651
C     -1.243767      1.716938     15.728197
C     -0.872350      1.044158     14.568261
F      0.221850      0.266719     14.598174
C      1.791673      0.507918     10.008901
C      1.858214      0.702058      8.609554
C      3.055926      0.996321      7.959123
C      4.223900      1.102556      8.694148
C      4.191600      0.926251     10.077911
C      2.994773      0.640391     10.759434
N      3.003634      0.486956     12.168296
C      4.089557      0.397380     13.008408
O      5.264691      0.245215     12.711509
C      3.711445      0.454080     14.449103
C      3.004378      1.662311     15.019829
C      4.439007      1.407727     15.370617
C     -2.373284     -2.216888      9.812249
C     -2.121902     -3.567131     10.079281
F     -1.179740     -3.912352     10.969875
C     -2.852874     -4.571757      9.452200
C     -3.851166     -4.231119      8.540436
C     -4.112718     -2.888255      8.261523
C     -3.377149     -1.881630      8.893520
H     -3.164728     -1.071121     13.369212
H     -3.703246     -1.913748     11.948818
H     -4.089769     -0.208120     12.108199
H     -3.401199      2.023821     12.505592
H     -4.081938      3.201787     14.553533
H     -0.624093      1.621700     16.614040
H      0.962960      0.632088      7.994619
H      3.072017      1.133501      6.881230
H      5.165820      1.326519      8.199951
H      5.132675      1.040776     10.608171
H      2.109055      0.586428     12.631819
H      3.465687     -0.516030     14.868838
H      2.783594      2.494187     14.359313
H      2.257548      1.495895     15.786642
H      5.194850      2.055699     14.939595
H      4.671242      1.061699     16.370740
H     -2.636899     -5.611669      9.676339
H     -4.421449     -5.011745      8.042435
H     -4.886164     -2.625616      7.543036
H     -3.585628     -0.841326      8.654879
Ti     -2.141866     -3.008818      2.119748
Ti      0.288991     -1.694759      1.432425
Ti      1.903098     -3.067749     -0.729322
Ti     -2.521502     -0.251928      1.303687
Ti      2.142050      0.499533      2.204434
Ti     -0.681448      0.189635      3.681230
Ti     -2.036770     -3.077740     -1.200512
Ti     -0.605340     -0.770900     -2.035132
Ti      1.945488     -1.587317     -3.412400
Ti     -1.878170      1.746573     -1.240030
Ti      2.412512      0.454231     -0.774247
Ti      0.817742      1.838452     -2.940004
C     -3.678414      1.281398      0.600737
C      4.128193      0.482847      0.387293
C      0.455479      2.267202      0.349695
C     -3.666709      2.118834     -0.313920
C      4.115962      0.632239      1.621354
C     -0.635167      2.741046     -0.118921
C      1.630072      1.780996      0.734224
O     -3.093456     -1.956907      1.037949
O     -0.487250     -2.605849      2.701203
O      0.314079     -2.888890      0.145001
O     -0.800785     -0.435934      0.971227
O      1.902865     -1.158331      1.469449
O     -2.322673     -0.113878      3.024800
O      1.013786      0.441598      3.568761
O     -1.772019     -4.587905     -1.652810
O      0.190605     -1.189189     -3.534030
O      2.831420     -2.170248     -1.918042
O     -2.054558     -0.224445     -1.337505
O      0.768511     -0.390574     -1.063664
O     -0.900039      1.649313     -2.818565
O      2.415313      1.357463     -2.264115
