      -----------------------------------------------------------      
     |                   =====================                   |     
     |                           x T B                           |     
     |                   =====================                   |     
     |                         S. Grimme                         |     
     |          Mulliken Center for Theoretical Chemistry        |     
     |                    University of Bonn                     |     
      -----------------------------------------------------------      

   * xtb version 6.7.1pre (5071a88) compiled by 'Marcel@Raven' on 2024-07-23

   xtb is free software: you can redistribute it and/or modify it under
   the terms of the GNU Lesser General Public License as published by
   the Free Software Foundation, either version 3 of the License, or
   (at your option) any later version.
   
   xtb is distributed in the hope that it will be useful,
   but WITHOUT ANY WARRANTY; without even the implied warranty of
   MERCHANTABILITY or FITNESS FOR A PARTICULAR PURPOSE.  See the
   GNU Lesser General Public License for more details.
   
   Cite this work as:
   * C. Bannwarth, E. Caldeweyher, S. Ehlert, A. Hansen, P. Pracht,
     J. Seibert, S. Spicher, S. Grimme, WIREs Comput. Mol. Sci., 2020, 11,
     e01493. DOI: 10.1002/wcms.1493
   
   for GFN2-xTB:
   * C. Bannwarth, S. Ehlert and S. Grimme., J. Chem. Theory Comput., 2019,
     15, 1652-1671. DOI: 10.1021/acs.jctc.8b01176
   for GFN1-xTB:
   * S. Grimme, C. Bannwarth, P. Shushkov, J. Chem. Theory Comput., 2017,
     13, 1989-2009. DOI: 10.1021/acs.jctc.7b00118
   for GFN0-xTB:
   * P. Pracht, E. Caldeweyher, S. Ehlert, S. Grimme, ChemRxiv, 2019, preprint.
     DOI: 10.26434/chemrxiv.8326202.v1
   for GFN-FF:
   * S. Spicher and S. Grimme, Angew. Chem. Int. Ed., 2020, 59, 15665-15673.
     DOI: 10.1002/anie.202004239
   
   for ALPB and GBSA implicit solvation:
   * S. Ehlert, M. Stahn, S. Spicher, S. Grimme, J. Chem. Theory Comput.,
     2021, 17, 4250-4261. DOI: 10.1021/acs.jctc.1c00471
   
   for ddCOSMO and CPCM-X implicit solvation:
   * M. Stahn, S. Ehlert, S. Grimme, J. Phys. Chem. A,
     2023, XX, XXXX-XXXX. DOI: 10.1021/acs.jpca.3c04382
   
   for DFT-D4:
   * E. Caldeweyher, C. Bannwarth and S. Grimme, J. Chem. Phys., 2017,
     147, 034112. DOI: 10.1063/1.4993215
   * E. Caldeweyher, S. Ehlert, A. Hansen, H. Neugebauer, S. Spicher,
     C. Bannwarth and S. Grimme, J. Chem. Phys., 2019, 150, 154122.
     DOI: 10.1063/1.5090222
   * E. Caldeweyher, J.-M. Mewes, S. Ehlert and S. Grimme, Phys. Chem. Chem. Phys.
     2020, 22, 8499-8512. DOI: 10.1039/D0CP00502A
   
   for sTDA-xTB:
   * S. Grimme and C. Bannwarth, J. Chem. Phys., 2016, 145, 054103.
     DOI: 10.1063/1.4959605
   
   in the mass-spec context:
   * V. Asgeirsson, C. Bauer and S. Grimme, Chem. Sci., 2017, 8, 4879.
     DOI: 10.1039/c7sc00601b
   * J. Koopman and S. Grimme, ACS Omega 2019, 4, 12, 15120-15133.
     DOI: 10.1021/acsomega.9b02011
   
   for metadynamics refer to:
   * S. Grimme, J. Chem. Theory Comput., 2019, 155, 2847-2862
     DOI: 10.1021/acs.jctc.9b00143
   
   for SPH calculations refer to:
   * S. Spicher and S. Grimme, J. Chem. Theory Comput., 2021, 17, 1701-1714
     DOI: 10.1021/acs.jctc.0c01306
   
   for ONIOM refer to:
   * C. Plett, A. Katbashev, S. Ehlert, S. Grimme, M. Bursch,
     Phys. Chem. Chem. Phys., 2023, 25, 17860-17868. DOI: 10.1039/D3CP02178E
   
   for DIPRO refer to:
   * J. Kohn, N. Gildemeister, S. Grimme, D. Fazzi, A. Hansen,
     J. Chem. Phys., 2023, just accepted.
   
   for PTB refer to:
   * S. Grimme, M. Mueller, A. Hansen, J. Chem. Phys., 2023, 158, 124111.
     DOI: 10.1063/5.0137838
   
   with help from (in alphabetical order)
   P. Atkinson, C. Bannwarth, F. Bohle, G. Brandenburg, E. Caldeweyher
   M. Checinski, S. Dohm, S. Ehlert, S. Ehrlich, I. Gerasimov, C. Hölzer
   A. Katbashev, J. Kohn, J. Koopman, C. Lavigne, S. Lehtola, F. März, M. Müller,
   F. Musil, H. Neugebauer, J. Pisarek, C. Plett, P. Pracht, F. Pultar,
   J. Seibert, P. Shushkov, S. Spicher, M. Stahn, M. Steiner, T. Strunk,
   J. Stückrath, T. Rose, and J. Unsleber
   
 * started run on 2026/08/31 at 20:40:32.404     
   ID    Z sym.   atoms
    1    6 C      1-4, 7, 10-13, 15, 16, 18-23, 25, 27-31, 33-36
    2    8 O      5, 8, 26
    3    7 N      6, 9, 24
    4   53 I      14
    5    9 F      17, 32
    6    1 H      37-56

           -------------------------------------------------
          |                Calculation Setup                |
           -------------------------------------------------

          program call               : "c:\Users\Andre\Proyectos doctorado\kras-pancreatic-gC3N4-ai\tools\xtb\xtb-6.7.1\bin\xtb.exe" "c:\Users\Andre\Proyectos doctorado\mxene-glioblastoma-qsar-ai\calculations\gbm\Trametinib\Trametinib_drug.xyz" --gfn 2 --sp --chrg 0 --uhf 0 --iterations 500 --norestart
          coordinate file            : c:\Users\Andre\Proyectos doctorado\mxene-glioblastoma-qsar-ai\calculations\gbm\Trametinib\Trametinib_drug.xyz
          omp threads                :                    16


           -------------------------------------------------
          |                 G F N 2 - x T B                 |
           -------------------------------------------------

        Reference                      10.1021/acs.jctc.8b01176
      * Hamiltonian:
        H0-scaling (s, p, d)           1.850000    2.230000    2.230000
        zeta-weighting                 0.500000
      * Dispersion:
        s8                             2.700000
        a1                             0.520000
        a2                             5.000000
        s9                             5.000000
      * Repulsion:
        kExp                           1.500000    1.000000
        rExp                           1.000000
      * Coulomb:
        alpha                          2.000000
        third order                    shell-resolved
        anisotropic                    true
        a3                             3.000000
        a5                             4.000000
        cn-shift                       1.200000
        cn-exp                         4.000000
        max-rad                        5.000000


          ...................................................
          :                      SETUP                      :
          :.................................................:
          :  # basis functions                 170          :
          :  # atomic orbitals                 169          :
          :  # shells                           93          :
          :  # electrons                       182          :
          :  max. iterations                   500          :
          :  Hamiltonian                  GFN2-xTB          :
          :  restarted?                      false          :
          :  GBSA solvation                  false          :
          :  PC potential                    false          :
          :  electronic temp.          300.0000000     K    :
          :  accuracy                    1.0000000          :
          :  -> integral cutoff          0.2500000E+02      :
          :  -> integral neglect         0.1000000E-07      :
          :  -> SCF convergence          0.1000000E-05 Eh   :
          :  -> wf. convergence          0.1000000E-03 e    :
          :  Broyden damping             0.4000000          :
          :  net charge                          0          :
          :  unpaired electrons                  0          :
          ...................................................

 iter      E             dE          RMSdq      gap      omega  full diag
   1   -103.3813811 -0.103381E+03  0.488E+00    3.14       0.0  T
   2   -103.5580952 -0.176714E+00  0.314E+00    2.63       1.0  T
   3   -103.5525335  0.556164E-02  0.163E+00    2.83       1.0  T
   4   -103.6012338 -0.487003E-01  0.608E-01    2.45       1.0  T
   5   -103.6135774 -0.123436E-01  0.271E-01    2.48       1.0  T
   6   -103.6140744 -0.496995E-03  0.156E-01    2.48       1.0  T
   7   -103.6146897 -0.615304E-03  0.787E-02    2.47       1.0  T
   8   -103.6147142 -0.244357E-04  0.546E-02    2.47       1.0  T
   9   -103.6147295 -0.153539E-04  0.284E-02    2.47       1.0  T
  10   -103.6147357 -0.617761E-05  0.995E-03    2.47       1.3  T
  11   -103.6147387 -0.300211E-05  0.541E-03    2.47       2.5  T
  12   -103.6147390 -0.254238E-06  0.183E-03    2.47       7.3  T
  13   -103.6147390 -0.850136E-07  0.607E-04    2.47      22.0  T
  14   -103.6147391 -0.546027E-08  0.318E-04    2.47      42.1  T

   *** convergence criteria satisfied after 14 iterations ***

         #    Occupation            Energy/Eh            Energy/eV
      -------------------------------------------------------------
         1        2.0000           -0.8567174             -23.3125
       ...           ...                  ...                  ...
        85        2.0000           -0.4280297             -11.6473
        86        2.0000           -0.4205889             -11.4448
        87        2.0000           -0.4137990             -11.2600
        88        2.0000           -0.4112138             -11.1897
        89        2.0000           -0.4043098             -11.0018
        90        2.0000           -0.3901242             -10.6158
        91        2.0000           -0.3845514             -10.4642 (HOMO)
        92                         -0.2938024              -7.9948 (LUMO)
        93                         -0.2831544              -7.7050
        94                         -0.2790550              -7.5935
        95                         -0.2617158              -7.1216
        96                         -0.2520014              -6.8573
       ...                                ...                  ...
       169                          0.6510301              17.7154
      -------------------------------------------------------------
                  HL-Gap            0.0907490 Eh            2.4694 eV
             Fermi-level           -0.3391769 Eh           -9.2295 eV

 SCC (total)                   0 d,  0 h,  0 min,  0.103 sec
 SCC setup                      ...        0 min,  0.000 sec (  0.000%)
 Dispersion                     ...        0 min,  0.002 sec (  1.942%)
 classical contributions        ...        0 min,  0.000 sec (  0.000%)
 integral evaluation            ...        0 min,  0.008 sec (  7.767%)
 iterations                     ...        0 min,  0.086 sec ( 83.495%)
 molecular gradient             ...        0 min,  0.006 sec (  5.825%)
 printout                       ...        0 min,  0.001 sec (  0.971%)

         :::::::::::::::::::::::::::::::::::::::::::::::::::::
         ::                     SUMMARY                     ::
         :::::::::::::::::::::::::::::::::::::::::::::::::::::
         :: total energy            -102.291130431852 Eh    ::
         :: gradient norm              0.096810759118 Eh/a0 ::
         :: HOMO-LUMO gap              2.469406178296 eV    ::
         ::.................................................::
         :: SCC energy              -103.614238771416 Eh    ::
         :: -> isotropic ES            0.133227422082 Eh    ::
         :: -> anisotropic ES          0.002509222987 Eh    ::
         :: -> anisotropic XC          0.026484948360 Eh    ::
         :: -> dispersion             -0.073527478474 Eh    ::
         :: repulsion energy           1.323108339564 Eh    ::
         :: add. restraining           0.000000000000 Eh    ::
         :: total charge              -0.000000000000 e     ::
         :::::::::::::::::::::::::::::::::::::::::::::::::::::

           -------------------------------------------------
          |                Property Printout                |
           -------------------------------------------------

    * Orbital Energies and Occupations

         #    Occupation            Energy/Eh            Energy/eV
      -------------------------------------------------------------
         1        2.0000           -0.8567174             -23.3125
       ...           ...                  ...                  ...
        79        2.0000           -0.4433210             -12.0634
        80        2.0000           -0.4404614             -11.9856
        81        2.0000           -0.4356593             -11.8549
        82        2.0000           -0.4355221             -11.8512
        83        2.0000           -0.4299149             -11.6986
        84        2.0000           -0.4293988             -11.6845
        85        2.0000           -0.4280297             -11.6473
        86        2.0000           -0.4205889             -11.4448
        87        2.0000           -0.4137990             -11.2600
        88        2.0000           -0.4112138             -11.1897
        89        2.0000           -0.4043098             -11.0018
        90        2.0000           -0.3901242             -10.6158
        91        2.0000           -0.3845514             -10.4642 (HOMO)
        92                         -0.2938024              -7.9948 (LUMO)
        93                         -0.2831544              -7.7050
        94                         -0.2790550              -7.5935
        95                         -0.2617158              -7.1216
        96                         -0.2520014              -6.8573
        97                         -0.2476540              -6.7390
        98                         -0.2470875              -6.7236
        99                         -0.2436448              -6.6299
       100                         -0.2346782              -6.3859
       101                         -0.1979824              -5.3874
       102                         -0.1700285              -4.6267
       ...                                ...                  ...
       169                          0.6510301              17.7154
      -------------------------------------------------------------
                  HL-Gap            0.0907490 Eh            2.4694 eV
             Fermi-level           -0.3391769 Eh           -9.2295 eV

     #   Z          covCN         q      C6AA      α(0)
     1   6 C        3.752    -0.112    22.695     6.793
     2   6 C        2.891     0.076    26.306     8.409
     3   6 C        2.960    -0.041    29.016     8.835
     4   6 C        2.772     0.269    22.464     7.762
     5   8 O        0.858    -0.410    21.876     6.271
     6   7 N        2.735    -0.097    23.139     7.144
     7   6 C        2.709     0.314    21.664     7.619
     8   8 O        0.857    -0.452    22.751     6.395
     9   7 N        2.743    -0.075    22.691     7.075
    10   6 C        2.910     0.061    26.630     8.462
    11   6 C        2.915    -0.029    28.716     8.787
    12   6 C        3.059    -0.036    28.845     8.808
    13   6 C        2.950     0.061    26.622     8.463
    14  53 I        1.262    -0.081   377.899    33.558
    15   6 C        3.062    -0.052    29.225     8.865
    16   6 C        2.776     0.166    24.402     8.091
    17   9 F        0.787    -0.200    11.232     3.959
    18   6 C        2.902     0.054    26.785     8.486
    19   6 C        2.915    -0.026    28.644     8.776
    20   6 C        2.908    -0.032    28.805     8.800
    21   6 C        2.911    -0.027    28.676     8.781
    22   6 C        2.914    -0.043    29.073     8.842
    23   6 C        2.892     0.080    26.223     8.396
    24   7 N        2.692    -0.174    24.770     7.392
    25   6 C        2.747     0.278    22.289     7.730
    26   8 O        0.858    -0.414    21.963     6.283
    27   6 C        3.864    -0.050    21.426     6.582
    28   6 C        3.804    -0.056    21.578     6.613
    29   6 C        3.804    -0.065    21.747     6.639
    30   6 C        2.970     0.012    27.745     8.640
    31   6 C        2.778     0.169    24.351     8.082
    32   9 F        0.787    -0.219    11.430     3.994
    33   6 C        2.912    -0.047    29.178     8.858
    34   6 C        2.912    -0.028    28.698     8.784
    35   6 C        2.910    -0.032    28.808     8.801
    36   6 C        2.915    -0.027    28.666     8.780
    37   1 H        0.924     0.050     2.316     2.380
    38   1 H        0.924     0.081     1.967     2.193
    39   1 H        0.924     0.061     2.188     2.313
    40   1 H        0.925     0.072     2.060     2.245
    41   1 H        0.925     0.072     2.063     2.246
    42   1 H        0.925     0.084     1.933     2.174
    43   1 H        0.925     0.056     2.245     2.343
    44   1 H        0.925     0.047     2.362     2.403
    45   1 H        0.925     0.048     2.346     2.395
    46   1 H        0.925     0.084     1.939     2.178
    47   1 H        0.860     0.211     1.052     1.606
    48   1 H        0.925     0.054     2.266     2.354
    49   1 H        0.925     0.041     2.429     2.437
    50   1 H        0.925     0.050     2.317     2.380
    51   1 H        0.925     0.031     2.577     2.511
    52   1 H        0.925     0.030     2.584     2.514
    53   1 H        0.925     0.062     2.180     2.309
    54   1 H        0.925     0.050     2.319     2.382
    55   1 H        0.925     0.049     2.338     2.391
    56   1 H        0.925     0.050     2.320     2.382

 Mol. C6AA /au·bohr⁶  :      49233.880909
 Mol. C8AA /au·bohr⁸  :    1412163.778139
 Mol. α(0) /au        :        350.692980


Wiberg/Mayer (AO) data.
largest (>0.10) Wiberg bond orders for each atom

 ---------------------------------------------------------------------------
     #   Z sym  total        # sym  WBO       # sym  WBO       # sym  WBO
 ---------------------------------------------------------------------------
     1   6 C    3.989 --     2 C    1.021    39 H    0.977    37 H    0.975
                            38 H    0.960
     2   6 C    3.956 --     3 C    1.643     9 N    1.112     1 C    1.021
     3   6 C    3.977 --     2 C    1.643     4 C    1.048    30 C    1.011
     4   6 C    3.948 --     5 O    1.691     6 N    1.092     3 C    1.048
     5   8 O    2.015 --     4 C    1.691     6 N    0.131
     6   7 N    3.569 --     7 C    1.137     4 C    1.092    18 C    0.966
                             5 O    0.131     8 O    0.130
     7   6 C    3.957 --     8 O    1.592     6 N    1.137     9 N    1.097
     8   8 O    1.993 --     7 C    1.592     6 N    0.130     9 N    0.128
     9   7 N    3.549 --     2 C    1.112     7 C    1.097    10 C    0.996
                             8 O    0.128
    10   6 C    3.959 --    11 C    1.396    16 C    1.347     9 N    0.996
    11   6 C    3.983 --    12 C    1.440    10 C    1.396    40 H    0.963
                            15 C    0.106
    12   6 C    3.986 --    11 C    1.440    13 C    1.411    41 H    0.967
    13   6 C    3.959 --    15 C    1.414    12 C    1.411    14 I    1.002
    14  53 I    1.123 --    13 C    1.002
    15   6 C    3.983 --    13 C    1.414    16 C    1.396    42 H    0.963
                            11 C    0.106
    16   6 C    3.889 --    15 C    1.396    10 C    1.347    17 F    0.978
    17   9 F    1.119 --    16 C    0.978
    18   6 C    3.929 --    19 C    1.400    23 C    1.329     6 N    0.966
    19   6 C    3.986 --    20 C    1.439    18 C    1.400    43 H    0.968
                            22 C    0.109
    20   6 C    3.980 --    19 C    1.439    21 C    1.431    44 H    0.969
    21   6 C    3.989 --    22 C    1.448    20 C    1.431    45 H    0.969
    22   6 C    3.983 --    21 C    1.448    23 C    1.371    46 H    0.959
                            19 C    0.109
    23   6 C    3.964 --    22 C    1.371    18 C    1.329    24 N    1.084
    24   7 N    3.494 --    25 C    1.197    23 C    1.084    47 H    0.886
                            26 O    0.168
    25   6 C    3.949 --    26 O    1.709    24 N    1.197    27 C    0.970
    26   8 O    2.016 --    25 C    1.709    24 N    0.168
    27   6 C    3.945 --    28 C    0.975    25 C    0.970    29 C    0.965
                            48 H    0.954
    28   6 C    3.946 --    29 C    0.984    49 H    0.981    50 H    0.980
                            27 C    0.975
    29   6 C    3.944 --    28 C    0.984    52 H    0.981    51 H    0.981
                            27 C    0.965
    30   6 C    3.986 --    36 C    1.402    31 C    1.358     3 C    1.011
                            34 C    0.108
    31   6 C    3.884 --    33 C    1.398    30 C    1.358    32 F    0.966
    32   9 F    1.101 --    31 C    0.966
    33   6 C    3.988 --    34 C    1.439    31 C    1.398    53 H    0.966
                            36 C    0.111
    34   6 C    3.989 --    33 C    1.439    35 C    1.438    54 H    0.970
                            30 C    0.108
    35   6 C    3.989 --    36 C    1.441    34 C    1.438    55 H    0.970
    36   6 C    3.987 --    35 C    1.441    30 C    1.402    56 H    0.970
                            33 C    0.111
    37   1 H    0.996 --     1 C    0.975
    38   1 H    0.991 --     1 C    0.960
    39   1 H    0.996 --     1 C    0.977
    40   1 H    0.995 --    11 C    0.963
    41   1 H    0.994 --    12 C    0.967
    42   1 H    0.992 --    15 C    0.963
    43   1 H    0.996 --    19 C    0.968
    44   1 H    0.997 --    20 C    0.969
    45   1 H    0.997 --    21 C    0.969
    46   1 H    0.992 --    22 C    0.959
    47   1 H    0.955 --    24 N    0.886
    48   1 H    0.997 --    27 C    0.954
    49   1 H    0.998 --    28 C    0.981
    50   1 H    0.997 --    28 C    0.980
    51   1 H    0.999 --    29 C    0.981
    52   1 H    0.999 --    29 C    0.981
    53   1 H    0.995 --    33 C    0.966
    54   1 H    0.997 --    34 C    0.970
    55   1 H    0.997 --    35 C    0.970
    56   1 H    0.997 --    36 C    0.970
 ---------------------------------------------------------------------------

Topologies differ in total number of bonds
Writing topology from bond orders to xtbtopo.mol

molecular dipole:
                 x           y           z       tot (Debye)
 q only:       -1.877      -0.681       1.696
   full:       -2.018      -0.284       1.881       7.049
molecular quadrupole (traceless):
                xx          xy          yy          xz          yz          zz
 q only:      -16.374       3.821       6.221      -9.280      -1.642      10.154
  q+dip:      -17.999     -10.960       0.947      -8.505      -6.217      17.052
   full:      -19.806      -8.304      -0.599      -8.402      -6.389      20.405


           -------------------------------------------------
          | TOTAL ENERGY             -102.291130431852 Eh   |
          | GRADIENT NORM               0.096810759118 Eh/α |
          | HOMO-LUMO GAP               2.469406178296 eV   |
           -------------------------------------------------

------------------------------------------------------------------------
 * finished run on 2026/08/31 at 20:40:32.552     
------------------------------------------------------------------------
 total:
 * wall-time:     0 d,  0 h,  0 min,  0.145 sec
 *  cpu-time:     0 d,  0 h,  0 min,  1.234 sec
 * ratio c/w:     8.513 speedup
 SCF:
 * wall-time:     0 d,  0 h,  0 min,  0.104 sec
 *  cpu-time:     0 d,  0 h,  0 min,  0.844 sec
 * ratio c/w:     8.113 speedup

normal termination of xtb
