89
Drug@Ti12C7O14 non-overlapping complex
C     -3.086216      0.145994     12.061542
C     -1.818828      0.491373     11.295540
C     -1.168059      1.651045     11.504995
C      0.131857      1.899595     10.824355
O      0.767286      2.906339     11.146804
N      0.570698      0.945206      9.910110
C     -0.091237     -0.267328      9.710343
O      0.341837     -1.136468      8.944255
N     -1.293980     -0.466044     10.421024
C     -2.001608     -1.680353     10.107435
C     -1.412676     -2.925250     10.370371
C     -2.092907     -4.108116     10.063610
C     -3.361154     -4.051062      9.483035
I     -4.367314     -5.810752      9.027675
C     -3.953487     -2.822872      9.200414
C     -3.269250     -1.650241      9.509699
F     -3.838768     -0.478599      9.189340
C      1.765659      1.269209      9.136973
C      1.840118      2.570077      8.584406
C      2.960400      3.014856      7.883769
C      4.043230      2.168378      7.720072
C      4.000576      0.876696      8.246181
C      2.876342      0.399942      8.943737
N      2.866966     -0.920597      9.451088
C      3.895218     -1.830925      9.506713
O      5.076191     -1.660820      9.247935
C      3.438553     -3.182025      9.942976
C      4.147185     -3.877501     11.082670
C      2.744153     -3.383105     11.271187
C     -1.693049      2.701701     12.400662
C     -2.696973      3.570353     11.958990
F     -3.193584      3.449222     10.718496
C     -3.206562      4.564043     12.789958
C     -2.707357      4.703380     14.084057
C     -1.700464      3.849827     14.538176
C     -1.192457      2.852259     13.701103
H     -3.077202     -0.895865     12.399544
H     -3.973390      0.318087     11.445631
H     -3.210178      0.734740     12.975383
H     -0.425257     -2.983969     10.820318
H     -1.618871     -5.063441     10.277969
H     -4.931142     -2.753630      8.733825
H      1.009961      3.266632      8.691987
H      2.985031      4.022401      7.477174
H      4.925819      2.503661      7.181230
H      4.870438      0.249242      8.074718
H      1.950363     -1.295129      9.662109
H      3.134974     -3.816835      9.116236
H      4.311546     -4.945109     10.995126
H      4.951974     -3.346540     11.580441
H      1.953541     -4.122205     11.322415
H      2.603179     -2.529187     11.924126
H     -3.985140      5.224688     12.421727
H     -3.096156      5.481597     14.736513
H     -1.302803      3.967300     15.543910
H     -0.397026      2.206123     14.065986
Ti     -2.141866     -3.008818      2.119748
Ti      0.288991     -1.694759      1.432425
Ti      1.903098     -3.067749     -0.729322
Ti     -2.521502     -0.251928      1.303687
Ti      2.142050      0.499533      2.204434
Ti     -0.681448      0.189635      3.681230
Ti     -2.036770     -3.077740     -1.200512
Ti     -0.605340     -0.770900     -2.035132
Ti      1.945488     -1.587317     -3.412400
Ti     -1.878170      1.746573     -1.240030
Ti      2.412512      0.454231     -0.774247
Ti      0.817742      1.838452     -2.940004
C     -3.678414      1.281398      0.600737
C      4.128193      0.482847      0.387293
C      0.455479      2.267202      0.349695
C     -3.666709      2.118834     -0.313920
C      4.115962      0.632239      1.621354
C     -0.635167      2.741046     -0.118921
C      1.630072      1.780996      0.734224
O     -3.093456     -1.956907      1.037949
O     -0.487250     -2.605849      2.701203
O      0.314079     -2.888890      0.145001
O     -0.800785     -0.435934      0.971227
O      1.902865     -1.158331      1.469449
O     -2.322673     -0.113878      3.024800
O      1.013786      0.441598      3.568761
O     -1.772019     -4.587905     -1.652810
O      0.190605     -1.189189     -3.534030
O      2.831420     -2.170248     -1.918042
O     -2.054558     -0.224445     -1.337505
O      0.768511     -0.390574     -1.063664
O     -0.900039      1.649313     -2.818565
O      2.415313      1.357463     -2.264115
