      -----------------------------------------------------------      
     |                   =====================                   |     
     |                           x T B                           |     
     |                   =====================                   |     
     |                         S. Grimme                         |     
     |          Mulliken Center for Theoretical Chemistry        |     
     |                    University of Bonn                     |     
      -----------------------------------------------------------      

   * xtb version 6.7.1pre (5071a88) compiled by 'Marcel@Raven' on 2024-07-23

   xtb is free software: you can redistribute it and/or modify it under
   the terms of the GNU Lesser General Public License as published by
   the Free Software Foundation, either version 3 of the License, or
   (at your option) any later version.
   
   xtb is distributed in the hope that it will be useful,
   but WITHOUT ANY WARRANTY; without even the implied warranty of
   MERCHANTABILITY or FITNESS FOR A PARTICULAR PURPOSE.  See the
   GNU Lesser General Public License for more details.
   
   Cite this work as:
   * C. Bannwarth, E. Caldeweyher, S. Ehlert, A. Hansen, P. Pracht,
     J. Seibert, S. Spicher, S. Grimme, WIREs Comput. Mol. Sci., 2020, 11,
     e01493. DOI: 10.1002/wcms.1493
   
   for GFN2-xTB:
   * C. Bannwarth, S. Ehlert and S. Grimme., J. Chem. Theory Comput., 2019,
     15, 1652-1671. DOI: 10.1021/acs.jctc.8b01176
   for GFN1-xTB:
   * S. Grimme, C. Bannwarth, P. Shushkov, J. Chem. Theory Comput., 2017,
     13, 1989-2009. DOI: 10.1021/acs.jctc.7b00118
   for GFN0-xTB:
   * P. Pracht, E. Caldeweyher, S. Ehlert, S. Grimme, ChemRxiv, 2019, preprint.
     DOI: 10.26434/chemrxiv.8326202.v1
   for GFN-FF:
   * S. Spicher and S. Grimme, Angew. Chem. Int. Ed., 2020, 59, 15665-15673.
     DOI: 10.1002/anie.202004239
   
   for ALPB and GBSA implicit solvation:
   * S. Ehlert, M. Stahn, S. Spicher, S. Grimme, J. Chem. Theory Comput.,
     2021, 17, 4250-4261. DOI: 10.1021/acs.jctc.1c00471
   
   for ddCOSMO and CPCM-X implicit solvation:
   * M. Stahn, S. Ehlert, S. Grimme, J. Phys. Chem. A,
     2023, XX, XXXX-XXXX. DOI: 10.1021/acs.jpca.3c04382
   
   for DFT-D4:
   * E. Caldeweyher, C. Bannwarth and S. Grimme, J. Chem. Phys., 2017,
     147, 034112. DOI: 10.1063/1.4993215
   * E. Caldeweyher, S. Ehlert, A. Hansen, H. Neugebauer, S. Spicher,
     C. Bannwarth and S. Grimme, J. Chem. Phys., 2019, 150, 154122.
     DOI: 10.1063/1.5090222
   * E. Caldeweyher, J.-M. Mewes, S. Ehlert and S. Grimme, Phys. Chem. Chem. Phys.
     2020, 22, 8499-8512. DOI: 10.1039/D0CP00502A
   
   for sTDA-xTB:
   * S. Grimme and C. Bannwarth, J. Chem. Phys., 2016, 145, 054103.
     DOI: 10.1063/1.4959605
   
   in the mass-spec context:
   * V. Asgeirsson, C. Bauer and S. Grimme, Chem. Sci., 2017, 8, 4879.
     DOI: 10.1039/c7sc00601b
   * J. Koopman and S. Grimme, ACS Omega 2019, 4, 12, 15120-15133.
     DOI: 10.1021/acsomega.9b02011
   
   for metadynamics refer to:
   * S. Grimme, J. Chem. Theory Comput., 2019, 155, 2847-2862
     DOI: 10.1021/acs.jctc.9b00143
   
   for SPH calculations refer to:
   * S. Spicher and S. Grimme, J. Chem. Theory Comput., 2021, 17, 1701-1714
     DOI: 10.1021/acs.jctc.0c01306
   
   for ONIOM refer to:
   * C. Plett, A. Katbashev, S. Ehlert, S. Grimme, M. Bursch,
     Phys. Chem. Chem. Phys., 2023, 25, 17860-17868. DOI: 10.1039/D3CP02178E
   
   for DIPRO refer to:
   * J. Kohn, N. Gildemeister, S. Grimme, D. Fazzi, A. Hansen,
     J. Chem. Phys., 2023, just accepted.
   
   for PTB refer to:
   * S. Grimme, M. Mueller, A. Hansen, J. Chem. Phys., 2023, 158, 124111.
     DOI: 10.1063/5.0137838
   
   with help from (in alphabetical order)
   P. Atkinson, C. Bannwarth, F. Bohle, G. Brandenburg, E. Caldeweyher
   M. Checinski, S. Dohm, S. Ehlert, S. Ehrlich, I. Gerasimov, C. Hölzer
   A. Katbashev, J. Kohn, J. Koopman, C. Lavigne, S. Lehtola, F. März, M. Müller,
   F. Musil, H. Neugebauer, J. Pisarek, C. Plett, P. Pracht, F. Pultar,
   J. Seibert, P. Shushkov, S. Spicher, M. Stahn, M. Steiner, T. Strunk,
   J. Stückrath, T. Rose, and J. Unsleber
   
 * started run on 2026/08/31 at 21:18:49.994     
   ID    Z sym.   atoms
    1    6 C      1, 3, 4, 6-8, 10, 12, 14-24, 26, 27, 29, 65-71
    2    8 O      2, 5, 25, 28, 72-85
    3    7 N      9, 11, 13
    4    1 H      30-52
    5   22 Ti     53-64

           -------------------------------------------------
          |                Calculation Setup                |
           -------------------------------------------------

          program call               : "c:\Users\Andre\Proyectos doctorado\kras-pancreatic-gC3N4-ai\tools\xtb\xtb-6.7.1\bin\xtb.exe" "c:\Users\Andre\Proyectos doctorado\mxene-glioblastoma-qsar-ai\calculations\gbm\Erlotinib\Erlotinib_Ti12C7O14_phys_complex.xyz" --gfn 2 --sp --chrg 0 --uhf 0 --etemp 300 --iterations 500 --norestart
          coordinate file            : c:\Users\Andre\Proyectos doctorado\mxene-glioblastoma-qsar-ai\calculations\gbm\Erlotinib\Erlotinib_Ti12C7O14_phys_complex.xyz
          omp threads                :                    16


molecular fragmentation (1/2 indicates fragments):
111111111111111111111111111111111111111111111111111122222222222222222222
2222222222222
# atoms in fragment 1/2:    52    33
 fragment masses (1/2) :      393.44      882.47
CMA distance (Bohr)    :  21.264
constraining FC (au)   :  0.0500

           -------------------------------------------------
          |                 G F N 2 - x T B                 |
           -------------------------------------------------

        Reference                      10.1021/acs.jctc.8b01176
      * Hamiltonian:
        H0-scaling (s, p, d)           1.850000    2.230000    2.230000
        zeta-weighting                 0.500000
      * Dispersion:
        s8                             2.700000
        a1                             0.520000
        a2                             5.000000
        s9                             5.000000
      * Repulsion:
        kExp                           1.500000    1.000000
        rExp                           1.000000
      * Coulomb:
        alpha                          2.000000
        third order                    shell-resolved
        anisotropic                    true
        a3                             3.000000
        a5                             4.000000
        cn-shift                       1.200000
        cn-exp                         4.000000
        max-rad                        5.000000


          ...................................................
          :                      SETUP                      :
          :.................................................:
          :  # basis functions                 343          :
          :  # atomic orbitals                 331          :
          :  # shells                          159          :
          :  # electrons                       310          :
          :  max. iterations                   500          :
          :  Hamiltonian                  GFN2-xTB          :
          :  restarted?                      false          :
          :  GBSA solvation                  false          :
          :  PC potential                    false          :
          :  electronic temp.          300.0000000     K    :
          :  accuracy                    1.0000000          :
          :  -> integral cutoff          0.2500000E+02      :
          :  -> integral neglect         0.1000000E-07      :
          :  -> SCF convergence          0.1000000E-05 Eh   :
          :  -> wf. convergence          0.1000000E-03 e    :
          :  Broyden damping             0.4000000          :
          :  net charge                          0          :
          :  unpaired electrons                  0          :
          ...................................................

 iter      E             dE          RMSdq      gap      omega  full diag
   1   -175.0360296 -0.175036E+03  0.136E+01    0.05       0.0  T
   2   -143.3274741  0.317086E+02  0.148E+01    0.03       1.0  T
   3    -79.6869861  0.636405E+02  0.241E+01    0.12       1.0  T
   4   -174.0412818 -0.943543E+02  0.950E+00    0.06       1.0  T
   5   -176.8318051 -0.279052E+01  0.661E+00    0.28       1.0  T
   6   -177.1927358 -0.360931E+00  0.540E+00    0.10       1.0  T
   7   -177.1855505  0.718528E-02  0.485E+00    0.91       1.0  T
   8   -176.4800049  0.705546E+00  0.494E+00    0.02       1.0  T
   9   -177.3053828 -0.825378E+00  0.339E+00    0.55       1.0  T
  10   -177.4144635 -0.109081E+00  0.251E+00    0.23       1.0  T
  11   -177.4737025 -0.592390E-01  0.216E+00    0.16       1.0  T
  12   -177.5241199 -0.504174E-01  0.178E+00    0.24       1.0  T
  13   -177.5018616  0.222583E-01  0.140E+00    0.07       1.0  T
  14   -177.5843048 -0.824431E-01  0.977E-01    0.72       1.0  T
  15   -177.6129392 -0.286344E-01  0.738E-01    0.72       1.0  T
  16   -177.6172194 -0.428020E-02  0.671E-01    0.71       1.0  T
  17   -177.6299595 -0.127402E-01  0.516E-01    0.56       1.0  T
  18   -177.6349263 -0.496675E-02  0.431E-01    0.48       1.0  T
  19   -177.6389084 -0.398210E-02  0.358E-01    0.48       1.0  T
  20   -177.6427761 -0.386768E-02  0.234E-01    0.48       1.0  T
  21   -177.6453322 -0.255615E-02  0.133E-01    0.52       1.0  T
  22   -177.6458504 -0.518124E-03  0.890E-02    0.55       1.0  T
  23   -177.6461612 -0.310840E-03  0.512E-02    0.58       1.0  T
  24   -177.6461814 -0.202355E-04  0.326E-02    0.60       1.0  T
  25   -177.6462047 -0.232212E-04  0.203E-02    0.60       1.0  T
  26   -177.6462101 -0.549615E-05  0.160E-02    0.61       1.0  T
  27   -177.6462119 -0.174160E-05  0.117E-02    0.61       1.0  T
  28   -177.6462167 -0.477194E-05  0.660E-03    0.60       1.6  T
  29   -177.6462175 -0.802292E-06  0.451E-03    0.60       2.4  T
  30   -177.6462177 -0.239235E-06  0.282E-03    0.60       3.8  T
  31   -177.6462178 -0.735034E-07  0.163E-03    0.60       6.6  T
  32   -177.6462178 -0.729213E-08  0.127E-03    0.60       8.5  T
  33   -177.6462178 -0.456029E-08  0.830E-04    0.60      13.1  T
  34   -177.6462178 -0.169908E-07  0.503E-04    0.60      21.6  T

   *** convergence criteria satisfied after 34 iterations ***

         #    Occupation            Energy/Eh            Energy/eV
      -------------------------------------------------------------
         1        2.0000           -0.8218683             -22.3642
       ...           ...                  ...                  ...
       149        2.0000           -0.3594789              -9.7819
       150        2.0000           -0.3524530              -9.5907
       151        2.0000           -0.3509617              -9.5502
       152        2.0000           -0.3466770              -9.4336
       153        2.0000           -0.3392597              -9.2317
       154        2.0000           -0.3236561              -8.8071
       155        2.0000           -0.3090293              -8.4091 (HOMO)
       156        0.0000           -0.2869347              -7.8079 (LUMO)
       157        0.0000           -0.2861176              -7.7857
       158        0.0000           -0.2854086              -7.7664
       159        0.0000           -0.2850994              -7.7580
       160        0.0000           -0.2850240              -7.7559
       ...           ...                  ...                  ...
       331                         13.3288673             362.6969
      -------------------------------------------------------------
                  HL-Gap            0.0220946 Eh            0.6012 eV
             Fermi-level           -0.2982878 Eh           -8.1168 eV

 SCC (total)                   0 d,  0 h,  0 min,  0.648 sec
 SCC setup                      ...        0 min,  0.000 sec (  0.000%)
 Dispersion                     ...        0 min,  0.002 sec (  0.309%)
 classical contributions        ...        0 min,  0.000 sec (  0.000%)
 integral evaluation            ...        0 min,  0.008 sec (  1.235%)
 iterations                     ...        0 min,  0.614 sec ( 94.753%)
 molecular gradient             ...        0 min,  0.022 sec (  3.395%)
 printout                       ...        0 min,  0.002 sec (  0.309%)

         :::::::::::::::::::::::::::::::::::::::::::::::::::::
         ::                     SUMMARY                     ::
         :::::::::::::::::::::::::::::::::::::::::::::::::::::
         :: total energy            -175.820318719730 Eh    ::
         :: gradient norm              0.102196792622 Eh/a0 ::
         :: HOMO-LUMO gap              0.601225723157 eV    ::
         ::.................................................::
         :: SCC energy              -177.643987167960 Eh    ::
         :: -> isotropic ES            0.996810874099 Eh    ::
         :: -> anisotropic ES         -0.369520294653 Eh    ::
         :: -> anisotropic XC         -0.024478524296 Eh    ::
         :: -> dispersion             -0.144297749567 Eh    ::
         :: repulsion energy           1.823668448230 Eh    ::
         :: add. restraining           0.000000000000 Eh    ::
         :: total charge              -0.000000000021 e     ::
         :::::::::::::::::::::::::::::::::::::::::::::::::::::

           -------------------------------------------------
          |                Property Printout                |
           -------------------------------------------------

    * Orbital Energies and Occupations

         #    Occupation            Energy/Eh            Energy/eV
      -------------------------------------------------------------
         1        2.0000           -0.8218683             -22.3642
       ...           ...                  ...                  ...
       143        2.0000           -0.3826512             -10.4125
       144        2.0000           -0.3784093             -10.2970
       145        2.0000           -0.3707220             -10.0879
       146        2.0000           -0.3694526             -10.0533
       147        2.0000           -0.3621715              -9.8552
       148        2.0000           -0.3619655              -9.8496
       149        2.0000           -0.3594789              -9.7819
       150        2.0000           -0.3524530              -9.5907
       151        2.0000           -0.3509617              -9.5502
       152        2.0000           -0.3466770              -9.4336
       153        2.0000           -0.3392597              -9.2317
       154        2.0000           -0.3236561              -8.8071
       155        2.0000           -0.3090293              -8.4091 (HOMO)
       156        0.0000           -0.2869347              -7.8079 (LUMO)
       157        0.0000           -0.2861176              -7.7857
       158        0.0000           -0.2854086              -7.7664
       159        0.0000           -0.2850994              -7.7580
       160        0.0000           -0.2850240              -7.7559
       161                         -0.2805442              -7.6340
       162                         -0.2761225              -7.5137
       163                         -0.2750809              -7.4853
       164                         -0.2732539              -7.4356
       165                         -0.2731438              -7.4326
       166                         -0.2720262              -7.4022
       ...                                ...                  ...
       331                         13.3288673             362.6969
      -------------------------------------------------------------
                  HL-Gap            0.0220946 Eh            0.6012 eV
             Fermi-level           -0.2982878 Eh           -8.1168 eV

     #   Z          covCN         q      C6AA      α(0)
     1   6 C        3.642     0.031    20.396     6.493
     2   8 O        1.696    -0.319    19.327     5.935
     3   6 C        3.690     0.066    19.651     6.344
     4   6 C        3.688     0.061    19.734     6.359
     5   8 O        1.701    -0.267    18.427     5.796
     6   6 C        2.858     0.132    25.100     8.212
     7   6 C        2.929    -0.080    29.991     8.981
     8   6 C        2.985     0.102    25.737     8.322
     9   7 N        1.844    -0.267    27.776     7.811
    10   6 C        2.882     0.142    24.909     8.182
    11   7 N        1.831    -0.271    27.891     7.826
    12   6 C        2.891     0.162    24.511     8.117
    13   7 N        2.689    -0.181    24.924     7.415
    14   6 C        2.890     0.076    26.303     8.408
    15   6 C        2.918    -0.056    29.388     8.890
    16   6 C        2.909    -0.032    28.786     8.798
    17   6 C        2.920    -0.037    28.933     8.821
    18   6 C        2.965     0.041    27.069     8.534
    19   6 C        1.977    -0.020    31.588     9.076
    20   6 C        1.908    -0.098    33.799     9.389
    21   6 C        2.924    -0.043    29.057     8.840
    22   6 C        2.979    -0.033    28.811     8.805
    23   6 C        2.914    -0.085    30.132     9.001
    24   6 C        2.851     0.129    25.175     8.223
    25   8 O        1.703    -0.250    18.149     5.752
    26   6 C        3.687     0.070    19.603     6.338
    27   6 C        3.698     0.071    19.552     6.324
    28   8 O        1.697    -0.316    19.275     5.927
    29   6 C        3.648     0.024    20.494     6.504
    30   1 H        0.924     0.055     2.260     2.351
    31   1 H        0.924     0.039     2.462     2.454
    32   1 H        0.924     0.053     2.278     2.360
    33   1 H        0.924     0.058     2.228     2.334
    34   1 H        0.924     0.037     2.491     2.468
    35   1 H        0.924     0.076     2.022     2.224
    36   1 H        0.924     0.042     2.426     2.436
    37   1 H        0.925     0.067     2.119     2.276
    38   1 H        0.925     0.047     2.358     2.401
    39   1 H        0.860     0.173     1.256     1.756
    40   1 H        0.925     0.022     2.706     2.573
    41   1 H        0.925     0.033     2.547     2.496
    42   1 H        0.925     0.035     2.521     2.483
    43   1 H        0.927     0.078     1.996     2.209
    44   1 H        0.925     0.053     2.283     2.363
    45   1 H        0.925     0.044     2.397     2.421
    46   1 H        0.924     0.044     2.395     2.420
    47   1 H        0.924     0.060     2.200     2.320
    48   1 H        0.924     0.054     2.267     2.354
    49   1 H        0.924     0.037     2.493     2.469
    50   1 H        0.924     0.064     2.148     2.292
    51   1 H        0.924     0.037     2.496     2.470
    52   1 H        0.924     0.043     2.412     2.429
    53  22 Ti       3.637     1.050   101.796    24.488
    54  22 Ti       6.855     1.550    84.066    14.886
    55  22 Ti       3.227     1.048   102.641    24.739
    56  22 Ti       5.860     1.380    85.673    15.028
    57  22 Ti       5.627     1.121    88.209    15.248
    58  22 Ti       3.541     1.044   102.430    24.666
    59  22 Ti       2.352     0.881   202.667    34.858
    60  22 Ti       6.011     1.349    85.972    15.054
    61  22 Ti       3.414     1.008   103.053    24.779
    62  22 Ti       5.519     1.096    88.461    15.270
    63  22 Ti       5.687     1.189    87.535    15.190
    64  22 Ti       3.581     1.026   102.474    24.642
    65   6 C        2.246    -0.257    37.619     9.937
    66   6 C        2.142    -0.255    38.331    10.008
    67   6 C        2.248    -0.019    30.614     8.965
    68   6 C        1.838    -0.209    37.300     9.866
    69   6 C        1.894    -0.224    37.721     9.919
    70   6 C        1.821    -0.346    42.147    10.489
    71   6 C        2.631    -0.404    39.913    10.334
    72   8 O        1.554    -0.847    31.999     7.632
    73   8 O        1.464    -0.880    33.201     7.767
    74   8 O        1.557    -0.955    35.575     8.047
    75   8 O        1.523    -1.007    37.484     8.258
    76   8 O        1.523    -0.913    34.160     7.883
    77   8 O        1.458    -0.820    31.318     7.543
    78   8 O        1.455    -0.797    30.637     7.460
    79   8 O        0.727    -0.635    27.082     6.974
    80   8 O        1.453    -0.864    32.687     7.705
    81   8 O        1.476    -0.799    30.654     7.464
    82   8 O        1.603    -0.946    35.192     8.006
    83   8 O        1.547    -0.969    36.075     8.103
    84   8 O        1.700    -0.817    30.965     7.513
    85   8 O        1.453    -0.781    30.159     7.401

 Mol. C6AA /au·bohr⁶  :     172816.961844
 Mol. C8AA /au·bohr⁸  :    7379738.395789
 Mol. α(0) /au        :        703.905912


Wiberg/Mayer (AO) data.
largest (>0.10) Wiberg bond orders for each atom

 ---------------------------------------------------------------------------
     #   Z sym  total        # sym  WBO       # sym  WBO       # sym  WBO
 ---------------------------------------------------------------------------
     1   6 C    3.943 --     2 O    0.986    32 H    0.980    30 H    0.978
                            31 H    0.977
     2   8 O    2.063 --     3 C    0.992     1 C    0.986
     3   6 C    3.960 --     2 O    0.992     4 C    0.988    33 H    0.968
                            34 H    0.965
     4   6 C    3.939 --     3 C    0.988    35 H    0.966    36 H    0.965
                             5 O    0.957
     5   8 O    2.201 --     6 C    1.060     4 C    0.957
     6   6 C    3.943 --     7 C    1.461    24 C    1.227     5 O    1.060
     7   6 C    3.982 --     6 C    1.461     8 C    1.285    37 H    0.959
                            23 C    0.105
     8   6 C    3.983 --     9 N    1.294     7 C    1.285    22 C    1.229
     9   7 N    3.038 --    10 C    1.482     8 C    1.294
    10   6 C    3.958 --     9 N    1.482    11 N    1.371    38 H    0.958
    11   7 N    3.043 --    12 C    1.405    10 C    1.371
    12   6 C    3.964 --    11 N    1.405    22 C    1.243    13 N    1.101
    13   7 N    3.375 --    12 C    1.101    14 C    1.083    39 H    0.927
    14   6 C    3.963 --    21 C    1.378    15 C    1.360    13 N    1.083
    15   6 C    3.955 --    16 C    1.445    14 C    1.360    40 H    0.968
    16   6 C    3.990 --    15 C    1.445    17 C    1.442    41 H    0.971
                            21 C    0.103
    17   6 C    3.984 --    16 C    1.442    18 C    1.366    42 H    0.971
    18   6 C    3.989 --    21 C    1.381    17 C    1.366    19 C    1.096
    19   6 C    3.978 --    20 C    2.840    18 C    1.096
    20   6 C    3.945 --    19 C    2.840    43 H    0.970
    21   6 C    3.981 --    18 C    1.381    14 C    1.378    44 H    0.966
                            16 C    0.103
    22   6 C    3.986 --    23 C    1.279    12 C    1.243     8 C    1.229
    23   6 C    3.981 --    24 C    1.456    22 C    1.279    45 H    0.963
                             7 C    0.105
    24   6 C    3.936 --    23 C    1.456     6 C    1.227    25 O    1.072
    25   8 O    2.238 --    24 C    1.072    26 C    0.969
    26   6 C    3.950 --    27 C    1.002    25 O    0.969    46 H    0.967
                            47 H    0.965
    27   6 C    3.959 --    26 C    1.002    28 O    0.983    49 H    0.967
                            48 H    0.966
    28   8 O    2.056 --    29 C    0.992    27 C    0.983
    29   6 C    3.947 --    28 O    0.992    50 H    0.978    51 H    0.978
                            52 H    0.978
    30   1 H    0.997 --     1 C    0.978
    31   1 H    0.998 --     1 C    0.977
    32   1 H    0.997 --     1 C    0.980
    33   1 H    0.996 --     3 C    0.968
    34   1 H    0.999 --     3 C    0.965
    35   1 H    0.994 --     4 C    0.966
    36   1 H    0.998 --     4 C    0.965
    37   1 H    0.994 --     7 C    0.959
    38   1 H    0.997 --    10 C    0.958
    39   1 H    0.970 --    13 N    0.927
    40   1 H    0.999 --    15 C    0.968
    41   1 H    0.998 --    16 C    0.971
    42   1 H    0.998 --    17 C    0.971
    43   1 H    0.993 --    20 C    0.970
    44   1 H    0.997 --    21 C    0.966
    45   1 H    0.998 --    23 C    0.963
    46   1 H    0.997 --    26 C    0.967
    47   1 H    0.996 --    26 C    0.965
    48   1 H    0.997 --    27 C    0.966
    49   1 H    0.998 --    27 C    0.967
    50   1 H    0.994 --    29 C    0.978
    51   1 H    0.998 --    29 C    0.978
    52   1 H    0.998 --    29 C    0.978
    53  22 Ti   2.822 --    72 O    0.845    73 O    0.814    59 Ti   0.330
                            54 Ti   0.201    56 Ti   0.197
    54  22 Ti   3.855 --    73 O    0.752    76 O    0.746    74 O    0.693
                            75 O    0.605    53 Ti   0.201    55 Ti   0.188
                            57 Ti   0.138    58 Ti   0.137
    55  22 Ti   2.723 --    81 O    0.963    74 O    0.599    61 Ti   0.372
                            54 Ti   0.188    59 Ti   0.140    76 O    0.110
    56  22 Ti   3.919 --    77 O    0.939    65 C    0.721    72 O    0.706
                            75 O    0.562    58 Ti   0.211    53 Ti   0.197
                            62 Ti   0.177    82 O    0.124
    57  22 Ti   4.073 --    71 C    0.893    78 O    0.772    69 C    0.744
                            76 O    0.601    63 Ti   0.284    58 Ti   0.174
                            70 C    0.160    66 C    0.152    54 Ti   0.138
    58  22 Ti   2.650 --    78 O    0.975    77 O    0.711    56 Ti   0.211
                            57 Ti   0.174    54 Ti   0.137    73 O    0.123
    59  22 Ti   3.766 --    79 O    1.997    60 Ti   0.607    53 Ti   0.330
                            74 O    0.152    72 O    0.147    55 Ti   0.140
                            82 O    0.112
    60  22 Ti   4.017 --    82 O    0.802    80 O    0.753    83 O    0.715
                            59 Ti   0.607    84 O    0.196    61 Ti   0.166
                            64 Ti   0.148    62 Ti   0.141
    61  22 Ti   2.746 --    80 O    0.835    81 O    0.764    55 Ti   0.372
                            64 Ti   0.221    60 Ti   0.166    63 Ti   0.130
    62  22 Ti   4.011 --    70 C    1.057    68 C    0.726    84 O    0.615
                            82 O    0.441    71 C    0.233    64 Ti   0.199
                            56 Ti   0.177    65 C    0.155    60 Ti   0.141
    63  22 Ti   4.082 --    85 O    0.968    66 C    0.670    71 C    0.654
                            83 O    0.441    57 Ti   0.284    64 Ti   0.210
                            70 C    0.142    61 Ti   0.130    81 O    0.114
    64  22 Ti   2.792 --    84 O    0.901    85 O    0.734    61 Ti   0.221
                            63 Ti   0.210    62 Ti   0.199    60 Ti   0.148
    65   6 C    3.843 --    68 C    2.739    56 Ti   0.721    62 Ti   0.155
    66   6 C    3.782 --    69 C    2.732    63 Ti   0.670    57 Ti   0.152
    67   6 C    3.979 --    70 C    2.008    71 C    1.604
    68   6 C    3.706 --    65 C    2.739    62 Ti   0.726
    69   6 C    3.748 --    66 C    2.732    57 Ti   0.744
    70   6 C    3.769 --    67 C    2.008    62 Ti   1.057    57 Ti   0.160
                            63 Ti   0.142
    71   6 C    3.829 --    67 C    1.604    57 Ti   0.893    63 Ti   0.654
                            62 Ti   0.233
    72   8 O    1.935 --    53 Ti   0.845    56 Ti   0.706    59 Ti   0.147
    73   8 O    1.893 --    53 Ti   0.814    54 Ti   0.752    58 Ti   0.123
    74   8 O    1.784 --    54 Ti   0.693    55 Ti   0.599    59 Ti   0.152
    75   8 O    1.720 --    54 Ti   0.605    56 Ti   0.562
    76   8 O    1.848 --    54 Ti   0.746    57 Ti   0.601    55 Ti   0.110
    77   8 O    1.975 --    56 Ti   0.939    58 Ti   0.711
    78   8 O    2.016 --    58 Ti   0.975    57 Ti   0.772
    79   8 O    2.171 --    59 Ti   1.997
    80   8 O    1.911 --    61 Ti   0.835    60 Ti   0.753
    81   8 O    2.009 --    55 Ti   0.963    61 Ti   0.764    63 Ti   0.114
    82   8 O    1.799 --    60 Ti   0.802    62 Ti   0.441    56 Ti   0.124
                            59 Ti   0.112
    83   8 O    1.772 --    60 Ti   0.715    63 Ti   0.441
    84   8 O    1.987 --    64 Ti   0.901    62 Ti   0.615    60 Ti   0.196
    85   8 O    2.032 --    63 Ti   0.968    64 Ti   0.734
 ---------------------------------------------------------------------------

Topologies differ in total number of bonds
Writing topology from bond orders to xtbtopo.mol

molecular dipole:
                 x           y           z       tot (Debye)
 q only:        0.558      -2.486      -1.391
   full:       -0.641      -3.105      -0.393       8.120
molecular quadrupole (traceless):
                xx          xy          yy          xz          yz          zz
 q only:      -27.091      -1.237      16.282     -38.928     -53.162      10.809
  q+dip:      -19.545      -5.356       2.156      -9.128     -89.134      17.389
   full:      -19.820      -4.573       0.812      -7.453     -86.350      19.008


           -------------------------------------------------
          | TOTAL ENERGY             -175.820318719730 Eh   |
          | GRADIENT NORM               0.102196792622 Eh/α |
          | HOMO-LUMO GAP               0.601225723157 eV   |
           -------------------------------------------------

------------------------------------------------------------------------
 * finished run on 2026/08/31 at 21:18:50.690     
------------------------------------------------------------------------
 total:
 * wall-time:     0 d,  0 h,  0 min,  0.695 sec
 *  cpu-time:     0 d,  0 h,  0 min,  7.281 sec
 * ratio c/w:    10.477 speedup
 SCF:
 * wall-time:     0 d,  0 h,  0 min,  0.649 sec
 *  cpu-time:     0 d,  0 h,  0 min,  6.922 sec
 * ratio c/w:    10.665 speedup

normal termination of xtb
