52
Erlotinib - ETKDG+MMFF conformer
C     -4.601612      0.050983     -1.796320
O     -5.050288      1.385014     -1.586442
C     -4.201512      2.133567     -0.708849
C     -4.357226      1.733441      0.764108
O     -3.610108      0.559511      1.112172
C     -2.243204      0.678800      1.148701
C     -1.589211      1.769406      1.728400
C     -0.204487      1.852485      1.772841
N      0.345687      2.938604      2.320778
C      1.681193      2.991837      2.339879
N      2.512678      2.055619      1.878475
C      1.954181      0.955808      1.343014
N      2.793451     -0.097005      0.884000
C      4.183467     -0.056319      0.625409
C      4.920120     -1.250744      0.678095
C      6.282145     -1.274176      0.365805
C      6.924695     -0.103755     -0.030799
C      6.201809      1.084958     -0.126221
C      6.853220      2.284654     -0.555995
C      7.398839      3.291776     -0.916598
C      4.838140      1.102425      0.187930
C      0.555579      0.799803      1.247801
C     -0.104453     -0.315978      0.667778
C     -1.496725     -0.383531      0.621768
O     -2.214605     -1.418826      0.086665
C     -1.501890     -2.464242     -0.579401
C     -2.517708     -3.442722     -1.170115
O     -3.111071     -2.865283     -2.338213
C     -4.124686     -3.701811     -2.879445
H     -4.758278     -0.553705     -0.900091
H     -3.550634      0.034996     -2.099002
H     -5.199225     -0.383559     -2.602563
H     -4.521602      3.175872     -0.812312
H     -3.165243      2.073091     -1.057923
H     -5.408252      1.491568      0.959314
H     -4.105014      2.567969      1.425046
H     -2.151803      2.577751      2.184593
H      2.132178      3.877393      2.774378
H      2.535280     -0.948558      1.371720
H      4.439868     -2.181102      0.970027
H      6.838917     -2.205515      0.426393
H      7.983918     -0.125466     -0.274623
H      7.880118      4.186498     -1.235833
H      4.285802      2.032576      0.082118
H      0.497939     -1.112750      0.244732
H     -0.880016     -2.996333      0.149173
H     -0.886010     -2.044723     -1.383454
H     -3.301303     -3.665096     -0.436809
H     -2.009254     -4.368669     -1.459962
H     -4.529463     -3.217984     -3.772345
H     -3.708593     -4.672681     -3.164946
H     -4.935750     -3.835873     -2.157298
