      -----------------------------------------------------------      
     |                   =====================                   |     
     |                           x T B                           |     
     |                   =====================                   |     
     |                         S. Grimme                         |     
     |          Mulliken Center for Theoretical Chemistry        |     
     |                    University of Bonn                     |     
      -----------------------------------------------------------      

   * xtb version 6.7.1pre (5071a88) compiled by 'Marcel@Raven' on 2024-07-23

   xtb is free software: you can redistribute it and/or modify it under
   the terms of the GNU Lesser General Public License as published by
   the Free Software Foundation, either version 3 of the License, or
   (at your option) any later version.
   
   xtb is distributed in the hope that it will be useful,
   but WITHOUT ANY WARRANTY; without even the implied warranty of
   MERCHANTABILITY or FITNESS FOR A PARTICULAR PURPOSE.  See the
   GNU Lesser General Public License for more details.
   
   Cite this work as:
   * C. Bannwarth, E. Caldeweyher, S. Ehlert, A. Hansen, P. Pracht,
     J. Seibert, S. Spicher, S. Grimme, WIREs Comput. Mol. Sci., 2020, 11,
     e01493. DOI: 10.1002/wcms.1493
   
   for GFN2-xTB:
   * C. Bannwarth, S. Ehlert and S. Grimme., J. Chem. Theory Comput., 2019,
     15, 1652-1671. DOI: 10.1021/acs.jctc.8b01176
   for GFN1-xTB:
   * S. Grimme, C. Bannwarth, P. Shushkov, J. Chem. Theory Comput., 2017,
     13, 1989-2009. DOI: 10.1021/acs.jctc.7b00118
   for GFN0-xTB:
   * P. Pracht, E. Caldeweyher, S. Ehlert, S. Grimme, ChemRxiv, 2019, preprint.
     DOI: 10.26434/chemrxiv.8326202.v1
   for GFN-FF:
   * S. Spicher and S. Grimme, Angew. Chem. Int. Ed., 2020, 59, 15665-15673.
     DOI: 10.1002/anie.202004239
   
   for ALPB and GBSA implicit solvation:
   * S. Ehlert, M. Stahn, S. Spicher, S. Grimme, J. Chem. Theory Comput.,
     2021, 17, 4250-4261. DOI: 10.1021/acs.jctc.1c00471
   
   for ddCOSMO and CPCM-X implicit solvation:
   * M. Stahn, S. Ehlert, S. Grimme, J. Phys. Chem. A,
     2023, XX, XXXX-XXXX. DOI: 10.1021/acs.jpca.3c04382
   
   for DFT-D4:
   * E. Caldeweyher, C. Bannwarth and S. Grimme, J. Chem. Phys., 2017,
     147, 034112. DOI: 10.1063/1.4993215
   * E. Caldeweyher, S. Ehlert, A. Hansen, H. Neugebauer, S. Spicher,
     C. Bannwarth and S. Grimme, J. Chem. Phys., 2019, 150, 154122.
     DOI: 10.1063/1.5090222
   * E. Caldeweyher, J.-M. Mewes, S. Ehlert and S. Grimme, Phys. Chem. Chem. Phys.
     2020, 22, 8499-8512. DOI: 10.1039/D0CP00502A
   
   for sTDA-xTB:
   * S. Grimme and C. Bannwarth, J. Chem. Phys., 2016, 145, 054103.
     DOI: 10.1063/1.4959605
   
   in the mass-spec context:
   * V. Asgeirsson, C. Bauer and S. Grimme, Chem. Sci., 2017, 8, 4879.
     DOI: 10.1039/c7sc00601b
   * J. Koopman and S. Grimme, ACS Omega 2019, 4, 12, 15120-15133.
     DOI: 10.1021/acsomega.9b02011
   
   for metadynamics refer to:
   * S. Grimme, J. Chem. Theory Comput., 2019, 155, 2847-2862
     DOI: 10.1021/acs.jctc.9b00143
   
   for SPH calculations refer to:
   * S. Spicher and S. Grimme, J. Chem. Theory Comput., 2021, 17, 1701-1714
     DOI: 10.1021/acs.jctc.0c01306
   
   for ONIOM refer to:
   * C. Plett, A. Katbashev, S. Ehlert, S. Grimme, M. Bursch,
     Phys. Chem. Chem. Phys., 2023, 25, 17860-17868. DOI: 10.1039/D3CP02178E
   
   for DIPRO refer to:
   * J. Kohn, N. Gildemeister, S. Grimme, D. Fazzi, A. Hansen,
     J. Chem. Phys., 2023, just accepted.
   
   for PTB refer to:
   * S. Grimme, M. Mueller, A. Hansen, J. Chem. Phys., 2023, 158, 124111.
     DOI: 10.1063/5.0137838
   
   with help from (in alphabetical order)
   P. Atkinson, C. Bannwarth, F. Bohle, G. Brandenburg, E. Caldeweyher
   M. Checinski, S. Dohm, S. Ehlert, S. Ehrlich, I. Gerasimov, C. Hölzer
   A. Katbashev, J. Kohn, J. Koopman, C. Lavigne, S. Lehtola, F. März, M. Müller,
   F. Musil, H. Neugebauer, J. Pisarek, C. Plett, P. Pracht, F. Pultar,
   J. Seibert, P. Shushkov, S. Spicher, M. Stahn, M. Steiner, T. Strunk,
   J. Stückrath, T. Rose, and J. Unsleber
   
 * started run on 2026/08/31 at 20:31:51.204     
   ID    Z sym.   atoms
    1    6 C      1, 3, 4, 6-8, 10, 12, 14-24, 26, 27, 29, 65-71
    2    8 O      2, 5, 25, 28, 72-85
    3    7 N      9, 11, 13
    4    1 H      30-52
    5   22 Ti     53-64

           -------------------------------------------------
          |                Calculation Setup                |
           -------------------------------------------------

          program call               : "c:\Users\Andre\Proyectos doctorado\kras-pancreatic-gC3N4-ai\tools\xtb\xtb-6.7.1\bin\xtb.exe" "c:\Users\Andre\Proyectos doctorado\mxene-glioblastoma-qsar-ai\calculations\gbm\Erlotinib\Erlotinib_Ti3C2O2_complex.xyz" --gfn 2 --sp --chrg 0 --uhf 0 --iterations 500 --norestart
          coordinate file            : c:\Users\Andre\Proyectos doctorado\mxene-glioblastoma-qsar-ai\calculations\gbm\Erlotinib\Erlotinib_Ti3C2O2_complex.xyz
          omp threads                :                    16


molecular fragmentation (1/2 indicates fragments):
111111111111111111111111111111111111111111111111111111111111111122122111
2222222222222
# atoms in fragment 1/2:    68    17
 fragment masses (1/2) :     1019.87      256.04
CMA distance (Bohr)    :   4.513
constraining FC (au)   :  0.0500

           -------------------------------------------------
          |                 G F N 2 - x T B                 |
           -------------------------------------------------

        Reference                      10.1021/acs.jctc.8b01176
      * Hamiltonian:
        H0-scaling (s, p, d)           1.850000    2.230000    2.230000
        zeta-weighting                 0.500000
      * Dispersion:
        s8                             2.700000
        a1                             0.520000
        a2                             5.000000
        s9                             5.000000
      * Repulsion:
        kExp                           1.500000    1.000000
        rExp                           1.000000
      * Coulomb:
        alpha                          2.000000
        third order                    shell-resolved
        anisotropic                    true
        a3                             3.000000
        a5                             4.000000
        cn-shift                       1.200000
        cn-exp                         4.000000
        max-rad                        5.000000


          ...................................................
          :                      SETUP                      :
          :.................................................:
          :  # basis functions                 343          :
          :  # atomic orbitals                 331          :
          :  # shells                          159          :
          :  # electrons                       310          :
          :  max. iterations                   500          :
          :  Hamiltonian                  GFN2-xTB          :
          :  restarted?                      false          :
          :  GBSA solvation                  false          :
          :  PC potential                    false          :
          :  electronic temp.          300.0000000     K    :
          :  accuracy                    1.0000000          :
          :  -> integral cutoff          0.2500000E+02      :
          :  -> integral neglect         0.1000000E-07      :
          :  -> SCF convergence          0.1000000E-05 Eh   :
          :  -> wf. convergence          0.1000000E-03 e    :
          :  Broyden damping             0.4000000          :
          :  net charge                          0          :
          :  unpaired electrons                  0          :
          ...................................................

 iter      E             dE          RMSdq      gap      omega  full diag
   1   -172.8348879 -0.172835E+03  0.135E+01    0.04       0.0  T
   2   -126.5861566  0.462487E+02  0.174E+01    0.08       1.0  T
   3    -55.2644318  0.713217E+02  0.245E+01    0.12       1.0  T
   4   -166.9109835 -0.111647E+03  0.120E+01    0.31       1.0  T
   5   -160.0476882  0.686330E+01  0.131E+01    0.03       1.0  T
   6   -175.2414281 -0.151937E+02  0.988E+00    0.13       1.0  T
   7   -174.6262859  0.615142E+00  0.885E+00    0.09       1.0  T
   8   -172.9476308  0.167866E+01  0.960E+00    0.08       1.0  T
   9   -177.9952136 -0.504758E+01  0.722E+00    0.45       1.0  T
  10   -179.3161975 -0.132098E+01  0.592E+00    0.20       1.0  T
  11   -176.6061987  0.271000E+01  0.614E+00    0.04       1.0  T
  12   -181.8854715 -0.527927E+01  0.413E+00    0.15       1.0  T
  13   -182.2078055 -0.322334E+00  0.335E+00    0.04       1.0  T
  14   -182.5702676 -0.362462E+00  0.287E+00    0.14       1.0  T
  15   -181.9433079  0.626960E+00  0.304E+00    0.11       1.0  T
  16   -182.7842838 -0.840976E+00  0.222E+00    0.20       1.0  T
  17   -182.8877945 -0.103511E+00  0.155E+00    0.13       1.0  T
  18   -182.9364843 -0.486898E-01  0.119E+00    0.12       1.0  T
  19   -183.0216408 -0.851564E-01  0.940E-01    0.16       1.0  T
  20   -182.9969291  0.247117E-01  0.792E-01    0.09       1.0  T
  21   -183.0377540 -0.408250E-01  0.598E-01    0.12       1.0  T
  22   -183.0274732  0.102808E-01  0.635E-01    0.12       1.0  T
  23   -183.0318606 -0.438739E-02  0.573E-01    0.08       1.0  T
  24   -183.0029729  0.288877E-01  0.827E-01    0.02       1.0  T
  25   -183.0166823 -0.137095E-01  0.745E-01    0.03       1.0  T
  26   -183.0588087 -0.421264E-01  0.338E-01    0.08       1.0  T
  27   -183.0016688  0.571400E-01  0.789E-01    0.02       1.0  T
  28   -183.0395663 -0.378976E-01  0.505E-01    0.04       1.0  T
  29   -183.0235492  0.160171E-01  0.594E-01    0.03       1.0  T
  30   -183.0612342 -0.376850E-01  0.209E-01    0.07       1.0  T
  31   -183.0632847 -0.205055E-02  0.158E-01    0.10       1.0  T
  32   -183.0602695  0.301523E-02  0.235E-01    0.11       1.0  T
  33   -183.0636822 -0.341267E-02  0.147E-01    0.10       1.0  T
  34   -183.0643275 -0.645349E-03  0.122E-01    0.10       1.0  T
  35   -183.0643157  0.117616E-04  0.118E-01    0.11       1.0  T
  36   -183.0652289 -0.913141E-03  0.651E-02    0.10       1.0  T
  37   -183.0654765 -0.247619E-03  0.290E-02    0.09       1.0  T
  38   -183.0655345 -0.580056E-04  0.155E-02    0.09       1.0  T
  39   -183.0654955  0.390166E-04  0.253E-02    0.09       1.0  T
  40   -183.0655186 -0.231484E-04  0.186E-02    0.09       1.0  T
  41   -183.0655445 -0.258754E-04  0.927E-03    0.09       1.2  T
  42   -183.0655454 -0.887213E-06  0.776E-03    0.09       1.4  T
  43   -183.0655489 -0.350709E-05  0.474E-03    0.09       2.3  T
  44   -183.0655497 -0.844639E-06  0.351E-03    0.09       3.1  T
  45   -183.0655491  0.658677E-06  0.502E-03    0.09       2.2  T
  46   -183.0655503 -0.119215E-05  0.375E-03    0.09       2.9  T
  47   -183.0655511 -0.823911E-06  0.189E-03    0.09       5.7  T
  48   -183.0655513 -0.186739E-06  0.118E-03    0.09       9.2  T
  49   -183.0655513 -0.176923E-07  0.887E-04    0.09      12.2  T
  50   -183.0655514 -0.575126E-07  0.600E-04    0.09      18.1  T

   *** convergence criteria satisfied after 50 iterations ***

         #    Occupation            Energy/Eh            Energy/eV
      -------------------------------------------------------------
         1        2.0000           -3.5975431             -97.8941
       ...           ...                  ...                  ...
       149        2.0000           -0.4125805             -11.2269
       150        1.9999           -0.4095254             -11.1438
       151        1.9994           -0.4074756             -11.0880
       152        1.9929           -0.4050624             -11.0223
       153        1.9488           -0.4031698             -10.9708
       154        1.9268           -0.4028208             -10.9613
       155        1.7717           -0.4016600             -10.9297 (HOMO)
       156        0.3602           -0.3982733             -10.8376 (LUMO)
       157        0.0002           -0.3911307             -10.6432
       158        0.0001           -0.3896766             -10.6036
       159                         -0.3790176             -10.3136
       160                         -0.3739258             -10.1750
       ...                                ...                  ...
       331                         18.8739555             513.5865
      -------------------------------------------------------------
                  HL-Gap            0.0033866 Eh            0.0922 eV
             Fermi-level           -0.3997133 Eh          -10.8768 eV

 SCC (total)                   0 d,  0 h,  0 min,  1.513 sec
 SCC setup                      ...        0 min,  0.003 sec (  0.198%)
 Dispersion                     ...        0 min,  0.002 sec (  0.132%)
 classical contributions        ...        0 min,  0.000 sec (  0.000%)
 integral evaluation            ...        0 min,  0.012 sec (  0.793%)
 iterations                     ...        0 min,  1.434 sec ( 94.779%)
 molecular gradient             ...        0 min,  0.059 sec (  3.900%)
 printout                       ...        0 min,  0.003 sec (  0.198%)

         :::::::::::::::::::::::::::::::::::::::::::::::::::::
         ::                     SUMMARY                     ::
         :::::::::::::::::::::::::::::::::::::::::::::::::::::
         :: total energy            -176.561321488896 Eh    ::
         :: gradient norm              6.084075161548 Eh/a0 ::
         :: HOMO-LUMO gap              0.092155022299 eV    ::
         ::.................................................::
         :: SCC energy              -183.059060083737 Eh    ::
         :: -> isotropic ES           -7.751799595098 Eh    ::
         :: -> anisotropic ES         -0.052373378304 Eh    ::
         :: -> anisotropic XC         -0.122224955125 Eh    ::
         :: -> dispersion             -0.151333149886 Eh    ::
         :: repulsion energy           6.497738594841 Eh    ::
         :: add. restraining           0.000000000000 Eh    ::
         :: total charge               0.000000000013 e     ::
         :::::::::::::::::::::::::::::::::::::::::::::::::::::

           -------------------------------------------------
          |                Property Printout                |
           -------------------------------------------------

    * Orbital Energies and Occupations

         #    Occupation            Energy/Eh            Energy/eV
      -------------------------------------------------------------
         1        2.0000           -3.5975431             -97.8941
       ...           ...                  ...                  ...
       143        2.0000           -0.4257639             -11.5856
       144        2.0000           -0.4245941             -11.5538
       145        2.0000           -0.4234361             -11.5223
       146        2.0000           -0.4186413             -11.3918
       147        2.0000           -0.4180894             -11.3768
       148        2.0000           -0.4135683             -11.2538
       149        2.0000           -0.4125805             -11.2269
       150        1.9999           -0.4095254             -11.1438
       151        1.9994           -0.4074756             -11.0880
       152        1.9929           -0.4050624             -11.0223
       153        1.9488           -0.4031698             -10.9708
       154        1.9268           -0.4028208             -10.9613
       155        1.7717           -0.4016600             -10.9297 (HOMO)
       156        0.3602           -0.3982733             -10.8376 (LUMO)
       157        0.0002           -0.3911307             -10.6432
       158        0.0001           -0.3896766             -10.6036
       159                         -0.3790176             -10.3136
       160                         -0.3739258             -10.1750
       161                         -0.3717569             -10.1160
       162                         -0.3714306             -10.1071
       163                         -0.3702859             -10.0760
       164                         -0.3671237              -9.9899
       165                         -0.3645533              -9.9200
       166                         -0.3615514              -9.8383
       ...                                ...                  ...
       331                         18.8739555             513.5865
      -------------------------------------------------------------
                  HL-Gap            0.0033866 Eh            0.0922 eV
             Fermi-level           -0.3997133 Eh          -10.8768 eV

     #   Z          covCN         q      C6AA      α(0)
     1   6 C        3.642     0.059    19.928     6.419
     2   8 O        1.696    -0.282    18.685     5.836
     3   6 C        3.690     0.054    19.851     6.376
     4   6 C        3.688     0.058    19.787     6.367
     5   8 O        1.701    -0.265    18.389     5.790
     6   6 C        2.858     0.143    24.890     8.177
     7   6 C        2.929    -0.069    29.722     8.941
     8   6 C        2.985     0.110    25.573     8.295
     9   7 N        1.844    -0.218    26.596     7.643
    10   6 C        2.882     0.142    24.899     8.180
    11   7 N        1.831    -0.228    26.826     7.675
    12   6 C        2.891     0.169    24.367     8.093
    13   7 N        2.689    -0.147    24.172     7.302
    14   6 C        2.890     0.083    26.144     8.383
    15   6 C        2.918    -0.047    29.179     8.858
    16   6 C        2.909    -0.029    28.721     8.788
    17   6 C        2.920    -0.029    28.734     8.790
    18   6 C        2.965     0.049    26.900     8.507
    19   6 C        1.977    -0.015    31.469     9.059
    20   6 C        1.908    -0.087    33.502     9.348
    21   6 C        2.924    -0.035    28.880     8.813
    22   6 C        2.979    -0.015    28.371     8.737
    23   6 C        2.914    -0.073    29.815     8.954
    24   6 C        2.851     0.132    25.109     8.213
    25   8 O        1.703    -0.255    18.222     5.763
    26   6 C        3.687     0.044    20.017     6.405
    27   6 C        3.752    -0.033    21.221     6.569
    28   8 O        3.397     0.248    11.625     4.605
    29   6 C        5.272     0.142    18.213     6.061
    30   1 H        0.924     0.018     2.761     2.599
    31   1 H        0.924     0.086     1.917     2.165
    32   1 H        0.924     0.099     1.793     2.094
    33   1 H        0.924     0.077     2.011     2.217
    34   1 H        0.924     0.078     1.998     2.210
    35   1 H        0.924     0.081     1.969     2.194
    36   1 H        0.924     0.049     2.333     2.389
    37   1 H        0.925     0.087     1.910     2.161
    38   1 H        0.925     0.072     2.068     2.249
    39   1 H        0.860     0.184     1.190     1.709
    40   1 H        0.925     0.035     2.510     2.478
    41   1 H        0.925     0.044     2.394     2.420
    42   1 H        0.925     0.047     2.358     2.401
    43   1 H        0.927     0.090     1.882     2.145
    44   1 H        0.925     0.072     2.062     2.246
    45   1 H        0.925     0.065     2.142     2.289
    46   1 H        0.924     0.124     1.583     1.968
    47   1 H        0.924     0.161     1.320     1.797
    48   1 H        0.924     0.170     1.265     1.759
    49   1 H        0.924     0.193     1.137     1.667
    50   1 H        1.774     0.561     0.268     0.808
    51   1 H        0.943     0.237     0.928     1.506
    52   1 H        0.924     0.126     1.562     1.955
    53  22 Ti       6.573    -6.411   277.004    27.022
    54  22 Ti       6.350     0.853    90.965    15.485
    55  22 Ti       4.151     0.763    91.706    16.233
    56  22 Ti       7.449     0.784    91.695    15.547
    57  22 Ti       7.449     0.909    90.379    15.435
    58  22 Ti       6.519     0.986    89.584    15.367
    59  22 Ti       4.151     1.615    83.278    15.469
    60  22 Ti       6.350     0.764    91.912    15.565
    61  22 Ti       4.151     0.818    91.112    16.180
    62  22 Ti       7.449     0.731    92.264    15.595
    63  22 Ti       7.449     0.953    89.916    15.395
    64  22 Ti       6.519     1.009    89.346    15.346
    65   6 C        5.128     0.066    19.391     6.254
    66   6 C        5.128    -0.630    36.038     8.526
    67   6 C        5.649    -0.483    31.385     7.956
    68   6 C        2.445     0.036    27.568     8.567
    69   6 C        2.445    -0.374    39.420    10.244
    70   6 C        2.445    -0.260    35.586     9.733
    71   6 C        2.445    -0.287    36.442     9.850
    72   8 O        2.553     2.594     1.964     1.893
    73   8 O        0.729    -0.493    23.687     6.522
    74   8 O        0.728    -0.510    24.076     6.575
    75   8 O        0.729    -0.441    22.569     6.366
    76   8 O        0.729    -0.565    25.340     6.746
    77   8 O        0.753    -0.530    24.516     6.636
    78   8 O        0.753    -0.544    24.848     6.680
    79   8 O        0.728    -0.513    24.131     6.583
    80   8 O        0.729    -0.515    24.177     6.589
    81   8 O        0.728    -0.520    24.295     6.605
    82   8 O        0.729    -0.514    24.159     6.587
    83   8 O        0.729    -0.610    26.432     6.889
    84   8 O        0.753    -0.509    24.037     6.571
    85   8 O        0.753    -0.535    24.627     6.651

 Mol. C6AA /au·bohr⁶  :     158437.776792
 Mol. C8AA /au·bohr⁸  :    7116640.314625
 Mol. α(0) /au        :        616.031400


Wiberg/Mayer (AO) data.
largest (>0.10) Wiberg bond orders for each atom

 ---------------------------------------------------------------------------
     #   Z sym  total        # sym  WBO       # sym  WBO       # sym  WBO
 ---------------------------------------------------------------------------
     1   6 C    3.954 --     2 O    1.002    30 H    0.977    32 H    0.956
                            31 H    0.872
     2   8 O    2.085 --     1 C    1.002     3 C    0.991
     3   6 C    3.944 --     2 O    0.991     4 C    0.987    33 H    0.963
                            34 H    0.942
     4   6 C    3.927 --     3 C    0.987    35 H    0.965    36 H    0.965
                             5 O    0.946
     5   8 O    2.202 --     6 C    1.071     4 C    0.946
     6   6 C    3.946 --     7 C    1.448    24 C    1.235     5 O    1.071
     7   6 C    3.973 --     6 C    1.448     8 C    1.290    37 H    0.955
                            23 C    0.109
     8   6 C    3.976 --     9 N    1.292     7 C    1.290    22 C    1.223
     9   7 N    3.007 --    10 C    1.475     8 C    1.292
    10   6 C    3.947 --     9 N    1.475    11 N    1.371    38 H    0.955
    11   7 N    3.014 --    12 C    1.396    10 C    1.371
    12   6 C    3.958 --    11 N    1.396    22 C    1.232    13 N    1.119
    13   7 N    3.364 --    12 C    1.119    14 C    1.091    39 H    0.923
    14   6 C    3.927 --    21 C    1.364    15 C    1.337    13 N    1.091
    15   6 C    3.917 --    16 C    1.450    14 C    1.337    40 H    0.966
    16   6 C    3.982 --    15 C    1.450    17 C    1.432    41 H    0.969
                            21 C    0.100
    17   6 C    3.932 --    16 C    1.432    18 C    1.353    42 H    0.969
    18   6 C    3.980 --    21 C    1.386    17 C    1.353    19 C    1.099
    19   6 C    3.974 --    20 C    2.834    18 C    1.099
    20   6 C    3.935 --    19 C    2.834    43 H    0.968
    21   6 C    3.960 --    18 C    1.386    14 C    1.364    44 H    0.961
                            16 C    0.100
    22   6 C    3.955 --    23 C    1.280    12 C    1.232     8 C    1.223
    23   6 C    3.979 --    24 C    1.471    22 C    1.280    45 H    0.954
                             7 C    0.109
    24   6 C    3.909 --    23 C    1.471     6 C    1.235    25 O    1.012
    25   8 O    2.191 --    24 C    1.012    26 C    0.991
    26   6 C    3.924 --    27 C    0.992    25 O    0.991    46 H    0.935
                            47 H    0.875
    27   6 C    3.659 --    26 C    0.992    48 H    0.947    49 H    0.910
                            28 O    0.559    72 O    0.133
    28   8 O    3.073 --    72 O    2.169    27 C    0.559    29 C    0.338
    29   6 C    3.161 --    52 H    0.911    51 H    0.904    50 H    0.601
                            28 O    0.338    72 O    0.153
    30   1 H    0.997 --     1 C    0.977
    31   1 H    0.991 --     1 C    0.872    56 Ti   0.107
    32   1 H    0.990 --     1 C    0.956
    33   1 H    0.993 --     3 C    0.963
    34   1 H    0.992 --     3 C    0.942
    35   1 H    0.992 --     4 C    0.965
    36   1 H    0.997 --     4 C    0.965
    37   1 H    0.990 --     7 C    0.955
    38   1 H    0.994 --    10 C    0.955
    39   1 H    0.965 --    13 N    0.923
    40   1 H    0.997 --    15 C    0.966
    41   1 H    0.996 --    16 C    0.969
    42   1 H    0.997 --    17 C    0.969
    43   1 H    0.991 --    20 C    0.968
    44   1 H    0.993 --    21 C    0.961
    45   1 H    0.994 --    23 C    0.954
    46   1 H    0.981 --    26 C    0.935
    47   1 H    0.975 --    26 C    0.875
    48   1 H    0.970 --    27 C    0.947
    49   1 H    0.960 --    27 C    0.910
    50   1 H    0.683 --    29 C    0.601
    51   1 H    0.944 --    29 C    0.904
    52   1 H    0.970 --    29 C    0.911
    53  22 Ti  -0.747
    54  22 Ti   4.342 --    73 O    2.040    65 C    0.349    60 Ti   0.326
                            56 Ti   0.249    55 Ti   0.231    66 C    0.181
                            72 O    0.161    68 C    0.126    69 C    0.102
                            59 Ti   0.101
    55  22 Ti   4.108 --    74 O    2.072    61 Ti   0.649    66 C    0.365
                            54 Ti   0.231    57 Ti   0.220    69 C    0.188
                            60 Ti   0.122
    56  22 Ti   4.726 --    75 O    2.067    68 C    0.753    65 C    0.451
                            54 Ti   0.249    77 O    0.215    72 O    0.161
                            62 Ti   0.139    31 H    0.107
    57  22 Ti   4.643 --    76 O    1.876    69 C    0.637    66 C    0.488
                            78 O    0.250    55 Ti   0.220    58 Ti   0.175
                            63 Ti   0.173    67 C    0.172
    58  22 Ti   4.599 --    77 O    1.226    78 O    1.166    67 C    0.507
                            70 C    0.450    71 C    0.381    64 Ti   0.277
                            57 Ti   0.175
    59  22 Ti   3.496 --    79 O    1.978    65 C    0.414    60 Ti   0.253
                            68 C    0.223    62 Ti   0.195    54 Ti   0.101
                            72 O    0.100
    60  22 Ti   4.644 --    80 O    1.950    65 C    0.364    66 C    0.356
                            61 Ti   0.345    54 Ti   0.326    59 Ti   0.253
                            62 Ti   0.165    63 Ti   0.163    55 Ti   0.122
                            69 C    0.111
    61  22 Ti   4.102 --    81 O    2.032    55 Ti   0.649    60 Ti   0.345
                            66 C    0.336    69 C    0.216    63 Ti   0.202
    62  22 Ti   4.892 --    82 O    1.903    68 C    0.664    65 C    0.484
                            84 O    0.253    67 C    0.247    64 Ti   0.216
                            59 Ti   0.195    60 Ti   0.165    56 Ti   0.139
                            70 C    0.131    63 Ti   0.116
    63  22 Ti   4.600 --    83 O    1.757    69 C    0.695    66 C    0.460
                            85 O    0.241    61 Ti   0.202    67 C    0.183
                            57 Ti   0.173    60 Ti   0.163    64 Ti   0.163
                            62 Ti   0.116    71 C    0.115
    64  22 Ti   4.587 --    85 O    1.114    84 O    1.110    67 C    0.501
                            70 C    0.481    71 C    0.463    58 Ti   0.277
                            62 Ti   0.216    63 Ti   0.163
    65   6 C    3.726 --    68 C    0.942    62 Ti   0.484    56 Ti   0.451
                            59 Ti   0.414    60 Ti   0.364    54 Ti   0.349
    66   6 C    3.596 --    69 C    0.823    57 Ti   0.488    63 Ti   0.460
                            55 Ti   0.365    60 Ti   0.356    61 Ti   0.336
                            54 Ti   0.181
    67   6 C    3.825 --    71 C    0.816    70 C    0.808    58 Ti   0.507
                            64 Ti   0.501    62 Ti   0.247    63 Ti   0.183
                            57 Ti   0.172
    68   6 C    3.353 --    65 C    0.942    56 Ti   0.753    62 Ti   0.664
                            59 Ti   0.223    70 C    0.168    54 Ti   0.126
    69   6 C    3.484 --    66 C    0.823    63 Ti   0.695    57 Ti   0.637
                            71 C    0.269    61 Ti   0.216    55 Ti   0.188
                            60 Ti   0.111    70 C    0.107    54 Ti   0.102
    70   6 C    3.337 --    67 C    0.808    64 Ti   0.481    58 Ti   0.450
                            84 O    0.415    77 O    0.344    71 C    0.170
                            68 C    0.168    62 Ti   0.131    69 C    0.107
    71   6 C    3.352 --    67 C    0.816    64 Ti   0.463    85 O    0.408
                            58 Ti   0.381    78 O    0.356    69 C    0.269
                            70 C    0.170    63 Ti   0.115
    72   8 O    3.002 --    28 O    2.169    54 Ti   0.161    56 Ti   0.161
                            29 C    0.153    27 C    0.133    59 Ti   0.100
    73   8 O    2.337 --    54 Ti   2.040
    74   8 O    2.303 --    55 Ti   2.072
    75   8 O    2.376 --    56 Ti   2.067
    76   8 O    2.236 --    57 Ti   1.876
    77   8 O    2.206 --    58 Ti   1.226    70 C    0.344    56 Ti   0.215
                            84 O    0.125
    78   8 O    2.205 --    58 Ti   1.166    71 C    0.356    57 Ti   0.250
                            85 O    0.130
    79   8 O    2.268 --    59 Ti   1.978
    80   8 O    2.298 --    60 Ti   1.950
    81   8 O    2.292 --    61 Ti   2.032
    82   8 O    2.281 --    62 Ti   1.903
    83   8 O    2.182 --    63 Ti   1.757
    84   8 O    2.211 --    64 Ti   1.110    70 C    0.415    62 Ti   0.253
                            77 O    0.125
    85   8 O    2.204 --    64 Ti   1.114    71 C    0.408    63 Ti   0.241
                            78 O    0.130
 ---------------------------------------------------------------------------

Topologies differ in total number of bonds
Writing topology from bond orders to xtbtopo.mol

molecular dipole:
                 x           y           z       tot (Debye)
 q only:        2.992      -7.053      11.753
   full:        4.658      -4.550       9.967      30.262
molecular quadrupole (traceless):
                xx          xy          yy          xz          yz          zz
 q only:      -23.557     -14.561      -4.070     -39.162     -60.561      27.628
  q+dip:      -29.982     -18.966      22.502     -51.230     -74.527       7.480
   full:      -32.961     -16.309      26.920     -49.299     -75.461       6.042


           -------------------------------------------------
          | TOTAL ENERGY             -176.561321488896 Eh   |
          | GRADIENT NORM               6.084075161548 Eh/α |
          | HOMO-LUMO GAP               0.092155022299 eV   |
           -------------------------------------------------

------------------------------------------------------------------------
 * finished run on 2026/08/31 at 20:31:52.777     
------------------------------------------------------------------------
 total:
 * wall-time:     0 d,  0 h,  0 min,  1.571 sec
 *  cpu-time:     0 d,  0 h,  0 min, 12.188 sec
 * ratio c/w:     7.758 speedup
 SCF:
 * wall-time:     0 d,  0 h,  0 min,  1.514 sec
 *  cpu-time:     0 d,  0 h,  0 min, 11.844 sec
 * ratio c/w:     7.823 speedup

normal termination of xtb
