85
 energy: -175.958941845172 gnorm: 0.002452906737 xtb: 6.7.1pre (5071a88)
C            5.40842246221636       -3.26294655976414        6.61967979563692
O            4.63878275566110       -2.12892185363492        6.26888294607263
C            4.93835075980818       -0.98805587645031        7.06031571348757
C            4.15462415656327        0.20111613034797        6.48517576371360
O            3.18301517267322        0.78084819463777        7.34033124002980
C            1.97589089057234        0.16006561075328        7.53641588066848
C            1.78982970293482       -1.19836250755496        7.34746836297021
C            0.54116640763227       -1.80843922301938        7.55577877969481
N            0.42640237040761       -3.14893766969597        7.36876059166757
C           -0.76521664473307       -3.65580309084252        7.53283081679198
N           -1.90366858886049       -3.00202784202022        7.79311773597166
C           -1.83118070619462       -1.68961112896354        7.97322330068131
N           -2.96506236808775       -0.94975707110155        8.11819986664583
C           -4.30637177615666       -1.33682963304437        8.08570054491658
C           -4.76654150508515       -2.50323813883884        7.47573445179887
C           -6.11860030341599       -2.80668738575197        7.50894281353703
C           -7.02393086119605       -1.97970735890153        8.14692199444477
C           -6.57145185476286       -0.80385172531970        8.74728933286821
C           -7.47786432319001        0.05089666969240        9.42126255674189
C           -8.24316985109457        0.76036391316923       10.01450306521877
C           -5.21937461285535       -0.48172814687825        8.70184221996546
C           -0.56058106172292       -1.01620867255881        7.97659820571377
C           -0.34416921624979        0.34396903524284        8.23322117989808
C            0.88905374361583        0.94809607913555        8.01821582982020
O            0.90050712919274        2.26303033559337        8.34530808568770
C            1.92576406119001        3.16461275609196        7.95098695795286
C            1.37751909387404        4.58160539096060        8.18681256806204
O            1.40489669186508        5.00570941462550        9.52544551680708
C            2.67173285599884        5.42029041013502        9.97847754127740
H            5.21866781750596       -3.55979249649921        7.65746049469470
H            6.47768672998872       -3.06228002402214        6.48996687594600
H            5.08558006608090       -4.05132937388724        5.93085375468888
H            6.01731800124648       -0.78846673757288        7.01232807550367
H            4.66309341787008       -1.16215609447836        8.11139450664082
H            3.69545986832886       -0.14426361556815        5.54164709812791
H            4.82081853284948        1.03711481215977        6.26250205600777
H            2.58540412550898       -1.84601623687343        7.00361658146757
H           -0.85660524070107       -4.73600560212321        7.45093906556533
H           -2.82531857600948        0.03853483126283        8.31537890844975
H           -4.06596753870279       -3.16675182375012        6.96651204722674
H           -6.46506437731596       -3.71110776752139        7.03131221040484
H           -8.07307493853234       -2.22875717626628        8.18457729825779
H           -8.91341815457744        1.38422772661335       10.52667845391518
H           -4.87868178983804        0.43620578219694        9.16118604231438
H           -1.11617964198003        1.00276380894255        8.61404986311392
H            2.14192809869420        3.05880574024347        6.86788510608211
H            2.83181523404192        2.98338084713475        8.53925948057449
H            1.93705685500618        5.28517538473356        7.55273352607506
H            0.32393273097497        4.58196080891165        7.88862679129763
H            2.52779071416100        5.78401504963711       10.99363403042383
H            3.39794797405621        4.60079383253700        9.99149745107550
H            3.06612446355520        6.22982195703119        9.35257814204660
Ti          -2.26327884337370       -2.96000827456046        4.40097471738863
Ti           0.01183606164586       -1.11963297484171        4.32774916762904
Ti           2.59994424487234       -2.53686408461580        3.61886995125177
Ti          -2.65908726583837       -0.65229552658822        2.74619216906437
Ti           0.95378202209293        1.70319776066342        4.78636533848582
Ti          -2.07708746541412        1.05002226594917        5.16293659881460
Ti          -0.56589061807458       -3.73348911186250        1.74388356812292
Ti           0.64483510224886       -1.42709206140397        0.65394660533113
Ti           3.66481028362329       -1.68494802929672        0.89208813655462
Ti          -1.39282753462588        0.62204309448171       -0.02358969033289
Ti           2.39270501744299        0.99394179784107        2.25667949777753
Ti           1.58572042002270        1.17308203966323       -0.63464416618759
C           -3.63099272142857        0.18853803019689        1.15268414081571
C            3.50994745019748        1.88976426194369        3.73294475514841
C           -0.13511535040883        2.27145677967301        1.96309480135001
C           -3.43770354058508        0.64248235211179        0.01420291285446
C            2.89640788436708        2.40005935296822        4.68680169370907
C           -0.99461161706748        2.22648605902393        1.01875095672859
C            0.84143668147686        2.32449851177374        2.85920292553815
O           -2.84672759451850       -2.45609287294496        2.82132709037014
O           -1.20984864527600       -1.80007119509289        5.31870579891539
O            0.80782074066559       -2.58124312815542        3.78052210792115
O           -0.95095020822486       -0.44440254392915        3.04987516074379
O            1.30217071489540       -0.06061976206173        4.70366043120295
O           -3.21328069648368        0.01336250962549        4.25333356755518
O           -0.59469248296130        1.79783476197290        5.61261571898126
O           -0.14813799200229       -5.27408539860755        1.77749498793577
O            2.15737508104352       -1.86187949527160       -0.12102622436415
O            3.85561036662741       -1.72105325377319        2.68396980852002
O           -1.03387721126968       -1.16182906554452        0.51884321020223
O            1.33746057528917       -0.43169080109270        1.90045785786107
O            0.05743101043922        0.58617757340023       -1.14461907721297
O            2.80972717753439        1.43898673958663        0.62734296246272
