85
Drug@Ti12C7O14 non-overlapping complex
C     -4.601612      0.050983      9.157255
O     -5.050288      1.385014      9.367133
C     -4.201512      2.133567     10.244726
C     -4.357226      1.733441     11.717683
O     -3.610108      0.559511     12.065747
C     -2.243204      0.678800     12.102276
C     -1.589211      1.769406     12.681975
C     -0.204487      1.852485     12.726416
N      0.345687      2.938604     13.274353
C      1.681193      2.991837     13.293454
N      2.512678      2.055619     12.832050
C      1.954181      0.955808     12.296589
N      2.793451     -0.097005     11.837575
C      4.183467     -0.056319     11.578984
C      4.920120     -1.250744     11.631670
C      6.282145     -1.274176     11.319380
C      6.924695     -0.103755     10.922776
C      6.201809      1.084958     10.827354
C      6.853220      2.284654     10.397580
C      7.398839      3.291776     10.036977
C      4.838140      1.102425     11.141505
C      0.555579      0.799803     12.201376
C     -0.104453     -0.315978     11.621353
C     -1.496725     -0.383531     11.575343
O     -2.214605     -1.418826     11.040240
C     -1.501890     -2.464242     10.374174
C     -2.517708     -3.442722      9.783460
O     -3.111071     -2.865283      8.615362
C     -4.124686     -3.701811      8.074130
H     -4.758278     -0.553705     10.053484
H     -3.550634      0.034996      8.854573
H     -5.199225     -0.383559      8.351012
H     -4.521602      3.175872     10.141263
H     -3.165243      2.073091      9.895652
H     -5.408252      1.491568     11.912889
H     -4.105014      2.567969     12.378621
H     -2.151803      2.577751     13.138168
H      2.132178      3.877393     13.727953
H      2.535280     -0.948558     12.325295
H      4.439868     -2.181102     11.923602
H      6.838917     -2.205515     11.379968
H      7.983918     -0.125466     10.678952
H      7.880118      4.186498      9.717742
H      4.285802      2.032576     11.035693
H      0.497939     -1.112750     11.198307
H     -0.880016     -2.996333     11.102748
H     -0.886010     -2.044723      9.570121
H     -3.301303     -3.665096     10.516766
H     -2.009254     -4.368669      9.493613
H     -4.529463     -3.217984      7.181230
H     -3.708593     -4.672681      7.788629
H     -4.935750     -3.835873      8.796277
Ti     -2.141866     -3.008818      2.119748
Ti      0.288991     -1.694759      1.432425
Ti      1.903098     -3.067749     -0.729322
Ti     -2.521502     -0.251928      1.303687
Ti      2.142050      0.499533      2.204434
Ti     -0.681448      0.189635      3.681230
Ti     -2.036770     -3.077740     -1.200512
Ti     -0.605340     -0.770900     -2.035132
Ti      1.945488     -1.587317     -3.412400
Ti     -1.878170      1.746573     -1.240030
Ti      2.412512      0.454231     -0.774247
Ti      0.817742      1.838452     -2.940004
C     -3.678414      1.281398      0.600737
C      4.128193      0.482847      0.387293
C      0.455479      2.267202      0.349695
C     -3.666709      2.118834     -0.313920
C      4.115962      0.632239      1.621354
C     -0.635167      2.741046     -0.118921
C      1.630072      1.780996      0.734224
O     -3.093456     -1.956907      1.037949
O     -0.487250     -2.605849      2.701203
O      0.314079     -2.888890      0.145001
O     -0.800785     -0.435934      0.971227
O      1.902865     -1.158331      1.469449
O     -2.322673     -0.113878      3.024800
O      1.013786      0.441598      3.568761
O     -1.772019     -4.587905     -1.652810
O      0.190605     -1.189189     -3.534030
O      2.831420     -2.170248     -1.918042
O     -2.054558     -0.224445     -1.337505
O      0.768511     -0.390574     -1.063664
O     -0.900039      1.649313     -2.818565
O      2.415313      1.357463     -2.264115
