52
 energy: -83.808880975431 gnorm: 0.000518930932 xtb: 6.7.1pre (5071a88)
C            2.55566949126395        6.09386704080952        7.47939064368732
O            1.35815493870370        5.58077903733774        6.95135364665428
C            0.76595555999890        4.61065216615712        7.77846250962658
C           -0.48835912542036        4.09321491670916        7.06759515010686
O           -1.12546390072126        3.05984541683697        7.78246720106755
C           -0.58645613096662        1.80094244659796        7.78474271692416
C            0.50440414652451        1.42950558799634        7.03651165930439
C            1.03954586931707        0.13265244981090        7.10041538962609
N            2.11535681837885       -0.16312968808634        6.33328639804106
C            2.58011176737242       -1.37321135739979        6.43442311499008
N            2.13696561789239       -2.35284537717423        7.22275889003017
C            1.09536043554964       -2.10434895986570        7.99693587843551
N            0.62678825321247       -3.06162785964103        8.83609008134899
C            1.06830563430996       -4.36031770763227        9.06651364136493
C            2.11470187635320       -4.95534552548846        8.36399882328275
C            2.48694522386998       -6.25554076994340        8.65742546039566
C            1.83944106123914       -6.98108908503356        9.63918992087693
C            0.79095178555431       -6.39184225360805       10.34613502176979
C            0.11685130192957       -7.11636908378823       11.35945515785669
C           -0.44614652534269       -7.73444427861215       12.22076168229992
C            0.40948751852960       -5.08656548223547       10.05640185850270
C            0.45221225375807       -0.81991100059337        7.96774179127640
C           -0.68041252614436       -0.43933636944794        8.69790699598001
C           -1.21343595739679        0.83016244343901        8.62019881566578
O           -2.30361142577733        1.02585511795246        9.41011004202703
C           -3.17952859181137        2.11835954869956        9.21872502515387
C           -4.44768483794681        1.84180517962258       10.03773645418616
O           -4.27965217516129        1.90293628057149       11.42915972380553
C           -4.11561488262643        3.19793175904983       11.95128296572053
H            3.30152542775627        5.30116822349495        7.61517101951152
H            2.38604255459403        6.58704779153654        8.44445251823611
H            2.92395898897925        6.82079997026636        6.75907226957771
H            0.48945914231322        5.04483411129319        8.75264268204782
H            1.46593562854396        3.78151721419651        7.96550407522631
H           -0.23249452508802        3.78706640872784        6.04819952955992
H           -1.22752252460070        4.89587221717004        7.00956113533201
H            1.00321360538162        2.11595641481512        6.37354483837219
H            3.43345619749950       -1.62684785193950        5.81756752162403
H           -0.15492605228567       -2.78245786816601        9.41224644259787
H            2.62157993308275       -4.38975365939871        7.60165276939041
H            3.29886661183758       -6.70769763372429        8.10714478711938
H            2.13281892972727       -7.99472898365573        9.86671799306047
H           -0.94295071449734       -8.27367785004571       12.97112091388192
H           -0.40480315102307       -4.63860820554860       10.61044908960524
H           -1.19381309654749       -1.12327532033926        9.35730349617048
H           -3.45632963752717        2.21158510160994        8.16265595576385
H           -2.71149398861249        3.05343379208392        9.54194447262065
H           -5.22660921342164        2.55008297715215        9.71447974076229
H           -4.77921944218965        0.82059728583954        9.83572853509408
H           -4.15128345000143        3.09464701202010       13.03410891111890
H           -3.15530493934585        3.64251235916990       11.66842033946697
H           -4.92462438555847        3.86226157681802       11.62150459348004
