85
 energy: -175.956395263116 gnorm: 0.003974395858 xtb: 6.7.1pre (5071a88)
C           -6.02378974262390        1.92709318764848        6.13656189099465
O           -6.48843454633205        0.65664271647551        6.55117110004910
C           -5.59617722046399       -0.10225287861685        7.32387069067524
C           -4.55035763790705       -0.84817507487119        6.46460708259758
O           -3.46748801900352       -1.35920970164753        7.23970319106654
C           -2.47480299634658       -0.50906050003781        7.65046023979755
C           -2.43481173920697        0.86304694996805        7.43930942305420
C           -1.21470642486478        1.55206471300837        7.56721210049377
N           -1.18392085147199        2.87434632077020        7.25050412140427
C            0.00553190099583        3.41962352123556        7.12908535996941
N            1.18467024029608        2.79613325542470        7.20594027344929
C            1.19084883964389        1.52529997473774        7.62293045967293
N            2.36584216674468        0.83347200195545        7.75818081744503
C            3.60564092067896        1.04682027503520        7.16297830699907
C            3.91164836443066        2.16655632282337        6.38520817362786
C            5.14097297391366        2.24488417759534        5.74622532422785
C            6.10788616674938        1.26572851920283        5.92049573456858
C            5.84247550508585        0.19160926407825        6.78033775150987
C            6.84041488403964       -0.78601545436534        7.03146823712007
C            7.69997085286638       -1.58695283857148        7.28011883650450
C            4.58897744660474        0.07513605566739        7.37847664370861
C           -0.03579816649766        0.85602808925659        7.94870874341269
C           -0.17273598500143       -0.45517082593426        8.44115597292347
C           -1.36819911676330       -1.13467249052815        8.27269800666925
O           -1.33712666787371       -2.49411251531075        8.48720527697756
C           -2.43548711593038       -3.08444404249286        9.18780515900043
C           -1.88722010146123       -4.30722261786068        9.93812108832547
O           -0.97016995779170       -3.99803202679814       10.95321215809637
C           -1.53108800003269       -3.42582073742819       12.11103255485049
H           -5.18314190382041        1.87685090001698        5.41299310482211
H           -5.71900956661598        2.53107265816546        7.00146573286657
H           -6.87656829432941        2.39772602892557        5.65293705589268
H           -6.21915485051075       -0.82655559025815        7.85755350665178
H           -5.08781125471252        0.52982508269296        8.06681336404429
H           -4.17632211306907       -0.20217661522261        5.65225440073283
H           -5.00275373539364       -1.73501407423154        6.00846051355833
H           -3.27213895389568        1.44308454673543        7.06899943762877
H            0.04805476100174        4.49291628695516        6.94686126774482
H            2.25267799284781       -0.10026173095013        8.13648143512260
H            3.18816348639501        2.96297387395780        6.26991191707223
H            5.34386176989038        3.10235662617304        5.12078816603780
H            7.07491949371754        1.34218444403924        5.44316385914453
H            8.44982348983211       -2.29212302288520        7.48208329465804
H            4.38831437120269       -0.76974771015545        8.02352830102094
H            0.64709254914770       -1.02190157635000        8.85819336785751
H           -3.20691646623777       -3.41280670705472        8.47799890702499
H           -2.86653180762100       -2.35843874735605        9.88491930431956
H           -2.73389266509937       -4.88184506350599       10.34462986370328
H           -1.33222394769429       -4.92170715029967        9.22182792639515
H           -0.73375602696787       -3.40010694500036       12.85037477484610
H           -1.88903049634398       -2.40517890786205       11.94004261583386
H           -2.36034579503417       -4.03476934349338       12.49096837585746
Ti          -0.99732280317876       -2.58692752265005        5.46313576284037
Ti           0.90223665813727       -0.39277631956303        4.81120982430412
Ti           3.86222154181516       -0.77950222438179        3.78419071950527
Ti          -2.11565252041426       -0.83625189401327        3.41588962838570
Ti           0.85476029044125        2.79706624331909        4.16203983767286
Ti          -1.99707320709501        2.03745907852097        4.31441825482406
Ti           1.11118961140536       -3.54189795357264        3.24987051610964
Ti           1.26380026388744       -1.51240219935878        1.29511630404803
Ti           4.20862914870625       -0.92355100647629        0.77991151816650
Ti          -1.20619603698951       -0.35705547901825        0.32580741135948
Ti           2.50141111986442        1.60130211188139        1.92261897732721
Ti           1.57215748988611        0.73830658162522       -0.80163948034573
C           -3.20296737038194       -0.98800988761340        1.65950219889217
C            3.27671501467720        3.11655804017144        3.07876852766436
C           -0.29375484724316        2.09341239107329        1.44664032155024
C           -3.17491484570834       -0.87130216427386        0.42382668062732
C            2.61174689556778        3.80681959839162        3.87238206753077
C           -1.26692670165126        1.53809388827401        0.82442279601071
C            0.71716667104189        2.64260784701893        2.09654622040235
O           -2.28478464460944       -2.37633641120951        4.33257719811128
O            0.24835235373826       -1.46796650882953        6.01232050781912
O            2.33980597670444       -1.34072739414281        4.45632281267359
O           -0.40535241544414       -0.40617900056418        3.66878179281515
O            1.41717804563611        1.22085807456620        4.75490158305244
O           -2.83030569485115        0.49928914943917        4.23866758800236
O           -0.75940333831141        3.23765464209021        4.50890110067020
O            2.06553200061513       -4.76009700296194        3.64754541874783
O            2.71211953866988       -1.83879455658944        0.37828407923003
O            4.59838418706057       -0.06519722969437        2.35864323015217
O           -0.42494749595101       -1.74222679726376        1.39120004337765
O            1.66573210426397       -0.02473910497503        2.07046262770224
O            0.21816598687877       -0.35724983233958       -0.80156412392964
O            2.76642101405220        1.62005993963867        0.18596184239481
