33
 energy: -92.089720440994 gnorm: 0.003133038220 xtb: 6.7.1pre (5071a88)
Ti          -0.56071992040095       -4.23662301711104        3.67208957706763
Ti           1.00123521116275       -2.16443872496144        2.21443649565276
Ti           2.74479208497906       -2.02411578699054       -0.09356921158484
Ti          -2.35852595898956       -2.32661732373103        2.38649105139152
Ti           1.20535733196825        0.66435408364972        3.19591685143457
Ti          -0.69374635680832       -0.95493482205803        4.61282511375424
Ti          -0.45641171625570       -4.53623114150718        0.12875066647510
Ti          -0.56600906912566       -1.41180120368579       -0.88070896202073
Ti           1.27550122095757       -0.84162201191628       -3.17281229792791
Ti          -3.01296151441688       -0.24335210557596       -0.00220689713034
Ti           1.43282690404446        0.76356716795505       -0.30845495069336
Ti          -1.10871881884559        1.54190752175413       -1.76345730910916
C           -4.21186917238076       -1.85373819189225        1.66247541988327
C            2.04400403021262        2.13423966068154        1.09706432145406
C           -1.65850630688545        0.87373771413248        2.49776866735668
C           -4.69175789033093       -1.07779387944665        0.82161373032141
C            2.02442128250231        2.30675755531977        2.32308297208717
C           -2.53930684585473        0.86144161963138        1.59182304926942
C           -0.77465776430111        1.05421362047498        3.49933428024277
O           -2.12160668146628       -4.05942150192215        2.73225513319019
O            0.88931960660147       -3.24862642263438        3.62964342392104
O            0.50948223651204       -2.67467340142574       -1.04401452495456
O           -0.66094326467680       -1.99618410323543        1.84457996029852
O            1.81790261132578       -0.64235393435012        2.12754838288641
O           -2.16250649916097       -1.70112054560880        4.01725485885976
O            0.95108092725867       -0.42209261623487        4.63894867737684
O            1.89762714082685       -3.13162451512620        1.09186309564809
O           -0.58159185395371       -0.90535677982581       -2.51660863054527
O            2.66126164998222       -0.42679498543125       -0.81328971268617
O           -2.15055157692410       -1.85798268599600       -0.30138028245782
O            0.05595430450532       -0.14765292399881        0.17149030484566
O           -2.63233575484986        0.81098692733859       -1.34593262258700
O            0.72264242278819        1.57843675372806       -1.67467263171978
