      -----------------------------------------------------------      
     |                   =====================                   |     
     |                           x T B                           |     
     |                   =====================                   |     
     |                         S. Grimme                         |     
     |          Mulliken Center for Theoretical Chemistry        |     
     |                    University of Bonn                     |     
      -----------------------------------------------------------      

   * xtb version 6.7.1pre (5071a88) compiled by 'Marcel@Raven' on 2024-07-23

   xtb is free software: you can redistribute it and/or modify it under
   the terms of the GNU Lesser General Public License as published by
   the Free Software Foundation, either version 3 of the License, or
   (at your option) any later version.
   
   xtb is distributed in the hope that it will be useful,
   but WITHOUT ANY WARRANTY; without even the implied warranty of
   MERCHANTABILITY or FITNESS FOR A PARTICULAR PURPOSE.  See the
   GNU Lesser General Public License for more details.
   
   Cite this work as:
   * C. Bannwarth, E. Caldeweyher, S. Ehlert, A. Hansen, P. Pracht,
     J. Seibert, S. Spicher, S. Grimme, WIREs Comput. Mol. Sci., 2020, 11,
     e01493. DOI: 10.1002/wcms.1493
   
   for GFN2-xTB:
   * C. Bannwarth, S. Ehlert and S. Grimme., J. Chem. Theory Comput., 2019,
     15, 1652-1671. DOI: 10.1021/acs.jctc.8b01176
   for GFN1-xTB:
   * S. Grimme, C. Bannwarth, P. Shushkov, J. Chem. Theory Comput., 2017,
     13, 1989-2009. DOI: 10.1021/acs.jctc.7b00118
   for GFN0-xTB:
   * P. Pracht, E. Caldeweyher, S. Ehlert, S. Grimme, ChemRxiv, 2019, preprint.
     DOI: 10.26434/chemrxiv.8326202.v1
   for GFN-FF:
   * S. Spicher and S. Grimme, Angew. Chem. Int. Ed., 2020, 59, 15665-15673.
     DOI: 10.1002/anie.202004239
   
   for ALPB and GBSA implicit solvation:
   * S. Ehlert, M. Stahn, S. Spicher, S. Grimme, J. Chem. Theory Comput.,
     2021, 17, 4250-4261. DOI: 10.1021/acs.jctc.1c00471
   
   for ddCOSMO and CPCM-X implicit solvation:
   * M. Stahn, S. Ehlert, S. Grimme, J. Phys. Chem. A,
     2023, XX, XXXX-XXXX. DOI: 10.1021/acs.jpca.3c04382
   
   for DFT-D4:
   * E. Caldeweyher, C. Bannwarth and S. Grimme, J. Chem. Phys., 2017,
     147, 034112. DOI: 10.1063/1.4993215
   * E. Caldeweyher, S. Ehlert, A. Hansen, H. Neugebauer, S. Spicher,
     C. Bannwarth and S. Grimme, J. Chem. Phys., 2019, 150, 154122.
     DOI: 10.1063/1.5090222
   * E. Caldeweyher, J.-M. Mewes, S. Ehlert and S. Grimme, Phys. Chem. Chem. Phys.
     2020, 22, 8499-8512. DOI: 10.1039/D0CP00502A
   
   for sTDA-xTB:
   * S. Grimme and C. Bannwarth, J. Chem. Phys., 2016, 145, 054103.
     DOI: 10.1063/1.4959605
   
   in the mass-spec context:
   * V. Asgeirsson, C. Bauer and S. Grimme, Chem. Sci., 2017, 8, 4879.
     DOI: 10.1039/c7sc00601b
   * J. Koopman and S. Grimme, ACS Omega 2019, 4, 12, 15120-15133.
     DOI: 10.1021/acsomega.9b02011
   
   for metadynamics refer to:
   * S. Grimme, J. Chem. Theory Comput., 2019, 155, 2847-2862
     DOI: 10.1021/acs.jctc.9b00143
   
   for SPH calculations refer to:
   * S. Spicher and S. Grimme, J. Chem. Theory Comput., 2021, 17, 1701-1714
     DOI: 10.1021/acs.jctc.0c01306
   
   for ONIOM refer to:
   * C. Plett, A. Katbashev, S. Ehlert, S. Grimme, M. Bursch,
     Phys. Chem. Chem. Phys., 2023, 25, 17860-17868. DOI: 10.1039/D3CP02178E
   
   for DIPRO refer to:
   * J. Kohn, N. Gildemeister, S. Grimme, D. Fazzi, A. Hansen,
     J. Chem. Phys., 2023, just accepted.
   
   for PTB refer to:
   * S. Grimme, M. Mueller, A. Hansen, J. Chem. Phys., 2023, 158, 124111.
     DOI: 10.1063/5.0137838
   
   with help from (in alphabetical order)
   P. Atkinson, C. Bannwarth, F. Bohle, G. Brandenburg, E. Caldeweyher
   M. Checinski, S. Dohm, S. Ehlert, S. Ehrlich, I. Gerasimov, C. Hölzer
   A. Katbashev, J. Kohn, J. Koopman, C. Lavigne, S. Lehtola, F. März, M. Müller,
   F. Musil, H. Neugebauer, J. Pisarek, C. Plett, P. Pracht, F. Pultar,
   J. Seibert, P. Shushkov, S. Spicher, M. Stahn, M. Steiner, T. Strunk,
   J. Stückrath, T. Rose, and J. Unsleber
   
 * started run on 2026/08/31 at 21:55:03.685     
   ID    Z sym.   atoms
    1    6 C      1, 3, 4, 6-8, 10, 12, 14-24, 26, 27, 29, 65-71
    2    8 O      2, 5, 25, 28, 72-85
    3    7 N      9, 11, 13
    4    1 H      30-52
    5   22 Ti     53-64

           -------------------------------------------------
          |                Calculation Setup                |
           -------------------------------------------------

          program call               : "c:\Users\Andre\Proyectos doctorado\kras-pancreatic-gC3N4-ai\tools\xtb\xtb-6.7.1\bin\xtb.exe" "c:\Users\Andre\Proyectos doctorado\mxene-glioblastoma-qsar-ai\calculations\gbm\Erlotinib\Erlotinib_Ti12C7O14_clean_complex.xyz" --gfn 2 --sp --chrg 0 --uhf 0 --etemp 500 --acc 1.0 --iterations 500 --norestart
          coordinate file            : c:\Users\Andre\Proyectos doctorado\mxene-glioblastoma-qsar-ai\calculations\gbm\Erlotinib\Erlotinib_Ti12C7O14_clean_complex.xyz
          omp threads                :                    16


molecular fragmentation (1/2 indicates fragments):
111111111111111111111111111111111111111111111111111122222222222222222222
2222222222222
# atoms in fragment 1/2:    52    33
 fragment masses (1/2) :      393.44      882.47
CMA distance (Bohr)    :  18.048
constraining FC (au)   :  0.0500

           -------------------------------------------------
          |                 G F N 2 - x T B                 |
           -------------------------------------------------

        Reference                      10.1021/acs.jctc.8b01176
      * Hamiltonian:
        H0-scaling (s, p, d)           1.850000    2.230000    2.230000
        zeta-weighting                 0.500000
      * Dispersion:
        s8                             2.700000
        a1                             0.520000
        a2                             5.000000
        s9                             5.000000
      * Repulsion:
        kExp                           1.500000    1.000000
        rExp                           1.000000
      * Coulomb:
        alpha                          2.000000
        third order                    shell-resolved
        anisotropic                    true
        a3                             3.000000
        a5                             4.000000
        cn-shift                       1.200000
        cn-exp                         4.000000
        max-rad                        5.000000


          ...................................................
          :                      SETUP                      :
          :.................................................:
          :  # basis functions                 343          :
          :  # atomic orbitals                 331          :
          :  # shells                          159          :
          :  # electrons                       310          :
          :  max. iterations                   500          :
          :  Hamiltonian                  GFN2-xTB          :
          :  restarted?                      false          :
          :  GBSA solvation                  false          :
          :  PC potential                    false          :
          :  electronic temp.          500.0000000     K    :
          :  accuracy                    1.0000000          :
          :  -> integral cutoff          0.2500000E+02      :
          :  -> integral neglect         0.1000000E-07      :
          :  -> SCF convergence          0.1000000E-05 Eh   :
          :  -> wf. convergence          0.1000000E-03 e    :
          :  Broyden damping             0.4000000          :
          :  net charge                          0          :
          :  unpaired electrons                  0          :
          ...................................................

 iter      E             dE          RMSdq      gap      omega  full diag
   1   -175.0084559 -0.175008E+03  0.135E+01    0.09       0.0  T
   2   -142.0628201  0.329456E+02  0.148E+01    0.01       1.0  T
   3    -58.5703186  0.834925E+02  0.252E+01    0.05       1.0  T
   4   -171.6867554 -0.113116E+03  0.957E+00    0.11       1.0  T
   5   -171.5999753  0.867801E-01  0.796E+00    0.01       1.0  T
   6   -176.7614838 -0.516151E+01  0.591E+00    0.04       1.0  T
   7   -177.1897623 -0.428279E+00  0.531E+00    0.81       1.0  T
   8   -177.2377820 -0.480197E-01  0.486E+00    0.35       1.0  T
   9   -177.1852378  0.525442E-01  0.410E+00    0.23       1.0  T
  10   -176.7966499  0.388588E+00  0.367E+00    0.03       1.0  T
  11   -176.9763607 -0.179711E+00  0.305E+00    0.07       1.0  T
  12   -177.0240651 -0.477044E-01  0.291E+00    0.03       1.0  T
  13   -177.4548981 -0.430833E+00  0.194E+00    0.29       1.0  T
  14   -177.2510561  0.203842E+00  0.205E+00    0.07       1.0  T
  15   -177.5380417 -0.286986E+00  0.142E+00    0.49       1.0  T
  16   -177.5923717 -0.543300E-01  0.107E+00    0.57       1.0  T
  17   -177.6042071 -0.118353E-01  0.953E-01    0.46       1.0  T
  18   -177.6153753 -0.111682E-01  0.864E-01    0.22       1.0  T
  19   -177.6295541 -0.141789E-01  0.740E-01    0.32       1.0  T
  20   -177.6240341  0.552007E-02  0.648E-01    0.18       1.0  T
  21   -177.6414712 -0.174371E-01  0.513E-01    0.45       1.0  T
  22   -177.6457240 -0.425280E-02  0.407E-01    0.37       1.0  T
  23   -177.6484989 -0.277486E-02  0.334E-01    0.38       1.0  T
  24   -177.6514842 -0.298529E-02  0.259E-01    0.43       1.0  T
  25   -177.6531538 -0.166967E-02  0.211E-01    0.49       1.0  T
  26   -177.6536021 -0.448272E-03  0.171E-01    0.58       1.0  T
  27   -177.6539815 -0.379406E-03  0.135E-01    0.61       1.0  T
  28   -177.6546314 -0.649943E-03  0.102E-01    0.61       1.0  T
  29   -177.6549897 -0.358238E-03  0.840E-02    0.60       1.0  T
  30   -177.6552389 -0.249208E-03  0.689E-02    0.60       1.0  T
  31   -177.6554514 -0.212502E-03  0.499E-02    0.59       1.0  T
  32   -177.6555200 -0.686003E-04  0.375E-02    0.58       1.0  T
  33   -177.6555520 -0.320329E-04  0.263E-02    0.56       1.0  T
  34   -177.6555760 -0.239919E-04  0.183E-02    0.55       1.0  T
  35   -177.6555861 -0.100546E-04  0.120E-02    0.54       1.0  T
  36   -177.6555908 -0.473844E-05  0.729E-03    0.54       1.5  T
  37   -177.6555918 -0.947686E-06  0.538E-03    0.54       2.0  T
  38   -177.6555921 -0.343031E-06  0.384E-03    0.53       2.8  T
  39   -177.6555928 -0.659645E-06  0.255E-03    0.53       4.2  T
  40   -177.6555930 -0.262908E-06  0.254E-03    0.53       4.3  T
  41   -177.6555932 -0.158404E-06  0.192E-03    0.53       5.6  T
  42   -177.6555932 -0.578401E-07  0.970E-04    0.53      11.2  T
  43   -177.6555933 -0.156435E-07  0.542E-04    0.53      20.0  T

   *** convergence criteria satisfied after 43 iterations ***

         #    Occupation            Energy/Eh            Energy/eV
      -------------------------------------------------------------
         1        2.0000           -0.8183137             -22.2674
       ...           ...                  ...                  ...
       149        2.0000           -0.3563487              -9.6967
       150        2.0000           -0.3479061              -9.4670
       151        2.0000           -0.3456696              -9.4061
       152        2.0000           -0.3422507              -9.3131
       153        2.0000           -0.3358321              -9.1385
       154        2.0000           -0.3203843              -8.7181
       155        1.9946           -0.3059517              -8.3254 (HOMO)
       156        0.0037           -0.2866306              -7.7996 (LUMO)
       157        0.0008           -0.2841692              -7.7326
       158        0.0004           -0.2832327              -7.7072
       159        0.0002           -0.2823055              -7.6819
       160        0.0002           -0.2821971              -7.6790
       ...           ...                  ...                  ...
       331                         13.4200581             365.1784
      -------------------------------------------------------------
                  HL-Gap            0.0193211 Eh            0.5258 eV
             Fermi-level           -0.2965906 Eh           -8.0706 eV

 SCC (total)                   0 d,  0 h,  0 min,  1.886 sec
 SCC setup                      ...        0 min,  0.003 sec (  0.159%)
 Dispersion                     ...        0 min,  0.002 sec (  0.106%)
 classical contributions        ...        0 min,  0.000 sec (  0.000%)
 integral evaluation            ...        0 min,  0.016 sec (  0.848%)
 iterations                     ...        0 min,  1.832 sec ( 97.137%)
 molecular gradient             ...        0 min,  0.030 sec (  1.591%)
 printout                       ...        0 min,  0.002 sec (  0.106%)

         :::::::::::::::::::::::::::::::::::::::::::::::::::::
         ::                     SUMMARY                     ::
         :::::::::::::::::::::::::::::::::::::::::::::::::::::
         :: total energy            -175.829498809056 Eh    ::
         :: gradient norm              0.104540684929 Eh/a0 ::
         :: HOMO-LUMO gap              0.525754594161 eV    ::
         ::.................................................::
         :: SCC energy              -177.653502351555 Eh    ::
         :: -> isotropic ES            1.000134406394 Eh    ::
         :: -> anisotropic ES         -0.375680899439 Eh    ::
         :: -> anisotropic XC         -0.026544396627 Eh    ::
         :: -> dispersion             -0.144414284079 Eh    ::
         :: repulsion energy           1.824003542499 Eh    ::
         :: add. restraining           0.000000000000 Eh    ::
         :: total charge              -0.000000000148 e     ::
         :::::::::::::::::::::::::::::::::::::::::::::::::::::

           -------------------------------------------------
          |                Property Printout                |
           -------------------------------------------------

    * Orbital Energies and Occupations

         #    Occupation            Energy/Eh            Energy/eV
      -------------------------------------------------------------
         1        2.0000           -0.8183137             -22.2674
       ...           ...                  ...                  ...
       143        2.0000           -0.3795937             -10.3293
       144        2.0000           -0.3753741             -10.2144
       145        2.0000           -0.3703541             -10.0778
       146        2.0000           -0.3665744              -9.9750
       147        2.0000           -0.3640968              -9.9076
       148        2.0000           -0.3588851              -9.7658
       149        2.0000           -0.3563487              -9.6967
       150        2.0000           -0.3479061              -9.4670
       151        2.0000           -0.3456696              -9.4061
       152        2.0000           -0.3422507              -9.3131
       153        2.0000           -0.3358321              -9.1385
       154        2.0000           -0.3203843              -8.7181
       155        1.9946           -0.3059517              -8.3254 (HOMO)
       156        0.0037           -0.2866306              -7.7996 (LUMO)
       157        0.0008           -0.2841692              -7.7326
       158        0.0004           -0.2832327              -7.7072
       159        0.0002           -0.2823055              -7.6819
       160        0.0002           -0.2821971              -7.6790
       161        0.0000           -0.2776119              -7.5542
       162        0.0000           -0.2732490              -7.4355
       163        0.0000           -0.2721330              -7.4051
       164        0.0000           -0.2703917              -7.3577
       165        0.0000           -0.2700655              -7.3489
       166                         -0.2690393              -7.3209
       ...                                ...                  ...
       331                         13.4200581             365.1784
      -------------------------------------------------------------
                  HL-Gap            0.0193211 Eh            0.5258 eV
             Fermi-level           -0.2965906 Eh           -8.0706 eV

     #   Z          covCN         q      C6AA      α(0)
     1   6 C        3.650     0.031    20.361     6.482
     2   8 O        1.697    -0.320    19.353     5.939
     3   6 C        3.700     0.071    19.539     6.321
     4   6 C        3.684     0.057    19.814     6.373
     5   8 O        1.703    -0.266    18.415     5.794
     6   6 C        2.847     0.124    25.277     8.240
     7   6 C        2.931    -0.096    30.407     9.043
     8   6 C        2.984     0.099    25.793     8.331
     9   7 N        1.844    -0.263    27.697     7.800
    10   6 C        2.881     0.137    25.018     8.200
    11   7 N        1.831    -0.265    27.729     7.803
    12   6 C        2.890     0.161    24.522     8.119
    13   7 N        2.689    -0.172    24.720     7.384
    14   6 C        2.890     0.075    26.313     8.410
    15   6 C        2.916    -0.044    29.100     8.846
    16   6 C        2.910    -0.030    28.759     8.794
    17   6 C        2.920    -0.037    28.908     8.817
    18   6 C        2.964     0.040    27.105     8.540
    19   6 C        1.977    -0.022    31.637     9.083
    20   6 C        1.908    -0.100    33.861     9.398
    21   6 C        2.926    -0.055    29.355     8.885
    22   6 C        2.979    -0.033    28.806     8.804
    23   6 C        2.916    -0.069    29.707     8.938
    24   6 C        2.862     0.124    25.276     8.241
    25   8 O        1.703    -0.266    18.414     5.794
    26   6 C        3.694     0.066    19.647     6.342
    27   6 C        3.690     0.066    19.656     6.345
    28   8 O        1.697    -0.304    19.072     5.896
    29   6 C        3.641     0.032    20.385     6.492
    30   1 H        0.924     0.039     2.460     2.453
    31   1 H        0.924     0.037     2.488     2.467
    32   1 H        0.924     0.066     2.129     2.282
    33   1 H        0.924     0.042     2.423     2.434
    34   1 H        0.924     0.040     2.451     2.448
    35   1 H        0.924     0.062     2.172     2.305
    36   1 H        0.924     0.073     2.049     2.238
    37   1 H        0.925     0.079     1.985     2.203
    38   1 H        0.925     0.056     2.243     2.342
    39   1 H        0.860     0.180     1.213     1.726
    40   1 H        0.925     0.053     2.277     2.360
    41   1 H        0.925     0.040     2.443     2.444
    42   1 H        0.925     0.036     2.506     2.475
    43   1 H        0.927     0.076     2.022     2.224
    44   1 H        0.925     0.030     2.590     2.517
    45   1 H        0.925     0.070     2.086     2.259
    46   1 H        0.924     0.036     2.508     2.476
    47   1 H        0.924     0.059     2.216     2.328
    48   1 H        0.924     0.034     2.527     2.486
    49   1 H        0.924     0.069     2.101     2.267
    50   1 H        0.924     0.062     2.177     2.307
    51   1 H        0.924     0.037     2.483     2.464
    52   1 H        0.924     0.031     2.570     2.507
    53  22 Ti       3.637     1.043   101.883    24.499
    54  22 Ti       6.855     1.550    84.064    14.886
    55  22 Ti       3.227     1.046   102.667    24.742
    56  22 Ti       5.860     1.378    85.689    15.029
    57  22 Ti       5.627     1.122    88.199    15.248
    58  22 Ti       3.541     1.031   102.577    24.684
    59  22 Ti       2.352     0.879   202.700    34.860
    60  22 Ti       6.011     1.348    85.978    15.054
    61  22 Ti       3.414     1.006   103.083    24.783
    62  22 Ti       5.519     1.094    88.481    15.272
    63  22 Ti       5.687     1.188    87.543    15.191
    64  22 Ti       3.581     1.024   102.496    24.645
    65   6 C        2.246    -0.258    37.665     9.943
    66   6 C        2.142    -0.256    38.371    10.013
    67   6 C        2.248    -0.019    30.597     8.962
    68   6 C        1.838    -0.211    37.343     9.872
    69   6 C        1.894    -0.225    37.774     9.926
    70   6 C        1.821    -0.346    42.138    10.488
    71   6 C        2.631    -0.403    39.888    10.331
    72   8 O        1.554    -0.847    32.013     7.634
    73   8 O        1.464    -0.883    33.284     7.776
    74   8 O        1.557    -0.956    35.598     8.050
    75   8 O        1.523    -1.005    37.409     8.250
    76   8 O        1.523    -0.914    34.196     7.887
    77   8 O        1.458    -0.823    31.411     7.554
    78   8 O        1.455    -0.799    30.694     7.467
    79   8 O        0.727    -0.637    27.123     6.979
    80   8 O        1.453    -0.865    32.716     7.709
    81   8 O        1.476    -0.800    30.680     7.467
    82   8 O        1.603    -0.945    35.187     8.006
    83   8 O        1.547    -0.968    36.031     8.098
    84   8 O        1.700    -0.817    30.989     7.516
    85   8 O        1.453    -0.782    30.190     7.405

 Mol. C6AA /au·bohr⁶  :     172695.529220
 Mol. C8AA /au·bohr⁸  :    7378266.004494
 Mol. α(0) /au        :        703.691042


Wiberg/Mayer (AO) data.
largest (>0.10) Wiberg bond orders for each atom

 ---------------------------------------------------------------------------
     #   Z sym  total        # sym  WBO       # sym  WBO       # sym  WBO
 ---------------------------------------------------------------------------
     1   6 C    3.946 --     2 O    0.989    32 H    0.979    31 H    0.979
                            30 H    0.979
     2   8 O    2.054 --     1 C    0.989     3 C    0.985
     3   6 C    3.955 --     4 C    0.992     2 O    0.985    33 H    0.968
                            34 H    0.967
     4   6 C    3.930 --     3 C    0.992    36 H    0.966     5 O    0.966
                            35 H    0.957
     5   8 O    2.232 --     6 C    1.067     4 C    0.966
     6   6 C    3.935 --     7 C    1.434    24 C    1.240     5 O    1.067
     7   6 C    3.977 --     6 C    1.434     8 C    1.281    37 H    0.942
                            23 C    0.109
     8   6 C    3.981 --     9 N    1.286     7 C    1.281    22 C    1.228
     9   7 N    3.049 --    10 C    1.476     8 C    1.286
    10   6 C    3.957 --     9 N    1.476    11 N    1.373    38 H    0.956
    11   7 N    3.044 --    12 C    1.400    10 C    1.373
    12   6 C    3.962 --    11 N    1.400    22 C    1.231    13 N    1.120
    13   7 N    3.397 --    12 C    1.120    14 C    1.083    39 H    0.925
    14   6 C    3.962 --    21 C    1.372    15 C    1.366    13 N    1.083
    15   6 C    3.955 --    16 C    1.443    14 C    1.366    40 H    0.966
    16   6 C    3.990 --    15 C    1.443    17 C    1.443    41 H    0.970
                            21 C    0.102
    17   6 C    3.983 --    16 C    1.443    18 C    1.365    42 H    0.970
    18   6 C    3.989 --    21 C    1.381    17 C    1.365    19 C    1.096
    19   6 C    3.978 --    20 C    2.840    18 C    1.096
    20   6 C    3.946 --    19 C    2.840    43 H    0.970
    21   6 C    3.978 --    18 C    1.381    14 C    1.372    44 H    0.967
                            16 C    0.102
    22   6 C    3.982 --    23 C    1.294    12 C    1.231     8 C    1.228
    23   6 C    3.978 --    24 C    1.457    22 C    1.294    45 H    0.963
                             7 C    0.109
    24   6 C    3.941 --    23 C    1.457     6 C    1.240    25 O    1.055
    25   8 O    2.185 --    24 C    1.055    26 C    0.956
    26   6 C    3.945 --    27 C    0.992    46 H    0.971    47 H    0.964
                            25 O    0.956
    27   6 C    3.959 --    28 O    0.992    26 C    0.992    49 H    0.968
                            48 H    0.965
    28   8 O    2.073 --    29 C    0.995    27 C    0.992
    29   6 C    3.953 --    28 O    0.995    50 H    0.979    52 H    0.978
                            51 H    0.977
    30   1 H    0.998 --     1 C    0.979
    31   1 H    0.999 --     1 C    0.979
    32   1 H    0.995 --     1 C    0.979
    33   1 H    0.998 --     3 C    0.968
    34   1 H    0.998 --     3 C    0.967
    35   1 H    0.996 --     4 C    0.957
    36   1 H    0.994 --     4 C    0.966
    37   1 H    0.993 --     7 C    0.942
    38   1 H    0.995 --    10 C    0.956
    39   1 H    0.967 --    13 N    0.925
    40   1 H    0.996 --    15 C    0.966
    41   1 H    0.997 --    16 C    0.970
    42   1 H    0.998 --    17 C    0.970
    43   1 H    0.993 --    20 C    0.970
    44   1 H    0.999 --    21 C    0.967
    45   1 H    0.994 --    23 C    0.963
    46   1 H    0.997 --    26 C    0.971
    47   1 H    0.996 --    26 C    0.964
    48   1 H    0.998 --    27 C    0.965
    49   1 H    0.995 --    27 C    0.968
    50   1 H    0.996 --    29 C    0.979
    51   1 H    0.999 --    29 C    0.977
    52   1 H    0.999 --    29 C    0.978
    53  22 Ti   2.831 --    72 O    0.847    73 O    0.816    59 Ti   0.332
                            54 Ti   0.202    56 Ti   0.199    58 Ti   0.100
    54  22 Ti   3.855 --    73 O    0.750    76 O    0.744    74 O    0.688
                            75 O    0.612    53 Ti   0.202    55 Ti   0.187
                            57 Ti   0.140    58 Ti   0.134
    55  22 Ti   2.725 --    81 O    0.961    74 O    0.601    61 Ti   0.372
                            54 Ti   0.187    59 Ti   0.140    76 O    0.110
    56  22 Ti   3.923 --    77 O    0.936    65 C    0.719    72 O    0.703
                            75 O    0.568    58 Ti   0.210    53 Ti   0.199
                            62 Ti   0.178    82 O    0.124
    57  22 Ti   4.074 --    71 C    0.889    78 O    0.777    69 C    0.742
                            76 O    0.603    63 Ti   0.284    58 Ti   0.173
                            70 C    0.158    66 C    0.152    54 Ti   0.140
    58  22 Ti   2.706 --    78 O    0.963    77 O    0.707    56 Ti   0.210
                            57 Ti   0.173    54 Ti   0.134    73 O    0.120
                            53 Ti   0.100
    59  22 Ti   3.767 --    79 O    1.995    60 Ti   0.606    53 Ti   0.332
                            74 O    0.153    72 O    0.148    55 Ti   0.140
                            82 O    0.112
    60  22 Ti   4.018 --    82 O    0.803    80 O    0.752    83 O    0.717
                            59 Ti   0.606    84 O    0.196    61 Ti   0.166
                            64 Ti   0.148    62 Ti   0.141
    61  22 Ti   2.748 --    80 O    0.835    81 O    0.765    55 Ti   0.372
                            64 Ti   0.221    60 Ti   0.166    63 Ti   0.130
    62  22 Ti   4.014 --    70 C    1.058    68 C    0.727    84 O    0.613
                            82 O    0.441    71 C    0.233    64 Ti   0.199
                            56 Ti   0.178    65 C    0.156    60 Ti   0.141
    63  22 Ti   4.084 --    85 O    0.966    66 C    0.670    71 C    0.654
                            83 O    0.442    57 Ti   0.284    64 Ti   0.210
                            70 C    0.142    61 Ti   0.130    81 O    0.113
    64  22 Ti   2.793 --    84 O    0.901    85 O    0.735    61 Ti   0.221
                            63 Ti   0.210    62 Ti   0.199    60 Ti   0.148
    65   6 C    3.841 --    68 C    2.739    56 Ti   0.719    62 Ti   0.156
    66   6 C    3.781 --    69 C    2.732    63 Ti   0.670    57 Ti   0.152
    67   6 C    3.979 --    70 C    2.007    71 C    1.605
    68   6 C    3.705 --    65 C    2.739    62 Ti   0.727
    69   6 C    3.746 --    66 C    2.732    57 Ti   0.742
    70   6 C    3.766 --    67 C    2.007    62 Ti   1.058    57 Ti   0.158
                            63 Ti   0.142
    71   6 C    3.825 --    67 C    1.605    57 Ti   0.889    63 Ti   0.654
                            62 Ti   0.233
    72   8 O    1.934 --    53 Ti   0.847    56 Ti   0.703    59 Ti   0.148
    73   8 O    1.889 --    53 Ti   0.816    54 Ti   0.750    58 Ti   0.120
    74   8 O    1.783 --    54 Ti   0.688    55 Ti   0.601    59 Ti   0.153
    75   8 O    1.721 --    54 Ti   0.612    56 Ti   0.568
    76   8 O    1.845 --    54 Ti   0.744    57 Ti   0.603    55 Ti   0.110
    77   8 O    1.969 --    56 Ti   0.936    58 Ti   0.707
    78   8 O    2.012 --    58 Ti   0.963    57 Ti   0.777
    79   8 O    2.169 --    59 Ti   1.995
    80   8 O    1.910 --    61 Ti   0.835    60 Ti   0.752
    81   8 O    2.008 --    55 Ti   0.961    61 Ti   0.765    63 Ti   0.113
    82   8 O    1.799 --    60 Ti   0.803    62 Ti   0.441    56 Ti   0.124
                            59 Ti   0.112
    83   8 O    1.774 --    60 Ti   0.717    63 Ti   0.442
    84   8 O    1.986 --    64 Ti   0.901    62 Ti   0.613    60 Ti   0.196
    85   8 O    2.031 --    63 Ti   0.966    64 Ti   0.735
 ---------------------------------------------------------------------------

Topologies differ in total number of bonds
Writing topology from bond orders to xtbtopo.mol

molecular dipole:
                 x           y           z       tot (Debye)
 q only:       -0.140      -1.335      -0.229
   full:       -1.777      -1.603       0.502       6.215
molecular quadrupole (traceless):
                xx          xy          yy          xz          yz          zz
 q only:      -26.442      -2.240     -13.948     -58.544     -12.976      40.390
  q+dip:      -12.253      -6.752     -37.113     -35.106     -30.420      49.365
   full:      -11.699      -6.227     -33.003     -38.016     -23.773      44.702


           -------------------------------------------------
          | TOTAL ENERGY             -175.829498809056 Eh   |
          | GRADIENT NORM               0.104540684929 Eh/α |
          | HOMO-LUMO GAP               0.525754594161 eV   |
           -------------------------------------------------

------------------------------------------------------------------------
 * finished run on 2026/08/31 at 21:55:05.635     
------------------------------------------------------------------------
 total:
 * wall-time:     0 d,  0 h,  0 min,  1.948 sec
 *  cpu-time:     0 d,  0 h,  0 min,  7.422 sec
 * ratio c/w:     3.810 speedup
 SCF:
 * wall-time:     0 d,  0 h,  0 min,  1.887 sec
 *  cpu-time:     0 d,  0 h,  0 min,  7.203 sec
 * ratio c/w:     3.817 speedup

normal termination of xtb
