85
 energy: -175.898693002591 gnorm: 0.019422320892 xtb: 6.7.1pre (5071a88)
C            2.66943680821576        6.32532743607944        7.72352508831911
O            1.44420725407938        5.77007909578672        7.30431168866754
C            1.17448077563103        4.52680527552519        7.90096253952576
C           -0.22148786815499        4.09533112941258        7.44208864417899
O           -0.75774009437860        3.03242522873672        8.20877741418426
C           -0.45659812727724        1.73572256762392        7.92378396920846
C            0.52982454610348        1.33263625090902        7.03575718435342
C            0.81711376608029       -0.03743693251484        6.82959931414736
N            1.74771498259394       -0.38460181644955        5.89431920852674
C            2.07785177265598       -1.66241617660283        5.85531628732668
N            1.67012508191059       -2.61840397538016        6.68732584751946
C            0.72605995099056       -2.32618359907049        7.57308450804516
N            0.33058621039118       -3.23123206670094        8.50263025339899
C            0.87749003157955       -4.45731152877100        8.86772134074604
C            1.71816804081504       -5.19548510638781        8.03993049661798
C            2.22374050658419       -6.40310296549080        8.48750932043696
C            1.90556393929961       -6.88906622746177        9.74132223435953
C            1.05611273585794       -6.15991225489160       10.57128488771989
C            0.72562959055253       -6.64450887033083       11.85918340264153
C            0.49379113705084       -7.06586949641762       12.96229659057718
C            0.54277536132158       -4.94559801525238       10.13124006959595
C            0.16670088174855       -1.00336226956602        7.63465451866445
C           -0.86496359354181       -0.58512185394444        8.48627206244997
C           -1.21120713817169        0.74535076456867        8.61649960081973
O           -2.21815819838205        0.99850256253056        9.49509303341328
C           -3.08068272238051        2.10928212311190        9.30724315470010
C           -4.41935200243521        1.78598771808028        9.99601031314885
O           -4.43014450076643        1.95691720692242       11.38704211785446
C           -4.54676633866766        3.29205604271274       11.82114693020041
H            3.50943042053537        5.66237303565266        7.48746282785786
H            2.66307004476981        6.52153001982424        8.80379931195042
H            2.77966663560578        7.26141222044919        7.18450249445673
H            1.18318960517616        4.61770505493982        8.99852367246257
H            1.93695493339559        3.79049080793425        7.60929654300423
H           -0.21866783852001        3.84778972613212        6.34916433262875
H           -0.90233259977805        4.93386587494571        7.61361616565246
H            1.19989391413677        2.03982937280289        6.55251567357963
H            2.84435995753545       -1.95830721545302        5.12925145242983
H           -0.33515298310976       -2.86734596129629        9.17377282031608
H            1.96092589939118       -4.80885465584189        7.06643110517543
H            2.87634704482218       -6.97564328566007        7.84663141313855
H            2.29831770097818       -7.82940748769057       10.08952989284599
H            0.26081183892017       -7.44020338714016       13.91197709234223
H           -0.11347505573720       -4.38118776343336       10.77594088934504
H           -1.44667493521324       -1.28476975471259        9.06368387155186
H           -3.26034219358002        2.27364432550181        8.23895996405678
H           -2.63807295523837        3.01417323929628        9.73775532737760
H           -5.20620141034612        2.40107914586582        9.53294188836153
H           -4.64504814623795        0.72867463149881        9.83389694715361
H           -4.68979191085851        3.24905752355030       12.89790683105947
H           -3.64919995042789        3.87984179016815       11.60144566610685
H           -5.41195543205195        3.78236217233151       11.35343208543878
Ti          -1.83130768194288       -2.14614936712303        4.12326629674607
Ti           0.70818683066612       -1.15644980013111        3.03285787747741
Ti           2.40735827615453       -2.91075255943325        1.16095464545911
Ti          -2.12759567791773        0.22765161094143        2.55720083102619
Ti           2.53116532777005        1.37615018964094        2.53500860780742
Ti          -0.04223510410264        1.86147925984445        3.95917981903312
Ti          -1.54944135717796       -3.39856456958605        1.18584709261542
Ti          -0.49774784578204       -1.45002054001312       -0.57170624332179
Ti           1.95553838118293       -2.63157262100977       -1.85558766533571
Ti          -1.84512601075196        1.12921331720846       -0.63718014367093
Ti           2.51533144755687        0.15306297292935       -0.23550533730005
Ti           0.64291196611471        0.62083169971904       -2.55325418388164
C           -3.36252041606349        1.42611503088373        1.43220390539473
C            4.32941535810438        0.51994373779973        0.66615532014888
C            0.64200017778599        2.22726469480413        0.32847970466191
C           -3.52710204019407        1.84961121890831        0.27449128535743
C            4.42247426963040        1.11978984471296        1.75109400948403
C           -0.53784675460856        2.46985582425338       -0.09448755923972
C            1.88974226358704        1.95308701349234        0.69036339648811
O           -2.92805159991575       -1.30857079830192        3.04280473590394
O           -0.14323250943302       -1.79694529267375        4.40775111440492
O            0.92289534705678       -2.68092713407916        2.10981371348895
O           -0.50351467659346       -0.30414257171582        2.13807414844962
O            2.17584055281192       -0.36903028802666        2.70967163465876
O           -1.61846252899057        1.03780712725457        4.02229000915848
O            1.61257736926246        2.26512107946535        3.75014756327132
O           -1.46285493905422       -4.99997082767597        1.26505985849484
O            0.18469845907821       -2.36040942933751       -1.90347727861188
O            3.07206409919370       -2.50715799985730       -0.41960975153196
O           -1.92311965665960       -0.70417809081702       -0.01975231026632
O            0.92687275056344       -0.70652166226890        0.05586869645423
O           -1.04348393887073        0.52257805145434       -2.19215686799032
O            2.31824348801903        0.41688020241137       -1.94853821450525
