82
Drug@Ti12C7O14 non-overlapping complex
C     -8.031485      0.312944     10.305221
O     -6.973292     -0.047252     11.195788
C     -5.756230      0.225761     10.630273
C     -5.269916      1.536025     10.688794
C     -4.013374      1.869164     10.203901
N     -3.611527      3.149679     10.272263
C     -2.395683      3.472000      9.780477
C     -1.527727      2.557902      9.224768
C     -1.935106      1.227960      9.187218
O     -1.121795      0.267725      8.620167
C      0.139505      0.119977      9.152913
C      1.175760     -0.108911      8.249534
C      2.484389     -0.297443      8.707694
C      2.768170     -0.270072     10.075815
N      4.068628     -0.458327     10.598655
C      5.260353     -0.513327      9.907623
O      5.411137     -0.335535      8.705763
N      6.313460     -0.786798     10.766702
C      7.653693     -0.922465     10.282247
C      8.618221      0.225829     10.387226
C      8.808309     -0.990717     11.244277
C      1.704526     -0.068554     10.976902
Cl      1.979950     -0.052752     12.687797
C      0.396496      0.121294     10.523407
C     -3.206266      0.849194      9.659417
C     -3.687604     -0.479012      9.617425
C     -4.958971     -0.792589     10.110080
C     -5.444876     -2.190273     10.033829
O     -6.563192     -2.477533      9.632133
N     -4.559494     -3.156286     10.429571
H     -8.959011     -0.114973     10.696945
H     -7.872254     -0.084210      9.296444
H     -8.148514      1.401135     10.268170
H     -5.883279      2.316820     11.132221
H     -2.135239      4.524934      9.846431
H     -0.568978      2.874066      8.831201
H      0.972549     -0.137758      7.181230
H      3.259801     -0.472206      7.967135
H      4.142873     -0.390103     11.605424
H      6.079615     -1.307646     11.600415
H      7.726010     -1.540434      9.388836
H      8.277249      1.139388     10.859772
H      9.299578      0.383635      9.559208
H      9.628969     -1.656311     11.002317
H      8.613844     -0.892122     12.305309
H     -0.408722      0.261106     11.238569
H     -3.074727     -1.263483      9.177510
H     -3.743225     -2.934601     10.982167
H     -4.932595     -4.094849     10.499240
Ti     -2.141866     -3.008818      2.119748
Ti      0.288991     -1.694759      1.432425
Ti      1.903098     -3.067749     -0.729322
Ti     -2.521502     -0.251928      1.303687
Ti      2.142050      0.499533      2.204434
Ti     -0.681448      0.189635      3.681230
Ti     -2.036770     -3.077740     -1.200512
Ti     -0.605340     -0.770900     -2.035132
Ti      1.945488     -1.587317     -3.412400
Ti     -1.878170      1.746573     -1.240030
Ti      2.412512      0.454231     -0.774247
Ti      0.817742      1.838452     -2.940004
C     -3.678414      1.281398      0.600737
C      4.128193      0.482847      0.387293
C      0.455479      2.267202      0.349695
C     -3.666709      2.118834     -0.313920
C      4.115962      0.632239      1.621354
C     -0.635167      2.741046     -0.118921
C      1.630072      1.780996      0.734224
O     -3.093456     -1.956907      1.037949
O     -0.487250     -2.605849      2.701203
O      0.314079     -2.888890      0.145001
O     -0.800785     -0.435934      0.971227
O      1.902865     -1.158331      1.469449
O     -2.322673     -0.113878      3.024800
O      1.013786      0.441598      3.568761
O     -1.772019     -4.587905     -1.652810
O      0.190605     -1.189189     -3.534030
O      2.831420     -2.170248     -1.918042
O     -2.054558     -0.224445     -1.337505
O      0.768511     -0.390574     -1.063664
O     -0.900039      1.649313     -2.818565
O      2.415313      1.357463     -2.264115
