49
Lenvatinib - ETKDG+MMFF conformer
C     -8.031485      0.312944      0.204963
O     -6.973292     -0.047252      1.095530
C     -5.756230      0.225761      0.530015
C     -5.269916      1.536025      0.588536
C     -4.013374      1.869164      0.103643
N     -3.611527      3.149679      0.172005
C     -2.395683      3.472000     -0.319781
C     -1.527727      2.557902     -0.875490
C     -1.935106      1.227960     -0.913040
O     -1.121795      0.267725     -1.480091
C      0.139505      0.119977     -0.947345
C      1.175760     -0.108911     -1.850724
C      2.484389     -0.297443     -1.392564
C      2.768170     -0.270072     -0.024443
N      4.068628     -0.458327      0.498397
C      5.260353     -0.513327     -0.192635
O      5.411137     -0.335535     -1.394495
N      6.313460     -0.786798      0.666444
C      7.653693     -0.922465      0.181989
C      8.618221      0.225829      0.286968
C      8.808309     -0.990717      1.144019
C      1.704526     -0.068554      0.876644
Cl      1.979950     -0.052752      2.587539
C      0.396496      0.121294      0.423149
C     -3.206266      0.849194     -0.440841
C     -3.687604     -0.479012     -0.482833
C     -4.958971     -0.792589      0.009822
C     -5.444876     -2.190273     -0.066429
O     -6.563192     -2.477533     -0.468125
N     -4.559494     -3.156286      0.329313
H     -8.959011     -0.114973      0.596687
H     -7.872254     -0.084210     -0.803814
H     -8.148514      1.401135      0.167912
H     -5.883279      2.316820      1.031963
H     -2.135239      4.524934     -0.253827
H     -0.568978      2.874066     -1.269057
H      0.972549     -0.137758     -2.919028
H      3.259801     -0.472206     -2.133123
H      4.142873     -0.390103      1.505166
H      6.079615     -1.307646      1.500157
H      7.726010     -1.540434     -0.711422
H      8.277249      1.139388      0.759514
H      9.299578      0.383635     -0.541050
H      9.628969     -1.656311      0.902059
H      8.613844     -0.892122      2.205051
H     -0.408722      0.261106      1.138311
H     -3.074727     -1.263483     -0.922748
H     -3.743225     -2.934601      0.881909
H     -4.932595     -4.094849      0.398982
