82
Drug@Ti12C7O14 clean complex
C     -4.408185     -3.204655     10.179818
O     -5.060535     -2.282646     11.055556
C     -4.709307     -0.997224     10.746288
C     -3.515077     -0.491724     11.259356
C     -3.149243      0.852519     11.033290
C     -1.950472      1.420358     11.504576
O     -1.098324      0.645203     12.264122
C      0.202103      0.522404     11.827775
C      0.553660      0.369914     10.485671
C      1.897600      0.218865     10.123134
C      2.900838      0.207106     11.096308
N      4.272679      0.051716     10.789524
C      4.870738      0.070943      9.547443
O      4.318570      0.308235      8.480736
N      6.227111     -0.196414      9.650269
C      7.062656     -0.277095      8.490435
C      7.507429     -1.611029      7.958120
C      8.502049     -0.697561      8.612326
C      2.524769      0.331060     12.447507
Cl      3.712988      0.300401     13.708264
C      1.185599      0.483301     12.813040
C     -1.659912      2.761484     11.274837
C     -2.568924      3.491390     10.540292
N     -3.721266      2.983223     10.051299
C     -4.007399      1.694213     10.296797
C     -5.198203      1.176293      9.810409
C     -5.566446     -0.157727     10.035568
C     -6.847535     -0.656109      9.482100
O     -6.944640     -1.734387      8.913775
N     -7.929912      0.168043      9.631946
H     -4.879887     -4.182906     10.311551
H     -4.509128     -2.916056      9.127608
H     -3.349572     -3.299299     10.443945
H     -2.873316     -1.144453     11.847020
H     -0.203263      0.355331      9.705128
H      2.126102      0.099537      9.067621
H      4.897112      0.077404     11.585052
H      6.515387     -0.727505     10.459661
H      6.848231      0.497448      7.755477
H      7.205651     -2.506353      8.487984
H      7.550880     -1.729289      6.881230
H      8.885947     -0.977366      9.585573
H      9.226608     -0.199112      7.978106
H      0.905663      0.574829     13.858902
H     -0.757747      3.224502     11.656123
H     -2.396428      4.541191     10.318768
H     -5.843364      1.829221      9.226624
H     -7.926388      0.948906     10.273531
H     -8.825896     -0.216127      9.360050
Ti     -2.141866     -3.008818      2.119748
Ti      0.288991     -1.694759      1.432425
Ti      1.903098     -3.067749     -0.729322
Ti     -2.521502     -0.251928      1.303687
Ti      2.142050      0.499533      2.204434
Ti     -0.681448      0.189635      3.681230
Ti     -2.036770     -3.077740     -1.200512
Ti     -0.605340     -0.770900     -2.035132
Ti      1.945488     -1.587317     -3.412400
Ti     -1.878170      1.746573     -1.240030
Ti      2.412512      0.454231     -0.774247
Ti      0.817742      1.838452     -2.940004
C     -3.678414      1.281398      0.600737
C      4.128193      0.482847      0.387293
C      0.455479      2.267202      0.349695
C     -3.666709      2.118834     -0.313920
C      4.115962      0.632239      1.621354
C     -0.635167      2.741046     -0.118921
C      1.630072      1.780996      0.734224
O     -3.093456     -1.956907      1.037949
O     -0.487250     -2.605849      2.701203
O      0.314079     -2.888890      0.145001
O     -0.800785     -0.435934      0.971227
O      1.902865     -1.158331      1.469449
O     -2.322673     -0.113878      3.024800
O      1.013786      0.441598      3.568761
O     -1.772019     -4.587905     -1.652810
O      0.190605     -1.189189     -3.534030
O      2.831420     -2.170248     -1.918042
O     -2.054558     -0.224445     -1.337505
O      0.768511     -0.390574     -1.063664
O     -0.900039      1.649313     -2.818565
O      2.415313      1.357463     -2.264115
