      -----------------------------------------------------------      
     |                   =====================                   |     
     |                           x T B                           |     
     |                   =====================                   |     
     |                         S. Grimme                         |     
     |          Mulliken Center for Theoretical Chemistry        |     
     |                    University of Bonn                     |     
      -----------------------------------------------------------      

   * xtb version 6.7.1pre (5071a88) compiled by 'Marcel@Raven' on 2024-07-23

   xtb is free software: you can redistribute it and/or modify it under
   the terms of the GNU Lesser General Public License as published by
   the Free Software Foundation, either version 3 of the License, or
   (at your option) any later version.
   
   xtb is distributed in the hope that it will be useful,
   but WITHOUT ANY WARRANTY; without even the implied warranty of
   MERCHANTABILITY or FITNESS FOR A PARTICULAR PURPOSE.  See the
   GNU Lesser General Public License for more details.
   
   Cite this work as:
   * C. Bannwarth, E. Caldeweyher, S. Ehlert, A. Hansen, P. Pracht,
     J. Seibert, S. Spicher, S. Grimme, WIREs Comput. Mol. Sci., 2020, 11,
     e01493. DOI: 10.1002/wcms.1493
   
   for GFN2-xTB:
   * C. Bannwarth, S. Ehlert and S. Grimme., J. Chem. Theory Comput., 2019,
     15, 1652-1671. DOI: 10.1021/acs.jctc.8b01176
   for GFN1-xTB:
   * S. Grimme, C. Bannwarth, P. Shushkov, J. Chem. Theory Comput., 2017,
     13, 1989-2009. DOI: 10.1021/acs.jctc.7b00118
   for GFN0-xTB:
   * P. Pracht, E. Caldeweyher, S. Ehlert, S. Grimme, ChemRxiv, 2019, preprint.
     DOI: 10.26434/chemrxiv.8326202.v1
   for GFN-FF:
   * S. Spicher and S. Grimme, Angew. Chem. Int. Ed., 2020, 59, 15665-15673.
     DOI: 10.1002/anie.202004239
   
   for ALPB and GBSA implicit solvation:
   * S. Ehlert, M. Stahn, S. Spicher, S. Grimme, J. Chem. Theory Comput.,
     2021, 17, 4250-4261. DOI: 10.1021/acs.jctc.1c00471
   
   for ddCOSMO and CPCM-X implicit solvation:
   * M. Stahn, S. Ehlert, S. Grimme, J. Phys. Chem. A,
     2023, XX, XXXX-XXXX. DOI: 10.1021/acs.jpca.3c04382
   
   for DFT-D4:
   * E. Caldeweyher, C. Bannwarth and S. Grimme, J. Chem. Phys., 2017,
     147, 034112. DOI: 10.1063/1.4993215
   * E. Caldeweyher, S. Ehlert, A. Hansen, H. Neugebauer, S. Spicher,
     C. Bannwarth and S. Grimme, J. Chem. Phys., 2019, 150, 154122.
     DOI: 10.1063/1.5090222
   * E. Caldeweyher, J.-M. Mewes, S. Ehlert and S. Grimme, Phys. Chem. Chem. Phys.
     2020, 22, 8499-8512. DOI: 10.1039/D0CP00502A
   
   for sTDA-xTB:
   * S. Grimme and C. Bannwarth, J. Chem. Phys., 2016, 145, 054103.
     DOI: 10.1063/1.4959605
   
   in the mass-spec context:
   * V. Asgeirsson, C. Bauer and S. Grimme, Chem. Sci., 2017, 8, 4879.
     DOI: 10.1039/c7sc00601b
   * J. Koopman and S. Grimme, ACS Omega 2019, 4, 12, 15120-15133.
     DOI: 10.1021/acsomega.9b02011
   
   for metadynamics refer to:
   * S. Grimme, J. Chem. Theory Comput., 2019, 155, 2847-2862
     DOI: 10.1021/acs.jctc.9b00143
   
   for SPH calculations refer to:
   * S. Spicher and S. Grimme, J. Chem. Theory Comput., 2021, 17, 1701-1714
     DOI: 10.1021/acs.jctc.0c01306
   
   for ONIOM refer to:
   * C. Plett, A. Katbashev, S. Ehlert, S. Grimme, M. Bursch,
     Phys. Chem. Chem. Phys., 2023, 25, 17860-17868. DOI: 10.1039/D3CP02178E
   
   for DIPRO refer to:
   * J. Kohn, N. Gildemeister, S. Grimme, D. Fazzi, A. Hansen,
     J. Chem. Phys., 2023, just accepted.
   
   for PTB refer to:
   * S. Grimme, M. Mueller, A. Hansen, J. Chem. Phys., 2023, 158, 124111.
     DOI: 10.1063/5.0137838
   
   with help from (in alphabetical order)
   P. Atkinson, C. Bannwarth, F. Bohle, G. Brandenburg, E. Caldeweyher
   M. Checinski, S. Dohm, S. Ehlert, S. Ehrlich, I. Gerasimov, C. Hölzer
   A. Katbashev, J. Kohn, J. Koopman, C. Lavigne, S. Lehtola, F. März, M. Müller,
   F. Musil, H. Neugebauer, J. Pisarek, C. Plett, P. Pracht, F. Pultar,
   J. Seibert, P. Shushkov, S. Spicher, M. Stahn, M. Steiner, T. Strunk,
   J. Stückrath, T. Rose, and J. Unsleber
   
 * started run on 2026/08/31 at 20:35:56.586     
   ID    Z sym.   atoms
    1    6 C      1, 3, 5-7, 9-12, 14, 17-20, 22, 23, 27-31
    2    7 N      2, 13, 16, 32
    3    8 O      4, 8, 15
    4   17 Cl     21
    5    9 F      24-26
    6    1 H      33-48

           -------------------------------------------------
          |                Calculation Setup                |
           -------------------------------------------------

          program call               : "c:\Users\Andre\Proyectos doctorado\kras-pancreatic-gC3N4-ai\tools\xtb\xtb-6.7.1\bin\xtb.exe" "c:\Users\Andre\Proyectos doctorado\mxene-glioblastoma-qsar-ai\calculations\gbm\Sorafenib\Sorafenib_drug.xyz" --gfn 2 --sp --chrg 0 --uhf 0 --iterations 500 --norestart
          coordinate file            : c:\Users\Andre\Proyectos doctorado\mxene-glioblastoma-qsar-ai\calculations\gbm\Sorafenib\Sorafenib_drug.xyz
          omp threads                :                    16


           -------------------------------------------------
          |                 G F N 2 - x T B                 |
           -------------------------------------------------

        Reference                      10.1021/acs.jctc.8b01176
      * Hamiltonian:
        H0-scaling (s, p, d)           1.850000    2.230000    2.230000
        zeta-weighting                 0.500000
      * Dispersion:
        s8                             2.700000
        a1                             0.520000
        a2                             5.000000
        s9                             5.000000
      * Repulsion:
        kExp                           1.500000    1.000000
        rExp                           1.000000
      * Coulomb:
        alpha                          2.000000
        third order                    shell-resolved
        anisotropic                    true
        a3                             3.000000
        a5                             4.000000
        cn-shift                       1.200000
        cn-exp                         4.000000
        max-rad                        5.000000


          ...................................................
          :                      SETUP                      :
          :.................................................:
          :  # basis functions                 150          :
          :  # atomic orbitals                 149          :
          :  # shells                           81          :
          :  # electrons                       166          :
          :  max. iterations                   500          :
          :  Hamiltonian                  GFN2-xTB          :
          :  restarted?                      false          :
          :  GBSA solvation                  false          :
          :  PC potential                    false          :
          :  electronic temp.          300.0000000     K    :
          :  accuracy                    1.0000000          :
          :  -> integral cutoff          0.2500000E+02      :
          :  -> integral neglect         0.1000000E-07      :
          :  -> SCF convergence          0.1000000E-05 Eh   :
          :  -> wf. convergence          0.1000000E-03 e    :
          :  Broyden damping             0.4000000          :
          :  net charge                          0          :
          :  unpaired electrons                  0          :
          ...................................................

 iter      E             dE          RMSdq      gap      omega  full diag
   1    -96.6861886 -0.966862E+02  0.449E+00    2.30       0.0  T
   2    -96.8818727 -0.195684E+00  0.264E+00    2.85       1.0  T
   3    -96.8924327 -0.105600E-01  0.131E+00    2.88       1.0  T
   4    -96.8995905 -0.715779E-02  0.349E-01    2.84       1.0  T
   5    -96.9041112 -0.452073E-02  0.111E-01    2.86       1.0  T
   6    -96.9043065 -0.195354E-03  0.601E-02    2.86       1.0  T
   7    -96.9043474 -0.409033E-04  0.342E-02    2.87       1.0  T
   8    -96.9043614 -0.139939E-04  0.228E-02    2.87       1.0  T
   9    -96.9043680 -0.655835E-05  0.173E-02    2.87       1.0  T
  10    -96.9043736 -0.558826E-05  0.100E-02    2.87       1.4  T
  11    -96.9043756 -0.200322E-05  0.546E-03    2.87       2.6  T
  12    -96.9043762 -0.582603E-06  0.207E-03    2.87       7.0  T
  13    -96.9043763 -0.958223E-07  0.971E-04    2.87      14.9  T
  14    -96.9043763 -0.116821E-07  0.495E-04    2.87      29.2  T

   *** convergence criteria satisfied after 14 iterations ***

         #    Occupation            Energy/Eh            Energy/eV
      -------------------------------------------------------------
         1        2.0000           -1.0688830             -29.0858
       ...           ...                  ...                  ...
        77        2.0000           -0.4230279             -11.5112
        78        2.0000           -0.4198517             -11.4247
        79        2.0000           -0.4084987             -11.1158
        80        2.0000           -0.4035046             -10.9799
        81        2.0000           -0.3962397             -10.7822
        82        2.0000           -0.3912687             -10.6470
        83        2.0000           -0.3860697             -10.5055 (HOMO)
        84                         -0.2805584              -7.6344 (LUMO)
        85                         -0.2798990              -7.6164
        86                         -0.2705336              -7.3616
        87                         -0.2592345              -7.0541
        88                         -0.2483602              -6.7582
       ...                                ...                  ...
       149                          0.6566224              17.8676
      -------------------------------------------------------------
                  HL-Gap            0.1055113 Eh            2.8711 eV
             Fermi-level           -0.3333140 Eh           -9.0699 eV

 SCC (total)                   0 d,  0 h,  0 min,  0.085 sec
 SCC setup                      ...        0 min,  0.001 sec (  1.176%)
 Dispersion                     ...        0 min,  0.000 sec (  0.000%)
 classical contributions        ...        0 min,  0.000 sec (  0.000%)
 integral evaluation            ...        0 min,  0.002 sec (  2.353%)
 iterations                     ...        0 min,  0.076 sec ( 89.412%)
 molecular gradient             ...        0 min,  0.005 sec (  5.882%)
 printout                       ...        0 min,  0.001 sec (  1.177%)

         :::::::::::::::::::::::::::::::::::::::::::::::::::::
         ::                     SUMMARY                     ::
         :::::::::::::::::::::::::::::::::::::::::::::::::::::
         :: total energy             -95.817362303717 Eh    ::
         :: gradient norm              0.095808587354 Eh/a0 ::
         :: HOMO-LUMO gap              2.871109892042 eV    ::
         ::.................................................::
         :: SCC energy               -96.904859699335 Eh    ::
         :: -> isotropic ES            0.152235396610 Eh    ::
         :: -> anisotropic ES          0.000439763821 Eh    ::
         :: -> anisotropic XC          0.014676942483 Eh    ::
         :: -> dispersion             -0.052691114421 Eh    ::
         :: repulsion energy           1.087497395618 Eh    ::
         :: add. restraining           0.000000000000 Eh    ::
         :: total charge              -0.000000000000 e     ::
         :::::::::::::::::::::::::::::::::::::::::::::::::::::

           -------------------------------------------------
          |                Property Printout                |
           -------------------------------------------------

    * Orbital Energies and Occupations

         #    Occupation            Energy/Eh            Energy/eV
      -------------------------------------------------------------
         1        2.0000           -1.0688830             -29.0858
       ...           ...                  ...                  ...
        71        2.0000           -0.4504218             -12.2566
        72        2.0000           -0.4499193             -12.2429
        73        2.0000           -0.4447359             -12.1019
        74        2.0000           -0.4339642             -11.8088
        75        2.0000           -0.4316762             -11.7465
        76        2.0000           -0.4279494             -11.6451
        77        2.0000           -0.4230279             -11.5112
        78        2.0000           -0.4198517             -11.4247
        79        2.0000           -0.4084987             -11.1158
        80        2.0000           -0.4035046             -10.9799
        81        2.0000           -0.3962397             -10.7822
        82        2.0000           -0.3912687             -10.6470
        83        2.0000           -0.3860697             -10.5055 (HOMO)
        84                         -0.2805584              -7.6344 (LUMO)
        85                         -0.2798990              -7.6164
        86                         -0.2705336              -7.3616
        87                         -0.2592345              -7.0541
        88                         -0.2483602              -6.7582
        89                         -0.2411843              -6.5630
        90                         -0.2047339              -5.5711
        91                         -0.1879456              -5.1143
        92                         -0.1548982              -4.2150
        93                         -0.1434231              -3.9027
        94                         -0.1162798              -3.1641
       ...                                ...                  ...
       149                          0.6566224              17.8676
      -------------------------------------------------------------
                  HL-Gap            0.1055113 Eh            2.8711 eV
             Fermi-level           -0.3333140 Eh           -9.0699 eV

     #   Z          covCN         q      C6AA      α(0)
     1   6 C        3.687    -0.038    21.454     6.630
     2   7 N        2.683    -0.168    24.640     7.372
     3   6 C        2.756     0.259    22.634     7.791
     4   8 O        0.857    -0.432    22.331     6.336
     5   6 C        2.946     0.063    26.582     8.456
     6   6 C        2.908    -0.051    29.257     8.869
     7   6 C        2.890     0.163    24.475     8.111
     8   8 O        1.708    -0.266    18.411     5.793
     9   6 C        2.872     0.138    24.984     8.194
    10   6 C        2.911    -0.048    29.191     8.859
    11   6 C        2.920    -0.054    29.345     8.883
    12   6 C        2.894     0.076    26.297     8.408
    13   7 N        2.703    -0.181    24.925     7.415
    14   6 C        2.681     0.327    21.442     7.578
    15   8 O        0.857    -0.430    22.281     6.329
    16   7 N        2.703    -0.180    24.889     7.409
    17   6 C        2.893     0.087    26.056     8.369
    18   6 C        2.914    -0.036    28.888     8.814
    19   6 C        2.956    -0.035    28.861     8.812
    20   6 C        2.879     0.097    25.848     8.335
    21  17 Cl       0.962    -0.133   103.318    15.551
    22   6 C        2.984    -0.030    28.751     8.796
    23   6 C        3.331     0.484    17.373     6.611
    24   9 F        0.788    -0.200    11.233     3.959
    25   9 F        0.788    -0.200    11.236     3.960
    26   9 F        0.788    -0.211    11.347     3.979
    27   6 C        2.923    -0.050    29.249     8.869
    28   6 C        2.914    -0.044    29.093     8.845
    29   6 C        2.911    -0.050    29.248     8.868
    30   6 C        2.906    -0.057    29.414     8.893
    31   6 C        2.886     0.058    26.702     8.472
    32   7 N        1.833    -0.250    27.368     7.752
    33   1 H        0.924     0.079     1.992     2.207
    34   1 H        0.924     0.054     2.277     2.360
    35   1 H        0.924     0.054     2.276     2.359
    36   1 H        0.860     0.191     1.153     1.682
    37   1 H        0.925     0.072     2.064     2.247
    38   1 H        0.925     0.058     2.227     2.334
    39   1 H        0.925     0.038     2.469     2.457
    40   1 H        0.860     0.176     1.239     1.744
    41   1 H        0.860     0.180     1.214     1.726
    42   1 H        0.925     0.102     1.766     2.078
    43   1 H        0.925     0.083     1.948     2.183
    44   1 H        0.925     0.066     2.129     2.282
    45   1 H        0.925     0.082     1.961     2.190
    46   1 H        0.925     0.048     2.344     2.394
    47   1 H        0.925     0.059     2.207     2.323
    48   1 H        0.925     0.050     2.320     2.382

 Mol. C6AA /au·bohr⁶  :      33730.395732
 Mol. C8AA /au·bohr⁸  :     843411.647779
 Mol. α(0) /au        :        286.264396


Wiberg/Mayer (AO) data.
largest (>0.10) Wiberg bond orders for each atom

 ---------------------------------------------------------------------------
     #   Z sym  total        # sym  WBO       # sym  WBO       # sym  WBO
 ---------------------------------------------------------------------------
     1   6 C    3.967 --     2 N    1.012    35 H    0.983    33 H    0.976
                            34 H    0.972
     2   7 N    3.454 --     3 C    1.245     1 C    1.012    36 H    0.928
                             4 O    0.212
     3   6 C    3.957 --     4 O    1.665     2 N    1.245     5 C    0.980
     4   8 O    2.003 --     3 C    1.665     2 N    0.212
     5   6 C    3.977 --     6 C    1.422    32 N    1.368     3 C    0.980
     6   6 C    3.986 --     5 C    1.422     7 C    1.371    37 H    0.960
     7   6 C    3.936 --     6 C    1.371    30 C    1.370     8 O    1.029
     8   8 O    2.260 --     7 C    1.029     9 C    0.997
     9   6 C    3.927 --    29 C    1.384    10 C    1.380     8 O    0.997
    10   6 C    3.986 --    11 C    1.454     9 C    1.380    38 H    0.968
                            28 C    0.106
    11   6 C    3.985 --    10 C    1.454    12 C    1.366    39 H    0.967
                            29 C    0.107
    12   6 C    3.956 --    28 C    1.376    11 C    1.366    13 N    1.068
    13   7 N    3.441 --    14 C    1.138    12 C    1.068    40 H    0.934
                            15 O    0.141
    14   6 C    3.958 --    15 O    1.646    13 N    1.138    16 N    1.108
    15   8 O    2.007 --    14 C    1.646    13 N    0.141    16 N    0.128
    16   7 N    3.438 --    14 C    1.108    17 C    1.093    41 H    0.933
                            15 O    0.128
    17   6 C    3.966 --    27 C    1.369    18 C    1.360    16 N    1.093
    18   6 C    3.980 --    19 C    1.455    17 C    1.360    42 H    0.956
    19   6 C    3.984 --    18 C    1.455    20 C    1.388    43 H    0.964
                            27 C    0.105
    20   6 C    3.925 --    19 C    1.388    22 C    1.370    21 Cl   1.003
    21  17 Cl   1.147 --    20 C    1.003
    22   6 C    3.970 --    27 C    1.408    20 C    1.370    23 C    0.960
    23   6 C    3.833 --    22 C    0.960    24 F    0.948    25 F    0.948
                            26 F    0.941
    24   9 F    1.077 --    23 C    0.948
    25   9 F    1.077 --    23 C    0.948
    26   9 F    1.063 --    23 C    0.941
    27   6 C    3.982 --    22 C    1.408    17 C    1.369    44 H    0.962
                            19 C    0.105
    28   6 C    3.983 --    29 C    1.446    12 C    1.376    45 H    0.960
                            10 C    0.106
    29   6 C    3.989 --    28 C    1.446     9 C    1.384    46 H    0.968
                            11 C    0.107
    30   6 C    3.985 --    31 C    1.442     7 C    1.370    47 H    0.966
    31   6 C    3.980 --    30 C    1.442    32 N    1.434    48 H    0.964
    32   7 N    3.050 --    31 C    1.434     5 C    1.368
    33   1 H    0.994 --     1 C    0.976
    34   1 H    0.996 --     1 C    0.972
    35   1 H    0.997 --     1 C    0.983
    36   1 H    0.963 --     2 N    0.928
    37   1 H    0.995 --     6 C    0.960
    38   1 H    0.996 --    10 C    0.968
    39   1 H    0.998 --    11 C    0.967
    40   1 H    0.969 --    13 N    0.934
    41   1 H    0.967 --    16 N    0.933
    42   1 H    0.989 --    18 C    0.956
    43   1 H    0.992 --    19 C    0.964
    44   1 H    0.996 --    27 C    0.962
    45   1 H    0.993 --    28 C    0.960
    46   1 H    0.997 --    29 C    0.968
    47   1 H    0.996 --    30 C    0.966
    48   1 H    0.997 --    31 C    0.964
 ---------------------------------------------------------------------------

Topologies differ in total number of bonds
Writing topology from bond orders to xtbtopo.mol

molecular dipole:
                 x           y           z       tot (Debye)
 q only:        2.376       0.673      -0.285
   full:        1.877       1.160      -0.198       5.630
molecular quadrupole (traceless):
                xx          xy          yy          xz          yz          zz
 q only:      -38.323     -22.826      25.144      -8.299       4.233      13.178
  q+dip:      -32.478     -15.868      22.959     -13.867       9.408       9.519
   full:      -33.863     -14.859      23.273     -10.478       6.858      10.590


           -------------------------------------------------
          | TOTAL ENERGY              -95.817362303717 Eh   |
          | GRADIENT NORM               0.095808587354 Eh/α |
          | HOMO-LUMO GAP               2.871109892042 eV   |
           -------------------------------------------------

------------------------------------------------------------------------
 * finished run on 2026/08/31 at 20:35:56.716     
------------------------------------------------------------------------
 total:
 * wall-time:     0 d,  0 h,  0 min,  0.128 sec
 *  cpu-time:     0 d,  0 h,  0 min,  0.938 sec
 * ratio c/w:     7.324 speedup
 SCF:
 * wall-time:     0 d,  0 h,  0 min,  0.086 sec
 *  cpu-time:     0 d,  0 h,  0 min,  0.828 sec
 * ratio c/w:     9.629 speedup

normal termination of xtb
