81
Drug@Ti3C2O2 complex
C      7.090216     -3.387389      6.889982
N      6.727655     -2.255547      6.082365
C      5.689917     -1.410711      6.415358
O      4.930410     -1.591688      7.359776
C      5.562851     -0.212186      5.523239
C      4.527870      0.687364      5.722878
C      4.459688      1.783554      4.869577
O      3.504066      2.767398      4.990173
C      2.204597      2.355994      5.171256
C      1.494296      2.915659      6.229320
C      0.160378      2.554269      6.438146
C     -0.477233      1.643384      5.583659
N     -1.826779      1.338676      5.860470
C     -2.620498      0.380181      5.245510
O     -2.235490     -0.418064      4.402362
N     -3.922670      0.461077      5.723609
C     -4.996907     -0.403754      5.429761
C     -4.862749     -1.608643      4.743012
C     -5.980081     -2.414033      4.501187
C     -7.244727     -2.026376      4.948133
Cl     -8.570414     -3.077026      4.608624
C     -7.405945     -0.826798      5.646953
C     -8.753560     -0.382106      6.145538
F     -9.662149     -0.203069      5.148639
F     -9.311758     -1.252815      7.029822
F     -8.704457      0.814125      6.804270
C     -6.268144     -0.025552      5.882797
C      0.238463      1.113730      4.507146
C      1.575094      1.470858      4.296960
C      5.426844      1.964920      3.885767
C      6.421678      1.010877      3.763822
N      6.516324     -0.078933      4.554426
H      6.199780     -3.852464      7.320971
H      7.746435     -3.044346      7.693990
H      7.621355     -4.106600      6.262460
H      7.343971     -1.930971      5.341214
H      3.810073      0.535234      6.521136
H      1.977735      3.625102      6.895244
H     -0.368781      2.996640      7.277952
H     -2.210985      1.767142      6.688082
H     -4.154587      1.310176      6.215750
H     -3.898975     -1.960011      4.385354
H     -5.848774     -3.349353      3.960647
H     -6.389699      0.910180      6.427602
H     -0.216271      0.423627      3.803026
H      2.107799      1.056805      3.445429
H      5.400311      2.826993      3.228600
H      7.193826      1.104469      3.004840
Ti     -3.000000     -2.600000      1.250000
Ti      0.000000     -2.600000      1.250000
Ti      3.000000     -2.600000      1.250000
Ti     -1.500000      0.000000      1.250000
Ti      1.500000      0.000000      1.250000
Ti      0.000000      2.600000      1.250000
Ti     -3.000000     -2.600000     -1.250000
Ti      0.000000     -2.600000     -1.250000
Ti      3.000000     -2.600000     -1.250000
Ti     -1.500000      0.000000     -1.250000
Ti      1.500000      0.000000     -1.250000
Ti      0.000000      2.600000     -1.250000
C     -1.500000     -1.300000      0.000000
C      1.500000     -1.300000      0.000000
C      0.000000      1.300000      0.000000
C     -3.000000      0.000000      0.000000
C      3.000000      0.000000      0.000000
C     -1.500000      2.600000      0.000000
C      1.500000      2.600000      0.000000
O     -3.000000     -2.600000      2.450000
O      0.000000     -2.600000      2.450000
O      3.000000     -2.600000      2.450000
O     -1.500000      0.000000      2.450000
O      1.500000      0.000000      2.450000
O     -1.500000      2.600000      2.450000
O      1.500000      2.600000      2.450000
O     -3.000000     -2.600000     -2.450000
O      0.000000     -2.600000     -2.450000
O      3.000000     -2.600000     -2.450000
O     -1.500000      0.000000     -2.450000
O      1.500000      0.000000     -2.450000
O     -1.500000      2.600000     -2.450000
O      1.500000      2.600000     -2.450000
