      -----------------------------------------------------------      
     |                   =====================                   |     
     |                           x T B                           |     
     |                   =====================                   |     
     |                         S. Grimme                         |     
     |          Mulliken Center for Theoretical Chemistry        |     
     |                    University of Bonn                     |     
      -----------------------------------------------------------      

   * xtb version 6.7.1pre (5071a88) compiled by 'Marcel@Raven' on 2024-07-23

   xtb is free software: you can redistribute it and/or modify it under
   the terms of the GNU Lesser General Public License as published by
   the Free Software Foundation, either version 3 of the License, or
   (at your option) any later version.
   
   xtb is distributed in the hope that it will be useful,
   but WITHOUT ANY WARRANTY; without even the implied warranty of
   MERCHANTABILITY or FITNESS FOR A PARTICULAR PURPOSE.  See the
   GNU Lesser General Public License for more details.
   
   Cite this work as:
   * C. Bannwarth, E. Caldeweyher, S. Ehlert, A. Hansen, P. Pracht,
     J. Seibert, S. Spicher, S. Grimme, WIREs Comput. Mol. Sci., 2020, 11,
     e01493. DOI: 10.1002/wcms.1493
   
   for GFN2-xTB:
   * C. Bannwarth, S. Ehlert and S. Grimme., J. Chem. Theory Comput., 2019,
     15, 1652-1671. DOI: 10.1021/acs.jctc.8b01176
   for GFN1-xTB:
   * S. Grimme, C. Bannwarth, P. Shushkov, J. Chem. Theory Comput., 2017,
     13, 1989-2009. DOI: 10.1021/acs.jctc.7b00118
   for GFN0-xTB:
   * P. Pracht, E. Caldeweyher, S. Ehlert, S. Grimme, ChemRxiv, 2019, preprint.
     DOI: 10.26434/chemrxiv.8326202.v1
   for GFN-FF:
   * S. Spicher and S. Grimme, Angew. Chem. Int. Ed., 2020, 59, 15665-15673.
     DOI: 10.1002/anie.202004239
   
   for ALPB and GBSA implicit solvation:
   * S. Ehlert, M. Stahn, S. Spicher, S. Grimme, J. Chem. Theory Comput.,
     2021, 17, 4250-4261. DOI: 10.1021/acs.jctc.1c00471
   
   for ddCOSMO and CPCM-X implicit solvation:
   * M. Stahn, S. Ehlert, S. Grimme, J. Phys. Chem. A,
     2023, XX, XXXX-XXXX. DOI: 10.1021/acs.jpca.3c04382
   
   for DFT-D4:
   * E. Caldeweyher, C. Bannwarth and S. Grimme, J. Chem. Phys., 2017,
     147, 034112. DOI: 10.1063/1.4993215
   * E. Caldeweyher, S. Ehlert, A. Hansen, H. Neugebauer, S. Spicher,
     C. Bannwarth and S. Grimme, J. Chem. Phys., 2019, 150, 154122.
     DOI: 10.1063/1.5090222
   * E. Caldeweyher, J.-M. Mewes, S. Ehlert and S. Grimme, Phys. Chem. Chem. Phys.
     2020, 22, 8499-8512. DOI: 10.1039/D0CP00502A
   
   for sTDA-xTB:
   * S. Grimme and C. Bannwarth, J. Chem. Phys., 2016, 145, 054103.
     DOI: 10.1063/1.4959605
   
   in the mass-spec context:
   * V. Asgeirsson, C. Bauer and S. Grimme, Chem. Sci., 2017, 8, 4879.
     DOI: 10.1039/c7sc00601b
   * J. Koopman and S. Grimme, ACS Omega 2019, 4, 12, 15120-15133.
     DOI: 10.1021/acsomega.9b02011
   
   for metadynamics refer to:
   * S. Grimme, J. Chem. Theory Comput., 2019, 155, 2847-2862
     DOI: 10.1021/acs.jctc.9b00143
   
   for SPH calculations refer to:
   * S. Spicher and S. Grimme, J. Chem. Theory Comput., 2021, 17, 1701-1714
     DOI: 10.1021/acs.jctc.0c01306
   
   for ONIOM refer to:
   * C. Plett, A. Katbashev, S. Ehlert, S. Grimme, M. Bursch,
     Phys. Chem. Chem. Phys., 2023, 25, 17860-17868. DOI: 10.1039/D3CP02178E
   
   for DIPRO refer to:
   * J. Kohn, N. Gildemeister, S. Grimme, D. Fazzi, A. Hansen,
     J. Chem. Phys., 2023, just accepted.
   
   for PTB refer to:
   * S. Grimme, M. Mueller, A. Hansen, J. Chem. Phys., 2023, 158, 124111.
     DOI: 10.1063/5.0137838
   
   with help from (in alphabetical order)
   P. Atkinson, C. Bannwarth, F. Bohle, G. Brandenburg, E. Caldeweyher
   M. Checinski, S. Dohm, S. Ehlert, S. Ehrlich, I. Gerasimov, C. Hölzer
   A. Katbashev, J. Kohn, J. Koopman, C. Lavigne, S. Lehtola, F. März, M. Müller,
   F. Musil, H. Neugebauer, J. Pisarek, C. Plett, P. Pracht, F. Pultar,
   J. Seibert, P. Shushkov, S. Spicher, M. Stahn, M. Steiner, T. Strunk,
   J. Stückrath, T. Rose, and J. Unsleber
   
 * started run on 2026/08/31 at 21:19:01.267     
   ID    Z sym.   atoms
    1    6 C      1, 3, 5-7, 9-12, 14, 17-20, 22, 23, 27-31, 61-67
    2    7 N      2, 13, 16, 32
    3    8 O      4, 8, 15, 68-81
    4   17 Cl     21
    5    9 F      24-26
    6    1 H      33-48
    7   22 Ti     49-60

           -------------------------------------------------
          |                Calculation Setup                |
           -------------------------------------------------

          program call               : "c:\Users\Andre\Proyectos doctorado\kras-pancreatic-gC3N4-ai\tools\xtb\xtb-6.7.1\bin\xtb.exe" "c:\Users\Andre\Proyectos doctorado\mxene-glioblastoma-qsar-ai\calculations\gbm\Sorafenib\Sorafenib_Ti12C7O14_phys_complex.xyz" --gfn 2 --sp --chrg 0 --uhf 0 --etemp 300 --iterations 500 --norestart
          coordinate file            : c:\Users\Andre\Proyectos doctorado\mxene-glioblastoma-qsar-ai\calculations\gbm\Sorafenib\Sorafenib_Ti12C7O14_phys_complex.xyz
          omp threads                :                    16


molecular fragmentation (1/2 indicates fragments):
111111111111111111111111111111111111111111111111222222222222222222222222
222222222
# atoms in fragment 1/2:    48    33
 fragment masses (1/2) :      464.83      882.47
CMA distance (Bohr)    :  18.538
constraining FC (au)   :  0.0500

           -------------------------------------------------
          |                 G F N 2 - x T B                 |
           -------------------------------------------------

        Reference                      10.1021/acs.jctc.8b01176
      * Hamiltonian:
        H0-scaling (s, p, d)           1.850000    2.230000    2.230000
        zeta-weighting                 0.500000
      * Dispersion:
        s8                             2.700000
        a1                             0.520000
        a2                             5.000000
        s9                             5.000000
      * Repulsion:
        kExp                           1.500000    1.000000
        rExp                           1.000000
      * Coulomb:
        alpha                          2.000000
        third order                    shell-resolved
        anisotropic                    true
        a3                             3.000000
        a5                             4.000000
        cn-shift                       1.200000
        cn-exp                         4.000000
        max-rad                        5.000000


          ...................................................
          :                      SETUP                      :
          :.................................................:
          :  # basis functions                 354          :
          :  # atomic orbitals                 341          :
          :  # shells                          159          :
          :  # electrons                       326          :
          :  max. iterations                   500          :
          :  Hamiltonian                  GFN2-xTB          :
          :  restarted?                      false          :
          :  GBSA solvation                  false          :
          :  PC potential                    false          :
          :  electronic temp.          300.0000000     K    :
          :  accuracy                    1.0000000          :
          :  -> integral cutoff          0.2500000E+02      :
          :  -> integral neglect         0.1000000E-07      :
          :  -> SCF convergence          0.1000000E-05 Eh   :
          :  -> wf. convergence          0.1000000E-03 e    :
          :  Broyden damping             0.4000000          :
          :  net charge                          0          :
          :  unpaired electrons                  0          :
          ...................................................

 iter      E             dE          RMSdq      gap      omega  full diag
   1   -186.4906793 -0.186491E+03  0.140E+01    0.12       0.0  T
   2   -144.8638638  0.416268E+02  0.152E+01    0.14       1.0  T
   3     23.5663308  0.168430E+03  0.291E+01    0.09       1.0  T
   4   -156.7899577 -0.180356E+03  0.131E+01    0.08       1.0  T
   5    -55.4835336  0.101306E+03  0.193E+01    0.01       1.0  T
   6   -188.0027776 -0.132519E+03  0.723E+00    0.00       1.0  T
   7   -188.9979775 -0.995200E+00  0.556E+00    0.09       1.0  T
   8   -188.1942939  0.803684E+00  0.640E+00    0.30       1.0  T
   9   -189.0715148 -0.877221E+00  0.528E+00    0.05       1.0  T
  10   -188.2594559  0.812059E+00  0.580E+00    0.20       1.0  T
  11   -184.5612469  0.369821E+01  0.554E+00    0.15       1.0  T
  12   -188.3806883 -0.381944E+01  0.428E+00    0.09       1.0  T
  13   -181.5991221  0.678157E+01  0.570E+00    0.11       1.0  T
  14   -184.7939053 -0.319478E+01  0.472E+00    0.15       1.0  T
  15   -186.3014451 -0.150754E+01  0.416E+00    0.12       1.0  T
  16   -184.9492121  0.135223E+01  0.441E+00    0.18       1.0  T
  17   -187.5037278 -0.255452E+01  0.353E+00    0.02       1.0  T
  18   -184.8138635  0.268986E+01  0.408E+00    0.08       1.0  T
  19   -186.8293281 -0.201546E+01  0.321E+00    0.02       1.0  T
  20   -186.7490443  0.802838E-01  0.315E+00    0.03       1.0  T
  21   -188.2519765 -0.150293E+01  0.250E+00    0.02       1.0  T
  22   -189.5095005 -0.125752E+01  0.216E+00    0.08       1.0  T
  23   -189.5117539 -0.225340E-02  0.219E+00    0.08       1.0  T
  24   -189.5116810  0.728625E-04  0.217E+00    0.08       1.0  T
  25   -188.7925569  0.719124E+00  0.230E+00    0.09       1.0  T
  26   -189.4857056 -0.693149E+00  0.182E+00    0.05       1.0  T
  27   -188.7548129  0.730893E+00  0.223E+00    0.09       1.0  T
  28   -189.5150328 -0.760220E+00  0.133E+00    0.08       1.0  T
  29   -189.5665224 -0.514896E-01  0.136E+00    0.21       1.0  T
  30   -189.5736055 -0.708311E-02  0.129E+00    0.28       1.0  T
  31   -189.5835848 -0.997928E-02  0.108E+00    0.40       1.0  T
  32   -189.5914661 -0.788134E-02  0.900E-01    0.43       1.0  T
  33   -189.5971687 -0.570257E-02  0.774E-01    0.46       1.0  T
  34   -189.6034179 -0.624921E-02  0.635E-01    0.53       1.0  T
  35   -189.6088714 -0.545351E-02  0.472E-01    0.60       1.0  T
  36   -189.6119336 -0.306223E-02  0.375E-01    0.59       1.0  T
  37   -189.6132174 -0.128371E-02  0.300E-01    0.61       1.0  T
  38   -189.6143768 -0.115949E-02  0.250E-01    0.62       1.0  T
  39   -189.6151856 -0.808742E-03  0.207E-01    0.65       1.0  T
  40   -189.6159127 -0.727092E-03  0.170E-01    0.66       1.0  T
  41   -189.6165615 -0.648837E-03  0.119E-01    0.65       1.0  T
  42   -189.6169184 -0.356886E-03  0.775E-02    0.68       1.0  T
  43   -189.6170003 -0.819166E-04  0.684E-02    0.68       1.0  T
  44   -189.6170924 -0.921051E-04  0.578E-02    0.67       1.0  T
  45   -189.6171426 -0.502022E-04  0.475E-02    0.66       1.0  T
  46   -189.6171757 -0.331073E-04  0.428E-02    0.66       1.0  T
  47   -189.6171974 -0.216390E-04  0.387E-02    0.66       1.0  T
  48   -189.6172181 -0.207434E-04  0.357E-02    0.67       1.0  T
  49   -189.6172324 -0.142334E-04  0.344E-02    0.66       1.0  T
  50   -189.6172416 -0.924000E-05  0.326E-02    0.66       1.0  T
  51   -189.6172629 -0.212784E-04  0.291E-02    0.66       1.0  T
  52   -189.6172791 -0.161909E-04  0.257E-02    0.65       1.0  T
  53   -189.6172967 -0.176176E-04  0.213E-02    0.65       1.0  T
  54   -189.6173138 -0.171433E-04  0.166E-02    0.65       1.0  T
  55   -189.6173231 -0.932408E-05  0.135E-02    0.64       1.0  T
  56   -189.6173308 -0.763769E-05  0.104E-02    0.64       1.1  T
  57   -189.6173346 -0.384362E-05  0.836E-03    0.64       1.3  T
  58   -189.6173367 -0.205573E-05  0.668E-03    0.64       1.7  T
  59   -189.6173384 -0.167809E-05  0.515E-03    0.64       2.2  T
  60   -189.6173391 -0.749013E-06  0.417E-03    0.64       2.7  T
  61   -189.6173395 -0.347418E-06  0.350E-03    0.64       3.2  T
  62   -189.6173397 -0.260978E-06  0.288E-03    0.64       3.9  T
  63   -189.6173400 -0.294456E-06  0.210E-03    0.64       5.3  T
  64   -189.6173402 -0.188349E-06  0.149E-03    0.64       7.5  T
  65   -189.6173403 -0.129362E-06  0.952E-04    0.64      11.7  T
  66   -189.6173404 -0.214497E-07  0.754E-04    0.64      14.7  T

   *** convergence criteria satisfied after 66 iterations ***

         #    Occupation            Energy/Eh            Energy/eV
      -------------------------------------------------------------
         1        2.0000           -1.0664250             -29.0189
       ...           ...                  ...                  ...
       157        2.0000           -0.3594966              -9.7824
       158        2.0000           -0.3517412              -9.5714
       159        2.0000           -0.3506727              -9.5423
       160        2.0000           -0.3454679              -9.4007
       161        2.0000           -0.3384290              -9.2091
       162        2.0000           -0.3237584              -8.8099
       163        2.0000           -0.3091257              -8.4117 (HOMO)
       164        0.0000           -0.2857324              -7.7752 (LUMO)
       165        0.0000           -0.2854007              -7.7661
       166        0.0000           -0.2840213              -7.7286
       167        0.0000           -0.2828943              -7.6979
       168                         -0.2803911              -7.6298
       ...                                ...                  ...
       341                         13.3325670             362.7976
      -------------------------------------------------------------
                  HL-Gap            0.0233933 Eh            0.6366 eV
             Fermi-level           -0.2977407 Eh           -8.1019 eV

 SCC (total)                   0 d,  0 h,  0 min,  1.327 sec
 SCC setup                      ...        0 min,  0.001 sec (  0.075%)
 Dispersion                     ...        0 min,  0.002 sec (  0.151%)
 classical contributions        ...        0 min,  0.000 sec (  0.000%)
 integral evaluation            ...        0 min,  0.009 sec (  0.678%)
 iterations                     ...        0 min,  1.295 sec ( 97.589%)
 molecular gradient             ...        0 min,  0.018 sec (  1.356%)
 printout                       ...        0 min,  0.002 sec (  0.151%)

         :::::::::::::::::::::::::::::::::::::::::::::::::::::
         ::                     SUMMARY                     ::
         :::::::::::::::::::::::::::::::::::::::::::::::::::::
         :: total energy            -187.854088929418 Eh    ::
         :: gradient norm              0.094715237202 Eh/a0 ::
         :: HOMO-LUMO gap              0.636562880596 eV    ::
         ::.................................................::
         :: SCC energy              -189.615740187296 Eh    ::
         :: -> isotropic ES            1.058216188377 Eh    ::
         :: -> anisotropic ES         -0.382777728056 Eh    ::
         :: -> anisotropic XC         -0.050174156591 Eh    ::
         :: -> dispersion             -0.143173509156 Eh    ::
         :: repulsion energy           1.761651257878 Eh    ::
         :: add. restraining           0.000000000000 Eh    ::
         :: total charge              -0.000000000013 e     ::
         :::::::::::::::::::::::::::::::::::::::::::::::::::::

           -------------------------------------------------
          |                Property Printout                |
           -------------------------------------------------

    * Orbital Energies and Occupations

         #    Occupation            Energy/Eh            Energy/eV
      -------------------------------------------------------------
         1        2.0000           -1.0664250             -29.0189
       ...           ...                  ...                  ...
       151        2.0000           -0.3872929             -10.5388
       152        2.0000           -0.3844516             -10.4615
       153        2.0000           -0.3822492             -10.4015
       154        2.0000           -0.3775944             -10.2749
       155        2.0000           -0.3693028             -10.0492
       156        2.0000           -0.3616573              -9.8412
       157        2.0000           -0.3594966              -9.7824
       158        2.0000           -0.3517412              -9.5714
       159        2.0000           -0.3506727              -9.5423
       160        2.0000           -0.3454679              -9.4007
       161        2.0000           -0.3384290              -9.2091
       162        2.0000           -0.3237584              -8.8099
       163        2.0000           -0.3091257              -8.4117 (HOMO)
       164        0.0000           -0.2857324              -7.7752 (LUMO)
       165        0.0000           -0.2854007              -7.7661
       166        0.0000           -0.2840213              -7.7286
       167        0.0000           -0.2828943              -7.6979
       168                         -0.2803911              -7.6298
       169                         -0.2800107              -7.6195
       170                         -0.2785437              -7.5796
       171                         -0.2752765              -7.4907
       172                         -0.2745330              -7.4704
       173                         -0.2723678              -7.4115
       174                         -0.2721694              -7.4061
       ...                                ...                  ...
       341                         13.3325670             362.7976
      -------------------------------------------------------------
                  HL-Gap            0.0233933 Eh            0.6366 eV
             Fermi-level           -0.2977407 Eh           -8.1019 eV

     #   Z          covCN         q      C6AA      α(0)
     1   6 C        3.687    -0.041    21.499     6.637
     2   7 N        2.683    -0.169    24.652     7.374
     3   6 C        2.756     0.258    22.650     7.793
     4   8 O        0.857    -0.433    22.347     6.338
     5   6 C        2.946     0.062    26.614     8.461
     6   6 C        2.908    -0.053    29.313     8.878
     7   6 C        2.890     0.162    24.502     8.115
     8   8 O        1.708    -0.264    18.370     5.787
     9   6 C        2.872     0.139    24.960     8.190
    10   6 C        2.911    -0.049    29.219     8.864
    11   6 C        2.920    -0.056    29.379     8.889
    12   6 C        2.894     0.076    26.303     8.409
    13   7 N        2.703    -0.180    24.899     7.411
    14   6 C        2.681     0.324    21.493     7.587
    15   8 O        0.857    -0.431    22.317     6.334
    16   7 N        2.703    -0.178    24.858     7.405
    17   6 C        2.893     0.086    26.073     8.372
    18   6 C        2.914    -0.039    28.971     8.826
    19   6 C        2.956    -0.037    28.929     8.822
    20   6 C        2.879     0.095    25.881     8.340
    21  17 Cl       0.962    -0.130   103.206    15.542
    22   6 C        2.984    -0.030    28.751     8.796
    23   6 C        3.331     0.484    17.373     6.611
    24   9 F        0.788    -0.200    11.232     3.959
    25   9 F        0.788    -0.200    11.232     3.959
    26   9 F        0.788    -0.210    11.343     3.978
    27   6 C        2.923    -0.051    29.276     8.873
    28   6 C        2.914    -0.048    29.198     8.861
    29   6 C        2.911    -0.054    29.352     8.884
    30   6 C        2.906    -0.059    29.465     8.901
    31   6 C        2.886     0.056    26.747     8.479
    32   7 N        1.833    -0.249    27.335     7.748
    33   1 H        0.924     0.079     1.987     2.205
    34   1 H        0.924     0.055     2.264     2.353
    35   1 H        0.924     0.054     2.268     2.355
    36   1 H        0.860     0.192     1.145     1.676
    37   1 H        0.925     0.074     2.047     2.237
    38   1 H        0.925     0.062     2.171     2.304
    39   1 H        0.925     0.043     2.410     2.427
    40   1 H        0.860     0.179     1.219     1.729
    41   1 H        0.860     0.183     1.198     1.714
    42   1 H        0.925     0.103     1.754     2.071
    43   1 H        0.925     0.084     1.938     2.177
    44   1 H        0.925     0.069     2.097     2.264
    45   1 H        0.925     0.085     1.927     2.171
    46   1 H        0.925     0.054     2.268     2.355
    47   1 H        0.925     0.064     2.149     2.293
    48   1 H        0.925     0.055     2.258     2.350
    49  22 Ti       3.637     1.052   101.781    24.486
    50  22 Ti       6.855     1.550    84.063    14.886
    51  22 Ti       3.227     1.048   102.645    24.739
    52  22 Ti       5.860     1.378    85.688    15.029
    53  22 Ti       5.627     1.118    88.238    15.251
    54  22 Ti       3.541     1.042   102.445    24.668
    55  22 Ti       2.352     0.881   202.661    34.857
    56  22 Ti       6.011     1.348    85.978    15.054
    57  22 Ti       3.414     1.007   103.063    24.780
    58  22 Ti       5.519     1.096    88.460    15.270
    59  22 Ti       5.687     1.189    87.531    15.190
    60  22 Ti       3.581     1.025   102.486    24.644
    61   6 C        2.246    -0.258    37.648     9.941
    62   6 C        2.142    -0.255    38.334    10.008
    63   6 C        2.248    -0.020    30.621     8.966
    64   6 C        1.838    -0.210    37.342     9.872
    65   6 C        1.894    -0.226    37.790     9.928
    66   6 C        1.821    -0.347    42.183    10.494
    67   6 C        2.631    -0.405    39.951    10.339
    68   8 O        1.554    -0.847    32.014     7.634
    69   8 O        1.464    -0.880    33.195     7.766
    70   8 O        1.557    -0.956    35.598     8.050
    71   8 O        1.523    -1.006    37.450     8.254
    72   8 O        1.523    -0.913    34.179     7.885
    73   8 O        1.458    -0.821    31.360     7.548
    74   8 O        1.455    -0.797    30.628     7.459
    75   8 O        0.727    -0.636    27.089     6.974
    76   8 O        1.453    -0.864    32.702     7.707
    77   8 O        1.476    -0.800    30.672     7.466
    78   8 O        1.603    -0.945    35.183     8.005
    79   8 O        1.547    -0.969    36.060     8.101
    80   8 O        1.700    -0.817    30.976     7.514
    81   8 O        1.453    -0.781    30.174     7.403

 Mol. C6AA /au·bohr⁶  :     176860.754149
 Mol. C8AA /au·bohr⁸  :    7646630.566311
 Mol. α(0) /au        :        712.273073


Wiberg/Mayer (AO) data.
largest (>0.10) Wiberg bond orders for each atom

 ---------------------------------------------------------------------------
     #   Z sym  total        # sym  WBO       # sym  WBO       # sym  WBO
 ---------------------------------------------------------------------------
     1   6 C    3.967 --     2 N    1.012    35 H    0.982    33 H    0.976
                            34 H    0.972
     2   7 N    3.454 --     3 C    1.246     1 C    1.012    36 H    0.927
                             4 O    0.212
     3   6 C    3.958 --     4 O    1.664     2 N    1.246     5 C    0.980
     4   8 O    2.002 --     3 C    1.664     2 N    0.212
     5   6 C    3.977 --     6 C    1.422    32 N    1.368     3 C    0.980
     6   6 C    3.986 --     5 C    1.422     7 C    1.371    37 H    0.960
     7   6 C    3.935 --     6 C    1.371    30 C    1.371     8 O    1.028
     8   8 O    2.261 --     7 C    1.028     9 C    0.999
     9   6 C    3.929 --    29 C    1.385    10 C    1.378     8 O    0.999
    10   6 C    3.985 --    11 C    1.455     9 C    1.378    38 H    0.967
                            28 C    0.106
    11   6 C    3.984 --    10 C    1.455    12 C    1.365    39 H    0.967
                            29 C    0.108
    12   6 C    3.956 --    28 C    1.378    11 C    1.365    13 N    1.068
    13   7 N    3.442 --    14 C    1.140    12 C    1.068    40 H    0.933
                            15 O    0.141
    14   6 C    3.958 --    15 O    1.642    13 N    1.140    16 N    1.110
    15   8 O    2.011 --    14 C    1.642    13 N    0.141    16 N    0.128
    16   7 N    3.439 --    14 C    1.110    17 C    1.093    41 H    0.932
                            15 O    0.128
    17   6 C    3.966 --    27 C    1.369    18 C    1.360    16 N    1.093
    18   6 C    3.980 --    19 C    1.455    17 C    1.360    42 H    0.955
    19   6 C    3.984 --    18 C    1.455    20 C    1.388    43 H    0.964
                            27 C    0.105
    20   6 C    3.927 --    19 C    1.388    22 C    1.370    21 Cl   1.004
    21  17 Cl   1.149 --    20 C    1.004
    22   6 C    3.970 --    27 C    1.408    20 C    1.370    23 C    0.960
    23   6 C    3.834 --    22 C    0.960    24 F    0.948    25 F    0.948
                            26 F    0.941
    24   9 F    1.077 --    23 C    0.948
    25   9 F    1.077 --    23 C    0.948
    26   9 F    1.063 --    23 C    0.941
    27   6 C    3.982 --    22 C    1.408    17 C    1.369    44 H    0.962
                            19 C    0.105
    28   6 C    3.982 --    29 C    1.444    12 C    1.378    45 H    0.945
                            10 C    0.106
    29   6 C    3.984 --    28 C    1.444     9 C    1.385    46 H    0.964
                            11 C    0.108
    30   6 C    3.985 --    31 C    1.442     7 C    1.371    47 H    0.965
    31   6 C    3.979 --    30 C    1.442    32 N    1.435    48 H    0.963
    32   7 N    3.050 --    31 C    1.435     5 C    1.368
    33   1 H    0.994 --     1 C    0.976
    34   1 H    0.995 --     1 C    0.972
    35   1 H    0.996 --     1 C    0.982
    36   1 H    0.963 --     2 N    0.927
    37   1 H    0.995 --     6 C    0.960
    38   1 H    0.996 --    10 C    0.967
    39   1 H    0.998 --    11 C    0.967
    40   1 H    0.967 --    13 N    0.933
    41   1 H    0.966 --    16 N    0.932
    42   1 H    0.989 --    18 C    0.955
    43   1 H    0.992 --    19 C    0.964
    44   1 H    0.995 --    27 C    0.962
    45   1 H    0.992 --    28 C    0.945
    46   1 H    0.996 --    29 C    0.964
    47   1 H    0.995 --    30 C    0.965
    48   1 H    0.996 --    31 C    0.963
    49  22 Ti   2.828 --    68 O    0.846    69 O    0.814    55 Ti   0.333
                            50 Ti   0.202    52 Ti   0.199
    50  22 Ti   3.854 --    69 O    0.752    72 O    0.745    70 O    0.690
                            71 O    0.608    49 Ti   0.202    51 Ti   0.188
                            53 Ti   0.138    54 Ti   0.136
    51  22 Ti   2.723 --    77 O    0.962    70 O    0.600    57 Ti   0.372
                            50 Ti   0.188    55 Ti   0.140    72 O    0.110
    52  22 Ti   3.922 --    73 O    0.944    61 C    0.719    68 O    0.704
                            71 O    0.565    54 Ti   0.207    49 Ti   0.199
                            58 Ti   0.178    78 O    0.123
    53  22 Ti   4.075 --    67 C    0.894    74 O    0.771    65 C    0.743
                            72 O    0.601    59 Ti   0.283    54 Ti   0.176
                            66 C    0.162    62 C    0.152    50 Ti   0.138
    54  22 Ti   2.668 --    74 O    0.974    73 O    0.703    52 Ti   0.207
                            53 Ti   0.176    50 Ti   0.136    69 O    0.123
    55  22 Ti   3.770 --    75 O    1.996    56 Ti   0.608    49 Ti   0.333
                            70 O    0.153    68 O    0.148    51 Ti   0.140
                            78 O    0.112
    56  22 Ti   4.018 --    78 O    0.802    76 O    0.752    79 O    0.715
                            55 Ti   0.608    80 O    0.196    57 Ti   0.166
                            60 Ti   0.147    58 Ti   0.141
    57  22 Ti   2.747 --    76 O    0.836    77 O    0.764    51 Ti   0.372
                            60 Ti   0.221    56 Ti   0.166    59 Ti   0.130
    58  22 Ti   4.012 --    66 C    1.056    64 C    0.728    80 O    0.614
                            78 O    0.442    67 C    0.231    60 Ti   0.199
                            52 Ti   0.178    61 C    0.156    56 Ti   0.141
    59  22 Ti   4.082 --    81 O    0.968    62 C    0.669    67 C    0.654
                            79 O    0.442    53 Ti   0.283    60 Ti   0.210
                            66 C    0.142    57 Ti   0.130    77 O    0.114
    60  22 Ti   2.791 --    80 O    0.901    81 O    0.734    57 Ti   0.221
                            59 Ti   0.210    58 Ti   0.199    56 Ti   0.147
    61   6 C    3.841 --    64 C    2.739    52 Ti   0.719    58 Ti   0.156
    62   6 C    3.780 --    65 C    2.732    59 Ti   0.669    53 Ti   0.152
    63   6 C    3.979 --    66 C    2.009    67 C    1.603
    64   6 C    3.706 --    61 C    2.739    58 Ti   0.728
    65   6 C    3.748 --    62 C    2.732    53 Ti   0.743
    66   6 C    3.768 --    63 C    2.009    58 Ti   1.056    53 Ti   0.162
                            59 Ti   0.142
    67   6 C    3.829 --    63 C    1.603    53 Ti   0.894    59 Ti   0.654
                            58 Ti   0.231
    68   8 O    1.934 --    49 Ti   0.846    52 Ti   0.704    55 Ti   0.148
    69   8 O    1.894 --    49 Ti   0.814    50 Ti   0.752    54 Ti   0.123
    70   8 O    1.783 --    50 Ti   0.690    51 Ti   0.600    55 Ti   0.153
    71   8 O    1.720 --    50 Ti   0.608    52 Ti   0.565
    72   8 O    1.847 --    50 Ti   0.745    53 Ti   0.601    51 Ti   0.110
    73   8 O    1.971 --    52 Ti   0.944    54 Ti   0.703
    74   8 O    2.016 --    54 Ti   0.974    53 Ti   0.771
    75   8 O    2.171 --    55 Ti   1.996
    76   8 O    1.911 --    57 Ti   0.836    56 Ti   0.752
    77   8 O    2.008 --    51 Ti   0.962    57 Ti   0.764    59 Ti   0.114
    78   8 O    1.799 --    56 Ti   0.802    58 Ti   0.442    52 Ti   0.123
                            55 Ti   0.112
    79   8 O    1.773 --    56 Ti   0.715    59 Ti   0.442
    80   8 O    1.986 --    60 Ti   0.901    58 Ti   0.614    56 Ti   0.196
    81   8 O    2.031 --    59 Ti   0.968    60 Ti   0.734
 ---------------------------------------------------------------------------

Topologies differ in total number of bonds
Writing topology from bond orders to xtbtopo.mol

molecular dipole:
                 x           y           z       tot (Debye)
 q only:        3.071      -0.268      -1.089
   full:        1.210      -0.018      -0.286       3.161
molecular quadrupole (traceless):
                xx          xy          yy          xz          yz          zz
 q only:      -64.943     -25.177      25.755      23.988      15.866      39.187
  q+dip:      -46.210     -24.516       5.103      36.386      17.369      41.107
   full:      -45.194     -21.673       6.517      39.106      17.569      38.677


           -------------------------------------------------
          | TOTAL ENERGY             -187.854088929418 Eh   |
          | GRADIENT NORM               0.094715237202 Eh/α |
          | HOMO-LUMO GAP               0.636562880596 eV   |
           -------------------------------------------------

------------------------------------------------------------------------
 * finished run on 2026/08/31 at 21:19:02.642     
------------------------------------------------------------------------
 total:
 * wall-time:     0 d,  0 h,  0 min,  1.374 sec
 *  cpu-time:     0 d,  0 h,  0 min, 14.062 sec
 * ratio c/w:    10.235 speedup
 SCF:
 * wall-time:     0 d,  0 h,  0 min,  1.328 sec
 *  cpu-time:     0 d,  0 h,  0 min, 13.578 sec
 * ratio c/w:    10.224 speedup

normal termination of xtb
