81
Drug@Ti12C7O14 clean complex
C      9.118315      2.102750     10.447711
N      7.852819      1.820551      9.828286
C      7.201444      0.615996      9.989572
O      7.580135     -0.277392     10.737906
C      5.967370      0.467442      9.151327
C      5.201831     -0.682801      9.251783
C      4.063938     -0.768366      8.460121
O      3.334099     -1.932373      8.546662
C      1.963231     -1.825048      8.559666
C      1.250528     -2.691903      7.735218
C     -0.146637     -2.653299      7.725937
C     -0.841724     -1.753590      8.545480
N     -2.250573     -1.780463      8.485035
C     -3.131389     -0.863480      9.040369
O     -2.808238      0.186780      9.577720
N     -4.437663     -1.310886      8.896187
C     -5.619893     -0.613354      9.216959
C     -6.814598     -1.338329      9.201523
C     -8.027011     -0.713176      9.500842
C     -8.060760      0.647941      9.812319
Cl     -9.598857      1.343693     10.170427
C     -6.880894      1.398493      9.822920
C     -6.889391      2.868706     10.145267
F     -7.653741      3.595095      9.282722
F     -7.360786      3.136613     11.394373
F     -5.652789      3.442522     10.096079
C     -5.663595      0.750851      9.519426
C     -0.116455     -0.912396      9.393053
C      1.282295     -0.951494      9.407184
C      3.748231      0.262277      7.576625
C      4.575694      1.371711      7.547608
N      5.678479      1.506650      8.314306
H      9.171400      1.644848     11.438879
H      9.231575      3.186093     10.529589
H      9.912309      1.695822      9.816279
H      7.485923      2.430160      9.101392
H      5.479356     -1.483833      9.928081
H      1.780490     -3.395164      7.098449
H     -0.678380     -3.335631      7.068258
H     -2.652247     -2.431228      7.827638
H     -4.538395     -2.297915      8.712506
H     -6.823140     -2.399219      8.963912
H     -8.945348     -1.296497      9.489692
H     -4.752531      1.346482      9.517516
H     -0.610787     -0.223276     10.071682
H      1.823806     -0.303132     10.090854
H      2.885589      0.208214      6.922045
H      4.366967      2.204559      6.881230
Ti     -2.141866     -3.008818      2.119748
Ti      0.288991     -1.694759      1.432425
Ti      1.903098     -3.067749     -0.729322
Ti     -2.521502     -0.251928      1.303687
Ti      2.142050      0.499533      2.204434
Ti     -0.681448      0.189635      3.681230
Ti     -2.036770     -3.077740     -1.200512
Ti     -0.605340     -0.770900     -2.035132
Ti      1.945488     -1.587317     -3.412400
Ti     -1.878170      1.746573     -1.240030
Ti      2.412512      0.454231     -0.774247
Ti      0.817742      1.838452     -2.940004
C     -3.678414      1.281398      0.600737
C      4.128193      0.482847      0.387293
C      0.455479      2.267202      0.349695
C     -3.666709      2.118834     -0.313920
C      4.115962      0.632239      1.621354
C     -0.635167      2.741046     -0.118921
C      1.630072      1.780996      0.734224
O     -3.093456     -1.956907      1.037949
O     -0.487250     -2.605849      2.701203
O      0.314079     -2.888890      0.145001
O     -0.800785     -0.435934      0.971227
O      1.902865     -1.158331      1.469449
O     -2.322673     -0.113878      3.024800
O      1.013786      0.441598      3.568761
O     -1.772019     -4.587905     -1.652810
O      0.190605     -1.189189     -3.534030
O      2.831420     -2.170248     -1.918042
O     -2.054558     -0.224445     -1.337505
O      0.768511     -0.390574     -1.063664
O     -0.900039      1.649313     -2.818565
O      2.415313      1.357463     -2.264115
