81
Drug@Ti12C7O14 non-overlapping complex
C      7.090216     -3.387389     11.066372
N      6.727655     -2.255547     10.258755
C      5.689917     -1.410711     10.591748
O      4.930410     -1.591688     11.536166
C      5.562851     -0.212186      9.699629
C      4.527870      0.687364      9.899268
C      4.459688      1.783554      9.045967
O      3.504066      2.767398      9.166563
C      2.204597      2.355994      9.347646
C      1.494296      2.915659     10.405710
C      0.160378      2.554269     10.614536
C     -0.477233      1.643384      9.760049
N     -1.826779      1.338676     10.036860
C     -2.620498      0.380181      9.421900
O     -2.235490     -0.418064      8.578752
N     -3.922670      0.461077      9.899999
C     -4.996907     -0.403754      9.606151
C     -4.862749     -1.608643      8.919402
C     -5.980081     -2.414033      8.677577
C     -7.244727     -2.026376      9.124523
Cl     -8.570414     -3.077026      8.785014
C     -7.405945     -0.826798      9.823343
C     -8.753560     -0.382106     10.321928
F     -9.662149     -0.203069      9.325029
F     -9.311758     -1.252815     11.206212
F     -8.704457      0.814125     10.980660
C     -6.268144     -0.025552     10.059187
C      0.238463      1.113730      8.683536
C      1.575094      1.470858      8.473350
C      5.426844      1.964920      8.062157
C      6.421678      1.010877      7.940212
N      6.516324     -0.078933      8.730816
H      6.199780     -3.852464     11.497361
H      7.746435     -3.044346     11.870380
H      7.621355     -4.106600     10.438850
H      7.343971     -1.930971      9.517604
H      3.810073      0.535234     10.697526
H      1.977735      3.625102     11.071634
H     -0.368781      2.996640     11.454342
H     -2.210985      1.767142     10.864472
H     -4.154587      1.310176     10.392140
H     -3.898975     -1.960011      8.561744
H     -5.848774     -3.349353      8.137037
H     -6.389699      0.910180     10.603992
H     -0.216271      0.423627      7.979416
H      2.107799      1.056805      7.621819
H      5.400311      2.826993      7.404990
H      7.193826      1.104469      7.181230
Ti     -2.141866     -3.008818      2.119748
Ti      0.288991     -1.694759      1.432425
Ti      1.903098     -3.067749     -0.729322
Ti     -2.521502     -0.251928      1.303687
Ti      2.142050      0.499533      2.204434
Ti     -0.681448      0.189635      3.681230
Ti     -2.036770     -3.077740     -1.200512
Ti     -0.605340     -0.770900     -2.035132
Ti      1.945488     -1.587317     -3.412400
Ti     -1.878170      1.746573     -1.240030
Ti      2.412512      0.454231     -0.774247
Ti      0.817742      1.838452     -2.940004
C     -3.678414      1.281398      0.600737
C      4.128193      0.482847      0.387293
C      0.455479      2.267202      0.349695
C     -3.666709      2.118834     -0.313920
C      4.115962      0.632239      1.621354
C     -0.635167      2.741046     -0.118921
C      1.630072      1.780996      0.734224
O     -3.093456     -1.956907      1.037949
O     -0.487250     -2.605849      2.701203
O      0.314079     -2.888890      0.145001
O     -0.800785     -0.435934      0.971227
O      1.902865     -1.158331      1.469449
O     -2.322673     -0.113878      3.024800
O      1.013786      0.441598      3.568761
O     -1.772019     -4.587905     -1.652810
O      0.190605     -1.189189     -3.534030
O      2.831420     -2.170248     -1.918042
O     -2.054558     -0.224445     -1.337505
O      0.768511     -0.390574     -1.063664
O     -0.900039      1.649313     -2.818565
O      2.415313      1.357463     -2.264115
