46
Axitinib conformer
C     -3.847498      5.155216      0.654918
N     -3.178017      4.354120      1.646694
C     -3.511188      3.032729      1.840866
O     -4.452547      2.475720      1.287032
C     -2.676706      2.278558      2.810604
C     -3.375453      1.508621      3.755236
C     -2.685890      0.767120      4.713520
C     -1.294528      0.782585      4.729707
C     -0.591906      1.529503      3.780928
C     -1.270535      2.277009      2.803992
S     -0.267447      3.145100      1.597952
C     -0.012155      1.839939      0.402041
C      1.262125      1.284451      0.259633
C      1.505312      0.258515     -0.666261
C      0.444271     -0.221838     -1.461025
C      0.261287     -1.210873     -2.478729
C      1.237016     -2.113808     -3.013343
C      2.273413     -2.652327     -2.349875
C      3.258569     -3.578516     -2.916153
C      2.969004     -4.474930     -3.941052
C      3.971630     -5.333618     -4.387421
C      5.226598     -5.281235     -3.795244
C      5.425429     -4.371767     -2.771482
N      4.471881     -3.528737     -2.317166
N     -0.994038     -1.198648     -2.950509
N     -1.614103     -0.263663     -2.215413
C     -0.805950      0.369194     -1.312984
C     -1.072141      1.397509     -0.401032
H     -3.669024      6.208982      0.880452
H     -3.433677      4.911363     -0.327117
H     -4.920967      4.948348      0.658978
H     -2.297543      4.688964      2.020284
H     -4.464122      1.490322      3.742976
H     -3.234868      0.176408      5.442960
H     -0.752737      0.203194      5.473773
H      0.496189      1.510029      3.803126
H      2.089611      1.644127      0.867623
H      2.508327     -0.145906     -0.766383
H      1.066805     -2.386923     -4.051437
H      2.454120     -2.413593     -1.306624
H      1.981523     -4.526086     -4.386563
H      3.770164     -6.040520     -5.187263
H      6.027748     -5.935952     -4.118760
H      6.386403     -4.294292     -2.271055
H     -2.599371     -0.094118     -2.383862
H     -2.065015      1.829722     -0.328057
