79
Drug@Ti3C2O2 complex
C     -2.944274      0.822883      2.851014
N     -3.182720      1.245766      4.206966
C     -4.076459      0.571774      5.015665
O     -4.786788     -0.350757      4.639837
C     -4.135390      1.068178      6.412751
C     -4.429165      2.431355      6.594906
C     -4.528541      2.965395      7.878545
C     -4.342047      2.142275      8.984871
C     -4.052290      0.786441      8.808530
C     -3.937491      0.230437      7.523165
S     -3.521865     -1.509268      7.442939
C     -1.976131     -1.467544      6.548622
C     -0.872251     -0.769602      7.046350
C      0.335775     -0.723927      6.333992
C      0.439787     -1.404740      5.103329
C      1.435052     -1.601636      4.094006
C      2.780770     -1.109752      4.075500
C      3.567241     -0.891514      5.142172
C      4.943091     -0.388752      5.092039
C      5.821721     -0.664743      4.048225
C      7.120358     -0.163695      4.112057
C      7.507245      0.586642      5.214743
C      6.575900      0.800510      6.215679
N      5.310798      0.326407      6.181142
N      0.950698     -2.311293      3.064040
N     -0.301432     -2.617660      3.433872
C     -0.676420     -2.091541      4.637450
C     -1.889720     -2.154737      5.331407
H     -2.248091     -0.018671      2.862269
H     -3.879666      0.514846      2.376431
H     -2.503697      1.657118      2.300403
H     -2.490712      1.837689      4.649084
H     -4.604897      3.073733      5.734458
H     -4.764473      4.018031      8.015248
H     -4.427405      2.551448      9.988982
H     -3.913048      0.163320      9.690538
H     -0.936439     -0.246025      7.997744
H      1.171001     -0.157123      6.734617
H      3.176477     -0.936810      3.077911
H      3.209903     -1.074370      6.150355
H      5.520362     -1.269335      3.199686
H      7.824223     -0.364428      3.309332
H      8.510536      0.989262      5.295677
H      6.829466      1.375162      7.101929
H     -0.864178     -3.181749      2.807305
H     -2.744813     -2.688997      4.926102
Ti     -3.000000     -2.600000      1.250000
Ti      0.000000     -2.600000      1.250000
Ti      3.000000     -2.600000      1.250000
Ti     -1.500000      0.000000      1.250000
Ti      1.500000      0.000000      1.250000
Ti      0.000000      2.600000      1.250000
Ti     -3.000000     -2.600000     -1.250000
Ti      0.000000     -2.600000     -1.250000
Ti      3.000000     -2.600000     -1.250000
Ti     -1.500000      0.000000     -1.250000
Ti      1.500000      0.000000     -1.250000
Ti      0.000000      2.600000     -1.250000
C     -1.500000     -1.300000      0.000000
C      1.500000     -1.300000      0.000000
C      0.000000      1.300000      0.000000
C     -3.000000      0.000000      0.000000
C      3.000000      0.000000      0.000000
C     -1.500000      2.600000      0.000000
C      1.500000      2.600000      0.000000
O     -3.000000     -2.600000      2.450000
O      0.000000     -2.600000      2.450000
O      3.000000     -2.600000      2.450000
O     -1.500000      0.000000      2.450000
O      1.500000      0.000000      2.450000
O     -1.500000      2.600000      2.450000
O      1.500000      2.600000      2.450000
O     -3.000000     -2.600000     -2.450000
O      0.000000     -2.600000     -2.450000
O      3.000000     -2.600000     -2.450000
O     -1.500000      0.000000     -2.450000
O      1.500000      0.000000     -2.450000
O     -1.500000      2.600000     -2.450000
O      1.500000      2.600000     -2.450000
