      -----------------------------------------------------------      
     |                   =====================                   |     
     |                           x T B                           |     
     |                   =====================                   |     
     |                         S. Grimme                         |     
     |          Mulliken Center for Theoretical Chemistry        |     
     |                    University of Bonn                     |     
      -----------------------------------------------------------      

   * xtb version 6.7.1pre (5071a88) compiled by 'Marcel@Raven' on 2024-07-23

   xtb is free software: you can redistribute it and/or modify it under
   the terms of the GNU Lesser General Public License as published by
   the Free Software Foundation, either version 3 of the License, or
   (at your option) any later version.
   
   xtb is distributed in the hope that it will be useful,
   but WITHOUT ANY WARRANTY; without even the implied warranty of
   MERCHANTABILITY or FITNESS FOR A PARTICULAR PURPOSE.  See the
   GNU Lesser General Public License for more details.
   
   Cite this work as:
   * C. Bannwarth, E. Caldeweyher, S. Ehlert, A. Hansen, P. Pracht,
     J. Seibert, S. Spicher, S. Grimme, WIREs Comput. Mol. Sci., 2020, 11,
     e01493. DOI: 10.1002/wcms.1493
   
   for GFN2-xTB:
   * C. Bannwarth, S. Ehlert and S. Grimme., J. Chem. Theory Comput., 2019,
     15, 1652-1671. DOI: 10.1021/acs.jctc.8b01176
   for GFN1-xTB:
   * S. Grimme, C. Bannwarth, P. Shushkov, J. Chem. Theory Comput., 2017,
     13, 1989-2009. DOI: 10.1021/acs.jctc.7b00118
   for GFN0-xTB:
   * P. Pracht, E. Caldeweyher, S. Ehlert, S. Grimme, ChemRxiv, 2019, preprint.
     DOI: 10.26434/chemrxiv.8326202.v1
   for GFN-FF:
   * S. Spicher and S. Grimme, Angew. Chem. Int. Ed., 2020, 59, 15665-15673.
     DOI: 10.1002/anie.202004239
   
   for ALPB and GBSA implicit solvation:
   * S. Ehlert, M. Stahn, S. Spicher, S. Grimme, J. Chem. Theory Comput.,
     2021, 17, 4250-4261. DOI: 10.1021/acs.jctc.1c00471
   
   for ddCOSMO and CPCM-X implicit solvation:
   * M. Stahn, S. Ehlert, S. Grimme, J. Phys. Chem. A,
     2023, XX, XXXX-XXXX. DOI: 10.1021/acs.jpca.3c04382
   
   for DFT-D4:
   * E. Caldeweyher, C. Bannwarth and S. Grimme, J. Chem. Phys., 2017,
     147, 034112. DOI: 10.1063/1.4993215
   * E. Caldeweyher, S. Ehlert, A. Hansen, H. Neugebauer, S. Spicher,
     C. Bannwarth and S. Grimme, J. Chem. Phys., 2019, 150, 154122.
     DOI: 10.1063/1.5090222
   * E. Caldeweyher, J.-M. Mewes, S. Ehlert and S. Grimme, Phys. Chem. Chem. Phys.
     2020, 22, 8499-8512. DOI: 10.1039/D0CP00502A
   
   for sTDA-xTB:
   * S. Grimme and C. Bannwarth, J. Chem. Phys., 2016, 145, 054103.
     DOI: 10.1063/1.4959605
   
   in the mass-spec context:
   * V. Asgeirsson, C. Bauer and S. Grimme, Chem. Sci., 2017, 8, 4879.
     DOI: 10.1039/c7sc00601b
   * J. Koopman and S. Grimme, ACS Omega 2019, 4, 12, 15120-15133.
     DOI: 10.1021/acsomega.9b02011
   
   for metadynamics refer to:
   * S. Grimme, J. Chem. Theory Comput., 2019, 155, 2847-2862
     DOI: 10.1021/acs.jctc.9b00143
   
   for SPH calculations refer to:
   * S. Spicher and S. Grimme, J. Chem. Theory Comput., 2021, 17, 1701-1714
     DOI: 10.1021/acs.jctc.0c01306
   
   for ONIOM refer to:
   * C. Plett, A. Katbashev, S. Ehlert, S. Grimme, M. Bursch,
     Phys. Chem. Chem. Phys., 2023, 25, 17860-17868. DOI: 10.1039/D3CP02178E
   
   for DIPRO refer to:
   * J. Kohn, N. Gildemeister, S. Grimme, D. Fazzi, A. Hansen,
     J. Chem. Phys., 2023, just accepted.
   
   for PTB refer to:
   * S. Grimme, M. Mueller, A. Hansen, J. Chem. Phys., 2023, 158, 124111.
     DOI: 10.1063/5.0137838
   
   with help from (in alphabetical order)
   P. Atkinson, C. Bannwarth, F. Bohle, G. Brandenburg, E. Caldeweyher
   M. Checinski, S. Dohm, S. Ehlert, S. Ehrlich, I. Gerasimov, C. Hölzer
   A. Katbashev, J. Kohn, J. Koopman, C. Lavigne, S. Lehtola, F. März, M. Müller,
   F. Musil, H. Neugebauer, J. Pisarek, C. Plett, P. Pracht, F. Pultar,
   J. Seibert, P. Shushkov, S. Spicher, M. Stahn, M. Steiner, T. Strunk,
   J. Stückrath, T. Rose, and J. Unsleber
   
 * started run on 2026/08/31 at 21:19:08.740     
   ID    Z sym.   atoms
    1    6 C      1, 3, 5-10, 12-23, 27, 28, 59-65
    2    7 N      2, 24-26
    3    8 O      4, 66-79
    4   16 S      11
    5    1 H      29-46
    6   22 Ti     47-58

           -------------------------------------------------
          |                Calculation Setup                |
           -------------------------------------------------

          program call               : "c:\Users\Andre\Proyectos doctorado\kras-pancreatic-gC3N4-ai\tools\xtb\xtb-6.7.1\bin\xtb.exe" "c:\Users\Andre\Proyectos doctorado\mxene-glioblastoma-qsar-ai\calculations\gbm\Axitinib\Axitinib_Ti12C7O14_phys_complex.xyz" --gfn 2 --sp --chrg 0 --uhf 0 --etemp 300 --iterations 500 --norestart
          coordinate file            : c:\Users\Andre\Proyectos doctorado\mxene-glioblastoma-qsar-ai\calculations\gbm\Axitinib\Axitinib_Ti12C7O14_phys_complex.xyz
          omp threads                :                    16


molecular fragmentation (1/2 indicates fragments):
111111111111111111111111111111111111111111111122222222222222222222222222
2222222
# atoms in fragment 1/2:    46    33
 fragment masses (1/2) :      386.47      882.47
CMA distance (Bohr)    :  19.998
constraining FC (au)   :  0.0500

           -------------------------------------------------
          |                 G F N 2 - x T B                 |
           -------------------------------------------------

        Reference                      10.1021/acs.jctc.8b01176
      * Hamiltonian:
        H0-scaling (s, p, d)           1.850000    2.230000    2.230000
        zeta-weighting                 0.500000
      * Dispersion:
        s8                             2.700000
        a1                             0.520000
        a2                             5.000000
        s9                             5.000000
      * Repulsion:
        kExp                           1.500000    1.000000
        rExp                           1.000000
      * Coulomb:
        alpha                          2.000000
        third order                    shell-resolved
        anisotropic                    true
        a3                             3.000000
        a5                             4.000000
        cn-shift                       1.200000
        cn-exp                         4.000000
        max-rad                        5.000000


          ...................................................
          :                      SETUP                      :
          :.................................................:
          :  # basis functions                 340          :
          :  # atomic orbitals                 327          :
          :  # shells                          153          :
          :  # electrons                       298          :
          :  max. iterations                   500          :
          :  Hamiltonian                  GFN2-xTB          :
          :  restarted?                      false          :
          :  GBSA solvation                  false          :
          :  PC potential                    false          :
          :  electronic temp.          300.0000000     K    :
          :  accuracy                    1.0000000          :
          :  -> integral cutoff          0.2500000E+02      :
          :  -> integral neglect         0.1000000E-07      :
          :  -> SCF convergence          0.1000000E-05 Eh   :
          :  -> wf. convergence          0.1000000E-03 e    :
          :  Broyden damping             0.4000000          :
          :  net charge                          0          :
          :  unpaired electrons                  0          :
          ...................................................

 iter      E             dE          RMSdq      gap      omega  full diag
   1   -167.3005149 -0.167301E+03  0.133E+01    0.05       0.0  T
   2   -154.8852802  0.124152E+02  0.106E+01    0.07       1.0  T
   3   -103.3311236  0.515542E+02  0.212E+01    0.25       1.0  T
   4   -166.4746774 -0.631436E+02  0.967E+00    0.05       1.0  T
   5   -168.3907463 -0.191607E+01  0.609E+00    0.11       1.0  T
   6   -168.7862116 -0.395465E+00  0.468E+00    0.43       1.0  T
   7   -168.8358205 -0.496089E-01  0.365E+00    0.62       1.0  T
   8   -168.8846298 -0.488092E-01  0.274E+00    0.19       1.0  T
   9   -167.1303088  0.175432E+01  0.745E+00    0.04       1.0  T
  10   -167.9233012 -0.792992E+00  0.547E+00    0.01       1.0  T
  11   -167.6624058  0.260895E+00  0.610E+00    0.01       1.0  T
  12   -167.8906816 -0.228276E+00  0.537E+00    0.01       1.0  T
  13   -168.4889164 -0.598235E+00  0.304E+00    0.06       1.0  T
  14   -168.9484420 -0.459526E+00  0.217E+00    0.30       1.0  T
  15   -168.9609339 -0.124919E-01  0.205E+00    0.30       1.0  T
  16   -169.0105425 -0.496086E-01  0.151E+00    0.43       1.0  T
  17   -169.0430438 -0.325013E-01  0.129E+00    0.67       1.0  T
  18   -169.0583920 -0.153482E-01  0.111E+00    0.77       1.0  T
  19   -169.0715378 -0.131459E-01  0.945E-01    0.85       1.0  T
  20   -169.0813417 -0.980392E-02  0.754E-01    0.80       1.0  T
  21   -169.0873196 -0.597784E-02  0.643E-01    0.74       1.0  T
  22   -169.0897929 -0.247335E-02  0.573E-01    0.70       1.0  T
  23   -169.0939249 -0.413201E-02  0.515E-01    0.70       1.0  T
  24   -169.0958528 -0.192781E-02  0.483E-01    0.70       1.0  T
  25   -169.0974335 -0.158076E-02  0.461E-01    0.69       1.0  T
  26   -169.0994893 -0.205576E-02  0.419E-01    0.68       1.0  T
  27   -169.1002237 -0.734438E-03  0.394E-01    0.67       1.0  T
  28   -169.1010209 -0.797232E-03  0.363E-01    0.66       1.0  T
  29   -169.1018419 -0.820936E-03  0.322E-01    0.65       1.0  T
  30   -169.1023261 -0.484192E-03  0.289E-01    0.65       1.0  T
  31   -169.1029727 -0.646592E-03  0.247E-01    0.64       1.0  T
  32   -169.1034707 -0.497988E-03  0.200E-01    0.64       1.0  T
  33   -169.1039728 -0.502159E-03  0.132E-01    0.64       1.0  T
  34   -169.1042025 -0.229732E-03  0.945E-02    0.64       1.0  T
  35   -169.1043214 -0.118885E-03  0.715E-02    0.63       1.0  T
  36   -169.1043953 -0.738842E-04  0.542E-02    0.62       1.0  T
  37   -169.1044432 -0.478441E-04  0.315E-02    0.62       1.0  T
  38   -169.1044573 -0.141394E-04  0.163E-02    0.62       1.0  T
  39   -169.1044604 -0.311653E-05  0.860E-03    0.62       1.3  T
  40   -169.1044613 -0.920795E-06  0.392E-03    0.62       2.9  T
  41   -169.1044615 -0.138886E-06  0.242E-03    0.62       4.6  T
  42   -169.1044614  0.603021E-07  0.284E-03    0.62       4.0  T
  43   -169.1044616 -0.189922E-06  0.117E-03    0.62       9.6  T
  44   -169.1044616 -0.217443E-07  0.746E-04    0.62      15.1  T
  45   -169.1044616 -0.744484E-08  0.562E-04    0.62      20.0  T

   *** convergence criteria satisfied after 45 iterations ***

         #    Occupation            Energy/Eh            Energy/eV
      -------------------------------------------------------------
         1        2.0000           -0.8217103             -22.3599
       ...           ...                  ...                  ...
       143        2.0000           -0.3597760              -9.7900
       144        2.0000           -0.3527873              -9.5998
       145        2.0000           -0.3514935              -9.5646
       146        2.0000           -0.3464092              -9.4263
       147        2.0000           -0.3388417              -9.2204
       148        2.0000           -0.3241376              -8.8202
       149        2.0000           -0.3095385              -8.4230 (HOMO)
       150        0.0000           -0.2866872              -7.8012 (LUMO)
       151        0.0000           -0.2858247              -7.7777
       152        0.0000           -0.2848062              -7.7500
       153        0.0000           -0.2847119              -7.7474
       154                         -0.2820846              -7.6759
       ...                                ...                  ...
       327                         13.4199286             365.1748
      -------------------------------------------------------------
                  HL-Gap            0.0228513 Eh            0.6218 eV
             Fermi-level           -0.2983582 Eh           -8.1187 eV

 SCC (total)                   0 d,  0 h,  0 min,  0.802 sec
 SCC setup                      ...        0 min,  0.001 sec (  0.125%)
 Dispersion                     ...        0 min,  0.001 sec (  0.125%)
 classical contributions        ...        0 min,  0.000 sec (  0.000%)
 integral evaluation            ...        0 min,  0.007 sec (  0.873%)
 iterations                     ...        0 min,  0.773 sec ( 96.384%)
 molecular gradient             ...        0 min,  0.018 sec (  2.244%)
 printout                       ...        0 min,  0.002 sec (  0.249%)

         :::::::::::::::::::::::::::::::::::::::::::::::::::::
         ::                     SUMMARY                     ::
         :::::::::::::::::::::::::::::::::::::::::::::::::::::
         :: total energy            -167.282625668124 Eh    ::
         :: gradient norm              0.096378099038 Eh/a0 ::
         :: HOMO-LUMO gap              0.621816573087 eV    ::
         ::.................................................::
         :: SCC energy              -169.102189403324 Eh    ::
         :: -> isotropic ES            0.964726493226 Eh    ::
         :: -> anisotropic ES         -0.376635187554 Eh    ::
         :: -> anisotropic XC         -0.013499844008 Eh    ::
         :: -> dispersion             -0.147422460490 Eh    ::
         :: repulsion energy           1.819563735200 Eh    ::
         :: add. restraining           0.000000000000 Eh    ::
         :: total charge              -0.000000000002 e     ::
         :::::::::::::::::::::::::::::::::::::::::::::::::::::

           -------------------------------------------------
          |                Property Printout                |
           -------------------------------------------------

    * Orbital Energies and Occupations

         #    Occupation            Energy/Eh            Energy/eV
      -------------------------------------------------------------
         1        2.0000           -0.8217103             -22.3599
       ...           ...                  ...                  ...
       137        2.0000           -0.3783579             -10.2956
       138        2.0000           -0.3782022             -10.2914
       139        2.0000           -0.3700363             -10.0692
       140        2.0000           -0.3694486             -10.0532
       141        2.0000           -0.3620398              -9.8516
       142        2.0000           -0.3603871              -9.8066
       143        2.0000           -0.3597760              -9.7900
       144        2.0000           -0.3527873              -9.5998
       145        2.0000           -0.3514935              -9.5646
       146        2.0000           -0.3464092              -9.4263
       147        2.0000           -0.3388417              -9.2204
       148        2.0000           -0.3241376              -8.8202
       149        2.0000           -0.3095385              -8.4230 (HOMO)
       150        0.0000           -0.2866872              -7.8012 (LUMO)
       151        0.0000           -0.2858247              -7.7777
       152        0.0000           -0.2848062              -7.7500
       153        0.0000           -0.2847119              -7.7474
       154                         -0.2820846              -7.6759
       155                         -0.2807091              -7.6385
       156                         -0.2758890              -7.5073
       157                         -0.2749361              -7.4814
       158                         -0.2729005              -7.4260
       159                         -0.2727050              -7.4207
       160                         -0.2719884              -7.4012
       ...                                ...                  ...
       327                         13.4199286             365.1748
      -------------------------------------------------------------
                  HL-Gap            0.0228513 Eh            0.6218 eV
             Fermi-level           -0.2983582 Eh           -8.1187 eV

     #   Z          covCN         q      C6AA      α(0)
     1   6 C        3.688    -0.052    21.698     6.667
     2   7 N        2.684    -0.180    24.908     7.412
     3   6 C        2.760     0.271    22.418     7.754
     4   8 O        0.858    -0.418    22.040     6.294
     5   6 C        2.984    -0.022    28.548     8.764
     6   6 C        2.916    -0.035    28.868     8.811
     7   6 C        2.910    -0.030    28.740     8.791
     8   6 C        2.910    -0.028    28.704     8.785
     9   6 C        2.962    -0.033    28.829     8.807
    10   6 C        2.953     0.056    26.748     8.483
    11  16 S        2.077    -0.144   147.125    20.415
    12   6 C        2.960     0.049    26.892     8.506
    13   6 C        2.937    -0.045    29.128     8.851
    14   6 C        2.911    -0.037    28.919     8.818
    15   6 C        3.070    -0.021    28.461     8.748
    16   6 C        3.140     0.066    26.297     8.392
    17   6 C        2.896    -0.039    28.971     8.825
    18   6 C        2.903    -0.044    29.080     8.842
    19   6 C        2.938     0.098    25.833     8.336
    20   6 C        2.911    -0.044    29.086     8.843
    21   6 C        2.925    -0.013    28.338     8.730
    22   6 C        2.907    -0.040    28.987     8.828
    23   6 C        2.886     0.056    26.750     8.479
    24   7 N        1.840    -0.237    27.054     7.708
    25   7 N        1.957    -0.212    26.422     7.623
    26   7 N        2.993    -0.022    21.668     6.914
    27   6 C        3.043     0.045    26.943     8.514
    28   6 C        2.945    -0.058    29.430     8.898
    29   1 H        0.924     0.053     2.281     2.362
    30   1 H        0.924     0.090     1.879     2.143
    31   1 H        0.924     0.062     2.175     2.306
    32   1 H        0.860     0.167     1.290     1.779
    33   1 H        0.925     0.043     2.404     2.425
    34   1 H        0.925     0.043     2.408     2.427
    35   1 H        0.925     0.045     2.382     2.413
    36   1 H        0.925     0.055     2.264     2.353
    37   1 H        0.925     0.044     2.393     2.419
    38   1 H        0.925     0.049     2.335     2.390
    39   1 H        0.925     0.054     2.265     2.354
    40   1 H        0.925     0.063     2.168     2.303
    41   1 H        0.925     0.040     2.445     2.445
    42   1 H        0.925     0.037     2.492     2.469
    43   1 H        0.925     0.036     2.500     2.473
    44   1 H        0.925     0.039     2.463     2.454
    45   1 H        0.860     0.166     1.300     1.786
    46   1 H        0.925     0.058     2.228     2.334
    47  22 Ti       3.637     1.050   101.805    24.489
    48  22 Ti       6.855     1.552    84.046    14.884
    49  22 Ti       3.227     1.048   102.643    24.739
    50  22 Ti       5.860     1.379    85.678    15.028
    51  22 Ti       5.627     1.121    88.209    15.248
    52  22 Ti       3.541     1.030   102.588    24.685
    53  22 Ti       2.352     0.881   202.662    34.857
    54  22 Ti       6.011     1.348    85.976    15.054
    55  22 Ti       3.414     1.007   103.066    24.781
    56  22 Ti       5.519     1.095    88.469    15.271
    57  22 Ti       5.687     1.189    87.534    15.190
    58  22 Ti       3.581     1.025   102.489    24.644
    59   6 C        2.246    -0.258    37.667     9.944
    60   6 C        2.142    -0.256    38.347    10.010
    61   6 C        2.248    -0.020    30.620     8.966
    62   6 C        1.838    -0.210    37.332     9.871
    63   6 C        1.894    -0.225    37.781     9.927
    64   6 C        1.821    -0.347    42.199    10.496
    65   6 C        2.631    -0.405    39.949    10.339
    66   8 O        1.554    -0.848    32.040     7.637
    67   8 O        1.464    -0.880    33.191     7.766
    68   8 O        1.557    -0.956    35.617     8.052
    69   8 O        1.523    -1.006    37.449     8.254
    70   8 O        1.523    -0.912    34.135     7.880
    71   8 O        1.458    -0.822    31.377     7.550
    72   8 O        1.455    -0.796    30.620     7.458
    73   8 O        0.727    -0.636    27.098     6.976
    74   8 O        1.453    -0.865    32.715     7.709
    75   8 O        1.476    -0.800    30.679     7.467
    76   8 O        1.603    -0.946    35.204     8.008
    77   8 O        1.547    -0.968    36.056     8.101
    78   8 O        1.700    -0.817    30.986     7.516
    79   8 O        1.453    -0.782    30.188     7.405

 Mol. C6AA /au·bohr⁶  :     173010.779924
 Mol. C8AA /au·bohr⁸  :    7628657.476041
 Mol. α(0) /au        :        712.669653


Wiberg/Mayer (AO) data.
largest (>0.10) Wiberg bond orders for each atom

 ---------------------------------------------------------------------------
     #   Z sym  total        # sym  WBO       # sym  WBO       # sym  WBO
 ---------------------------------------------------------------------------
     1   6 C    3.963 --     2 N    1.011    30 H    0.973    31 H    0.966
                            29 H    0.961
     2   7 N    3.412 --     3 C    1.210     1 C    1.011    32 H    0.945
                             4 O    0.198
     3   6 C    3.951 --     4 O    1.695     2 N    1.210     5 C    0.980
     4   8 O    2.020 --     3 C    1.695     2 N    0.198
     5   6 C    3.986 --     6 C    1.394    10 C    1.374     3 C    0.980
                             8 C    0.104
     6   6 C    3.988 --     7 C    1.443     5 C    1.394    33 H    0.968
                             9 C    0.109
     7   6 C    3.989 --     6 C    1.443     8 C    1.431    34 H    0.969
                            10 C    0.100
     8   6 C    3.989 --     9 C    1.443     7 C    1.431    35 H    0.969
                             5 C    0.104
     9   6 C    3.987 --     8 C    1.443    10 C    1.402    36 H    0.968
                             6 C    0.109
    10   6 C    3.967 --     9 C    1.402     5 C    1.374    11 S    1.000
                             7 C    0.100
    11  16 S    2.212 --    10 C    1.000    12 C    0.998
    12   6 C    3.967 --    28 C    1.460    13 C    1.347    11 S    0.998
    13   6 C    3.986 --    14 C    1.507    12 C    1.347    37 H    0.969
    14   6 C    3.989 --    13 C    1.507    15 C    1.313    38 H    0.966
                            28 C    0.125
    15   6 C    3.979 --    14 C    1.313    27 C    1.262    16 C    1.190
    16   6 C    3.974 --    25 N    1.485    15 C    1.190    17 C    1.117
    17   6 C    3.989 --    18 C    1.780    16 C    1.117    39 H    0.954
    18   6 C    3.985 --    17 C    1.780    19 C    1.080    40 H    0.956
    19   6 C    3.979 --    24 N    1.373    20 C    1.372    18 C    1.080
    20   6 C    3.986 --    21 C    1.452    19 C    1.372    41 H    0.967
                            23 C    0.109
    21   6 C    3.990 --    20 C    1.452    22 C    1.428    42 H    0.970
                            24 N    0.105
    22   6 C    3.984 --    23 C    1.434    21 C    1.428    43 H    0.969
    23   6 C    3.981 --    24 N    1.438    22 C    1.434    44 H    0.965
                            20 C    0.109
    24   7 N    3.036 --    23 C    1.438    19 C    1.373    21 C    0.105
    25   7 N    2.970 --    16 C    1.485    26 N    1.193
    26   7 N    3.567 --    25 N    1.193    27 C    1.190    45 H    0.939
    27   6 C    3.964 --    28 C    1.312    15 C    1.262    26 N    1.190
    28   6 C    3.980 --    12 C    1.460    27 C    1.312    46 H    0.966
                            14 C    0.125
    29   1 H    0.997 --     1 C    0.961
    30   1 H    0.992 --     1 C    0.973
    31   1 H    0.996 --     1 C    0.966
    32   1 H    0.972 --     2 N    0.945
    33   1 H    0.998 --     6 C    0.968
    34   1 H    0.997 --     7 C    0.969
    35   1 H    0.997 --     8 C    0.969
    36   1 H    0.996 --     9 C    0.968
    37   1 H    0.998 --    13 C    0.969
    38   1 H    0.997 --    14 C    0.966
    39   1 H    0.995 --    17 C    0.954
    40   1 H    0.996 --    18 C    0.956
    41   1 H    0.998 --    20 C    0.967
    42   1 H    0.998 --    21 C    0.970
    43   1 H    0.999 --    22 C    0.969
    44   1 H    0.998 --    23 C    0.965
    45   1 H    0.971 --    26 N    0.939
    46   1 H    0.996 --    28 C    0.966
    47  22 Ti   2.828 --    66 O    0.844    67 O    0.817    53 Ti   0.332
                            48 Ti   0.201    50 Ti   0.197    52 Ti   0.101
    48  22 Ti   3.852 --    67 O    0.750    70 O    0.748    68 O    0.688
                            69 O    0.609    47 Ti   0.201    49 Ti   0.188
                            51 Ti   0.140    52 Ti   0.132
    49  22 Ti   2.724 --    75 O    0.961    68 O    0.600    55 Ti   0.372
                            48 Ti   0.188    53 Ti   0.140    70 O    0.110
    50  22 Ti   3.921 --    71 O    0.935    59 C    0.720    66 O    0.705
                            69 O    0.566    52 Ti   0.209    47 Ti   0.197
                            56 Ti   0.178    76 O    0.124
    51  22 Ti   4.074 --    65 C    0.893    72 O    0.776    63 C    0.741
                            70 O    0.601    57 Ti   0.284    52 Ti   0.171
                            64 C    0.161    60 C    0.151    48 Ti   0.140
    52  22 Ti   2.685 --    72 O    0.968    71 O    0.710    50 Ti   0.209
                            51 Ti   0.171    48 Ti   0.132    67 O    0.122
                            47 Ti   0.101
    53  22 Ti   3.769 --    73 O    1.996    54 Ti   0.608    47 Ti   0.332
                            68 O    0.153    66 O    0.148    49 Ti   0.140
                            76 O    0.112
    54  22 Ti   4.018 --    76 O    0.801    74 O    0.752    77 O    0.716
                            53 Ti   0.608    78 O    0.196    55 Ti   0.167
                            58 Ti   0.148    56 Ti   0.141
    55  22 Ti   2.747 --    74 O    0.835    75 O    0.765    49 Ti   0.372
                            58 Ti   0.221    54 Ti   0.167    57 Ti   0.129
    56  22 Ti   4.014 --    64 C    1.058    62 C    0.726    78 O    0.615
                            76 O    0.441    65 C    0.233    58 Ti   0.200
                            50 Ti   0.178    59 C    0.155    54 Ti   0.141
    57  22 Ti   4.082 --    79 O    0.965    60 C    0.671    65 C    0.655
                            77 O    0.441    51 Ti   0.284    58 Ti   0.210
                            64 C    0.141    55 Ti   0.129    75 O    0.113
    58  22 Ti   2.793 --    78 O    0.900    79 O    0.735    55 Ti   0.221
                            57 Ti   0.210    56 Ti   0.200    54 Ti   0.148
    59   6 C    3.842 --    62 C    2.739    50 Ti   0.720    56 Ti   0.155
    60   6 C    3.782 --    63 C    2.732    57 Ti   0.671    51 Ti   0.151
    61   6 C    3.979 --    64 C    2.008    65 C    1.604
    62   6 C    3.705 --    59 C    2.739    56 Ti   0.726
    63   6 C    3.746 --    60 C    2.732    51 Ti   0.741
    64   6 C    3.769 --    61 C    2.008    56 Ti   1.058    51 Ti   0.161
                            57 Ti   0.141
    65   6 C    3.829 --    61 C    1.604    51 Ti   0.893    57 Ti   0.655
                            56 Ti   0.233
    66   8 O    1.933 --    47 Ti   0.844    50 Ti   0.705    53 Ti   0.148
    67   8 O    1.893 --    47 Ti   0.817    48 Ti   0.750    52 Ti   0.122
    68   8 O    1.782 --    48 Ti   0.688    49 Ti   0.600    53 Ti   0.153
    69   8 O    1.720 --    48 Ti   0.609    50 Ti   0.566
    70   8 O    1.848 --    48 Ti   0.748    51 Ti   0.601    49 Ti   0.110
    71   8 O    1.972 --    50 Ti   0.935    52 Ti   0.710
    72   8 O    2.014 --    52 Ti   0.968    51 Ti   0.776
    73   8 O    2.170 --    53 Ti   1.996
    74   8 O    1.910 --    55 Ti   0.835    54 Ti   0.752
    75   8 O    2.007 --    49 Ti   0.961    55 Ti   0.765    57 Ti   0.113
    76   8 O    1.799 --    54 Ti   0.801    56 Ti   0.441    50 Ti   0.124
                            53 Ti   0.112
    77   8 O    1.773 --    54 Ti   0.716    57 Ti   0.441
    78   8 O    1.986 --    58 Ti   0.900    56 Ti   0.615    54 Ti   0.196
    79   8 O    2.031 --    57 Ti   0.965    58 Ti   0.735
 ---------------------------------------------------------------------------

Topologies differ in total number of bonds
Writing topology from bond orders to xtbtopo.mol

molecular dipole:
                 x           y           z       tot (Debye)
 q only:        1.531       0.060      -1.013
   full:        0.593       0.181      -0.626       2.240
molecular quadrupole (traceless):
                xx          xy          yy          xz          yz          zz
 q only:      -42.558     -15.082       7.142     -12.326      27.235      35.416
  q+dip:      -20.025     -21.766      -8.140      28.379      24.957      28.165
   full:      -16.806     -21.823      -4.145      28.601      24.643      20.951


           -------------------------------------------------
          | TOTAL ENERGY             -167.282625668124 Eh   |
          | GRADIENT NORM               0.096378099038 Eh/α |
          | HOMO-LUMO GAP               0.621816573087 eV   |
           -------------------------------------------------

------------------------------------------------------------------------
 * finished run on 2026/08/31 at 21:19:09.583     
------------------------------------------------------------------------
 total:
 * wall-time:     0 d,  0 h,  0 min,  0.842 sec
 *  cpu-time:     0 d,  0 h,  0 min,  9.531 sec
 * ratio c/w:    11.320 speedup
 SCF:
 * wall-time:     0 d,  0 h,  0 min,  0.803 sec
 *  cpu-time:     0 d,  0 h,  0 min,  8.938 sec
 * ratio c/w:    11.130 speedup

normal termination of xtb
