79
Drug@Ti12C7O14 clean complex
C     -3.847498      5.155216     12.723411
N     -3.178017      4.354120     13.715187
C     -3.511188      3.032729     13.909359
O     -4.452547      2.475720     13.355525
C     -2.676706      2.278558     14.879097
C     -3.375453      1.508621     15.823729
C     -2.685890      0.767120     16.782013
C     -1.294528      0.782585     16.798200
C     -0.591906      1.529503     15.849421
C     -1.270535      2.277009     14.872485
S     -0.267447      3.145100     13.666445
C     -0.012155      1.839939     12.470534
C      1.262125      1.284451     12.328126
C      1.505312      0.258515     11.402232
C      0.444271     -0.221838     10.607468
C      0.261287     -1.210873      9.589764
C      1.237016     -2.113808      9.055150
C      2.273413     -2.652327      9.718618
C      3.258569     -3.578516      9.152340
C      2.969004     -4.474930      8.127441
C      3.971630     -5.333618      7.681072
C      5.226598     -5.281235      8.273249
C      5.425429     -4.371767      9.297011
N      4.471881     -3.528737      9.751327
N     -0.994038     -1.198648      9.117984
N     -1.614103     -0.263663      9.853080
C     -0.805950      0.369194     10.755509
C     -1.072141      1.397509     11.667461
H     -3.669024      6.208982     12.948945
H     -3.433677      4.911363     11.741376
H     -4.920967      4.948348     12.727471
H     -2.297543      4.688964     14.088777
H     -4.464122      1.490322     15.811469
H     -3.234868      0.176408     17.511453
H     -0.752737      0.203194     17.542266
H      0.496189      1.510029     15.871619
H      2.089611      1.644127     12.936116
H      2.508327     -0.145906     11.302110
H      1.066805     -2.386923      8.017056
H      2.454120     -2.413593     10.761869
H      1.981523     -4.526086      7.681930
H      3.770164     -6.040520      6.881230
H      6.027748     -5.935952      7.949733
H      6.386403     -4.294292      9.797438
H     -2.599371     -0.094118      9.684631
H     -2.065015      1.829722     11.740436
Ti     -2.141866     -3.008818      2.119748
Ti      0.288991     -1.694759      1.432425
Ti      1.903098     -3.067749     -0.729322
Ti     -2.521502     -0.251928      1.303687
Ti      2.142050      0.499533      2.204434
Ti     -0.681448      0.189635      3.681230
Ti     -2.036770     -3.077740     -1.200512
Ti     -0.605340     -0.770900     -2.035132
Ti      1.945488     -1.587317     -3.412400
Ti     -1.878170      1.746573     -1.240030
Ti      2.412512      0.454231     -0.774247
Ti      0.817742      1.838452     -2.940004
C     -3.678414      1.281398      0.600737
C      4.128193      0.482847      0.387293
C      0.455479      2.267202      0.349695
C     -3.666709      2.118834     -0.313920
C      4.115962      0.632239      1.621354
C     -0.635167      2.741046     -0.118921
C      1.630072      1.780996      0.734224
O     -3.093456     -1.956907      1.037949
O     -0.487250     -2.605849      2.701203
O      0.314079     -2.888890      0.145001
O     -0.800785     -0.435934      0.971227
O      1.902865     -1.158331      1.469449
O     -2.322673     -0.113878      3.024800
O      1.013786      0.441598      3.568761
O     -1.772019     -4.587905     -1.652810
O      0.190605     -1.189189     -3.534030
O      2.831420     -2.170248     -1.918042
O     -2.054558     -0.224445     -1.337505
O      0.768511     -0.390574     -1.063664
O     -0.900039      1.649313     -2.818565
O      2.415313      1.357463     -2.264115
