      -----------------------------------------------------------      
     |                   =====================                   |     
     |                           x T B                           |     
     |                   =====================                   |     
     |                         S. Grimme                         |     
     |          Mulliken Center for Theoretical Chemistry        |     
     |                    University of Bonn                     |     
      -----------------------------------------------------------      

   * xtb version 6.7.1pre (5071a88) compiled by 'Marcel@Raven' on 2024-07-23

   xtb is free software: you can redistribute it and/or modify it under
   the terms of the GNU Lesser General Public License as published by
   the Free Software Foundation, either version 3 of the License, or
   (at your option) any later version.
   
   xtb is distributed in the hope that it will be useful,
   but WITHOUT ANY WARRANTY; without even the implied warranty of
   MERCHANTABILITY or FITNESS FOR A PARTICULAR PURPOSE.  See the
   GNU Lesser General Public License for more details.
   
   Cite this work as:
   * C. Bannwarth, E. Caldeweyher, S. Ehlert, A. Hansen, P. Pracht,
     J. Seibert, S. Spicher, S. Grimme, WIREs Comput. Mol. Sci., 2020, 11,
     e01493. DOI: 10.1002/wcms.1493
   
   for GFN2-xTB:
   * C. Bannwarth, S. Ehlert and S. Grimme., J. Chem. Theory Comput., 2019,
     15, 1652-1671. DOI: 10.1021/acs.jctc.8b01176
   for GFN1-xTB:
   * S. Grimme, C. Bannwarth, P. Shushkov, J. Chem. Theory Comput., 2017,
     13, 1989-2009. DOI: 10.1021/acs.jctc.7b00118
   for GFN0-xTB:
   * P. Pracht, E. Caldeweyher, S. Ehlert, S. Grimme, ChemRxiv, 2019, preprint.
     DOI: 10.26434/chemrxiv.8326202.v1
   for GFN-FF:
   * S. Spicher and S. Grimme, Angew. Chem. Int. Ed., 2020, 59, 15665-15673.
     DOI: 10.1002/anie.202004239
   
   for ALPB and GBSA implicit solvation:
   * S. Ehlert, M. Stahn, S. Spicher, S. Grimme, J. Chem. Theory Comput.,
     2021, 17, 4250-4261. DOI: 10.1021/acs.jctc.1c00471
   
   for ddCOSMO and CPCM-X implicit solvation:
   * M. Stahn, S. Ehlert, S. Grimme, J. Phys. Chem. A,
     2023, XX, XXXX-XXXX. DOI: 10.1021/acs.jpca.3c04382
   
   for DFT-D4:
   * E. Caldeweyher, C. Bannwarth and S. Grimme, J. Chem. Phys., 2017,
     147, 034112. DOI: 10.1063/1.4993215
   * E. Caldeweyher, S. Ehlert, A. Hansen, H. Neugebauer, S. Spicher,
     C. Bannwarth and S. Grimme, J. Chem. Phys., 2019, 150, 154122.
     DOI: 10.1063/1.5090222
   * E. Caldeweyher, J.-M. Mewes, S. Ehlert and S. Grimme, Phys. Chem. Chem. Phys.
     2020, 22, 8499-8512. DOI: 10.1039/D0CP00502A
   
   for sTDA-xTB:
   * S. Grimme and C. Bannwarth, J. Chem. Phys., 2016, 145, 054103.
     DOI: 10.1063/1.4959605
   
   in the mass-spec context:
   * V. Asgeirsson, C. Bauer and S. Grimme, Chem. Sci., 2017, 8, 4879.
     DOI: 10.1039/c7sc00601b
   * J. Koopman and S. Grimme, ACS Omega 2019, 4, 12, 15120-15133.
     DOI: 10.1021/acsomega.9b02011
   
   for metadynamics refer to:
   * S. Grimme, J. Chem. Theory Comput., 2019, 155, 2847-2862
     DOI: 10.1021/acs.jctc.9b00143
   
   for SPH calculations refer to:
   * S. Spicher and S. Grimme, J. Chem. Theory Comput., 2021, 17, 1701-1714
     DOI: 10.1021/acs.jctc.0c01306
   
   for ONIOM refer to:
   * C. Plett, A. Katbashev, S. Ehlert, S. Grimme, M. Bursch,
     Phys. Chem. Chem. Phys., 2023, 25, 17860-17868. DOI: 10.1039/D3CP02178E
   
   for DIPRO refer to:
   * J. Kohn, N. Gildemeister, S. Grimme, D. Fazzi, A. Hansen,
     J. Chem. Phys., 2023, just accepted.
   
   for PTB refer to:
   * S. Grimme, M. Mueller, A. Hansen, J. Chem. Phys., 2023, 158, 124111.
     DOI: 10.1063/5.0137838
   
   with help from (in alphabetical order)
   P. Atkinson, C. Bannwarth, F. Bohle, G. Brandenburg, E. Caldeweyher
   M. Checinski, S. Dohm, S. Ehlert, S. Ehrlich, I. Gerasimov, C. Hölzer
   A. Katbashev, J. Kohn, J. Koopman, C. Lavigne, S. Lehtola, F. März, M. Müller,
   F. Musil, H. Neugebauer, J. Pisarek, C. Plett, P. Pracht, F. Pultar,
   J. Seibert, P. Shushkov, S. Spicher, M. Stahn, M. Steiner, T. Strunk,
   J. Stückrath, T. Rose, and J. Unsleber
   
 * started run on 2026/08/31 at 20:38:10.707     
   ID    Z sym.   atoms
    1    6 C      1, 3, 5-10, 12-23, 27, 28
    2    7 N      2, 24-26
    3    8 O      4
    4   16 S      11
    5    1 H      29-46

           -------------------------------------------------
          |                Calculation Setup                |
           -------------------------------------------------

          program call               : "c:\Users\Andre\Proyectos doctorado\kras-pancreatic-gC3N4-ai\tools\xtb\xtb-6.7.1\bin\xtb.exe" "c:\Users\Andre\Proyectos doctorado\mxene-glioblastoma-qsar-ai\calculations\gbm\Axitinib\Axitinib_drug.xyz" --gfn 2 --sp --chrg 0 --uhf 0 --iterations 500 --norestart
          coordinate file            : c:\Users\Andre\Proyectos doctorado\mxene-glioblastoma-qsar-ai\calculations\gbm\Axitinib\Axitinib_drug.xyz
          omp threads                :                    16


           -------------------------------------------------
          |                 G F N 2 - x T B                 |
           -------------------------------------------------

        Reference                      10.1021/acs.jctc.8b01176
      * Hamiltonian:
        H0-scaling (s, p, d)           1.850000    2.230000    2.230000
        zeta-weighting                 0.500000
      * Dispersion:
        s8                             2.700000
        a1                             0.520000
        a2                             5.000000
        s9                             5.000000
      * Repulsion:
        kExp                           1.500000    1.000000
        rExp                           1.000000
      * Coulomb:
        alpha                          2.000000
        third order                    shell-resolved
        anisotropic                    true
        a3                             3.000000
        a5                             4.000000
        cn-shift                       1.200000
        cn-exp                         4.000000
        max-rad                        5.000000


          ...................................................
          :                      SETUP                      :
          :.................................................:
          :  # basis functions                 136          :
          :  # atomic orbitals                 135          :
          :  # shells                           75          :
          :  # electrons                       138          :
          :  max. iterations                   500          :
          :  Hamiltonian                  GFN2-xTB          :
          :  restarted?                      false          :
          :  GBSA solvation                  false          :
          :  PC potential                    false          :
          :  electronic temp.          300.0000000     K    :
          :  accuracy                    1.0000000          :
          :  -> integral cutoff          0.2500000E+02      :
          :  -> integral neglect         0.1000000E-07      :
          :  -> SCF convergence          0.1000000E-05 Eh   :
          :  -> wf. convergence          0.1000000E-03 e    :
          :  Broyden damping             0.4000000          :
          :  net charge                          0          :
          :  unpaired electrons                  0          :
          ...................................................

 iter      E             dE          RMSdq      gap      omega  full diag
   1    -76.2448700 -0.762449E+02  0.459E+00    2.51       0.0  T
   2    -76.3626116 -0.117742E+00  0.285E+00    2.42       1.0  T
   3    -76.3573731  0.523856E-02  0.145E+00    2.11       1.0  T
   4    -76.3828240 -0.254510E-01  0.504E-01    2.12       1.0  T
   5    -76.3904911 -0.766703E-02  0.165E-01    2.10       1.0  T
   6    -76.3909013 -0.410256E-03  0.880E-02    2.14       1.0  T
   7    -76.3911089 -0.207631E-03  0.254E-02    2.15       1.0  T
   8    -76.3911125 -0.353725E-05  0.139E-02    2.14       1.1  T
   9    -76.3911165 -0.399564E-05  0.633E-03    2.14       2.3  T
  10    -76.3911170 -0.501703E-06  0.262E-03    2.14       5.6  T
  11    -76.3911171 -0.106378E-06  0.958E-04    2.14      15.4  T
  12    -76.3911171 -0.155275E-07  0.507E-04    2.14      29.1  T

   *** convergence criteria satisfied after 12 iterations ***

         #    Occupation            Energy/Eh            Energy/eV
      -------------------------------------------------------------
         1        2.0000           -0.7092519             -19.2997
       ...           ...                  ...                  ...
        63        2.0000           -0.4100427             -11.1578
        64        2.0000           -0.4067197             -11.0674
        65        2.0000           -0.4034692             -10.9790
        66        2.0000           -0.3930164             -10.6945
        67        2.0000           -0.3777108             -10.2780
        68        2.0000           -0.3705573             -10.0834
        69        2.0000           -0.3604548              -9.8085 (HOMO)
        70                         -0.2816623              -7.6644 (LUMO)
        71                         -0.2608677              -7.0986
        72                         -0.2580001              -7.0205
        73                         -0.2490426              -6.7768
        74                         -0.2461619              -6.6984
       ...                                ...                  ...
       135                          0.7021193              19.1056
      -------------------------------------------------------------
                  HL-Gap            0.0787926 Eh            2.1441 eV
             Fermi-level           -0.3210586 Eh           -8.7364 eV

 SCC (total)                   0 d,  0 h,  0 min,  0.085 sec
 SCC setup                      ...        0 min,  0.001 sec (  1.177%)
 Dispersion                     ...        0 min,  0.001 sec (  1.176%)
 classical contributions        ...        0 min,  0.000 sec (  0.000%)
 integral evaluation            ...        0 min,  0.005 sec (  5.882%)
 iterations                     ...        0 min,  0.073 sec ( 85.882%)
 molecular gradient             ...        0 min,  0.004 sec (  4.706%)
 printout                       ...        0 min,  0.001 sec (  1.176%)

         :::::::::::::::::::::::::::::::::::::::::::::::::::::
         ::                     SUMMARY                     ::
         :::::::::::::::::::::::::::::::::::::::::::::::::::::
         :: total energy             -75.245199066067 Eh    ::
         :: gradient norm              0.096284881188 Eh/a0 ::
         :: HOMO-LUMO gap              2.144055168371 eV    ::
         ::.................................................::
         :: SCC energy               -76.390608938928 Eh    ::
         :: -> isotropic ES            0.056652946091 Eh    ::
         :: -> anisotropic ES          0.007951425069 Eh    ::
         :: -> anisotropic XC          0.051425898054 Eh    ::
         :: -> dispersion             -0.056362847411 Eh    ::
         :: repulsion energy           1.145409872861 Eh    ::
         :: add. restraining           0.000000000000 Eh    ::
         :: total charge              -0.000000000000 e     ::
         :::::::::::::::::::::::::::::::::::::::::::::::::::::

           -------------------------------------------------
          |                Property Printout                |
           -------------------------------------------------

    * Orbital Energies and Occupations

         #    Occupation            Energy/Eh            Energy/eV
      -------------------------------------------------------------
         1        2.0000           -0.7092519             -19.2997
       ...           ...                  ...                  ...
        57        2.0000           -0.4338037             -11.8044
        58        2.0000           -0.4304998             -11.7145
        59        2.0000           -0.4273348             -11.6284
        60        2.0000           -0.4203617             -11.4386
        61        2.0000           -0.4191010             -11.4043
        62        2.0000           -0.4139693             -11.2647
        63        2.0000           -0.4100427             -11.1578
        64        2.0000           -0.4067197             -11.0674
        65        2.0000           -0.4034692             -10.9790
        66        2.0000           -0.3930164             -10.6945
        67        2.0000           -0.3777108             -10.2780
        68        2.0000           -0.3705573             -10.0834
        69        2.0000           -0.3604548              -9.8085 (HOMO)
        70                         -0.2816623              -7.6644 (LUMO)
        71                         -0.2608677              -7.0986
        72                         -0.2580001              -7.0205
        73                         -0.2490426              -6.7768
        74                         -0.2461619              -6.6984
        75                         -0.2274083              -6.1881
        76                         -0.2096426              -5.7047
        77                         -0.2053797              -5.5887
        78                         -0.1841509              -5.0110
        79                         -0.1594805              -4.3397
        80                         -0.1389343              -3.7806
       ...                                ...                  ...
       135                          0.7021193              19.1056
      -------------------------------------------------------------
                  HL-Gap            0.0787926 Eh            2.1441 eV
             Fermi-level           -0.3210586 Eh           -8.7364 eV

     #   Z          covCN         q      C6AA      α(0)
     1   6 C        3.688    -0.032    21.343     6.612
     2   7 N        2.684    -0.186    25.039     7.432
     3   6 C        2.760     0.274    22.365     7.744
     4   8 O        0.858    -0.418    22.052     6.296
     5   6 C        2.984    -0.022    28.541     8.763
     6   6 C        2.916    -0.033    28.832     8.805
     7   6 C        2.910    -0.029    28.727     8.789
     8   6 C        2.910    -0.028    28.691     8.783
     9   6 C        2.962    -0.032    28.804     8.803
    10   6 C        2.953     0.058    26.692     8.474
    11  16 S        2.077    -0.154   147.552    20.444
    12   6 C        2.960     0.052    26.841     8.498
    13   6 C        2.937    -0.044    29.092     8.846
    14   6 C        2.911    -0.036    28.888     8.813
    15   6 C        3.070    -0.022    28.469     8.749
    16   6 C        3.140     0.067    26.269     8.388
    17   6 C        2.896    -0.035    28.881     8.811
    18   6 C        2.903    -0.043    29.058     8.839
    19   6 C        2.938     0.098    25.818     8.333
    20   6 C        2.911    -0.042    29.040     8.836
    21   6 C        2.925    -0.012    28.314     8.726
    22   6 C        2.907    -0.039    28.975     8.826
    23   6 C        2.886     0.057    26.721     8.475
    24   7 N        1.840    -0.238    27.077     7.712
    25   7 N        1.957    -0.209    26.361     7.614
    26   7 N        2.993    -0.019    21.614     6.905
    27   6 C        3.043     0.047    26.897     8.506
    28   6 C        2.945    -0.054    29.351     8.886
    29   1 H        0.924     0.045     2.389     2.417
    30   1 H        0.924     0.079     1.992     2.207
    31   1 H        0.924     0.051     2.312     2.378
    32   1 H        0.860     0.163     1.314     1.796
    33   1 H        0.925     0.041     2.439     2.442
    34   1 H        0.925     0.041     2.433     2.439
    35   1 H        0.925     0.044     2.399     2.422
    36   1 H        0.925     0.053     2.278     2.360
    37   1 H        0.925     0.041     2.434     2.440
    38   1 H        0.925     0.045     2.385     2.415
    39   1 H        0.925     0.050     2.314     2.379
    40   1 H        0.925     0.059     2.206     2.322
    41   1 H        0.925     0.038     2.475     2.460
    42   1 H        0.925     0.034     2.537     2.491
    43   1 H        0.925     0.034     2.529     2.487
    44   1 H        0.925     0.037     2.484     2.464
    45   1 H        0.860     0.164     1.311     1.793
    46   1 H        0.925     0.055     2.256     2.349

 Mol. C6AA /au·bohr⁶  :      32019.499958
 Mol. C8AA /au·bohr⁸  :     833973.483123
 Mol. α(0) /au        :        286.770912


Wiberg/Mayer (AO) data.
largest (>0.10) Wiberg bond orders for each atom

 ---------------------------------------------------------------------------
     #   Z sym  total        # sym  WBO       # sym  WBO       # sym  WBO
 ---------------------------------------------------------------------------
     1   6 C    3.968 --     2 N    1.007    31 H    0.983    30 H    0.977
                            29 H    0.975
     2   7 N    3.411 --     3 C    1.211     1 C    1.007    32 H    0.946
                             4 O    0.198
     3   6 C    3.951 --     4 O    1.696     2 N    1.211     5 C    0.980
     4   8 O    2.020 --     3 C    1.696     2 N    0.198
     5   6 C    3.986 --     6 C    1.394    10 C    1.374     3 C    0.980
                             8 C    0.104
     6   6 C    3.989 --     7 C    1.443     5 C    1.394    33 H    0.968
                             9 C    0.109
     7   6 C    3.989 --     6 C    1.443     8 C    1.431    34 H    0.969
                            10 C    0.100
     8   6 C    3.990 --     9 C    1.443     7 C    1.431    35 H    0.969
                             5 C    0.104
     9   6 C    3.987 --     8 C    1.443    10 C    1.402    36 H    0.968
                             6 C    0.109
    10   6 C    3.966 --     9 C    1.402     5 C    1.374    11 S    1.000
                             7 C    0.100
    11  16 S    2.211 --    10 C    1.000    12 C    0.997
    12   6 C    3.966 --    28 C    1.460    13 C    1.346    11 S    0.997
    13   6 C    3.986 --    14 C    1.507    12 C    1.346    37 H    0.969
    14   6 C    3.989 --    13 C    1.507    15 C    1.312    38 H    0.967
                            28 C    0.125
    15   6 C    3.979 --    14 C    1.312    27 C    1.262    16 C    1.190
    16   6 C    3.975 --    25 N    1.486    15 C    1.190    17 C    1.118
    17   6 C    3.990 --    18 C    1.779    16 C    1.118    39 H    0.955
    18   6 C    3.985 --    17 C    1.779    19 C    1.080    40 H    0.956
    19   6 C    3.978 --    24 N    1.372    20 C    1.372    18 C    1.080
    20   6 C    3.986 --    21 C    1.453    19 C    1.372    41 H    0.967
                            23 C    0.109
    21   6 C    3.990 --    20 C    1.453    22 C    1.428    42 H    0.970
                            24 N    0.104
    22   6 C    3.984 --    23 C    1.433    21 C    1.428    43 H    0.969
    23   6 C    3.981 --    24 N    1.438    22 C    1.433    44 H    0.965
                            20 C    0.109
    24   7 N    3.036 --    23 C    1.438    19 C    1.372    21 C    0.104
    25   7 N    2.964 --    16 C    1.486    26 N    1.195
    26   7 N    3.574 --    25 N    1.195    27 C    1.192    45 H    0.942
    27   6 C    3.965 --    28 C    1.312    15 C    1.262    26 N    1.192
    28   6 C    3.981 --    12 C    1.460    27 C    1.312    46 H    0.966
                            14 C    0.125
    29   1 H    0.998 --     1 C    0.975
    30   1 H    0.994 --     1 C    0.977
    31   1 H    0.997 --     1 C    0.983
    32   1 H    0.973 --     2 N    0.946
    33   1 H    0.998 --     6 C    0.968
    34   1 H    0.997 --     7 C    0.969
    35   1 H    0.997 --     8 C    0.969
    36   1 H    0.997 --     9 C    0.968
    37   1 H    0.998 --    13 C    0.969
    38   1 H    0.997 --    14 C    0.967
    39   1 H    0.996 --    17 C    0.955
    40   1 H    0.996 --    18 C    0.956
    41   1 H    0.999 --    20 C    0.967
    42   1 H    0.998 --    21 C    0.970
    43   1 H    0.999 --    22 C    0.969
    44   1 H    0.998 --    23 C    0.965
    45   1 H    0.972 --    26 N    0.942
    46   1 H    0.996 --    28 C    0.966
 ---------------------------------------------------------------------------

Topologies differ in total number of bonds
Writing topology from bond orders to xtbtopo.mol

molecular dipole:
                 x           y           z       tot (Debye)
 q only:        0.909       1.038      -0.404
   full:        1.236       1.383      -0.570       4.931
molecular quadrupole (traceless):
                xx          xy          yy          xz          yz          zz
 q only:      -16.878     -11.755       6.784      -4.263       4.960      10.094
  q+dip:      -13.406     -12.829       4.048      -6.084       8.595       9.358
   full:      -12.609     -14.787       6.938      -5.421       5.467       5.671


           -------------------------------------------------
          | TOTAL ENERGY              -75.245199066067 Eh   |
          | GRADIENT NORM               0.096284881188 Eh/α |
          | HOMO-LUMO GAP               2.144055168371 eV   |
           -------------------------------------------------

------------------------------------------------------------------------
 * finished run on 2026/08/31 at 20:38:10.840     
------------------------------------------------------------------------
 total:
 * wall-time:     0 d,  0 h,  0 min,  0.132 sec
 *  cpu-time:     0 d,  0 h,  0 min,  0.938 sec
 * ratio c/w:     7.102 speedup
 SCF:
 * wall-time:     0 d,  0 h,  0 min,  0.086 sec
 *  cpu-time:     0 d,  0 h,  0 min,  0.641 sec
 * ratio c/w:     7.449 speedup

normal termination of xtb
