33
drug
Ti    -3.00000000    -2.60000000     1.25000000
O     -3.00000000    -2.60000000     2.45000000
C     -1.50000000    -1.30000000     0.00000000
Ti    -1.50000000     0.00000000    -1.25000000
O     -1.50000000     0.00000000    -2.45000000
C     -3.00000000     0.00000000     0.00000000
Ti    -1.50000000     0.00000000     1.25000000
O     -1.50000000     0.00000000     2.45000000
C      0.00000000     1.30000000     0.00000000
Ti     0.00000000     2.60000000    -1.25000000
O      1.50000000     2.60000000    -2.45000000
O     -1.50000000     2.60000000    -2.45000000
C      1.50000000     2.60000000     0.00000000
Ti     0.00000000     2.60000000     1.25000000
O      1.50000000     2.60000000     2.45000000
O     -1.50000000     2.60000000     2.45000000
C     -1.50000000     2.60000000     0.00000000
Ti     1.50000000     0.00000000    -1.25000000
O      1.50000000     0.00000000    -2.45000000
C      3.00000000     0.00000000     0.00000000
Ti     1.50000000     0.00000000     1.25000000
O      1.50000000     0.00000000     2.45000000
C      1.50000000    -1.30000000     0.00000000
Ti     3.00000000    -2.60000000    -1.25000000
O      3.00000000    -2.60000000    -2.45000000
Ti     3.00000000    -2.60000000     1.25000000
O      3.00000000    -2.60000000     2.45000000
Ti     0.00000000    -2.60000000    -1.25000000
O      0.00000000    -2.60000000    -2.45000000
Ti     0.00000000    -2.60000000     1.25000000
O      0.00000000    -2.60000000     2.45000000
Ti    -3.00000000    -2.60000000    -1.25000000
O     -3.00000000    -2.60000000    -2.45000000
