40
carrier
O      3.10881500    -1.16372400     6.93283500
C      2.58101800    -0.96908500     5.84096300
C      3.38337200    -1.07874100     4.51104400
H      2.85597600    -1.84819400     3.93132300
O      4.72708600    -1.56264500     4.61907500
C      5.60414500    -0.57429100     5.17786700
H      5.33014400    -0.36509900     6.21669500
H      6.61120400    -1.00389900     5.19003400
C      5.60600200     0.70889400     4.33649800
H      6.25657000     1.45532800     4.80352600
H      6.01203700     0.49075400     3.34109100
N      4.25419900     1.27201800     4.18353200
H      4.28865800     2.04949600     3.52460500
C      3.35078400     0.22622800     3.67873200
H      3.64990800    -0.01102700     2.64935500
H      2.33912100     0.64006300     3.62606100
N      1.24243900    -0.70527700     5.63773400
H      0.86197900    -0.63899400     4.70903800
C      0.27774400    -0.53806100     6.62204700
N     -0.95151900    -0.32184500     6.12254200
C     -1.89814000    -0.15255800     7.07133100
N     -3.26416400     0.08760600     6.91384900
C     -4.03331300     0.21934600     5.71716400
C     -5.41321200     0.46401100     5.81786000
H     -5.91187100     0.55592900     6.77949600
C     -6.18173700     0.59570500     4.66593400
F     -7.49631500     0.82894900     4.77337700
C     -5.60967400     0.48955000     3.40539500
H     -6.23136200     0.59609800     2.52217000
C     -4.24305400     0.24711200     3.29345500
H     -3.78699500     0.16229900     2.30985200
C     -3.45536100     0.11212800     4.44362900
H     -2.39663700    -0.07615400     4.30175700
N     -3.88715700     0.20111500     8.12862900
C     -2.91786600     0.03268400     9.02653600
H     -3.16831900     0.07982100    10.07906300
C     -1.66881700    -0.18894100     8.43678900
C     -0.36684500    -0.41663300     8.85002900
H     -0.05628800    -0.46808300     9.88712700
N      0.59744600    -0.58837800     7.92196200
