69
Abemaciclib charge=0
C 10.210697 -1.772533 0.872632
C 9.796267 -0.504591 0.132858
N 8.993478 -0.785215 -1.065274
C 7.639874 -1.296930 -0.761490
C 6.658524 -0.246330 -0.186697
N 6.540939 0.948096 -1.049420
C 5.686471 1.981537 -0.446979
C 4.235005 1.587550 -0.367461
C 3.533851 1.596862 0.835415
C 2.183217 1.241425 0.854267
C 1.544721 0.885793 -0.327442
N 0.215296 0.519004 -0.417720
C -0.826635 0.389898 0.479255
N -0.670641 0.650957 1.786519
C -1.748602 0.493825 2.580304
C -2.976400 0.093279 2.121271
F -4.001178 -0.054548 2.970872
C -3.072898 -0.155367 0.767348
C -4.317353 -0.596874 0.097940
C -4.251994 -1.454226 -1.015603
C -5.402991 -1.890653 -1.677426
F -5.276648 -2.709430 -2.731944
C -6.665164 -1.470071 -1.234218
N -7.917567 -1.751603 -1.713792
C -8.766257 -1.094349 -0.949715
C -10.237635 -1.126959 -1.148700
N -8.098633 -0.399185 0.041368
C -8.662163 0.449609 1.089788
C -9.072992 1.820178 0.552758
C -9.780806 -0.208434 1.898842
C -6.741633 -0.620688 -0.135469
C -5.590601 -0.167191 0.538195
N -1.996775 -0.011436 -0.049973
N 2.213149 0.878049 -1.502382
C 3.523915 1.221310 -1.500888
C 7.882015 1.491313 -1.340817
C 8.845957 0.421972 -1.907228
H 9.358558 -2.267658 1.347027
H 10.695358 -2.484635 0.196403
H 10.926112 -1.524029 1.663776
H 9.288000 0.172970 0.827685
H 10.723904 -0.003269 -0.171624
H 7.686927 -2.159999 -0.089043
H 7.214936 -1.690588 -1.695232
H 6.979406 0.037631 0.823634
H 5.680597 -0.731961 -0.088821
H 5.726677 2.895867 -1.054551
H 6.061526 2.258947 0.547264
H 4.023266 1.875960 1.764476
H 1.654584 1.250962 1.799711
H -0.056189 0.295660 -1.362501
H -1.592229 0.703955 3.632963
H -3.291499 -1.801910 -1.390867
H -10.711400 -1.776336 -0.407075
H -10.473284 -1.533270 -2.138222
H -10.681076 -0.130736 -1.095009
H -7.850969 0.620349 1.807070
H -9.377958 2.479328 1.372583
H -8.239407 2.300596 0.028547
H -9.909171 1.753188 -0.148982
H -9.966364 0.360080 2.817102
H -10.726119 -0.240733 1.350684
H -9.513826 -1.231126 2.185729
H -5.682330 0.515628 1.377446
H 4.005022 1.187130 -2.475561
H 7.792732 2.291784 -2.085437
H 8.321508 1.937374 -0.439234
H 8.477827 0.105351 -2.892555
H 9.827067 0.875011 -2.096383
