59
Afatinib charge=0
C -7.107184 -1.078345 0.888200
N -5.786095 -0.793047 0.319544
C -5.945711 -0.298003 -1.050978
C -4.945367 -1.998064 0.374447
C -3.491033 -1.654560 0.230587
C -2.569614 -1.896829 1.178074
C -1.130562 -1.558926 1.019496
O -0.287049 -2.324120 1.469799
N -0.919400 -0.340356 0.423001
C 0.309299 0.283411 0.122429
C 1.547008 -0.333164 0.290595
C 2.751067 0.354112 -0.005711
C 4.048383 -0.178138 0.148616
N 4.193863 -1.498519 0.653344
C 5.343325 -2.318131 0.684304
C 5.400666 -3.366088 1.620364
C 6.489004 -4.241829 1.658158
C 7.521565 -4.092090 0.741286
F 8.556890 -4.943245 0.791237
C 7.469897 -3.085451 -0.217271
Cl 8.734108 -2.913196 -1.374937
C 6.380166 -2.211471 -0.253145
N 5.146055 0.528754 -0.174882
C 4.955450 1.767764 -0.633660
N 3.775710 2.372732 -0.806788
C 2.687995 1.664630 -0.496719
C 1.446237 2.263048 -0.676148
C 0.256949 1.594211 -0.378791
O -1.007167 2.111698 -0.525675
C -1.163119 3.427743 -1.071272
C -2.620741 3.581625 -1.455775
C -3.266666 3.914930 -0.128251
O -2.314483 4.698909 0.599415
C -1.018738 4.501850 0.002533
H -7.018333 -1.382889 1.937108
H -7.733691 -0.179229 0.879476
H -7.630569 -1.870483 0.340335
H -6.576530 0.598418 -1.062517
H -6.401607 -1.045165 -1.710840
H -4.985393 0.003441 -1.481382
H -5.232629 -2.721817 -0.398911
H -5.087669 -2.503801 1.338942
H -3.193141 -1.211936 -0.715489
H -2.815446 -2.403456 2.105135
H -1.731653 0.241431 0.238642
H 1.598208 -1.360076 0.637240
H 3.630914 -1.601752 1.492739
H 4.593311 -3.509218 2.335614
H 6.532561 -5.041217 2.391105
H 6.343050 -1.450392 -1.027106
H 5.842443 2.337377 -0.889434
H 1.446568 3.280054 -1.054361
H -0.515551 3.572115 -1.941978
H -3.062077 2.690271 -1.910784
H -2.735520 4.428182 -2.142852
H -3.477086 3.010837 0.453655
H -4.196678 4.478424 -0.243826
H -0.311068 4.240695 0.793870
H -0.723123 5.458340 -0.440727
