53
Bortezomib charge=0
C 5.903348 0.336572 1.752209
C 5.283074 -0.651513 0.792178
C 5.193142 -2.017984 1.377837
C 4.013422 -0.146176 0.196617
C 2.910924 0.177741 1.123975
N 1.784809 0.647333 0.300737
C 0.536747 -0.001929 0.362325
O 0.427113 -0.998280 1.153350
C -0.628298 0.384312 -0.410240
C -1.043310 1.797918 -0.431697
C -2.271610 1.974543 -1.289119
C -3.525007 1.874068 -0.763321
C -4.682238 2.019987 -1.474393
C -4.565224 2.289457 -2.828034
C -3.290166 2.398063 -3.395076
C -2.145615 2.242469 -2.635527
N -1.736320 -0.484627 -0.066447
C -2.310118 -1.425336 -0.955594
O -1.912644 -1.592642 -2.124376
C -3.432400 -2.231405 -0.440988
C -4.036779 -3.168808 -1.270312
N -5.048233 -3.877853 -0.763345
C -5.506680 -3.733897 0.490433
C -4.918789 -2.813894 1.314192
N -3.895741 -2.095659 0.805065
B 3.210496 1.357861 2.120101
O 3.103603 1.072220 3.547949
O 2.983092 2.741645 1.711114
H 5.663940 1.365839 1.435040
H 5.611959 0.123537 2.800258
H 7.025557 0.275643 1.735146
H 6.011195 -0.733656 -0.068254
H 6.146102 -2.595199 1.201799
H 5.117556 -1.936968 2.483591
H 4.407341 -2.651767 0.940043
H 4.261905 0.785611 -0.391705
H 3.629004 -0.848228 -0.571373
H 2.557609 -0.724966 1.650409
H 1.936213 1.452003 -0.310725
H -0.392448 0.105577 -1.484279
H -0.332138 2.517652 -0.817015
H -1.335901 2.134733 0.581487
H -3.614648 1.662666 0.295300
H -5.653955 1.939188 -1.050262
H -5.429531 2.417983 -3.461659
H -3.147474 2.607300 -4.446525
H -1.160087 2.319501 -3.036639
H -2.116069 -0.389872 0.903817
H -3.681794 -3.297784 -2.282396
H -6.319667 -4.312207 0.880343
H -5.270237 -2.682314 2.322478
H 2.163587 1.103115 3.857321
H 3.521385 3.288427 2.331725
