79
Brigatinib charge=0
C 0.348311 2.071997 2.417615
O 1.033018 1.165513 1.562784
C 0.259342 0.369179 0.745526
C -1.138652 0.428492 0.664066
C -1.864473 -0.416128 -0.192915
N -3.267648 -0.306235 -0.229650
C -4.019257 -1.473796 -0.699217
C -5.503112 -1.301689 -0.375691
C -6.072927 -0.006002 -0.992069
N -7.503722 0.214114 -0.650894
C -8.036755 1.468019 -1.238206
C -9.574129 1.514079 -1.445335
N -10.359123 0.697615 -0.507953
C -10.281016 1.240452 0.849809
C -9.867460 -0.694945 -0.546416
C -8.393664 -0.906145 -0.999124
C -5.201081 1.177697 -0.515486
C -3.721098 0.959753 -0.824849
C -1.137979 -1.335317 -0.956009
C 0.260479 -1.399720 -0.885890
C 0.981311 -0.553023 -0.043305
N 2.379845 -0.573093 0.066092
C 3.402110 -1.293964 -0.531361
N 3.160421 -2.232817 -1.456483
C 4.227526 -2.874079 -1.971601
C 5.525481 -2.614949 -1.604284
Cl 6.818287 -3.495420 -2.316510
C 5.700937 -1.625204 -0.647056
N 7.013846 -1.315715 -0.203638
C 7.420413 -0.477464 0.859940
C 6.661315 -0.378109 2.036876
C 7.079567 0.408834 3.111715
C 8.279425 1.102953 3.036497
C 9.060689 1.004623 1.887834
C 8.647867 0.217199 0.795988
P 9.678488 0.131921 -0.643770
C 10.072904 1.795132 -1.198448
C 11.279832 -0.537701 -0.180131
O 9.104938 -0.662793 -1.795485
N 4.639557 -0.979363 -0.113218
H 1.099755 2.606059 3.007210
H -0.305131 1.540081 3.116944
H -0.208802 2.815930 1.838792
H -1.703260 1.117695 1.282674
H -3.665750 -2.384413 -0.199487
H -3.896722 -1.607863 -1.781798
H -6.021536 -2.184616 -0.763482
H -5.643514 -1.289051 0.713138
H -5.982045 -0.085269 -2.084752
H -7.575567 1.668331 -2.214030
H -7.764061 2.292217 -0.568226
H -9.917102 2.556146 -1.424869
H -9.796526 1.156964 -2.460310
H -10.943346 0.679265 1.518777
H -9.271260 1.213187 1.272541
H -10.632602 2.278208 0.867854
H -10.016638 -1.177328 0.428805
H -10.507434 -1.250742 -1.243602
H -8.371460 -1.068169 -2.085124
H -8.064726 -1.836103 -0.525902
H -5.505760 2.112669 -0.998550
H -5.328583 1.316818 0.566533
H -3.562980 0.943193 -1.911385
H -3.166873 1.819163 -0.428827
H -1.634929 -2.015602 -1.640309
H 0.767538 -2.129765 -1.508505
H 2.751722 0.103296 0.721768
H 3.991284 -3.629863 -2.714451
H 7.642369 -1.269710 -1.018347
H 5.731092 -0.932340 2.136498
H 6.466230 0.468109 4.006971
H 8.607838 1.713897 3.873283
H 10.001333 1.548491 1.849567
H 10.717118 1.753824 -2.081372
H 10.595922 2.358702 -0.421299
H 9.157600 2.331851 -1.462911
H 11.940421 -0.573551 -1.051007
H 11.165938 -1.552750 0.210380
H 11.756632 0.079139 0.586465
