50
Buparlisib charge=0
N 6.649605 -1.208375 -1.095102
C 5.306064 -0.980103 -0.827535
C 4.894968 0.192170 -0.218056
C 3.526063 0.412824 0.027619
C 3.113766 1.693598 0.710148
F 4.155151 2.276490 1.380224
F 2.671820 2.650270 -0.150606
F 2.148577 1.529853 1.656544
C 2.595947 -0.561258 -0.380233
C 1.143966 -0.426887 -0.207960
C 0.362079 -1.426569 0.328073
C -0.992436 -1.186001 0.420201
N -1.834636 -2.172592 0.977908
C -1.859279 -3.424363 0.186279
C -2.746057 -4.466078 0.889920
O -4.075856 -3.970643 1.108136
C -4.034540 -2.781240 1.914445
C -3.206579 -1.676611 1.239998
N -1.505807 -0.009952 0.025602
C -0.695634 0.928928 -0.483542
N -1.239875 2.121617 -0.917368
C -0.307287 3.220343 -1.186995
C -1.092274 4.458025 -1.647124
O -2.047120 4.930592 -0.682562
C -2.527596 3.901417 0.196116
C -2.574844 2.506207 -0.448526
N 0.623758 0.739864 -0.620281
C 3.127470 -1.693279 -1.002045
N 4.444624 -1.923793 -1.221803
H 6.723106 -2.135280 -1.507646
H 7.227130 -1.116552 -0.267948
H 5.634576 0.938452 0.061284
H 0.791518 -2.348929 0.695326
H -2.265783 -3.217818 -0.812537
H -0.856283 -3.849457 0.070919
H -2.314578 -4.761648 1.853845
H -2.825036 -5.364742 0.270059
H -3.627407 -3.033956 2.900822
H -5.065184 -2.440553 2.054687
H -3.694053 -1.398105 0.296122
H -3.182747 -0.802716 1.902170
H 0.247338 3.469021 -0.273559
H 0.405653 2.942687 -1.972063
H -1.639606 4.239909 -2.571767
H -0.405814 5.283548 -1.860371
H -1.880986 3.890973 1.081620
H -3.528426 4.196393 0.527317
H -3.006740 1.807062 0.275599
H -3.241159 2.531636 -1.318884
H 2.480441 -2.484378 -1.376471
