21
Carmustine charge=0
O -1.791981 -2.819013 -0.194179
N -0.820598 -2.117920 -0.494129
N -1.075416 -0.649541 -0.337553
C -2.377109 -0.190276 0.139428
C -2.571212 -0.377141 1.642382
Cl -1.444104 0.618104 2.598105
C -0.081879 0.271345 -0.655421
O -0.258259 1.489607 -0.626552
N 1.133743 -0.260172 -1.033365
C 2.274628 0.606377 -1.282486
C 2.906460 1.156880 -0.005006
Cl 3.573967 -0.166167 0.991429
H -3.154243 -0.738380 -0.406635
H -2.515422 0.866328 -0.117943
H -3.584550 -0.079013 1.927569
H -2.424543 -1.416877 1.947247
H 1.350028 -1.185632 -0.686012
H 3.003183 0.022450 -1.855225
H 1.944604 1.439655 -1.912951
H 2.181031 1.697207 0.609573
H 3.731675 1.832180 -0.248276
