60
Cediranib charge=0
C -0.889638 0.505541 3.144238
O -1.530240 0.753751 1.900626
C -0.737823 1.065148 0.825748
C 0.650149 1.192900 0.873488
C 1.383562 1.516221 -0.293811
C 2.771462 1.662676 -0.356634
O 3.484762 1.531636 0.832767
C 4.750866 1.007666 0.710751
C 5.827987 1.804242 1.095568
C 7.137485 1.313680 1.033621
C 7.319814 -0.003692 0.590036
N 8.474157 -0.737392 0.430318
C 8.181917 -2.001876 -0.020319
C 9.244315 -3.004692 -0.275284
C 6.811446 -2.082476 -0.157410
C 6.256060 -0.828466 0.219341
C 4.949831 -0.312339 0.289968
F 3.899649 -1.087733 -0.024312
N 3.454906 1.991346 -1.470987
C 2.709590 2.142749 -2.566188
N 1.376149 2.020654 -2.639635
C 0.726049 1.711496 -1.509575
C -0.656607 1.582884 -1.541938
C -1.398751 1.261661 -0.398300
O -2.764432 1.128882 -0.372373
C -3.463898 1.161797 -1.614463
C -4.944061 0.888224 -1.353013
C -5.164729 -0.505763 -0.752450
N -6.590692 -0.835119 -0.640941
C -7.298957 -0.025663 0.354353
C -8.576968 -0.813385 0.610463
C -8.261796 -2.241493 0.181807
C -6.792263 -2.219240 -0.204038
H -0.367645 1.398276 3.503921
H -1.664561 0.256710 3.875678
H -0.210406 -0.350558 3.075413
H 1.195009 1.044168 1.800386
H 5.651036 2.821576 1.435494
H 7.978004 1.937638 1.321018
H 9.403512 -0.389125 0.622190
H 9.939917 -2.642240 -1.038865
H 9.808797 -3.208138 0.640281
H 8.816532 -3.948967 -0.626896
H 6.256839 -2.948760 -0.495880
H 3.229555 2.392179 -3.484854
H -1.142073 1.748637 -2.498539
H -3.067004 0.402861 -2.299626
H -3.367467 2.155505 -2.067437
H -5.326586 1.650146 -0.663546
H -5.495341 0.982074 -2.296225
H -4.688297 -1.240427 -1.414332
H -4.667651 -0.584240 0.222933
H -6.727202 0.061563 1.287141
H -7.525310 0.980693 -0.011214
H -8.868139 -0.764433 1.664798
H -9.407787 -0.419868 0.013520
H -8.883397 -2.514906 -0.679188
H -8.460969 -2.961546 0.981695
H -6.173834 -2.463457 0.669369
H -6.574831 -2.939191 -0.999317
