55
Dabrafenib charge=0
C -6.020716 -1.127044 -0.623243
C -4.852972 -2.130189 -0.652591
C -4.966486 -3.025846 -1.899847
C -4.971409 -3.033992 0.594183
C -3.512678 -1.398171 -0.634889
N -2.609919 -1.537492 0.314688
C -1.498592 -0.753762 0.049321
C -0.365800 -0.775494 0.956197
C -0.553984 -0.472477 2.308673
C 0.521890 -0.530264 3.197069
C 1.791986 -0.901135 2.744862
C 1.996780 -1.195480 1.397047
N 3.245432 -1.675993 0.888822
S 4.714879 -0.967798 1.301193
O 5.708133 -1.541628 0.417257
O 4.874870 -1.060792 2.735561
C 4.528550 0.707448 0.835743
C 4.207713 1.002746 -0.483520
F 3.969557 0.026785 -1.371138
C 4.117781 2.325378 -0.912933
C 4.349865 3.364361 -0.012788
C 4.660758 3.068939 1.314220
C 4.751997 1.740649 1.732920
F 5.070378 1.513228 3.012352
C 0.908469 -1.144690 0.516218
F 1.110558 -1.476113 -0.772378
C -1.574703 0.018816 -1.096770
C -0.658415 1.017172 -1.634715
C -0.147589 0.944775 -2.911113
C 0.700857 1.964994 -3.258123
N 1.017235 2.980734 -2.433517
C 0.448130 2.968406 -1.225169
N 0.747099 4.002665 -0.367102
N -0.355832 2.008731 -0.772224
S -3.063880 -0.302247 -1.890697
H -6.047091 -0.502706 -1.523309
H -6.984627 -1.645391 -0.561536
H -5.946167 -0.456188 0.240798
H -4.971077 -2.439934 -2.825757
H -4.128595 -3.730447 -1.960215
H -5.893787 -3.610169 -1.882879
H -5.926588 -3.571644 0.605798
H -4.170667 -3.782643 0.623120
H -4.910427 -2.448913 1.519651
H -1.543541 -0.204952 2.675297
H 0.365997 -0.311530 4.251553
H 2.592922 -0.988580 3.474107
H 3.242202 -2.004416 -0.080307
H 3.866829 2.537327 -1.949268
H 4.293279 4.398344 -0.344996
H 4.847530 3.866409 2.028964
H -0.382026 0.140132 -3.593774
H 1.165293 2.000579 -4.239325
H 1.620507 4.435904 -0.623254
H 0.620091 3.713603 0.592110
