58
Dacomitinib charge=0
C 0.896224 -4.251959 0.772259
O 0.665054 -2.850806 0.678039
C -0.643859 -2.434040 0.608656
C -1.755707 -3.281013 0.583932
C -3.053019 -2.787363 0.513151
N -4.059524 -3.663857 0.494894
C -5.294612 -3.158385 0.416931
N -5.615150 -1.863728 0.361521
C -4.599345 -0.982168 0.392921
N -4.882532 0.410066 0.351782
C -6.099073 1.064503 0.059706
C -7.081029 0.507633 -0.772301
C -8.247147 1.211957 -1.087339
C -8.430358 2.495376 -0.590248
F -9.554251 3.156311 -0.904435
C -7.455333 3.083960 0.207711
Cl -7.663131 4.683704 0.811416
C -6.290530 2.377957 0.521208
C -3.253900 -1.402155 0.460565
C -2.129285 -0.538304 0.471662
C -0.833555 -1.044006 0.559495
N 0.319008 -0.230380 0.593649
C 0.385331 1.138618 0.676956
O -0.548297 1.920733 0.810138
C 1.772319 1.673861 0.677928
C 2.763184 1.180423 -0.083485
C 4.155165 1.744652 -0.104746
N 5.132887 0.769792 0.394424
C 5.446839 -0.304801 -0.562123
C 6.301344 0.138392 -1.753644
C 7.569275 0.850441 -1.295393
C 7.243344 1.954301 -0.295520
C 6.372450 1.424017 0.845727
H 0.444248 -4.666825 1.679173
H 0.539617 -4.770768 -0.123506
H 1.977363 -4.407438 0.838289
H -1.643044 -4.360252 0.619198
H -6.115084 -3.867535 0.397567
H -4.363616 0.880161 1.088106
H -6.946892 -0.484300 -1.196385
H -9.005233 0.766441 -1.723510
H -5.529944 2.857742 1.132197
H -2.288739 0.531861 0.390651
H 1.189796 -0.751797 0.639436
H 1.914694 2.546458 1.306869
H 2.570441 0.352309 -0.759044
H 4.171379 2.639689 0.531412
H 4.389711 2.090526 -1.117535
H 5.985869 -1.093164 -0.019666
H 4.533801 -0.788242 -0.926631
H 6.572298 -0.737119 -2.355017
H 5.723810 0.800418 -2.409113
H 8.099406 1.268008 -2.158385
H 8.243828 0.123572 -0.826101
H 6.733110 2.778499 -0.808234
H 8.174099 2.364346 0.112864
H 6.142873 2.236352 1.546308
H 6.953422 0.697329 1.429022
