151
Everolimus charge=0
C -6.256547 -3.057380 0.379318
O -6.143371 -2.734767 -1.002568
C -4.902069 -2.098288 -1.336566
C -4.735462 -2.125768 -2.868882
C -4.246685 -3.464501 -3.452655
C -5.178400 -4.657141 -3.194317
C -4.660012 -5.564344 -2.089437
C -3.221879 -6.034114 -2.360578
C -3.215385 -7.441074 -2.972145
C -2.430673 -5.005880 -3.212549
O -2.568806 -5.326253 -4.605001
O -2.902936 -3.682230 -2.998053
C -0.927842 -5.082144 -2.859998
O -0.124521 -5.666818 -3.586394
C -0.480137 -4.408878 -1.549322
O -1.308844 -4.237355 -0.659640
N 0.865921 -4.048591 -1.393954
C 1.884960 -4.203770 -2.435544
C 3.146549 -3.384203 -2.189425
C 3.745077 -3.605647 -0.803495
C 2.720192 -4.036472 0.245193
C 1.297425 -3.570779 -0.068930
C 1.168643 -2.044148 0.060554
O 1.135823 -1.246369 -0.867588
O 1.152189 -1.684931 1.376594
C 1.253124 -0.266586 1.669392
C 1.705339 -0.163474 3.151750
C 1.844597 1.277006 3.647713
C 2.969300 -1.011478 3.469471
C 4.188870 -0.902152 2.523983
C 5.256823 -1.953027 2.904644
C 6.369832 -1.359208 3.763897
C 7.142809 -0.266597 3.006882
O 8.200024 -0.881621 2.242133
C 9.409192 -1.050092 2.997315
C 10.425328 -1.747208 2.099106
O 10.650131 -0.961037 0.929673
C 6.243050 0.507701 2.009185
O 6.642742 1.883389 1.897301
C 7.856361 2.064814 1.179045
C 4.784923 0.512279 2.473869
C -0.090450 0.416182 1.382761
C 0.092489 1.797772 0.778740
O 0.154472 2.788067 1.512203
C 0.216231 1.914650 -0.747980
C 1.668523 2.171601 -1.139396
C -0.656822 3.066433 -1.215846
C -1.684182 3.054809 -2.092895
C -2.128543 1.812196 -2.837842
C -2.493458 4.298385 -2.485892
O -3.852488 4.133250 -2.059180
C -1.961128 5.726979 -2.158202
O -2.770116 6.689456 -2.855796
C -2.160098 7.970985 -2.951454
C -1.808149 6.088824 -0.665975
O -0.806792 6.721230 -0.302115
C -2.915109 5.744785 0.327740
C -4.075497 6.721855 0.176905
C -2.362826 5.723962 1.773904
C -3.257915 4.968391 2.782853
C -2.666394 5.060238 4.190793
C -3.397008 3.517456 2.382385
C -4.546410 2.966784 1.961161
C -4.676111 1.621480 1.448214
C -3.796198 1.061193 0.604333
C -3.938088 -0.248521 0.015964
C -4.918326 -0.662634 -0.813062
C -6.063275 0.200644 -1.284301
H -5.408509 -3.662989 0.712280
H -6.333915 -2.151904 0.987683
H -7.172201 -3.638956 0.516989
H -4.077731 -2.662248 -0.881995
H -5.689352 -1.876892 -3.351242
H -4.003848 -1.359014 -3.157932
H -4.194494 -3.312720 -4.539360
H -5.243140 -5.251616 -4.115639
H -6.204947 -4.332122 -2.996023
H -4.668171 -5.017160 -1.141781
H -5.337139 -6.415375 -1.952333
H -2.750546 -6.136609 -1.375122
H -3.777668 -7.478545 -3.910976
H -3.674566 -8.159517 -2.284144
H -2.192820 -7.779873 -3.167379
H -1.670516 -5.306699 -4.986191
H 2.141880 -5.268430 -2.480760
H 1.459542 -3.907610 -3.399477
H 2.912819 -2.320289 -2.311313
H 3.896296 -3.612490 -2.955987
H 4.533271 -4.366553 -0.857198
H 4.241253 -2.681673 -0.482950
H 3.040997 -3.687649 1.233394
H 2.720142 -5.133818 0.292545
H 0.621562 -4.000488 0.681458
H 2.041884 0.158323 1.040487
H 0.911308 -0.618553 3.762855
H 2.414139 1.899850 2.953937
H 0.859557 1.736520 3.776652
H 2.336125 1.314613 4.625562
H 2.650689 -2.063498 3.477293
H 3.290522 -0.804027 4.498897
H 3.856603 -1.165204 1.512929
H 4.802990 -2.806569 3.421389
H 5.700244 -2.359344 1.985776
H 7.037369 -2.165944 4.083846
H 5.926614 -0.929516 4.670654
H 7.584887 0.435630 3.725453
H 9.225747 -1.648746 3.894242
H 9.783284 -0.060810 3.282691
H 11.379051 -1.883087 2.616137
H 10.052207 -2.723260 1.773482
H 9.758104 -0.739245 0.599294
H 6.290320 0.054864 1.009407
H 8.707420 1.692850 1.754118
H 7.811001 1.573780 0.202389
H 7.999086 3.137307 1.020369
H 4.727418 0.997430 3.457131
H 4.195753 1.141216 1.795909
H -0.689860 0.518515 2.295196
H -0.713902 -0.171241 0.700816
H -0.108090 0.971435 -1.186814
H 1.764884 2.309655 -2.221986
H 2.068206 3.065214 -0.645948
H 2.309895 1.332264 -0.855413
H -0.365926 4.004665 -0.744546
H -3.181533 1.594642 -2.634773
H -2.014164 1.964779 -3.916522
H -1.564624 0.914121 -2.582823
H -2.555538 4.278031 -3.583262
H -3.912217 3.349699 -1.486818
H -0.949055 5.772356 -2.586518
H -2.793062 8.600939 -3.582564
H -2.085946 8.442766 -1.968026
H -1.172124 7.898725 -3.415956
H -3.251129 4.737242 0.095664
H -4.488828 6.693540 -0.835929
H -4.891130 6.485168 0.866247
H -3.752415 7.750878 0.369090
H -1.366510 5.260069 1.774351
H -2.214173 6.755533 2.120255
H -4.245092 5.445201 2.810123
H -1.664895 4.617361 4.237330
H -2.586810 6.105299 4.508969
H -3.299488 4.538120 4.916913
H -2.478300 2.932665 2.390846
H -5.464876 3.551400 1.968618
H -5.591819 1.097768 1.715513
H -2.885069 1.588360 0.338830
H -3.126589 -0.933323 0.262233
H -6.106193 0.224258 -2.377422
H -5.981250 1.241267 -0.960431
H -7.014882 -0.188035 -0.908436
