55
Gefitinib charge=0
C 1.052661 -2.758678 -3.062357
O 0.962436 -1.830062 -1.989412
C -0.290743 -1.486025 -1.558137
C -1.486845 -1.866778 -2.172170
C -2.729162 -1.494016 -1.665690
N -3.822700 -1.893856 -2.318665
C -5.000600 -1.519336 -1.808578
N -5.186186 -0.795182 -0.702183
C -4.083714 -0.405078 -0.038560
N -4.223399 0.338657 1.165934
C -5.379933 0.973701 1.672373
C -5.480054 1.199563 3.056340
C -6.575585 1.877024 3.598444
C -7.570408 2.358105 2.756398
F -8.612301 3.008145 3.295413
C -7.474512 2.178655 1.380416
Cl -8.690466 2.798310 0.329438
C -6.378166 1.501318 0.840667
C -2.788854 -0.722355 -0.496377
C -1.584866 -0.316473 0.124393
C -0.355976 -0.681863 -0.417585
O 0.771565 -0.292590 0.256680
C 1.397787 0.820090 -0.394330
C 2.834635 0.943775 0.111604
C 3.682706 -0.265433 -0.313116
N 5.099167 -0.255022 0.076620
C 5.871677 0.849625 -0.516152
C 7.357386 0.741764 -0.132886
O 7.527230 0.741145 1.292003
C 6.805152 -0.355479 1.871546
C 5.306443 -0.275724 1.535208
H 0.556581 -3.702672 -2.813542
H 0.650135 -2.330457 -3.986015
H 2.112562 -2.973243 -3.229598
H -1.486214 -2.471976 -3.073843
H -5.890227 -1.836078 -2.342404
H -3.700676 -0.132167 1.898391
H -4.704497 0.843249 3.730520
H -6.655266 2.037022 4.669147
H -6.304933 1.393877 -0.238034
H -1.596109 0.297069 1.021017
H 1.398808 0.721963 -1.487184
H 0.844612 1.730226 -0.132175
H 3.260504 1.870628 -0.286029
H 2.817518 1.019445 1.204422
H 3.632340 -0.368906 -1.404904
H 3.230930 -1.184181 0.082021
H 5.785829 0.828009 -1.608263
H 5.493815 1.815874 -0.161689
H 7.905300 1.602344 -0.529835
H 7.812184 -0.164223 -0.551562
H 7.241720 -1.299494 1.523435
H 6.944199 -0.305248 2.956213
H 4.897768 0.633062 1.992842
H 4.798742 -1.140052 1.977719
