53
Larotrectinib charge=0
O 4.588506 -1.949318 -1.737538
C 4.073993 -1.264917 -0.855137
N 2.770386 -0.841611 -0.867901
C 1.860747 -1.119345 -1.870957
C 1.970169 -1.837241 -3.075468
N 0.825575 -1.864860 -3.765566
N -0.039919 -1.155716 -3.000297
C -1.372349 -0.883082 -3.259970
C -2.093463 -0.159789 -2.394492
C -1.396053 0.337344 -1.146491
N -2.080619 1.092686 -0.205667
C -1.390886 1.692624 0.938720
C -2.485364 2.411033 1.715176
C -3.433669 2.855140 0.615217
C -3.415650 1.677461 -0.374080
C -4.527383 0.686969 -0.091760
C -4.346921 -0.487292 0.656520
C -5.421147 -1.344597 0.885735
F -5.231000 -2.460101 1.601505
C -6.687944 -1.061528 0.387310
C -6.885621 0.101280 -0.352912
C -5.811977 0.960167 -0.582564
F -6.023918 2.076763 -1.293663
N -0.128224 0.064179 -0.910183
C 0.554792 -0.680908 -1.834503
N 4.796513 -0.870489 0.250263
C 4.357461 -0.060942 1.376706
C 5.630504 0.256499 2.144099
C 6.513027 -0.956869 1.871651
O 7.876243 -0.628264 2.071762
C 6.176849 -1.291273 0.418303
H 2.399978 -0.300828 -0.101883
H 2.836429 -2.343824 -3.482206
H -1.769848 -1.288101 -4.180091
H -3.135461 0.061931 -2.564346
H -0.639838 2.409921 0.587569
H -0.900602 0.938228 1.562712
H -2.989977 1.716761 2.397064
H -2.098541 3.246704 2.305059
H -4.427751 3.108340 0.996361
H -3.022550 3.748532 0.127723
H -3.526912 2.070590 -1.392385
H -3.375884 -0.752921 1.066076
H -7.507843 -1.746173 0.580368
H -7.865744 0.345802 -0.750765
H 3.666617 -0.664158 1.975634
H 3.843746 0.842072 1.034624
H 6.102252 1.166242 1.751431
H 5.452344 0.419500 3.211232
H 6.236371 -1.783323 2.536801
H 8.407447 -1.396478 1.798192
H 6.290217 -2.359274 0.205326
H 6.802891 -0.733545 -0.287699
