49
Lenvatinib charge=0
C -7.305457 0.534000 -2.199354
O -6.588867 1.030848 -1.072971
C -5.444654 0.372571 -0.694402
C -4.958122 -0.766047 -1.357927
C -3.798380 -1.424054 -0.966349
N -3.407627 -2.508940 -1.657319
C -2.286827 -3.153458 -1.265372
C -1.509630 -2.757980 -0.199180
C -1.906712 -1.619238 0.494131
O -1.191919 -1.192704 1.594315
C 0.136606 -0.883251 1.404600
C 0.620697 -0.216627 0.277818
C 1.982994 0.088538 0.171684
C 2.871505 -0.257344 1.193586
N 4.254614 0.032725 1.143759
C 4.985746 0.489959 0.068264
O 4.574874 0.649612 -1.073935
N 6.297903 0.740585 0.439388
C 7.250967 1.254117 -0.497251
C 8.712840 1.305524 -0.145705
C 8.223599 0.329187 -1.174322
C 2.360418 -0.900200 2.337250
Cl 3.400980 -1.336305 3.652388
C 1.002780 -1.208289 2.445650
C -3.081985 -0.930734 0.135876
C -3.557711 0.210825 0.814061
C -4.732189 0.868631 0.411649
C -5.122216 2.068236 1.219684
N -6.259374 2.739393 0.882998
O -4.444509 2.451932 2.167112
H -6.694743 0.579516 -3.106884
H -8.174483 1.181374 -2.351469
H -7.675104 -0.479961 -2.015360
H -5.476754 -1.184912 -2.215452
H -2.027644 -4.029627 -1.853418
H -0.627211 -3.319799 0.082229
H -0.047290 0.086507 -0.524723
H 2.316337 0.612666 -0.719727
H 4.790424 -0.284235 1.941386
H 6.438837 0.988903 1.408845
H 6.863645 2.077702 -1.094729
H 9.036872 0.908666 0.808675
H 9.285534 2.158841 -0.490447
H 8.452934 0.520846 -2.216129
H 8.196413 -0.722135 -0.913330
H 0.617125 -1.700713 3.334089
H -3.001393 0.593352 1.670195
H -6.833809 2.449749 0.100564
H -6.520031 3.551745 1.423281
