31
Lomustine charge=0
O -3.124296 2.573714 -1.961126
N -2.127117 1.920303 -1.640418
N -2.454345 0.597441 -1.022770
C -3.849844 0.209704 -0.835930
C -4.393625 0.698806 0.499690
Cl -6.102109 0.236267 0.689619
C -1.445734 -0.200971 -0.490028
O -1.686852 -1.240119 0.124664
N -0.154469 0.231712 -0.703140
C 0.990054 -0.458685 -0.122622
C 1.177303 -0.062495 1.348494
C 2.415046 -0.717951 1.955767
C 3.668232 -0.423732 1.136918
C 3.488109 -0.816185 -0.326334
C 2.253672 -0.158040 -0.936594
H -4.448741 0.585617 -1.673610
H -3.914175 -0.884752 -0.879787
H -3.836574 0.270262 1.338550
H -4.335269 1.788808 0.577319
H -0.022898 1.201955 -0.951284
H 0.790696 -1.537230 -0.171148
H 0.293997 -0.344149 1.934012
H 1.266370 1.028830 1.430307
H 2.262015 -1.802756 2.011775
H 2.554066 -0.361789 2.982731
H 4.521648 -0.964276 1.561486
H 3.903021 0.645896 1.201340
H 3.395962 -1.906533 -0.403538
H 4.378654 -0.529740 -0.897023
H 2.412368 0.926931 -0.994338
H 2.124836 -0.506839 -1.968526
