41
Marizomib charge=0
C -2.136238 -1.889580 -0.271059
C -1.875991 -0.427400 0.045550
O -1.928485 -0.207715 1.485972
C -0.637423 0.213888 1.550618
O -0.020597 0.534394 2.538995
C -0.423405 0.160412 0.005063
C 0.709260 -0.711808 -0.529948
O 0.360635 -1.075909 -1.881695
C 2.107777 -0.027956 -0.547643
C 3.153161 -0.978872 -1.107442
C 4.390586 -1.111924 -0.607065
C 4.905901 -0.303979 0.544586
C 4.015203 0.896196 0.859443
C 2.536529 0.512363 0.828829
N -0.543193 1.448845 -0.724174
C -1.833570 1.768251 -1.072842
O -2.166941 2.834780 -1.556566
C -2.733135 0.581263 -0.756867
C -3.986126 1.083334 -0.023961
C -5.029173 0.029041 0.325456
Cl -5.658161 -0.788098 -1.122290
H -3.150023 -2.187413 0.008108
H -2.014949 -2.094183 -1.339279
H -1.450903 -2.544596 0.277094
H 0.769095 -1.646163 0.041075
H 0.482180 -0.289946 -2.446343
H 2.073665 0.815273 -1.251584
H 2.873821 -1.584633 -1.968679
H 5.074451 -1.831211 -1.052278
H 5.918182 0.050237 0.319700
H 4.979260 -0.956154 1.422811
H 4.277791 1.301011 1.843449
H 4.198234 1.694341 0.128515
H 2.351005 -0.240643 1.605056
H 1.946334 1.400587 1.078228
H 0.136265 2.201031 -0.724416
H -2.998168 0.151504 -1.730869
H -3.691001 1.594056 0.902107
H -4.470180 1.856084 -0.636772
H -5.881054 0.501291 0.824599
H -4.630619 -0.729999 1.002946
