31
Nimustine charge=0
C -4.302762 2.184269 0.453041
C -3.313818 1.128825 0.070098
N -2.952553 1.051707 -1.221412
C -2.047062 0.104402 -1.524027
C -1.488276 -0.756249 -0.600370
C -0.480476 -1.781791 -1.008252
N 0.846498 -1.220070 -1.143909
C 1.676059 -1.009053 -0.077763
O 1.345861 -1.351059 1.062102
N 2.901610 -0.399779 -0.331537
C 3.810625 -0.163248 0.786414
C 3.377519 0.991686 1.686855
Cl 3.535017 2.564121 0.863405
N 3.401315 0.066531 -1.668218
O 2.629112 -0.108101 -2.613485
C -1.909544 -0.568527 0.703537
N -1.443134 -1.369937 1.744859
N -2.817960 0.354588 1.051780
H -3.775219 3.107141 0.710756
H -4.894387 1.862945 1.315707
H -4.988326 2.388817 -0.374978
H -1.775810 0.058625 -2.575339
H -0.447747 -2.621510 -0.305372
H -0.752473 -2.204706 -1.982421
H 1.085850 -0.755604 -2.011013
H 4.827159 -0.001465 0.407033
H 3.842460 -1.080555 1.387443
H 2.339028 0.895097 2.014993
H 4.015505 1.031959 2.574685
H -1.824576 -1.002727 2.611688
H -0.419494 -1.396333 1.761767
