70
Osimertinib charge=0
C 4.780750 0.590137 4.376298
C 4.660937 0.609133 3.042492
C 3.319304 0.547239 2.391133
O 2.296858 0.506759 3.062761
N 3.423698 0.544458 1.023647
C 2.396069 0.513482 0.054760
C 1.031543 0.457430 0.346073
C 0.080003 0.425236 -0.683516
N -1.306889 0.360910 -0.459860
C -2.121892 0.337625 0.662341
N -1.616893 0.361459 1.901161
C -2.479452 0.338199 2.928962
C -3.838930 0.294575 2.769573
C -4.280190 0.272793 1.465408
C -5.702909 0.225386 1.141803
C -6.689270 0.808025 1.918428
N -7.899740 0.586401 1.316519
C -9.169977 1.052215 1.826832
C -7.734421 -0.134861 0.154500
C -8.672290 -0.595587 -0.784555
C -8.202462 -1.313174 -1.887996
C -6.844429 -1.563676 -2.051273
C -5.919274 -1.100032 -1.110307
C -6.362095 -0.369951 0.015123
N -3.438447 0.289112 0.410969
C 0.528636 0.448755 -2.028235
O -0.474145 0.405264 -2.973760
C -0.088597 0.497563 -4.338424
C 1.894150 0.505699 -2.322963
C 2.837182 0.546086 -1.289018
N 4.237290 0.601718 -1.532100
C 4.629344 1.756845 -2.341741
C 4.768830 -0.703332 -1.982249
C 6.191123 -0.951103 -1.415101
N 6.290901 -0.968312 0.065112
C 5.629831 -2.151408 0.628047
C 7.699504 -0.955979 0.469009
H 3.907703 0.529339 5.020722
H 5.755192 0.637050 4.848467
H 5.537579 0.672091 2.409946
H 4.349387 0.545620 0.591262
H 0.704703 0.435400 1.378348
H -1.865475 0.361436 -1.303586
H -2.022657 0.354497 3.913903
H -4.503975 0.265468 3.619840
H -6.626700 1.374824 2.838129
H -9.620207 1.713959 1.082505
H -9.807977 0.184069 2.010969
H -9.012445 1.599060 2.760007
H -9.733786 -0.404609 -0.666280
H -8.909087 -1.679802 -2.628629
H -6.494541 -2.123195 -2.914756
H -4.859977 -1.300872 -1.245774
H -0.999785 0.485756 -4.944258
H 0.518294 -0.364057 -4.635074
H 0.432363 1.439278 -4.540414
H 2.246467 0.509212 -3.346248
H 4.206649 2.682604 -1.934366
H 4.317645 1.654409 -3.387073
H 5.718245 1.870245 -2.326845
H 4.810314 -0.732840 -3.078879
H 4.115735 -1.531066 -1.677703
H 6.577137 -1.890871 -1.831727
H 6.838497 -0.152483 -1.799493
H 5.728535 -2.162015 1.719482
H 4.555831 -2.146305 0.420583
H 6.052996 -3.084508 0.238766
H 7.786596 -0.937720 1.561221
H 8.246334 -1.828166 0.092710
H 8.196758 -0.050899 0.102798
