62
Palbociclib charge=0
C -7.313622 2.271919 -0.274262
C -6.372114 2.016156 0.874003
O -6.681027 2.305972 2.030428
C -5.039414 1.408817 0.572507
C -3.910530 1.999202 1.017378
C -3.864913 3.308415 1.766964
C -2.627832 1.328847 0.734656
C -1.398031 1.790785 1.162249
N -0.219698 1.193170 0.896876
C -0.250243 0.071965 0.173217
N 0.900765 -0.614930 -0.159459
C 2.248577 -0.438147 0.086466
C 2.783937 0.606615 0.823883
C 4.170478 0.696325 1.010233
C 5.034106 -0.246640 0.455586
N 6.427360 -0.224833 0.610364
C 7.182427 -0.266948 -0.667951
C 8.689225 -0.500945 -0.408180
N 9.287179 0.470974 0.525366
C 8.513168 0.466587 1.780292
C 7.006945 0.741522 1.569511
C 4.389934 -1.267012 -0.248696
N 3.049739 -1.379413 -0.450826
N -1.393012 -0.460157 -0.278667
C -2.562167 0.154675 0.004973
N -3.767507 -0.435992 -0.468476
C -3.677876 -1.676778 -1.258315
C -4.097111 -1.496323 -2.726702
C -4.658468 -2.853681 -3.119906
C -5.416453 -3.288621 -1.876652
C -4.529151 -2.845758 -0.716742
C -5.002686 0.148163 -0.226805
O -6.063832 -0.318783 -0.639485
H -8.098405 1.511729 -0.281368
H -7.759927 3.263213 -0.153215
H -6.781911 2.262663 -1.229740
H -4.817225 3.844045 1.775363
H -3.152548 3.997678 1.299322
H -3.565580 3.143690 2.807467
H -1.293845 2.691243 1.760700
H 0.717139 -1.438843 -0.709309
H 2.151651 1.367143 1.265898
H 4.542523 1.536199 1.587398
H 7.044303 0.679906 -1.206617
H 6.833331 -1.074838 -1.320077
H 9.226986 -0.446093 -1.360987
H 8.835977 -1.514765 -0.014281
H 10.246353 0.190715 0.726372
H 8.924948 1.231449 2.447662
H 8.641937 -0.501381 2.281154
H 6.874851 1.767483 1.201859
H 6.512354 0.653449 2.544524
H 4.960053 -2.086676 -0.676904
H -2.646460 -2.046959 -1.265886
H -4.867200 -0.726752 -2.847375
H -3.249942 -1.204748 -3.356084
H -3.843075 -3.554898 -3.333087
H -5.302703 -2.797387 -4.001852
H -6.383334 -2.774639 -1.827655
H -5.607815 -4.365585 -1.862294
H -3.863702 -3.671162 -0.433381
H -5.116884 -2.601030 0.173241
