54
Pazopanib charge=0
C -8.357077 -0.404782 0.292974
C -6.868961 -0.592384 0.208436
C -6.314370 -1.767290 0.732813
C -4.937056 -2.003965 0.669617
C -4.060974 -1.087742 0.071997
N -2.694515 -1.383244 0.061254
C -1.559316 -0.708822 -0.381692
N -1.624647 0.528387 -0.883434
C -0.474202 1.084668 -1.288083
C 0.739386 0.454236 -1.196724
C 0.743219 -0.814675 -0.646284
N 1.974344 -1.523600 -0.548133
C 1.823347 -2.856439 0.050228
C 3.227808 -0.936152 -0.183358
C 4.409197 -1.407978 -0.861942
C 5.717787 -0.936891 -0.621714
C 5.723356 0.047027 0.360631
C 6.828603 0.713131 0.832306
C 8.272489 0.634278 0.502820
N 6.319055 1.576346 1.774216
C 7.064844 2.518825 2.577716
N 4.983263 1.497001 1.941656
C 4.579470 0.557416 1.073195
C 3.287587 0.069761 0.815534
N -0.411142 -1.395627 -0.255146
C -4.613766 0.080501 -0.457357
C -5.997862 0.331733 -0.395185
S -6.587179 1.838728 -1.132140
N -6.927849 2.783725 0.215893
O -7.851209 1.601292 -1.789281
O -5.502988 2.520893 -1.800873
H -8.611404 0.590795 0.666559
H -8.817279 -0.567080 -0.686146
H -8.807282 -1.119976 0.990701
H -6.951021 -2.515810 1.201336
H -4.552199 -2.926546 1.099002
H -2.416444 -2.291750 0.400797
H -0.560352 2.083161 -1.705599
H 1.642069 0.932758 -1.551692
H 2.748363 -3.442355 -0.014958
H 1.063970 -3.444431 -0.479841
H 1.545114 -2.788398 1.109346
H 4.282347 -2.174838 -1.627990
H 6.582070 -1.308780 -1.152604
H 8.599550 1.548942 -0.001964
H 8.491556 -0.209491 -0.158017
H 8.872207 0.504877 1.409597
H 6.371152 3.183853 3.099009
H 7.709960 3.106318 1.920021
H 7.658391 1.954944 3.301289
H 2.424566 0.432612 1.355100
H -3.969885 0.814608 -0.933890
H -7.916895 3.030763 0.222393
H -6.299198 3.587469 0.230934
