48
Regorafenib charge=0
C 9.833889 0.765455 -0.852138
N 8.546742 0.153046 -0.669367
C 7.614813 0.640254 0.222250
O 7.820694 1.566170 0.997987
C 6.286926 -0.052861 0.164578
C 5.282254 0.311531 1.045991
C 4.065178 -0.347709 0.937369
O 3.082139 -0.004826 1.837633
C 1.823371 0.218505 1.329674
C 0.755221 -0.415128 1.966351
C -0.556182 -0.208718 1.521027
C -0.804045 0.644215 0.444968
N -2.087481 0.925241 -0.072836
C -3.279316 0.293983 0.239296
O -3.381153 -0.680864 0.971354
N -4.338862 0.925595 -0.395033
C -5.691583 0.529218 -0.408535
C -6.612137 1.420778 -0.966561
C -7.969554 1.097077 -1.021787
C -8.423457 -0.126497 -0.524572
Cl -10.115363 -0.449453 -0.630008
C -7.521855 -1.040426 0.029741
C -7.982236 -2.369538 0.565503
F -8.585960 -3.141633 -0.380527
F -6.967761 -3.136940 1.058503
F -8.872522 -2.250611 1.589071
C -6.153086 -0.697025 0.078811
C 0.282158 1.294379 -0.158103
F 0.057965 2.134873 -1.181826
C 1.589526 1.095606 0.273001
C 3.897643 -1.361646 -0.003773
C 4.961518 -1.654776 -0.839261
N 6.152917 -1.022052 -0.787840
H 9.728029 1.590963 -1.560693
H 10.215442 1.148429 0.097942
H 10.520178 0.018273 -1.256973
H 8.211484 -0.549190 -1.324329
H 5.440820 1.085395 1.788969
H 0.938330 -1.074699 2.811698
H -1.359773 -0.718849 2.044090
H -2.093811 1.557041 -0.862728
H -4.139819 1.841442 -0.768990
H -6.292096 2.381636 -1.362259
H -8.670325 1.807327 -1.455611
H -5.459067 -1.420635 0.501871
H 2.399018 1.630883 -0.210863
H 2.970630 -1.918488 -0.082317
H 4.880559 -2.434750 -1.591894
