62
Ribociclib charge=0
C -6.416626 0.518462 2.825737
N -6.809310 1.196253 1.598702
C -8.207905 1.574509 1.498905
C -6.009495 1.300892 0.459809
O -6.493460 1.559665 -0.640656
C -4.576811 1.119721 0.621223
C -3.741918 1.703916 1.567436
C -2.412887 1.313334 1.291694
C -1.157816 1.550572 1.832578
N -0.067572 0.988400 1.263448
C -0.212320 0.210452 0.171419
N 0.885213 -0.377264 -0.434031
C 2.245732 -0.385902 -0.200397
C 2.870902 0.284942 0.838637
C 4.263955 0.216488 0.982710
C 5.048026 -0.510938 0.088042
N 6.442788 -0.624706 0.181335
C 7.107284 -0.078297 1.383555
C 8.600550 -0.474554 1.424206
N 9.342968 -0.092145 0.206741
C 8.670373 -0.711144 -0.952283
C 7.173696 -0.341044 -1.078221
C 4.315538 -1.168648 -0.903698
N 2.966973 -1.117282 -1.073315
N -1.387215 -0.065941 -0.417871
C -2.449493 0.501548 0.174585
N -3.762206 0.379930 -0.227270
C -4.218286 -0.406061 -1.365636
C -3.721738 -1.866847 -1.402670
C -2.974548 -2.014298 -2.724287
C -3.628289 -0.987703 -3.633944
C -3.831813 0.209751 -2.718378
H -5.478068 -0.028538 2.722021
H -6.327363 1.263946 3.620810
H -7.193239 -0.204399 3.095727
H -8.807878 0.668695 1.370856
H -8.386802 2.243457 0.652647
H -8.506227 2.086473 2.418626
H -4.067299 2.370216 2.356482
H -0.986621 2.173260 2.702041
H 0.625286 -0.926538 -1.237222
H 2.304003 0.871023 1.551960
H 4.703501 0.765887 1.808286
H 7.027612 1.016559 1.392297
H 6.634355 -0.470301 2.292193
H 9.075686 0.004839 2.287240
H 8.693149 -1.557375 1.575373
H 9.283135 0.920975 0.103581
H 8.775157 -1.801320 -0.884604
H 9.193500 -0.402466 -1.864190
H 7.080832 0.726151 -1.319142
H 6.769133 -0.909701 -1.921981
H 4.810518 -1.816495 -1.621294
H -5.310416 -0.463096 -1.306285
H -3.103897 -2.160624 -0.548826
H -4.590333 -2.537975 -1.406956
H -3.043382 -3.029268 -3.126369
H -1.913463 -1.776091 -2.588589
H -3.008756 -0.746003 -4.502169
H -4.595155 -1.359095 -3.993521
H -4.608392 0.883215 -3.095455
H -2.902867 0.788531 -2.654215
