48
Sorafenib charge=0
C 7.672705 -0.415448 -3.267707
N 7.202820 0.068623 -1.998868
C 5.946946 -0.228657 -1.512948
O 5.087775 -0.829376 -2.147279
C 5.703139 0.242196 -0.110215
C 4.474517 0.013199 0.489075
C 4.295872 0.485058 1.785445
O 3.138317 0.300782 2.508056
C 1.942630 0.439503 1.843892
C 1.631587 1.569652 1.088610
C 0.385795 1.661680 0.460797
C -0.565359 0.641514 0.603202
N -1.790501 0.802752 -0.076647
C -2.935550 0.031016 0.057601
O -3.097077 -0.853479 0.886891
N -3.877377 0.408854 -0.890208
C -5.206401 -0.047220 -1.002727
C -5.903312 0.293365 -2.165247
C -7.226414 -0.116100 -2.344140
C -7.872145 -0.865671 -1.358254
Cl -9.506622 -1.332003 -1.657112
C -7.200915 -1.209300 -0.180548
C -7.875601 -2.007705 0.902334
F -7.077329 -2.240202 1.983730
F -8.982604 -1.391045 1.402676
F -8.279570 -3.238536 0.482345
C -5.863313 -0.788543 -0.016132
C -0.247567 -0.475030 1.380062
C 0.999350 -0.571560 2.006870
C 5.343463 1.120668 2.445713
C 6.535689 1.297372 1.765905
N 6.744997 0.880447 0.499629
H 8.056396 -1.429900 -3.132007
H 8.475704 0.239085 -3.614008
H 6.859546 -0.429115 -3.998125
H 7.850850 0.479826 -1.331348
H 3.693809 -0.520551 -0.041583
H 2.346434 2.380849 0.984852
H 0.170336 2.546316 -0.132515
H -1.897867 1.661269 -0.594465
H -3.513624 0.921325 -1.679581
H -5.429493 0.874941 -2.952201
H -7.749463 0.153725 -3.259169
H -5.353576 -1.049403 0.909622
H -0.946224 -1.295563 1.513548
H 1.230836 -1.443292 2.613249
H 5.229233 1.470798 3.465788
H 7.379160 1.792891 2.239269
