56
Sunitinib charge=0
C 2.950901 -1.650296 1.249231
C 4.340948 -1.022069 1.184958
N 4.425667 0.000789 0.126907
C 5.535911 0.938523 0.374710
C 5.183861 1.970081 1.442073
C 4.577162 -0.634474 -1.208785
C 3.998729 0.258008 -2.324637
N 2.621255 0.618598 -2.045606
C 1.598735 -0.266810 -2.311774
O 1.760447 -1.285106 -2.978872
C 0.318007 0.063651 -1.673889
C -0.177922 1.325899 -1.371899
C 0.356694 2.694004 -1.606771
N -1.404590 1.162169 -0.775937
C -1.753656 -0.161986 -0.713662
C -2.999166 -0.597782 -0.176491
C -3.988989 0.114158 0.388257
C -4.127329 1.596927 0.645546
O -3.344420 2.488454 0.376531
N -5.357664 1.753861 1.261396
C -6.008533 0.537429 1.416498
C -7.250071 0.334048 1.987951
C -7.719405 -0.979216 2.042273
C -6.942713 -2.028913 1.530573
F -7.418067 -3.279653 1.596211
C -5.690813 -1.808287 0.956085
C -5.227502 -0.504782 0.903643
C -0.693776 -0.878472 -1.262268
C -0.587685 -2.360461 -1.414213
H 2.891454 -2.334441 2.102239
H 2.710401 -2.225323 0.350764
H 2.179877 -0.883553 1.381865
H 5.105822 -1.797217 1.050635
H 4.520988 -0.576838 2.169360
H 6.453810 0.403627 0.649075
H 5.765272 1.504422 -0.535808
H 5.051395 1.519054 2.429364
H 5.988164 2.708780 1.524355
H 4.264449 2.505488 1.181659
H 4.035508 -1.586313 -1.247422
H 5.627505 -0.874114 -1.417515
H 4.052159 -0.266393 -3.284900
H 4.561693 1.191461 -2.418951
H 2.491650 1.177758 -1.212298
H 1.074770 2.962446 -0.825730
H 0.854272 2.757850 -2.579420
H -0.443948 3.441429 -1.599873
H -1.979673 1.933116 -0.450192
H -3.149167 -1.672696 -0.245280
H -5.711337 2.654590 1.546097
H -7.841356 1.153716 2.379814
H -8.688477 -1.202111 2.479876
H -5.122394 -2.646221 0.571907
H -1.312057 -2.890277 -0.789362
H 0.406381 -2.710508 -1.117622
H -0.763175 -2.646024 -2.456212
