60
Trametinib charge=0
C 8.250691 0.002993 0.047211
C 7.072417 0.603991 0.772801
O 7.237758 1.293565 1.772454
N 5.867752 0.258150 0.187968
C 4.570778 0.615206 0.613443
C 4.306422 1.390456 1.741639
C 2.990563 1.684401 2.104491
C 1.926625 1.210938 1.337279
C 2.165388 0.444182 0.187037
N 1.051393 -0.052544 -0.601103
C 1.048798 -1.454751 -0.797427
O 2.053101 -2.159190 -0.637726
N -0.160249 -2.046038 -1.169419
C -0.161460 -3.486914 -1.400200
C 0.217276 -4.469377 -0.314950
C -1.199586 -4.399106 -0.785361
C -1.324466 -1.358900 -1.450327
O -2.308743 -1.889228 -1.974953
C -1.326439 0.093804 -1.135944
C -2.511767 0.759953 -1.134497
N -3.750862 0.115753 -1.257981
C -4.601674 -0.151116 -0.140776
C -5.841750 -0.753787 -0.406430
C -6.742388 -1.034559 0.626311
C -6.411123 -0.712235 1.941370
I -7.747154 -1.128789 3.476190
C -5.188779 -0.113626 2.230908
C -4.297610 0.162635 1.194954
F -3.120737 0.718105 1.523178
N -2.471405 2.156773 -1.077595
C -3.722902 2.909039 -1.144740
C -1.291028 2.882678 -1.094022
O -1.247802 4.111628 -1.133438
C -0.009467 2.106003 -1.035897
C 1.207575 2.983351 -1.178360
C -0.060050 0.759322 -0.900923
C 3.495163 0.148231 -0.156896
H 8.395901 -1.027088 0.382982
H 9.149269 0.586657 0.267235
H 8.092697 0.019473 -1.035028
H 5.914127 -0.341208 -0.626948
H 5.103347 1.775077 2.370833
H 2.798379 2.278351 2.995095
H 0.913508 1.433286 1.664040
H 0.162439 -3.731500 -2.409481
H 0.446221 -4.088116 0.673661
H 0.814638 -5.326757 -0.603054
H -1.578473 -5.210052 -1.396757
H -1.935652 -3.976175 -0.111612
H -3.632180 -0.789062 -1.741141
H -6.117492 -1.000857 -1.429877
H -7.695473 -1.500174 0.386164
H -4.906218 0.143934 3.246828
H -4.298796 2.591971 -2.020302
H -3.553899 3.985909 -1.233392
H -4.298496 2.739376 -0.230792
H 1.061720 3.714269 -1.982775
H 1.404828 3.535755 -0.254857
H 2.101224 2.426787 -1.469303
H 3.694122 -0.440851 -1.048780
