39
Vorinostat charge=0
O -4.995854 0.603889 0.425086
C -5.404228 -0.554254 0.443612
C -4.748113 -1.715240 -0.275876
C -3.357349 -1.383261 -0.817093
C -2.303029 -1.331674 0.294154
C -0.884976 -1.082414 -0.230067
C -0.681934 0.341613 -0.759491
C 0.751355 0.589499 -1.231776
C 1.761795 0.740098 -0.100862
O 1.428796 0.764877 1.077465
N 3.052003 0.855094 -0.596445
C 4.246373 1.007991 0.137798
C 5.437429 1.110359 -0.594038
C 6.665001 1.263050 0.056337
C 6.713755 1.314750 1.446298
C 5.535911 1.213675 2.182370
C 4.307170 1.060765 1.531175
N -6.548956 -0.911595 1.122471
O -7.271803 0.172421 1.678664
H -4.701658 -2.580017 0.395832
H -5.400700 -1.979027 -1.116956
H -3.071626 -2.158810 -1.538227
H -3.387691 -0.434431 -1.363278
H -2.305257 -2.291427 0.826007
H -2.560861 -0.563258 1.032016
H -0.184093 -1.270637 0.591357
H -0.648590 -1.809645 -1.016264
H -0.958009 1.069633 0.012587
H -1.349728 0.510131 -1.611648
H 1.073614 -0.221125 -1.895862
H 0.772385 1.523699 -1.806628
H 3.153972 0.833006 -1.602816
H 5.429019 1.073515 -1.679990
H 7.581474 1.341857 -0.522469
H 7.665897 1.433841 1.956474
H 5.566665 1.253752 3.268396
H 3.415432 0.986260 2.145429
H -7.101175 -1.716642 0.846966
H -6.692413 0.939682 1.471745
