      -----------------------------------------------------------      
     |                   =====================                   |     
     |                           x T B                           |     
     |                   =====================                   |     
     |                         S. Grimme                         |     
     |          Mulliken Center for Theoretical Chemistry        |     
     |                    University of Bonn                     |     
      -----------------------------------------------------------      

   * xtb version 6.7.1pre (5071a88) compiled by 'Marcel@Raven' on 2024-07-23

   xtb is free software: you can redistribute it and/or modify it under
   the terms of the GNU Lesser General Public License as published by
   the Free Software Foundation, either version 3 of the License, or
   (at your option) any later version.
   
   xtb is distributed in the hope that it will be useful,
   but WITHOUT ANY WARRANTY; without even the implied warranty of
   MERCHANTABILITY or FITNESS FOR A PARTICULAR PURPOSE.  See the
   GNU Lesser General Public License for more details.
   
   Cite this work as:
   * C. Bannwarth, E. Caldeweyher, S. Ehlert, A. Hansen, P. Pracht,
     J. Seibert, S. Spicher, S. Grimme, WIREs Comput. Mol. Sci., 2020, 11,
     e01493. DOI: 10.1002/wcms.1493
   
   for GFN2-xTB:
   * C. Bannwarth, S. Ehlert and S. Grimme., J. Chem. Theory Comput., 2019,
     15, 1652-1671. DOI: 10.1021/acs.jctc.8b01176
   for GFN1-xTB:
   * S. Grimme, C. Bannwarth, P. Shushkov, J. Chem. Theory Comput., 2017,
     13, 1989-2009. DOI: 10.1021/acs.jctc.7b00118
   for GFN0-xTB:
   * P. Pracht, E. Caldeweyher, S. Ehlert, S. Grimme, ChemRxiv, 2019, preprint.
     DOI: 10.26434/chemrxiv.8326202.v1
   for GFN-FF:
   * S. Spicher and S. Grimme, Angew. Chem. Int. Ed., 2020, 59, 15665-15673.
     DOI: 10.1002/anie.202004239
   
   for ALPB and GBSA implicit solvation:
   * S. Ehlert, M. Stahn, S. Spicher, S. Grimme, J. Chem. Theory Comput.,
     2021, 17, 4250-4261. DOI: 10.1021/acs.jctc.1c00471
   
   for ddCOSMO and CPCM-X implicit solvation:
   * M. Stahn, S. Ehlert, S. Grimme, J. Phys. Chem. A,
     2023, XX, XXXX-XXXX. DOI: 10.1021/acs.jpca.3c04382
   
   for DFT-D4:
   * E. Caldeweyher, C. Bannwarth and S. Grimme, J. Chem. Phys., 2017,
     147, 034112. DOI: 10.1063/1.4993215
   * E. Caldeweyher, S. Ehlert, A. Hansen, H. Neugebauer, S. Spicher,
     C. Bannwarth and S. Grimme, J. Chem. Phys., 2019, 150, 154122.
     DOI: 10.1063/1.5090222
   * E. Caldeweyher, J.-M. Mewes, S. Ehlert and S. Grimme, Phys. Chem. Chem. Phys.
     2020, 22, 8499-8512. DOI: 10.1039/D0CP00502A
   
   for sTDA-xTB:
   * S. Grimme and C. Bannwarth, J. Chem. Phys., 2016, 145, 054103.
     DOI: 10.1063/1.4959605
   
   in the mass-spec context:
   * V. Asgeirsson, C. Bauer and S. Grimme, Chem. Sci., 2017, 8, 4879.
     DOI: 10.1039/c7sc00601b
   * J. Koopman and S. Grimme, ACS Omega 2019, 4, 12, 15120-15133.
     DOI: 10.1021/acsomega.9b02011
   
   for metadynamics refer to:
   * S. Grimme, J. Chem. Theory Comput., 2019, 155, 2847-2862
     DOI: 10.1021/acs.jctc.9b00143
   
   for SPH calculations refer to:
   * S. Spicher and S. Grimme, J. Chem. Theory Comput., 2021, 17, 1701-1714
     DOI: 10.1021/acs.jctc.0c01306
   
   for ONIOM refer to:
   * C. Plett, A. Katbashev, S. Ehlert, S. Grimme, M. Bursch,
     Phys. Chem. Chem. Phys., 2023, 25, 17860-17868. DOI: 10.1039/D3CP02178E
   
   for DIPRO refer to:
   * J. Kohn, N. Gildemeister, S. Grimme, D. Fazzi, A. Hansen,
     J. Chem. Phys., 2023, just accepted.
   
   for PTB refer to:
   * S. Grimme, M. Mueller, A. Hansen, J. Chem. Phys., 2023, 158, 124111.
     DOI: 10.1063/5.0137838
   
   with help from (in alphabetical order)
   P. Atkinson, C. Bannwarth, F. Bohle, G. Brandenburg, E. Caldeweyher
   M. Checinski, S. Dohm, S. Ehlert, S. Ehrlich, I. Gerasimov, C. Hölzer
   A. Katbashev, J. Kohn, J. Koopman, C. Lavigne, S. Lehtola, F. März, M. Müller,
   F. Musil, H. Neugebauer, J. Pisarek, C. Plett, P. Pracht, F. Pultar,
   J. Seibert, P. Shushkov, S. Spicher, M. Stahn, M. Steiner, T. Strunk,
   J. Stückrath, T. Rose, and J. Unsleber
   
 * started run on 2026/08/31 at 21:55:11.073     
   ID    Z sym.   atoms
    1    6 C      1, 3-7, 10-13, 15-18, 20, 22, 24, 26-28, 30-32, 34, 72-78
    2    7 N      2, 9, 14, 23, 25
    3    8 O      8, 29, 33, 79-92
    4    9 F      19
    5   17 Cl     21
    6    1 H      35-59
    7   22 Ti     60-71

           -------------------------------------------------
          |                Calculation Setup                |
           -------------------------------------------------

          program call               : "c:\Users\Andre\Proyectos doctorado\kras-pancreatic-gC3N4-ai\tools\xtb\xtb-6.7.1\bin\xtb.exe" "c:\Users\Andre\Proyectos doctorado\mxene-glioblastoma-qsar-ai\calculations\gbm\Afatinib\Afatinib_Ti12C7O14_clean_complex.xyz" --gfn 2 --sp --chrg 0 --uhf 0 --etemp 500 --acc 1.0 --iterations 500 --norestart
          coordinate file            : c:\Users\Andre\Proyectos doctorado\mxene-glioblastoma-qsar-ai\calculations\gbm\Afatinib\Afatinib_Ti12C7O14_clean_complex.xyz
          omp threads                :                    16


molecular fragmentation (1/2 indicates fragments):
111111111111111111111111111111111111111111111111111111111112222222222222
22222222222222222222
# atoms in fragment 1/2:    59    33
 fragment masses (1/2) :      485.94      882.47
CMA distance (Bohr)    :  18.184
constraining FC (au)   :  0.0500

           -------------------------------------------------
          |                 G F N 2 - x T B                 |
           -------------------------------------------------

        Reference                      10.1021/acs.jctc.8b01176
      * Hamiltonian:
        H0-scaling (s, p, d)           1.850000    2.230000    2.230000
        zeta-weighting                 0.500000
      * Dispersion:
        s8                             2.700000
        a1                             0.520000
        a2                             5.000000
        s9                             5.000000
      * Repulsion:
        kExp                           1.500000    1.000000
        rExp                           1.000000
      * Coulomb:
        alpha                          2.000000
        third order                    shell-resolved
        anisotropic                    true
        a3                             3.000000
        a5                             4.000000
        cn-shift                       1.200000
        cn-exp                         4.000000
        max-rad                        5.000000


          ...................................................
          :                      SETUP                      :
          :.................................................:
          :  # basis functions                 371          :
          :  # atomic orbitals                 358          :
          :  # shells                          172          :
          :  # electrons                       338          :
          :  max. iterations                   500          :
          :  Hamiltonian                  GFN2-xTB          :
          :  restarted?                      false          :
          :  GBSA solvation                  false          :
          :  PC potential                    false          :
          :  electronic temp.          500.0000000     K    :
          :  accuracy                    1.0000000          :
          :  -> integral cutoff          0.2500000E+02      :
          :  -> integral neglect         0.1000000E-07      :
          :  -> SCF convergence          0.1000000E-05 Eh   :
          :  -> wf. convergence          0.1000000E-03 e    :
          :  Broyden damping             0.4000000          :
          :  net charge                          0          :
          :  unpaired electrons                  0          :
          ...................................................

 iter      E             dE          RMSdq      gap      omega  full diag
   1   -191.2970512 -0.191297E+03  0.130E+01    0.11       0.0  T
   2   -152.8354882  0.384616E+02  0.138E+01    0.08       1.0  T
   3      5.8033793  0.158639E+03  0.271E+01    0.13       1.0  T
   4   -166.0542573 -0.171858E+03  0.124E+01    0.18       1.0  T
   5   -117.2237946  0.488305E+02  0.151E+01    0.07       1.0  T
   6   -192.5966919 -0.753729E+02  0.655E+00    0.01       1.0  T
   7   -190.5490972  0.204759E+01  0.600E+00    0.37       1.0  T
   8   -193.5265838 -0.297749E+01  0.527E+00    0.48       1.0  T
   9   -193.3614347  0.165149E+00  0.498E+00    0.02       1.0  T
  10   -193.3248249  0.366098E-01  0.459E+00    0.06       1.0  T
  11   -193.0382407  0.286584E+00  0.361E+00    0.18       1.0  T
  12   -191.2518106  0.178643E+01  0.374E+00    0.12       1.0  T
  13   -192.9888620 -0.173705E+01  0.294E+00    0.12       1.0  T
  14   -193.5189826 -0.530121E+00  0.238E+00    0.10       1.0  T
  15   -193.9006800 -0.381697E+00  0.220E+00    0.04       1.0  T
  16   -194.0055194 -0.104839E+00  0.207E+00    0.11       1.0  T
  17   -193.9293725  0.761469E-01  0.192E+00    0.04       1.0  T
  18   -194.1051960 -0.175823E+00  0.156E+00    0.36       1.0  T
  19   -194.1356874 -0.304915E-01  0.111E+00    0.42       1.0  T
  20   -194.1469586 -0.112711E-01  0.936E-01    0.50       1.0  T
  21   -194.1593104 -0.123518E-01  0.789E-01    0.54       1.0  T
  22   -194.1686932 -0.938281E-02  0.668E-01    0.56       1.0  T
  23   -194.1750104 -0.631728E-02  0.573E-01    0.58       1.0  T
  24   -194.1774440 -0.243353E-02  0.494E-01    0.62       1.0  T
  25   -194.1802635 -0.281950E-02  0.437E-01    0.67       1.0  T
  26   -194.1832202 -0.295677E-02  0.358E-01    0.68       1.0  T
  27   -194.1852314 -0.201121E-02  0.288E-01    0.62       1.0  T
  28   -194.1869935 -0.176208E-02  0.197E-01    0.59       1.0  T
  29   -194.1876026 -0.609108E-03  0.142E-01    0.64       1.0  T
  30   -194.1878071 -0.204489E-03  0.132E-01    0.71       1.0  T
  31   -194.1879318 -0.124674E-03  0.113E-01    0.70       1.0  T
  32   -194.1883102 -0.378412E-03  0.845E-02    0.67       1.0  T
  33   -194.1884174 -0.107240E-03  0.748E-02    0.67       1.0  T
  34   -194.1885727 -0.155254E-03  0.598E-02    0.66       1.0  T
  35   -194.1887281 -0.155363E-03  0.471E-02    0.65       1.0  T
  36   -194.1887959 -0.678157E-04  0.388E-02    0.65       1.0  T
  37   -194.1888407 -0.448466E-04  0.329E-02    0.64       1.0  T
  38   -194.1888952 -0.544855E-04  0.248E-02    0.64       1.0  T
  39   -194.1889226 -0.273454E-04  0.190E-02    0.62       1.0  T
  40   -194.1889429 -0.203345E-04  0.144E-02    0.59       1.0  T
  41   -194.1889580 -0.150903E-04  0.110E-02    0.55       1.0  T
  42   -194.1889648 -0.685361E-05  0.824E-03    0.54       1.3  T
  43   -194.1889701 -0.530111E-05  0.463E-03    0.51       2.3  T
  44   -194.1889706 -0.495040E-06  0.343E-03    0.51       3.0  T
  45   -194.1889711 -0.433694E-06  0.203E-03    0.50       5.1  T
  46   -194.1889713 -0.196777E-06  0.144E-03    0.51       7.2  T
  47   -194.1889713 -0.144347E-07  0.782E-04    0.51      13.3  T
  48   -194.1889713 -0.290868E-09  0.645E-04    0.51      16.2  T

   *** convergence criteria satisfied after 48 iterations ***

         #    Occupation            Energy/Eh            Energy/eV
      -------------------------------------------------------------
         1        2.0000           -1.0464509             -28.4754
       ...           ...                  ...                  ...
       163        2.0000           -0.3598577              -9.7922
       164        2.0000           -0.3534693              -9.6184
       165        2.0000           -0.3508762              -9.5478
       166        2.0000           -0.3469463              -9.4409
       167        2.0000           -0.3391282              -9.2281
       168        2.0000           -0.3244352              -8.8283
       169        1.9940           -0.3099199              -8.4334 (HOMO)
       170        0.0052           -0.2912886              -7.9264 (LUMO)
       171        0.0004           -0.2872712              -7.8170
       172        0.0002           -0.2859097              -7.7800
       173        0.0001           -0.2854060              -7.7663
       174        0.0001           -0.2849612              -7.7542
       ...           ...                  ...                  ...
       358                         13.3267032             362.6381
      -------------------------------------------------------------
                  HL-Gap            0.0186313 Eh            0.5070 eV
             Fermi-level           -0.3007204 Eh           -8.1830 eV

 SCC (total)                   0 d,  0 h,  0 min,  3.232 sec
 SCC setup                      ...        0 min,  0.001 sec (  0.031%)
 Dispersion                     ...        0 min,  0.002 sec (  0.062%)
 classical contributions        ...        0 min,  0.001 sec (  0.031%)
 integral evaluation            ...        0 min,  0.012 sec (  0.371%)
 iterations                     ...        0 min,  3.173 sec ( 98.175%)
 molecular gradient             ...        0 min,  0.039 sec (  1.207%)
 printout                       ...        0 min,  0.004 sec (  0.124%)

         :::::::::::::::::::::::::::::::::::::::::::::::::::::
         ::                     SUMMARY                     ::
         :::::::::::::::::::::::::::::::::::::::::::::::::::::
         :: total energy            -192.288975113501 Eh    ::
         :: gradient norm              0.105709044263 Eh/a0 ::
         :: HOMO-LUMO gap              0.506983989554 eV    ::
         ::.................................................::
         :: SCC energy              -194.186773627096 Eh    ::
         :: -> isotropic ES            1.020127229441 Eh    ::
         :: -> anisotropic ES         -0.374063986306 Eh    ::
         :: -> anisotropic XC         -0.023646148064 Eh    ::
         :: -> dispersion             -0.153052875198 Eh    ::
         :: repulsion energy           1.897798513595 Eh    ::
         :: add. restraining           0.000000000000 Eh    ::
         :: total charge              -0.000000000102 e     ::
         :::::::::::::::::::::::::::::::::::::::::::::::::::::

           -------------------------------------------------
          |                Property Printout                |
           -------------------------------------------------

    * Orbital Energies and Occupations

         #    Occupation            Energy/Eh            Energy/eV
      -------------------------------------------------------------
         1        2.0000           -1.0464509             -28.4754
       ...           ...                  ...                  ...
       157        2.0000           -0.3784343             -10.2977
       158        2.0000           -0.3783335             -10.2950
       159        2.0000           -0.3708231             -10.0906
       160        2.0000           -0.3668736              -9.9831
       161        2.0000           -0.3656458              -9.9497
       162        2.0000           -0.3622569              -9.8575
       163        2.0000           -0.3598577              -9.7922
       164        2.0000           -0.3534693              -9.6184
       165        2.0000           -0.3508762              -9.5478
       166        2.0000           -0.3469463              -9.4409
       167        2.0000           -0.3391282              -9.2281
       168        2.0000           -0.3244352              -8.8283
       169        1.9940           -0.3099199              -8.4334 (HOMO)
       170        0.0052           -0.2912886              -7.9264 (LUMO)
       171        0.0004           -0.2872712              -7.8170
       172        0.0002           -0.2859097              -7.7800
       173        0.0001           -0.2854060              -7.7663
       174        0.0001           -0.2849612              -7.7542
       175        0.0000           -0.2812899              -7.6543
       176        0.0000           -0.2763700              -7.5204
       177        0.0000           -0.2751467              -7.4871
       178                         -0.2733811              -7.4391
       179                         -0.2727936              -7.4231
       180                         -0.2724597              -7.4140
       ...                                ...                  ...
       358                         13.3267032             362.6381
      -------------------------------------------------------------
                  HL-Gap            0.0186313 Eh            0.5070 eV
             Fermi-level           -0.3007204 Eh           -8.1830 eV

     #   Z          covCN         q      C6AA      α(0)
     1   6 C        3.711    -0.041    21.442     6.617
     2   7 N        2.720    -0.169    24.654     7.375
     3   6 C        3.709    -0.038    21.400     6.612
     4   6 C        3.759    -0.001    20.646     6.478
     5   6 C        2.890    -0.016    28.419     8.740
     6   6 C        2.896    -0.084    30.099     8.995
     7   6 C        2.753     0.269    22.448     7.758
     8   8 O        0.857    -0.430    22.293     6.330
     9   7 N        2.696    -0.155    24.347     7.328
    10   6 C        2.895     0.058    26.696     8.471
    11   6 C        2.915    -0.064    29.580     8.919
    12   6 C        2.979    -0.032    28.793     8.802
    13   6 C        2.889     0.160    24.536     8.121
    14   7 N        2.690    -0.162    24.495     7.351
    15   6 C        2.890     0.077    26.276     8.404
    16   6 C        2.919    -0.061    29.520     8.910
    17   6 C        2.911    -0.052    29.279     8.873
    18   6 C        2.807     0.155    24.637     8.132
    19   9 F        0.787    -0.207    11.308     3.972
    20   6 C        2.877     0.079    26.234     8.397
    21  17 Cl       0.961    -0.134   103.335    15.552
    22   6 C        2.952    -0.058    29.436     8.899
    23   7 N        1.831    -0.269    27.836     7.818
    24   6 C        2.881     0.142    24.910     8.182
    25   7 N        1.845    -0.267    27.790     7.813
    26   6 C        2.985     0.105    25.669     8.311
    27   6 C        2.929    -0.084    30.100     8.997
    28   6 C        2.857     0.129    25.165     8.222
    29   8 O        1.703    -0.285    18.738     5.844
    30   6 C        3.769     0.113    18.769     6.174
    31   6 C        3.838    -0.076    21.914     6.660
    32   6 C        3.745     0.071    19.465     6.294
    33   8 O        1.696    -0.322    19.381     5.944
    34   6 C        3.750     0.068    19.502     6.298
    35   1 H        0.924     0.045     2.382     2.414
    36   1 H        0.924     0.019     2.747     2.592
    37   1 H        0.924     0.040     2.454     2.450
    38   1 H        0.924     0.018     2.762     2.599
    39   1 H        0.924     0.042     2.422     2.434
    40   1 H        0.924     0.040     2.446     2.446
    41   1 H        0.923     0.061     2.191     2.315
    42   1 H        0.924     0.037     2.484     2.465
    43   1 H        0.925     0.071     2.073     2.251
    44   1 H        0.925     0.058     2.219     2.330
    45   1 H        0.860     0.200     1.105     1.647
    46   1 H        0.925     0.085     1.925     2.170
    47   1 H        0.860     0.189     1.166     1.691
    48   1 H        0.925     0.053     2.282     2.362
    49   1 H        0.925     0.073     2.057     2.243
    50   1 H        0.925     0.089     1.887     2.148
    51   1 H        0.925     0.051     2.311     2.377
    52   1 H        0.925     0.063     2.167     2.302
    53   1 H        0.924     0.041     2.433     2.439
    54   1 H        0.924     0.057     2.229     2.335
    55   1 H        0.924     0.050     2.321     2.382
    56   1 H        0.924     0.054     2.271     2.357
    57   1 H        0.924     0.041     2.441     2.443
    58   1 H        0.924     0.051     2.311     2.378
    59   1 H        0.924     0.050     2.314     2.379
    60  22 Ti       3.637     1.051   101.792    24.488
    61  22 Ti       6.855     1.551    84.056    14.885
    62  22 Ti       3.227     1.050   102.618    24.736
    63  22 Ti       5.860     1.379    85.681    15.028
    64  22 Ti       5.627     1.123    88.188    15.247
    65  22 Ti       3.541     1.041   102.463    24.670
    66  22 Ti       2.352     0.881   202.672    34.858
    67  22 Ti       6.011     1.349    85.967    15.053
    68  22 Ti       3.414     1.009   103.042    24.778
    69  22 Ti       5.519     1.095    88.469    15.271
    70  22 Ti       5.687     1.190    87.516    15.188
    71  22 Ti       3.581     1.026   102.469    24.642
    72   6 C        2.246    -0.258    37.654     9.942
    73   6 C        2.142    -0.255    38.307    10.005
    74   6 C        2.248    -0.019    30.619     8.966
    75   6 C        1.838    -0.209    37.306     9.867
    76   6 C        1.894    -0.222    37.682     9.914
    77   6 C        1.821    -0.347    42.185    10.494
    78   6 C        2.631    -0.404    39.926    10.336
    79   8 O        1.554    -0.847    32.004     7.633
    80   8 O        1.464    -0.879    33.174     7.763
    81   8 O        1.557    -0.955    35.578     8.048
    82   8 O        1.523    -1.007    37.482     8.258
    83   8 O        1.523    -0.913    34.162     7.884
    84   8 O        1.458    -0.822    31.371     7.549
    85   8 O        1.455    -0.797    30.643     7.461
    86   8 O        0.727    -0.635    27.062     6.971
    87   8 O        1.453    -0.864    32.690     7.706
    88   8 O        1.476    -0.799    30.657     7.464
    89   8 O        1.603    -0.945    35.188     8.006
    90   8 O        1.547    -0.969    36.085     8.104
    91   8 O        1.700    -0.816    30.957     7.512
    92   8 O        1.453    -0.780    30.152     7.400

 Mol. C6AA /au·bohr⁶  :     198923.197600
 Mol. C8AA /au·bohr⁸  :    8282211.880730
 Mol. α(0) /au        :        749.666376


Wiberg/Mayer (AO) data.
largest (>0.10) Wiberg bond orders for each atom

 ---------------------------------------------------------------------------
     #   Z sym  total        # sym  WBO       # sym  WBO       # sym  WBO
 ---------------------------------------------------------------------------
     1   6 C    3.985 --     2 N    1.012    37 H    0.983    35 H    0.982
                            36 H    0.976
     2   7 N    3.107 --     3 C    1.013     1 C    1.012     4 C    1.002
     3   6 C    3.985 --     2 N    1.013    40 H    0.983    39 H    0.983
                            38 H    0.975
     4   6 C    3.988 --     5 C    1.032     2 N    1.002    42 H    0.949
                            41 H    0.942
     5   6 C    3.970 --     6 C    1.853     4 C    1.032    43 H    0.959
     6   6 C    3.983 --     5 C    1.853     7 C    1.026    44 H    0.961
     7   6 C    3.943 --     8 O    1.668     9 N    1.176     6 C    1.026
     8   8 O    2.001 --     7 C    1.668     9 N    0.158
     9   7 N    3.493 --     7 C    1.176    10 C    1.087    45 H    0.923
                             8 O    0.158
    10   6 C    3.961 --    11 C    1.461    28 C    1.229     9 N    1.087
    11   6 C    3.973 --    10 C    1.461    12 C    1.286    46 H    0.954
                            27 C    0.104
    12   6 C    3.986 --    11 C    1.286    13 C    1.236    26 C    1.230
    13   6 C    3.957 --    23 N    1.402    12 C    1.236    14 N    1.112
    14   7 N    3.413 --    13 C    1.112    15 C    1.104    47 H    0.924
    15   6 C    3.969 --    22 C    1.365    16 C    1.353    14 N    1.104
    16   6 C    3.978 --    17 C    1.451    15 C    1.353    48 H    0.966
    17   6 C    3.986 --    16 C    1.451    18 C    1.387    49 H    0.965
                            22 C    0.102
    18   6 C    3.883 --    17 C    1.387    20 C    1.350    19 F    0.970
    19   9 F    1.102 --    18 C    0.970
    20   6 C    3.927 --    22 C    1.408    18 C    1.350    21 Cl   0.999
    21  17 Cl   1.146 --    20 C    0.999
    22   6 C    3.974 --    20 C    1.408    15 C    1.365    50 H    0.959
                            17 C    0.102
    23   7 N    3.044 --    13 C    1.402    24 C    1.371
    24   6 C    3.955 --    25 N    1.480    23 N    1.371    51 H    0.958
    25   7 N    3.035 --    24 C    1.480    26 C    1.296
    26   6 C    3.978 --    25 N    1.296    27 C    1.281    12 C    1.230
    27   6 C    3.979 --    28 C    1.459    26 C    1.281    52 H    0.959
                            11 C    0.104
    28   6 C    3.927 --    27 C    1.459    10 C    1.229    29 O    1.052
    29   8 O    2.220 --    28 C    1.052    30 C    0.956
    30   6 C    3.942 --    31 C    0.987    34 C    0.983    53 H    0.957
                            29 O    0.956
    31   6 C    3.992 --    32 C    1.007    30 C    0.987    55 H    0.974
                            54 H    0.974
    32   6 C    3.955 --    31 C    1.007    57 H    0.972    33 O    0.972
                            56 H    0.972
    33   8 O    2.044 --    34 C    0.984    32 C    0.972
    34   6 C    3.957 --    33 O    0.984    30 C    0.983    58 H    0.973
                            59 H    0.969
    35   1 H    0.998 --     1 C    0.982
    36   1 H    1.000 --     1 C    0.976
    37   1 H    0.998 --     1 C    0.983
    38   1 H    1.000 --     3 C    0.975
    39   1 H    0.998 --     3 C    0.983
    40   1 H    0.998 --     3 C    0.983
    41   1 H    0.994 --     4 C    0.942
    42   1 H    0.997 --     4 C    0.949
    43   1 H    0.994 --     5 C    0.959
    44   1 H    0.996 --     6 C    0.961
    45   1 H    0.959 --     9 N    0.923
    46   1 H    0.992 --    11 C    0.954
    47   1 H    0.964 --    14 N    0.924
    48   1 H    0.997 --    16 C    0.966
    49   1 H    0.994 --    17 C    0.965
    50   1 H    0.992 --    22 C    0.959
    51   1 H    0.997 --    24 C    0.958
    52   1 H    0.995 --    27 C    0.959
    53   1 H    0.998 --    30 C    0.957
    54   1 H    0.997 --    31 C    0.974
    55   1 H    0.997 --    31 C    0.974
    56   1 H    0.997 --    32 C    0.972
    57   1 H    0.998 --    32 C    0.972
    58   1 H    0.997 --    34 C    0.973
    59   1 H    0.997 --    34 C    0.969
    60  22 Ti   2.823 --    79 O    0.845    80 O    0.815    66 Ti   0.331
                            61 Ti   0.201    63 Ti   0.198
    61  22 Ti   3.853 --    80 O    0.753    83 O    0.744    81 O    0.693
                            82 O    0.605    60 Ti   0.201    62 Ti   0.188
                            64 Ti   0.138    65 Ti   0.136
    62  22 Ti   2.722 --    88 O    0.962    81 O    0.598    68 Ti   0.372
                            61 Ti   0.188    66 Ti   0.140    83 O    0.110
    63  22 Ti   3.919 --    84 O    0.936    72 C    0.722    79 O    0.706
                            82 O    0.562    65 Ti   0.211    60 Ti   0.198
                            69 Ti   0.177    89 O    0.124
    64  22 Ti   4.071 --    78 C    0.891    85 O    0.771    76 C    0.745
                            83 O    0.603    70 Ti   0.284    65 Ti   0.174
                            77 C    0.158    73 C    0.153    61 Ti   0.138
    65  22 Ti   2.647 --    85 O    0.975    84 O    0.711    63 Ti   0.211
                            64 Ti   0.174    61 Ti   0.136    80 O    0.123
    66  22 Ti   3.766 --    86 O    1.997    67 Ti   0.606    60 Ti   0.331
                            81 O    0.152    79 O    0.147    62 Ti   0.140
                            89 O    0.112
    67  22 Ti   4.016 --    89 O    0.803    87 O    0.753    90 O    0.714
                            66 Ti   0.606    91 O    0.196    68 Ti   0.166
                            71 Ti   0.148    69 Ti   0.141
    68  22 Ti   2.745 --    87 O    0.834    88 O    0.764    62 Ti   0.372
                            71 Ti   0.220    67 Ti   0.166    70 Ti   0.130
    69  22 Ti   4.011 --    77 C    1.059    75 C    0.725    91 O    0.615
                            89 O    0.441    78 C    0.234    71 Ti   0.200
                            63 Ti   0.177    72 C    0.154    67 Ti   0.141
    70  22 Ti   4.080 --    92 O    0.969    73 C    0.670    78 C    0.651
                            90 O    0.442    64 Ti   0.284    71 Ti   0.210
                            77 C    0.140    68 Ti   0.130    88 O    0.114
    71  22 Ti   2.791 --    91 O    0.900    92 O    0.734    68 Ti   0.220
                            70 Ti   0.210    69 Ti   0.200    67 Ti   0.148
    72   6 C    3.843 --    75 C    2.739    63 Ti   0.722    69 Ti   0.154
    73   6 C    3.782 --    76 C    2.732    70 Ti   0.670    64 Ti   0.153
    74   6 C    3.979 --    77 C    2.007    78 C    1.605
    75   6 C    3.704 --    72 C    2.739    69 Ti   0.725
    76   6 C    3.749 --    73 C    2.732    64 Ti   0.745
    77   6 C    3.765 --    74 C    2.007    69 Ti   1.059    64 Ti   0.158
                            70 Ti   0.140
    78   6 C    3.826 --    74 C    1.605    64 Ti   0.891    70 Ti   0.651
                            69 Ti   0.234
    79   8 O    1.934 --    60 Ti   0.845    63 Ti   0.706    66 Ti   0.147
    80   8 O    1.895 --    60 Ti   0.815    61 Ti   0.753    65 Ti   0.123
    81   8 O    1.784 --    61 Ti   0.693    62 Ti   0.598    66 Ti   0.152
    82   8 O    1.720 --    61 Ti   0.605    63 Ti   0.562
    83   8 O    1.847 --    61 Ti   0.744    64 Ti   0.603    62 Ti   0.110
    84   8 O    1.972 --    63 Ti   0.936    65 Ti   0.711
    85   8 O    2.015 --    65 Ti   0.975    64 Ti   0.771
    86   8 O    2.172 --    66 Ti   1.997
    87   8 O    1.911 --    68 Ti   0.834    67 Ti   0.753
    88   8 O    2.009 --    62 Ti   0.962    68 Ti   0.764    70 Ti   0.114
    89   8 O    1.799 --    67 Ti   0.803    69 Ti   0.441    63 Ti   0.124
                            66 Ti   0.112
    90   8 O    1.772 --    67 Ti   0.714    70 Ti   0.442
    91   8 O    1.987 --    71 Ti   0.900    69 Ti   0.615    67 Ti   0.196
    92   8 O    2.032 --    70 Ti   0.969    71 Ti   0.734
 ---------------------------------------------------------------------------

Topologies differ in total number of bonds
Writing topology from bond orders to xtbtopo.mol

molecular dipole:
                 x           y           z       tot (Debye)
 q only:       -2.156      -0.508      -0.620
   full:       -3.758      -0.885       0.323       9.847
molecular quadrupole (traceless):
                xx          xy          yy          xz          yz          zz
 q only:      -65.524      19.669       5.166     -90.177      -5.898      60.357
  q+dip:      -49.390      23.524     -15.855     -69.297     -28.991      65.245
   full:      -49.112      24.974     -17.505     -70.168     -29.370      66.617


           -------------------------------------------------
          | TOTAL ENERGY             -192.288975113501 Eh   |
          | GRADIENT NORM               0.105709044263 Eh/α |
          | HOMO-LUMO GAP               0.506983989554 eV   |
           -------------------------------------------------

------------------------------------------------------------------------
 * finished run on 2026/08/31 at 21:55:14.365     
------------------------------------------------------------------------
 total:
 * wall-time:     0 d,  0 h,  0 min,  3.290 sec
 *  cpu-time:     0 d,  0 h,  0 min, 11.812 sec
 * ratio c/w:     3.590 speedup
 SCF:
 * wall-time:     0 d,  0 h,  0 min,  3.233 sec
 *  cpu-time:     0 d,  0 h,  0 min, 11.641 sec
 * ratio c/w:     3.601 speedup

normal termination of xtb
