      -----------------------------------------------------------      
     |                   =====================                   |     
     |                           x T B                           |     
     |                   =====================                   |     
     |                         S. Grimme                         |     
     |          Mulliken Center for Theoretical Chemistry        |     
     |                    University of Bonn                     |     
      -----------------------------------------------------------      

   * xtb version 6.7.1pre (5071a88) compiled by 'Marcel@Raven' on 2024-07-23

   xtb is free software: you can redistribute it and/or modify it under
   the terms of the GNU Lesser General Public License as published by
   the Free Software Foundation, either version 3 of the License, or
   (at your option) any later version.
   
   xtb is distributed in the hope that it will be useful,
   but WITHOUT ANY WARRANTY; without even the implied warranty of
   MERCHANTABILITY or FITNESS FOR A PARTICULAR PURPOSE.  See the
   GNU Lesser General Public License for more details.
   
   Cite this work as:
   * C. Bannwarth, E. Caldeweyher, S. Ehlert, A. Hansen, P. Pracht,
     J. Seibert, S. Spicher, S. Grimme, WIREs Comput. Mol. Sci., 2020, 11,
     e01493. DOI: 10.1002/wcms.1493
   
   for GFN2-xTB:
   * C. Bannwarth, S. Ehlert and S. Grimme., J. Chem. Theory Comput., 2019,
     15, 1652-1671. DOI: 10.1021/acs.jctc.8b01176
   for GFN1-xTB:
   * S. Grimme, C. Bannwarth, P. Shushkov, J. Chem. Theory Comput., 2017,
     13, 1989-2009. DOI: 10.1021/acs.jctc.7b00118
   for GFN0-xTB:
   * P. Pracht, E. Caldeweyher, S. Ehlert, S. Grimme, ChemRxiv, 2019, preprint.
     DOI: 10.26434/chemrxiv.8326202.v1
   for GFN-FF:
   * S. Spicher and S. Grimme, Angew. Chem. Int. Ed., 2020, 59, 15665-15673.
     DOI: 10.1002/anie.202004239
   
   for ALPB and GBSA implicit solvation:
   * S. Ehlert, M. Stahn, S. Spicher, S. Grimme, J. Chem. Theory Comput.,
     2021, 17, 4250-4261. DOI: 10.1021/acs.jctc.1c00471
   
   for ddCOSMO and CPCM-X implicit solvation:
   * M. Stahn, S. Ehlert, S. Grimme, J. Phys. Chem. A,
     2023, XX, XXXX-XXXX. DOI: 10.1021/acs.jpca.3c04382
   
   for DFT-D4:
   * E. Caldeweyher, C. Bannwarth and S. Grimme, J. Chem. Phys., 2017,
     147, 034112. DOI: 10.1063/1.4993215
   * E. Caldeweyher, S. Ehlert, A. Hansen, H. Neugebauer, S. Spicher,
     C. Bannwarth and S. Grimme, J. Chem. Phys., 2019, 150, 154122.
     DOI: 10.1063/1.5090222
   * E. Caldeweyher, J.-M. Mewes, S. Ehlert and S. Grimme, Phys. Chem. Chem. Phys.
     2020, 22, 8499-8512. DOI: 10.1039/D0CP00502A
   
   for sTDA-xTB:
   * S. Grimme and C. Bannwarth, J. Chem. Phys., 2016, 145, 054103.
     DOI: 10.1063/1.4959605
   
   in the mass-spec context:
   * V. Asgeirsson, C. Bauer and S. Grimme, Chem. Sci., 2017, 8, 4879.
     DOI: 10.1039/c7sc00601b
   * J. Koopman and S. Grimme, ACS Omega 2019, 4, 12, 15120-15133.
     DOI: 10.1021/acsomega.9b02011
   
   for metadynamics refer to:
   * S. Grimme, J. Chem. Theory Comput., 2019, 155, 2847-2862
     DOI: 10.1021/acs.jctc.9b00143
   
   for SPH calculations refer to:
   * S. Spicher and S. Grimme, J. Chem. Theory Comput., 2021, 17, 1701-1714
     DOI: 10.1021/acs.jctc.0c01306
   
   for ONIOM refer to:
   * C. Plett, A. Katbashev, S. Ehlert, S. Grimme, M. Bursch,
     Phys. Chem. Chem. Phys., 2023, 25, 17860-17868. DOI: 10.1039/D3CP02178E
   
   for DIPRO refer to:
   * J. Kohn, N. Gildemeister, S. Grimme, D. Fazzi, A. Hansen,
     J. Chem. Phys., 2023, just accepted.
   
   for PTB refer to:
   * S. Grimme, M. Mueller, A. Hansen, J. Chem. Phys., 2023, 158, 124111.
     DOI: 10.1063/5.0137838
   
   with help from (in alphabetical order)
   P. Atkinson, C. Bannwarth, F. Bohle, G. Brandenburg, E. Caldeweyher
   M. Checinski, S. Dohm, S. Ehlert, S. Ehrlich, I. Gerasimov, C. Hölzer
   A. Katbashev, J. Kohn, J. Koopman, C. Lavigne, S. Lehtola, F. März, M. Müller,
   F. Musil, H. Neugebauer, J. Pisarek, C. Plett, P. Pracht, F. Pultar,
   J. Seibert, P. Shushkov, S. Spicher, M. Stahn, M. Steiner, T. Strunk,
   J. Stückrath, T. Rose, and J. Unsleber
   
 * started run on 2026/08/31 at 20:34:33.772     
   ID    Z sym.   atoms
    1    6 C      1, 3-7, 10-13, 15-18, 20, 22, 24, 26-28, 30-32, 34, 72-78
    2    7 N      2, 9, 14, 23, 25
    3    8 O      8, 29, 33, 79-92
    4    9 F      19
    5   17 Cl     21
    6    1 H      35-59
    7   22 Ti     60-71

           -------------------------------------------------
          |                Calculation Setup                |
           -------------------------------------------------

          program call               : "c:\Users\Andre\Proyectos doctorado\kras-pancreatic-gC3N4-ai\tools\xtb\xtb-6.7.1\bin\xtb.exe" "c:\Users\Andre\Proyectos doctorado\mxene-glioblastoma-qsar-ai\calculations\gbm\Afatinib\Afatinib_Ti3C2O2_complex.xyz" --gfn 2 --sp --chrg 0 --uhf 0 --iterations 500 --norestart
          coordinate file            : c:\Users\Andre\Proyectos doctorado\mxene-glioblastoma-qsar-ai\calculations\gbm\Afatinib\Afatinib_Ti3C2O2_complex.xyz
          omp threads                :                    16


molecular fragmentation (1/2 indicates fragments):
111111111111111111111111111111111111111111111111111111111111111111111112
21221121222222222222
# atoms in fragment 1/2:    75    17
 fragment masses (1/2) :     1112.37      256.04
CMA distance (Bohr)    :   5.052
constraining FC (au)   :  0.0500

           -------------------------------------------------
          |                 G F N 2 - x T B                 |
           -------------------------------------------------

        Reference                      10.1021/acs.jctc.8b01176
      * Hamiltonian:
        H0-scaling (s, p, d)           1.850000    2.230000    2.230000
        zeta-weighting                 0.500000
      * Dispersion:
        s8                             2.700000
        a1                             0.520000
        a2                             5.000000
        s9                             5.000000
      * Repulsion:
        kExp                           1.500000    1.000000
        rExp                           1.000000
      * Coulomb:
        alpha                          2.000000
        third order                    shell-resolved
        anisotropic                    true
        a3                             3.000000
        a5                             4.000000
        cn-shift                       1.200000
        cn-exp                         4.000000
        max-rad                        5.000000


          ...................................................
          :                      SETUP                      :
          :.................................................:
          :  # basis functions                 371          :
          :  # atomic orbitals                 358          :
          :  # shells                          172          :
          :  # electrons                       338          :
          :  max. iterations                   500          :
          :  Hamiltonian                  GFN2-xTB          :
          :  restarted?                      false          :
          :  GBSA solvation                  false          :
          :  PC potential                    false          :
          :  electronic temp.          300.0000000     K    :
          :  accuracy                    1.0000000          :
          :  -> integral cutoff          0.2500000E+02      :
          :  -> integral neglect         0.1000000E-07      :
          :  -> SCF convergence          0.1000000E-05 Eh   :
          :  -> wf. convergence          0.1000000E-03 e    :
          :  Broyden damping             0.4000000          :
          :  net charge                          0          :
          :  unpaired electrons                  0          :
          ...................................................

 iter      E             dE          RMSdq      gap      omega  full diag
   1   -188.5482726 -0.188548E+03  0.127E+01    0.03       0.0  T
   2   -136.9172647  0.516310E+02  0.170E+01    0.02       1.0  T
   3    -56.2406270  0.806766E+02  0.242E+01    0.18       1.0  T
   4   -183.5897788 -0.127349E+03  0.108E+01    0.03       1.0  T
   5   -181.0855709  0.250421E+01  0.115E+01    0.04       1.0  T
   6   -185.9055380 -0.481997E+01  0.888E+00    0.07       1.0  T
   7   -188.1511938 -0.224566E+01  0.840E+00    0.06       1.0  T
   8   -193.0541147 -0.490292E+01  0.711E+00    0.11       1.0  T
   9   -192.9174330  0.136682E+00  0.703E+00    0.20       1.0  T
  10   -192.7143930  0.203040E+00  0.726E+00    0.15       1.0  T
  11   -193.3818357 -0.667443E+00  0.707E+00    0.06       1.0  T
  12   -193.8097188 -0.427883E+00  0.703E+00    0.15       1.0  T
  13   -193.7514677  0.582512E-01  0.698E+00    0.15       1.0  T
  14   -191.9038084  0.184766E+01  0.760E+00    0.43       1.0  T
  15   -189.3621906  0.254162E+01  0.721E+00    0.07       1.0  T
  16   -187.8437244  0.151847E+01  0.868E+00    0.13       1.0  T
  17   -189.8821288 -0.203840E+01  0.704E+00    0.05       1.0  T
  18   -192.0989123 -0.221678E+01  0.110E+01    0.09       1.0  T
  19   -190.8419142  0.125700E+01  0.636E+00    0.03       1.0  T
  20   -191.8450602 -0.100315E+01  0.530E+00    0.09       1.0  T
  21   -193.4647140 -0.161965E+01  0.571E+00    0.16       1.0  T
  22   -194.4823767 -0.101766E+01  0.608E+00    0.19       1.0  T
  23   -196.4967760 -0.201440E+01  0.635E+00    0.10       1.0  T
  24   -197.8880716 -0.139130E+01  0.607E+00    0.09       1.0  T
  25   -197.5548468  0.333225E+00  0.607E+00    0.07       1.0  T
  26   -197.1797212  0.375126E+00  0.624E+00    0.09       1.0  T
  27   -197.1663017  0.134195E-01  0.626E+00    0.09       1.0  T
  28   -197.2147878 -0.484861E-01  0.620E+00    0.08       1.0  T
  29   -198.0298907 -0.815103E+00  0.549E+00    0.06       1.0  T
  30   -198.4667138 -0.436823E+00  0.510E+00    0.08       1.0  T
  31   -198.3778009  0.889129E-01  0.450E+00    0.05       1.0  T
  32   -198.9396394 -0.561838E+00  0.419E+00    0.15       1.0  T
  33   -199.4603333 -0.520694E+00  0.319E+00    0.10       1.0  T
  34   -199.3822924  0.780409E-01  0.285E+00    0.14       1.0  T
  35   -199.6528888 -0.270596E+00  0.226E+00    0.12       1.0  T
  36   -199.6748974 -0.220086E-01  0.193E+00    0.11       1.0  T
  37   -199.7663855 -0.914882E-01  0.145E+00    0.10       1.0  T
  38   -199.7631242  0.326136E-02  0.132E+00    0.11       1.0  T
  39   -199.7716365 -0.851233E-02  0.113E+00    0.08       1.0  T
  40   -199.8128922 -0.412557E-01  0.986E-01    0.08       1.0  T
  41   -199.8186447 -0.575250E-02  0.863E-01    0.07       1.0  T
  42   -199.8244673 -0.582259E-02  0.775E-01    0.07       1.0  T
  43   -199.8279413 -0.347399E-02  0.710E-01    0.07       1.0  T
  44   -199.8346751 -0.673375E-02  0.569E-01    0.08       1.0  T
  45   -199.8386111 -0.393604E-02  0.495E-01    0.07       1.0  T
  46   -199.8425452 -0.393406E-02  0.446E-01    0.07       1.0  T
  47   -199.8444221 -0.187690E-02  0.348E-01    0.04       1.0  T
  48   -199.8555283 -0.111062E-01  0.256E-01    0.07       1.0  T
  49   -199.2423624  0.613166E+00  0.167E+00    0.11       1.0  T
  50   -199.2782612 -0.358988E-01  0.162E+00    0.11       1.0  T
  51   -199.8372839 -0.559023E+00  0.351E-01    0.04       1.0  T
  52   -199.7920909  0.451930E-01  0.563E-01    0.02       1.0  T
  53   -199.8099062 -0.178153E-01  0.473E-01    0.02       1.0  T
  54   -199.8591185 -0.492122E-01  0.954E-02    0.06       1.0  T
  55   -199.8262122  0.329062E-01  0.389E-01    0.03       1.0  T
  56   -199.8546108 -0.283985E-01  0.161E-01    0.07       1.0  T
  57   -199.8543104  0.300347E-03  0.160E-01    0.06       1.0  T
  58   -199.8518537  0.245668E-02  0.187E-01    0.07       1.0  T
  59   -199.8539096 -0.205587E-02  0.160E-01    0.06       1.0  T
  60   -199.8567612 -0.285163E-02  0.113E-01    0.06       1.0  T
  61   -199.8594702 -0.270896E-02  0.381E-02    0.06       1.0  T
  62   -199.8592288  0.241416E-03  0.513E-02    0.06       1.0  T
  63   -199.8587489  0.479855E-03  0.680E-02    0.06       1.0  T
  64   -199.8588882 -0.139247E-03  0.614E-02    0.06       1.0  T
  65   -199.8579087  0.979417E-03  0.888E-02    0.05       1.0  T
  66   -199.8595170 -0.160823E-02  0.211E-02    0.06       1.0  T
  67   -199.8595097  0.729243E-05  0.205E-02    0.06       1.0  T
  68   -199.8593308  0.178847E-03  0.346E-02    0.06       1.0  T
  69   -199.8591838  0.147023E-03  0.431E-02    0.06       1.0  T
  70   -199.8594082 -0.224391E-03  0.288E-02    0.06       1.0  T
  71   -199.8595103 -0.102074E-03  0.190E-02    0.06       1.0  T
  72   -199.8595582 -0.479656E-04  0.116E-02    0.06       1.0  T
  73   -199.8595743 -0.160080E-04  0.793E-03    0.06       1.3  T
  74   -199.8595862 -0.119156E-04  0.254E-03    0.06       4.1  T
  75   -199.8595855  0.683394E-06  0.270E-03    0.06       3.9  T
  76   -199.8595830  0.252983E-05  0.406E-03    0.06       2.6  T
  77   -199.8595818  0.112548E-05  0.452E-03    0.06       2.3  T
  78   -199.8595858 -0.399540E-05  0.175E-03    0.06       6.0  T
  79   -199.8595862 -0.398568E-06  0.113E-03    0.06       9.2  T
  80   -199.8595864 -0.185494E-06  0.678E-04    0.06      15.4  T
  81   -199.8595864 -0.311871E-07  0.493E-04    0.06      21.2  T

   *** convergence criteria satisfied after 81 iterations ***

         #    Occupation            Energy/Eh            Energy/eV
      -------------------------------------------------------------
         1        2.0000           -3.6331046             -98.8618
       ...           ...                  ...                  ...
       163        2.0000           -0.4122228             -11.2172
       164        2.0000           -0.4094983             -11.1430
       165        1.9999           -0.4078174             -11.0973
       166        1.9966           -0.4042465             -11.0001
       167        1.9691           -0.4021419             -10.9428
       168        1.8282           -0.4004403             -10.8965
       169        1.6143           -0.3995537             -10.8724 (HOMO)
       170        0.5797           -0.3973425             -10.8122 (LUMO)
       171        0.0122           -0.3933519             -10.7036
       172        0.0000           -0.3877043             -10.5500
       173                         -0.3760638             -10.2332
       174                         -0.3733395             -10.1591
       ...                                ...                  ...
       358                         18.9279645             515.0561
      -------------------------------------------------------------
                  HL-Gap            0.0022112 Eh            0.0602 eV
             Fermi-level           -0.3981938 Eh          -10.8354 eV

 SCC (total)                   0 d,  0 h,  0 min,  2.372 sec
 SCC setup                      ...        0 min,  0.001 sec (  0.042%)
 Dispersion                     ...        0 min,  0.003 sec (  0.126%)
 classical contributions        ...        0 min,  0.000 sec (  0.000%)
 integral evaluation            ...        0 min,  0.011 sec (  0.464%)
 iterations                     ...        0 min,  2.329 sec ( 98.187%)
 molecular gradient             ...        0 min,  0.026 sec (  1.096%)
 printout                       ...        0 min,  0.002 sec (  0.084%)

         :::::::::::::::::::::::::::::::::::::::::::::::::::::
         ::                     SUMMARY                     ::
         :::::::::::::::::::::::::::::::::::::::::::::::::::::
         :: total energy            -193.643966248061 Eh    ::
         :: gradient norm              5.410935090585 Eh/a0 ::
         :: HOMO-LUMO gap              0.060169301912 eV    ::
         ::.................................................::
         :: SCC energy              -199.852906116392 Eh    ::
         :: -> isotropic ES           -8.121829378323 Eh    ::
         :: -> anisotropic ES         -0.113738632215 Eh    ::
         :: -> anisotropic XC         -0.116946053890 Eh    ::
         :: -> dispersion             -0.172174942159 Eh    ::
         :: repulsion energy           6.208939868331 Eh    ::
         :: add. restraining           0.000000000000 Eh    ::
         :: total charge               0.000000000002 e     ::
         :::::::::::::::::::::::::::::::::::::::::::::::::::::

           -------------------------------------------------
          |                Property Printout                |
           -------------------------------------------------

    * Orbital Energies and Occupations

         #    Occupation            Energy/Eh            Energy/eV
      -------------------------------------------------------------
         1        2.0000           -3.6331046             -98.8618
       ...           ...                  ...                  ...
       157        2.0000           -0.4263566             -11.6018
       158        2.0000           -0.4248837             -11.5617
       159        2.0000           -0.4236004             -11.5268
       160        2.0000           -0.4179726             -11.3736
       161        2.0000           -0.4174590             -11.3596
       162        2.0000           -0.4159622             -11.3189
       163        2.0000           -0.4122228             -11.2172
       164        2.0000           -0.4094983             -11.1430
       165        1.9999           -0.4078174             -11.0973
       166        1.9966           -0.4042465             -11.0001
       167        1.9691           -0.4021419             -10.9428
       168        1.8282           -0.4004403             -10.8965
       169        1.6143           -0.3995537             -10.8724 (HOMO)
       170        0.5797           -0.3973425             -10.8122 (LUMO)
       171        0.0122           -0.3933519             -10.7036
       172        0.0000           -0.3877043             -10.5500
       173                         -0.3760638             -10.2332
       174                         -0.3733395             -10.1591
       175                         -0.3724994             -10.1362
       176                         -0.3711713             -10.1001
       177                         -0.3664208              -9.9708
       178                         -0.3627276              -9.8703
       179                         -0.3559789              -9.6867
       180                         -0.3545070              -9.6466
       ...                                ...                  ...
       358                         18.9279645             515.0561
      -------------------------------------------------------------
                  HL-Gap            0.0022112 Eh            0.0602 eV
             Fermi-level           -0.3981938 Eh          -10.8354 eV

     #   Z          covCN         q      C6AA      α(0)
     1   6 C        3.697    -0.056    21.747     6.670
     2   7 N        2.722    -0.094    23.077     7.135
     3   6 C        3.697    -0.054    21.718     6.666
     4   6 C        3.747    -0.008    20.780     6.502
     5   6 C        2.886    -0.031    28.772     8.794
     6   6 C        2.893    -0.065    29.608     8.921
     7   6 C        2.750     0.281    22.239     7.722
     8   8 O        0.858    -0.384    21.368     6.198
     9   7 N        2.693    -0.118    23.567     7.210
    10   6 C        2.896     0.096    25.860     8.338
    11   6 C        2.915    -0.039    28.966     8.825
    12   6 C        2.979     0.005    27.902     8.665
    13   6 C        2.889     0.170    24.337     8.088
    14   7 N        2.690    -0.129    23.811     7.247
    15   6 C        2.890     0.078    26.258     8.401
    16   6 C        2.919    -0.054    29.343     8.883
    17   6 C        2.911    -0.047    29.155     8.854
    18   6 C        2.807     0.161    24.506     8.110
    19   9 F        0.787    -0.197    11.204     3.954
    20   6 C        2.877     0.084    26.124     8.379
    21  17 Cl       0.961    -0.124   103.028    15.529
    22   6 C        2.952    -0.052    29.300     8.878
    23   7 N        1.831    -0.218    26.592     7.642
    24   6 C        2.881     0.133    25.094     8.212
    25   7 N        1.846    -0.159    25.235     7.445
    26   6 C        2.985     0.130    25.153     8.227
    27   6 C        3.019    -0.083    30.063     8.994
    28   6 C        2.867     0.135    25.052     8.204
    29   8 O        2.373    -0.239    17.929     5.719
    30   6 C        5.440     0.124    18.480     6.105
    31   6 C        5.342     0.074    19.262     6.233
    32   6 C        3.746     0.101    18.978     6.214
    33   8 O        1.696    -0.269    18.471     5.802
    34   6 C        3.748     0.079    19.319     6.269
    35   1 H        0.924     0.063     2.163     2.300
    36   1 H        0.924     0.055     2.263     2.353
    37   1 H        0.924     0.057     2.234     2.338
    38   1 H        0.924     0.055     2.257     2.349
    39   1 H        0.924     0.053     2.288     2.365
    40   1 H        0.924     0.062     2.182     2.310
    41   1 H        0.923     0.071     2.072     2.251
    42   1 H        0.923     0.069     2.096     2.264
    43   1 H        0.925     0.043     2.403     2.424
    44   1 H        0.925     0.089     1.886     2.148
    45   1 H        0.860     0.212     1.047     1.603
    46   1 H        0.925     0.130     1.537     1.939
    47   1 H        0.860     0.199     1.109     1.650
    48   1 H        0.925     0.059     2.208     2.324
    49   1 H        0.925     0.080     1.975     2.197
    50   1 H        0.925     0.093     1.848     2.126
    51   1 H        0.925     0.087     1.912     2.162
    52   1 H        1.428     0.270     0.801     1.397
    53   1 H        2.620     0.638     0.210     0.716
    54   1 H        2.067     0.374     0.522     1.128
    55   1 H        0.928     0.115     1.658     2.013
    56   1 H        0.924     0.071     2.079     2.255
    57   1 H        0.924     0.140     1.461     1.890
    58   1 H        0.924     0.085     1.930     2.173
    59   1 H        0.924     0.091     1.868     2.137
    60  22 Ti       4.266     0.918    90.210    15.600
    61  22 Ti       8.897    -6.273   269.433    26.650
    62  22 Ti       5.740     0.742    92.143    15.585
    63  22 Ti       7.452     0.866    90.823    15.473
    64  22 Ti       7.449     0.891    90.569    15.451
    65  22 Ti       6.519     0.953    89.922    15.396
    66  22 Ti       4.151     0.847    90.807    16.153
    67  22 Ti       6.350     1.355    85.907    15.048
    68  22 Ti       4.151     0.808    91.228    16.190
    69  22 Ti       7.449     0.769    91.859    15.561
    70  22 Ti       7.449     0.752    92.033    15.575
    71  22 Ti       6.519     0.981    89.631    15.371
    72   6 C        5.128     0.064    19.422     6.259
    73   6 C        5.128     0.074    19.270     6.234
    74   6 C        5.649    -0.397    28.997     7.648
    75   6 C        2.445    -0.322    37.605    10.005
    76   6 C        2.445    -0.314    37.328     9.968
    77   6 C        2.445    -0.262    35.644     9.741
    78   6 C        2.445    -0.263    35.681     9.746
    79   8 O        1.203    -0.458    22.654     6.392
    80   8 O        3.047     1.725     3.594     2.561
    81   8 O        0.976    -0.481    23.310     6.476
    82   8 O        0.729    -0.461    22.999     6.426
    83   8 O        0.729    -0.447    22.694     6.384
    84   8 O        0.753    -0.534    24.605     6.648
    85   8 O        0.753    -0.531    24.543     6.639
    86   8 O        0.728    -0.455    22.875     6.409
    87   8 O        0.729    -0.540    24.758     6.668
    88   8 O        0.728    -0.445    22.652     6.378
    89   8 O        0.729    -0.522    24.341     6.611
    90   8 O        0.729    -0.517    24.220     6.595
    91   8 O        0.753    -0.509    24.038     6.571
    92   8 O        0.753    -0.507    23.985     6.564

 Mol. C6AA /au·bohr⁶  :     181979.720114
 Mol. C8AA /au·bohr⁸  :    7954448.954235
 Mol. α(0) /au        :        658.821903


Wiberg/Mayer (AO) data.
largest (>0.10) Wiberg bond orders for each atom

 ---------------------------------------------------------------------------
     #   Z sym  total        # sym  WBO       # sym  WBO       # sym  WBO
 ---------------------------------------------------------------------------
     1   6 C    3.960 --     2 N    1.016    36 H    0.978    35 H    0.976
                            37 H    0.956
     2   7 N    3.094 --     1 C    1.016     3 C    1.015     4 C    1.015
     3   6 C    3.964 --     2 N    1.015    38 H    0.980    40 H    0.977
                            39 H    0.958
     4   6 C    3.973 --     2 N    1.015     5 C    1.005    41 H    0.946
                            42 H    0.943
     5   6 C    3.960 --     6 C    1.884     4 C    1.005    43 H    0.956
     6   6 C    3.971 --     5 C    1.884     7 C    0.997    44 H    0.944
     7   6 C    3.933 --     8 O    1.701     9 N    1.166     6 C    0.997
     8   8 O    2.016 --     7 C    1.701     9 N    0.151
     9   7 N    3.505 --     7 C    1.166    10 C    1.103    45 H    0.901
                             8 O    0.151
    10   6 C    3.949 --    11 C    1.425    28 C    1.208     9 N    1.103
    11   6 C    3.957 --    10 C    1.425    12 C    1.290    46 H    0.939
                            27 C    0.107
    12   6 C    3.967 --    11 C    1.290    13 C    1.212    26 C    1.210
    13   6 C    3.961 --    23 N    1.382    12 C    1.212    14 N    1.156
    14   7 N    3.436 --    13 C    1.156    15 C    1.093    47 H    0.919
    15   6 C    3.960 --    22 C    1.366    16 C    1.354    14 N    1.093
    16   6 C    3.971 --    17 C    1.450    15 C    1.354    48 H    0.965
    17   6 C    3.985 --    16 C    1.450    18 C    1.386    49 H    0.964
                            22 C    0.102
    18   6 C    3.880 --    17 C    1.386    20 C    1.346    19 F    0.979
    19   9 F    1.112 --    18 C    0.979
    20   6 C    3.929 --    22 C    1.409    18 C    1.346    21 Cl   1.005
    21  17 Cl   1.154 --    20 C    1.005
    22   6 C    3.970 --    20 C    1.409    15 C    1.366    50 H    0.958
                            17 C    0.102
    23   7 N    3.035 --    24 C    1.390    13 C    1.382
    24   6 C    3.942 --    25 N    1.438    23 N    1.390    51 H    0.948
    25   7 N    3.249 --    24 C    1.438    26 C    1.266    60 Ti   0.223
    26   6 C    3.965 --    25 N    1.266    27 C    1.232    12 C    1.210
    27   6 C    3.889 --    28 C    1.407    26 C    1.232    52 H    0.647
                            60 Ti   0.151    11 C    0.107
    28   6 C    3.880 --    27 C    1.407    10 C    1.208    29 O    0.987
    29   8 O    2.326 --    28 C    0.987    30 C    0.809    80 O    0.146
    30   6 C    3.867 --    80 O    1.003    31 C    0.910    34 C    0.908
                            29 O    0.809    53 H    0.129
    31   6 C    3.923 --    32 C    0.965    30 C    0.910    55 H    0.855
                            54 H    0.582    62 Ti   0.308
    32   6 C    3.930 --    31 C    0.965    33 O    0.962    56 H    0.942
                            57 H    0.915
    33   8 O    2.067 --    34 C    0.997    32 C    0.962
    34   6 C    3.912 --    33 O    0.997    58 H    0.957    59 H    0.946
                            30 C    0.908
    35   1 H    0.991 --     1 C    0.976
    36   1 H    0.994 --     1 C    0.978
    37   1 H    0.970 --     1 C    0.956
    38   1 H    0.995 --     3 C    0.980
    39   1 H    0.973 --     3 C    0.958
    40   1 H    0.992 --     3 C    0.977
    41   1 H    0.990 --     4 C    0.946
    42   1 H    0.988 --     4 C    0.943
    43   1 H    0.992 --     5 C    0.956
    44   1 H    0.989 --     6 C    0.944
    45   1 H    0.955 --     9 N    0.901
    46   1 H    0.977 --    11 C    0.939
    47   1 H    0.959 --    14 N    0.919
    48   1 H    0.996 --    16 C    0.965
    49   1 H    0.993 --    17 C    0.964
    50   1 H    0.991 --    22 C    0.958
    51   1 H    0.991 --    24 C    0.948
    52   1 H    0.920 --    27 C    0.647    79 O    0.150
    53   1 H    0.591 --    80 O    0.336    30 C    0.129
    54   1 H    0.857 --    31 C    0.582    62 Ti   0.178
    55   1 H    0.983 --    31 C    0.855
    56   1 H    0.990 --    32 C    0.942
    57   1 H    0.980 --    32 C    0.915
    58   1 H    0.991 --    34 C    0.957
    59   1 H    0.990 --    34 C    0.946
    60  22 Ti   4.220 --    79 O    1.903    66 Ti   0.618    63 Ti   0.288
                            72 C    0.287    25 N    0.223    75 C    0.168
                            80 O    0.156    27 C    0.151
    61  22 Ti  -1.284
    62  22 Ti   4.584 --    81 O    1.986    68 Ti   0.589    73 C    0.319
                            64 Ti   0.315    31 C    0.308    76 C    0.196
                            80 O    0.192    54 H    0.178
    63  22 Ti   4.701 --    82 O    2.031    75 C    0.545    72 C    0.393
                            60 Ti   0.288    84 O    0.214    64 Ti   0.165
                            80 O    0.154    69 Ti   0.141    65 Ti   0.139
                            74 C    0.136
    64  22 Ti   4.673 --    83 O    2.059    76 C    0.580    73 C    0.423
                            62 Ti   0.315    85 O    0.203    80 O    0.170
                            63 Ti   0.165    70 Ti   0.159    74 C    0.138
                            65 Ti   0.127
    65  22 Ti   4.619 --    85 O    1.222    84 O    1.193    74 C    0.505
                            78 C    0.436    77 C    0.404    71 Ti   0.276
                            63 Ti   0.139    64 Ti   0.127
    66  22 Ti   4.003 --    86 O    2.138    60 Ti   0.618    72 C    0.293
                            67 Ti   0.226    69 Ti   0.194    75 C    0.185
    67  22 Ti   3.968 --    87 O    1.877    72 C    0.293    73 C    0.276
                            80 O    0.252    66 Ti   0.226    68 Ti   0.225
                            70 Ti   0.141    69 Ti   0.133
    68  22 Ti   3.966 --    88 O    2.164    62 Ti   0.589    73 C    0.245
                            67 Ti   0.225    76 C    0.189    70 Ti   0.188
    69  22 Ti   4.795 --    89 O    1.880    75 C    0.746    72 C    0.438
                            91 O    0.269    74 C    0.222    71 Ti   0.201
                            66 Ti   0.194    63 Ti   0.141    77 C    0.138
                            67 Ti   0.133    70 Ti   0.107
    70  22 Ti   4.842 --    90 O    1.881    76 C    0.755    73 C    0.472
                            92 O    0.262    74 C    0.211    71 Ti   0.191
                            68 Ti   0.188    64 Ti   0.159    67 Ti   0.141
                            78 C    0.130    69 Ti   0.107
    71  22 Ti   4.604 --    92 O    1.120    91 O    1.107    74 C    0.493
                            78 C    0.486    77 C    0.464    65 Ti   0.276
                            69 Ti   0.201    70 Ti   0.191
    72   6 C    3.533 --    75 C    0.872    69 Ti   0.438    63 Ti   0.393
                            80 O    0.295    66 Ti   0.293    67 Ti   0.293
                            60 Ti   0.287
    73   6 C    3.672 --    76 C    0.910    70 Ti   0.472    64 Ti   0.423
                            80 O    0.343    62 Ti   0.319    67 Ti   0.276
                            68 Ti   0.245
    74   6 C    3.848 --    77 C    0.816    78 C    0.809    65 Ti   0.505
                            71 Ti   0.493    69 Ti   0.222    70 Ti   0.211
                            64 Ti   0.138    63 Ti   0.136
    75   6 C    3.313 --    72 C    0.872    69 Ti   0.746    63 Ti   0.545
                            77 C    0.186    66 Ti   0.185    60 Ti   0.168
    76   6 C    3.402 --    73 C    0.910    70 Ti   0.755    64 Ti   0.580
                            62 Ti   0.196    68 Ti   0.189    78 C    0.139
                            80 O    0.136
    77   6 C    3.286 --    74 C    0.816    71 Ti   0.464    65 Ti   0.404
                            91 O    0.403    84 O    0.365    75 C    0.186
                            78 C    0.183    69 Ti   0.138
    78   6 C    3.265 --    74 C    0.809    71 Ti   0.486    65 Ti   0.436
                            92 O    0.398    85 O    0.362    77 C    0.183
                            76 C    0.139    70 Ti   0.130
    79   8 O    2.363 --    60 Ti   1.903    52 H    0.150
    80   8 O    3.415 --    30 C    1.003    73 C    0.343    53 H    0.336
                            72 C    0.295    67 Ti   0.252    62 Ti   0.192
                            64 Ti   0.170    60 Ti   0.156    63 Ti   0.154
                            29 O    0.146    76 C    0.136
    81   8 O    2.333 --    62 Ti   1.986
    82   8 O    2.335 --    63 Ti   2.031
    83   8 O    2.358 --    64 Ti   2.059
    84   8 O    2.204 --    65 Ti   1.193    77 C    0.365    63 Ti   0.214
                            91 O    0.128
    85   8 O    2.208 --    65 Ti   1.222    78 C    0.362    64 Ti   0.203
                            92 O    0.125
    86   8 O    2.367 --    66 Ti   2.138
    87   8 O    2.261 --    67 Ti   1.877
    88   8 O    2.384 --    68 Ti   2.164
    89   8 O    2.271 --    69 Ti   1.880
    90   8 O    2.276 --    70 Ti   1.881
    91   8 O    2.222 --    71 Ti   1.107    77 C    0.403    69 Ti   0.269
                            84 O    0.128
    92   8 O    2.214 --    71 Ti   1.120    78 C    0.398    70 Ti   0.262
                            85 O    0.125
 ---------------------------------------------------------------------------

Topologies differ in total number of bonds
Writing topology from bond orders to xtbtopo.mol

molecular dipole:
                 x           y           z       tot (Debye)
 q only:        2.517      -5.637       9.982
   full:        3.138      -2.903       8.896      25.086
molecular quadrupole (traceless):
                xx          xy          yy          xz          yz          zz
 q only:       32.523      14.767     -66.136      44.756     -28.915      33.613
  q+dip:       34.013      14.566     -40.160      62.706     -46.352       6.146
   full:       32.440      15.671     -33.776      62.003     -50.234       1.336


           -------------------------------------------------
          | TOTAL ENERGY             -193.643966248061 Eh   |
          | GRADIENT NORM               5.410935090585 Eh/α |
          | HOMO-LUMO GAP               0.060169301912 eV   |
           -------------------------------------------------

------------------------------------------------------------------------
 * finished run on 2026/08/31 at 20:34:36.207     
------------------------------------------------------------------------
 total:
 * wall-time:     0 d,  0 h,  0 min,  2.433 sec
 *  cpu-time:     0 d,  0 h,  0 min, 21.406 sec
 * ratio c/w:     8.798 speedup
 SCF:
 * wall-time:     0 d,  0 h,  0 min,  2.373 sec
 *  cpu-time:     0 d,  0 h,  0 min, 21.000 sec
 * ratio c/w:     8.850 speedup

normal termination of xtb
