      -----------------------------------------------------------      
     |                   =====================                   |     
     |                           x T B                           |     
     |                   =====================                   |     
     |                         S. Grimme                         |     
     |          Mulliken Center for Theoretical Chemistry        |     
     |                    University of Bonn                     |     
      -----------------------------------------------------------      

   * xtb version 6.7.1pre (5071a88) compiled by 'Marcel@Raven' on 2024-07-23

   xtb is free software: you can redistribute it and/or modify it under
   the terms of the GNU Lesser General Public License as published by
   the Free Software Foundation, either version 3 of the License, or
   (at your option) any later version.
   
   xtb is distributed in the hope that it will be useful,
   but WITHOUT ANY WARRANTY; without even the implied warranty of
   MERCHANTABILITY or FITNESS FOR A PARTICULAR PURPOSE.  See the
   GNU Lesser General Public License for more details.
   
   Cite this work as:
   * C. Bannwarth, E. Caldeweyher, S. Ehlert, A. Hansen, P. Pracht,
     J. Seibert, S. Spicher, S. Grimme, WIREs Comput. Mol. Sci., 2020, 11,
     e01493. DOI: 10.1002/wcms.1493
   
   for GFN2-xTB:
   * C. Bannwarth, S. Ehlert and S. Grimme., J. Chem. Theory Comput., 2019,
     15, 1652-1671. DOI: 10.1021/acs.jctc.8b01176
   for GFN1-xTB:
   * S. Grimme, C. Bannwarth, P. Shushkov, J. Chem. Theory Comput., 2017,
     13, 1989-2009. DOI: 10.1021/acs.jctc.7b00118
   for GFN0-xTB:
   * P. Pracht, E. Caldeweyher, S. Ehlert, S. Grimme, ChemRxiv, 2019, preprint.
     DOI: 10.26434/chemrxiv.8326202.v1
   for GFN-FF:
   * S. Spicher and S. Grimme, Angew. Chem. Int. Ed., 2020, 59, 15665-15673.
     DOI: 10.1002/anie.202004239
   
   for ALPB and GBSA implicit solvation:
   * S. Ehlert, M. Stahn, S. Spicher, S. Grimme, J. Chem. Theory Comput.,
     2021, 17, 4250-4261. DOI: 10.1021/acs.jctc.1c00471
   
   for ddCOSMO and CPCM-X implicit solvation:
   * M. Stahn, S. Ehlert, S. Grimme, J. Phys. Chem. A,
     2023, XX, XXXX-XXXX. DOI: 10.1021/acs.jpca.3c04382
   
   for DFT-D4:
   * E. Caldeweyher, C. Bannwarth and S. Grimme, J. Chem. Phys., 2017,
     147, 034112. DOI: 10.1063/1.4993215
   * E. Caldeweyher, S. Ehlert, A. Hansen, H. Neugebauer, S. Spicher,
     C. Bannwarth and S. Grimme, J. Chem. Phys., 2019, 150, 154122.
     DOI: 10.1063/1.5090222
   * E. Caldeweyher, J.-M. Mewes, S. Ehlert and S. Grimme, Phys. Chem. Chem. Phys.
     2020, 22, 8499-8512. DOI: 10.1039/D0CP00502A
   
   for sTDA-xTB:
   * S. Grimme and C. Bannwarth, J. Chem. Phys., 2016, 145, 054103.
     DOI: 10.1063/1.4959605
   
   in the mass-spec context:
   * V. Asgeirsson, C. Bauer and S. Grimme, Chem. Sci., 2017, 8, 4879.
     DOI: 10.1039/c7sc00601b
   * J. Koopman and S. Grimme, ACS Omega 2019, 4, 12, 15120-15133.
     DOI: 10.1021/acsomega.9b02011
   
   for metadynamics refer to:
   * S. Grimme, J. Chem. Theory Comput., 2019, 155, 2847-2862
     DOI: 10.1021/acs.jctc.9b00143
   
   for SPH calculations refer to:
   * S. Spicher and S. Grimme, J. Chem. Theory Comput., 2021, 17, 1701-1714
     DOI: 10.1021/acs.jctc.0c01306
   
   for ONIOM refer to:
   * C. Plett, A. Katbashev, S. Ehlert, S. Grimme, M. Bursch,
     Phys. Chem. Chem. Phys., 2023, 25, 17860-17868. DOI: 10.1039/D3CP02178E
   
   for DIPRO refer to:
   * J. Kohn, N. Gildemeister, S. Grimme, D. Fazzi, A. Hansen,
     J. Chem. Phys., 2023, just accepted.
   
   for PTB refer to:
   * S. Grimme, M. Mueller, A. Hansen, J. Chem. Phys., 2023, 158, 124111.
     DOI: 10.1063/5.0137838
   
   with help from (in alphabetical order)
   P. Atkinson, C. Bannwarth, F. Bohle, G. Brandenburg, E. Caldeweyher
   M. Checinski, S. Dohm, S. Ehlert, S. Ehrlich, I. Gerasimov, C. Hölzer
   A. Katbashev, J. Kohn, J. Koopman, C. Lavigne, S. Lehtola, F. März, M. Müller,
   F. Musil, H. Neugebauer, J. Pisarek, C. Plett, P. Pracht, F. Pultar,
   J. Seibert, P. Shushkov, S. Spicher, M. Stahn, M. Steiner, T. Strunk,
   J. Stückrath, T. Rose, and J. Unsleber
   
 * started run on 2026/08/31 at 21:18:54.399     
   ID    Z sym.   atoms
    1    6 C      1, 3-7, 10-13, 15-18, 20, 22, 24, 26-28, 30-32, 34, 72-78
    2    7 N      2, 9, 14, 23, 25
    3    8 O      8, 29, 33, 79-92
    4    9 F      19
    5   17 Cl     21
    6    1 H      35-59
    7   22 Ti     60-71

           -------------------------------------------------
          |                Calculation Setup                |
           -------------------------------------------------

          program call               : "c:\Users\Andre\Proyectos doctorado\kras-pancreatic-gC3N4-ai\tools\xtb\xtb-6.7.1\bin\xtb.exe" "c:\Users\Andre\Proyectos doctorado\mxene-glioblastoma-qsar-ai\calculations\gbm\Afatinib\Afatinib_Ti12C7O14_phys_complex.xyz" --gfn 2 --sp --chrg 0 --uhf 0 --etemp 300 --iterations 500 --norestart
          coordinate file            : c:\Users\Andre\Proyectos doctorado\mxene-glioblastoma-qsar-ai\calculations\gbm\Afatinib\Afatinib_Ti12C7O14_phys_complex.xyz
          omp threads                :                    16


molecular fragmentation (1/2 indicates fragments):
111111111111111111111111111111111111111111111111111111111112222222222222
22222222222222222222
# atoms in fragment 1/2:    59    33
 fragment masses (1/2) :      485.94      882.47
CMA distance (Bohr)    :  21.725
constraining FC (au)   :  0.0500

           -------------------------------------------------
          |                 G F N 2 - x T B                 |
           -------------------------------------------------

        Reference                      10.1021/acs.jctc.8b01176
      * Hamiltonian:
        H0-scaling (s, p, d)           1.850000    2.230000    2.230000
        zeta-weighting                 0.500000
      * Dispersion:
        s8                             2.700000
        a1                             0.520000
        a2                             5.000000
        s9                             5.000000
      * Repulsion:
        kExp                           1.500000    1.000000
        rExp                           1.000000
      * Coulomb:
        alpha                          2.000000
        third order                    shell-resolved
        anisotropic                    true
        a3                             3.000000
        a5                             4.000000
        cn-shift                       1.200000
        cn-exp                         4.000000
        max-rad                        5.000000


          ...................................................
          :                      SETUP                      :
          :.................................................:
          :  # basis functions                 371          :
          :  # atomic orbitals                 358          :
          :  # shells                          172          :
          :  # electrons                       338          :
          :  max. iterations                   500          :
          :  Hamiltonian                  GFN2-xTB          :
          :  restarted?                      false          :
          :  GBSA solvation                  false          :
          :  PC potential                    false          :
          :  electronic temp.          300.0000000     K    :
          :  accuracy                    1.0000000          :
          :  -> integral cutoff          0.2500000E+02      :
          :  -> integral neglect         0.1000000E-07      :
          :  -> SCF convergence          0.1000000E-05 Eh   :
          :  -> wf. convergence          0.1000000E-03 e    :
          :  Broyden damping             0.4000000          :
          :  net charge                          0          :
          :  unpaired electrons                  0          :
          ...................................................

 iter      E             dE          RMSdq      gap      omega  full diag
   1   -190.9421343 -0.190942E+03  0.133E+01    0.08       0.0  T
   2   -147.1847464  0.437574E+02  0.142E+01    0.16       1.0  T
   3    111.3673766  0.258552E+03  0.282E+01    0.17       1.0  T
   4   -138.8669521 -0.250234E+03  0.147E+01    0.06       1.0  T
   5    -48.1197485  0.907472E+02  0.183E+01    0.08       1.0  T
   6   -191.5758328 -0.143456E+03  0.775E+00    0.06       1.0  T
   7   -190.9587323  0.617100E+00  0.653E+00    0.06       1.0  T
   8   -191.1053402 -0.146608E+00  0.579E+00    0.03       1.0  T
   9   -190.7208991  0.384441E+00  0.623E+00    0.09       1.0  T
  10   -191.4070138 -0.686115E+00  0.657E+00    0.07       1.0  T
  11   -190.7505217  0.656492E+00  0.670E+00    0.17       1.0  T
  12   -190.0504507  0.700071E+00  0.663E+00    0.02       1.0  T
  13   -190.5616379 -0.511187E+00  0.655E+00    0.02       1.0  T
  14   -191.5259622 -0.964324E+00  0.620E+00    0.07       1.0  T
  15   -191.3559328  0.170029E+00  0.556E+00    0.25       1.0  T
  16   -191.2295158  0.126417E+00  0.518E+00    0.12       1.0  T
  17   -189.9923473  0.123717E+01  0.468E+00    0.04       1.0  T
  18   -191.3741825 -0.138184E+01  0.404E+00    0.09       1.0  T
  19   -189.6053138  0.176887E+01  0.410E+00    0.08       1.0  T
  20   -193.3290545 -0.372374E+01  0.346E+00    0.19       1.0  T
  21   -193.0171526  0.311902E+00  0.329E+00    0.05       1.0  T
  22   -190.8300071  0.218715E+01  0.357E+00    0.06       1.0  T
  23   -191.5342368 -0.704230E+00  0.342E+00    0.13       1.0  T
  24   -193.4410378 -0.190680E+01  0.217E+00    0.14       1.0  T
  25   -194.0194509 -0.578413E+00  0.194E+00    0.11       1.0  T
  26   -193.6827440  0.336707E+00  0.190E+00    0.01       1.0  T
  27   -193.5117173  0.171027E+00  0.373E+00    0.02       1.0  T
  28   -194.0231949 -0.511478E+00  0.194E+00    0.14       1.0  T
  29   -194.0719413 -0.487463E-01  0.170E+00    0.11       1.0  T
  30   -194.0929843 -0.210430E-01  0.169E+00    0.20       1.0  T
  31   -194.1010206 -0.803635E-02  0.160E+00    0.35       1.0  T
  32   -194.1018962 -0.875593E-03  0.158E+00    0.38       1.0  T
  33   -194.1000113  0.188493E-02  0.154E+00    0.43       1.0  T
  34   -194.1024246 -0.241329E-02  0.151E+00    0.48       1.0  T
  35   -194.1074979 -0.507331E-02  0.139E+00    0.63       1.0  T
  36   -194.1147655 -0.726763E-02  0.121E+00    0.89       1.0  T
  37   -194.1241282 -0.936269E-02  0.110E+00    0.85       1.0  T
  38   -194.1230644  0.106381E-02  0.106E+00    0.71       1.0  T
  39   -194.1183114  0.475298E-02  0.108E+00    0.61       1.0  T
  40   -194.1197652 -0.145377E-02  0.110E+00    0.52       1.0  T
  41   -194.1216270 -0.186177E-02  0.107E+00    0.45       1.0  T
  42   -194.1259556 -0.432866E-02  0.102E+00    0.42       1.0  T
  43   -194.1315885 -0.563286E-02  0.966E-01    0.40       1.0  T
  44   -194.1355444 -0.395592E-02  0.932E-01    0.38       1.0  T
  45   -194.1413094 -0.576497E-02  0.883E-01    0.35       1.0  T
  46   -194.1490296 -0.772019E-02  0.801E-01    0.33       1.0  T
  47   -194.1546464 -0.561682E-02  0.733E-01    0.34       1.0  T
  48   -194.1612995 -0.665307E-02  0.643E-01    0.36       1.0  T
  49   -194.1679309 -0.663139E-02  0.539E-01    0.38       1.0  T
  50   -194.1735669 -0.563602E-02  0.434E-01    0.40       1.0  T
  51   -194.1769345 -0.336765E-02  0.362E-01    0.43       1.0  T
  52   -194.1782790 -0.134448E-02  0.327E-01    0.48       1.0  T
  53   -194.1793028 -0.102374E-02  0.299E-01    0.51       1.0  T
  54   -194.1799893 -0.686591E-03  0.278E-01    0.55       1.0  T
  55   -194.1809519 -0.962513E-03  0.244E-01    0.61       1.0  T
  56   -194.1814336 -0.481786E-03  0.227E-01    0.68       1.0  T
  57   -194.1821052 -0.671573E-03  0.206E-01    0.76       1.0  T
  58   -194.1828136 -0.708423E-03  0.182E-01    0.80       1.0  T
  59   -194.1833453 -0.531622E-03  0.165E-01    0.78       1.0  T
  60   -194.1836988 -0.353496E-03  0.151E-01    0.77       1.0  T
  61   -194.1839315 -0.232715E-03  0.142E-01    0.77       1.0  T
  62   -194.1842116 -0.280123E-03  0.129E-01    0.76       1.0  T
  63   -194.1846811 -0.469484E-03  0.106E-01    0.73       1.0  T
  64   -194.1851864 -0.505317E-03  0.751E-02    0.70       1.0  T
  65   -194.1854126 -0.226185E-03  0.572E-02    0.68       1.0  T
  66   -194.1855520 -0.139384E-03  0.431E-02    0.66       1.0  T
  67   -194.1856260 -0.740080E-04  0.334E-02    0.65       1.0  T
  68   -194.1856646 -0.385807E-04  0.266E-02    0.65       1.0  T
  69   -194.1856923 -0.277480E-04  0.221E-02    0.61       1.0  T
  70   -194.1857131 -0.208295E-04  0.192E-02    0.55       1.0  T
  71   -194.1857298 -0.166732E-04  0.151E-02    0.51       1.0  T
  72   -194.1857322 -0.239982E-05  0.140E-02    0.51       1.0  T
  73   -194.1857391 -0.685513E-05  0.874E-03    0.49       1.2  T
  74   -194.1857408 -0.169645E-05  0.565E-03    0.49       1.8  T
  75   -194.1857414 -0.664600E-06  0.399E-03    0.48       2.6  T
  76   -194.1857416 -0.215185E-06  0.249E-03    0.48       4.2  T
  77   -194.1857419 -0.242074E-06  0.104E-03    0.49      10.0  T
  78   -194.1857419 -0.139801E-07  0.689E-04    0.49      15.1  T
  79   -194.1857419  0.138779E-07  0.785E-04    0.49      13.3  T

   *** convergence criteria satisfied after 79 iterations ***

         #    Occupation            Energy/Eh            Energy/eV
      -------------------------------------------------------------
         1        2.0000           -1.0502861             -28.5797
       ...           ...                  ...                  ...
       163        2.0000           -0.3565569              -9.7024
       164        2.0000           -0.3547066              -9.6521
       165        2.0000           -0.3520969              -9.5810
       166        2.0000           -0.3493455              -9.5062
       167        2.0000           -0.3419367              -9.3046
       168        2.0000           -0.3268320              -8.8936
       169        1.9998           -0.3121751              -8.4947 (HOMO)
       170        0.0002           -0.2941957              -8.0055 (LUMO)
       171        0.0000           -0.2895909              -7.8802
       172        0.0000           -0.2885655              -7.8523
       173        0.0000           -0.2877597              -7.8303
       174        0.0000           -0.2875572              -7.8248
       ...           ...                  ...                  ...
       358                         13.3222222             362.5161
      -------------------------------------------------------------
                  HL-Gap            0.0179794 Eh            0.4892 eV
             Fermi-level           -0.3031913 Eh           -8.2503 eV

 SCC (total)                   0 d,  0 h,  0 min,  1.693 sec
 SCC setup                      ...        0 min,  0.001 sec (  0.059%)
 Dispersion                     ...        0 min,  0.001 sec (  0.059%)
 classical contributions        ...        0 min,  0.000 sec (  0.000%)
 integral evaluation            ...        0 min,  0.010 sec (  0.591%)
 iterations                     ...        0 min,  1.660 sec ( 98.051%)
 molecular gradient             ...        0 min,  0.019 sec (  1.122%)
 printout                       ...        0 min,  0.002 sec (  0.118%)

         :::::::::::::::::::::::::::::::::::::::::::::::::::::
         ::                     SUMMARY                     ::
         :::::::::::::::::::::::::::::::::::::::::::::::::::::
         :: total energy            -192.281566201615 Eh    ::
         :: gradient norm              0.107214008966 Eh/a0 ::
         :: HOMO-LUMO gap              0.489244524687 eV    ::
         ::.................................................::
         :: SCC energy              -194.183951388617 Eh    ::
         :: -> isotropic ES            1.019676945531 Eh    ::
         :: -> anisotropic ES         -0.371965488317 Eh    ::
         :: -> anisotropic XC         -0.023904211104 Eh    ::
         :: -> dispersion             -0.153743610288 Eh    ::
         :: repulsion energy           1.902385187002 Eh    ::
         :: add. restraining           0.000000000000 Eh    ::
         :: total charge              -0.000000000061 e     ::
         :::::::::::::::::::::::::::::::::::::::::::::::::::::

           -------------------------------------------------
          |                Property Printout                |
           -------------------------------------------------

    * Orbital Energies and Occupations

         #    Occupation            Energy/Eh            Energy/eV
      -------------------------------------------------------------
         1        2.0000           -1.0502861             -28.5797
       ...           ...                  ...                  ...
       157        2.0000           -0.3814260             -10.3791
       158        2.0000           -0.3806817             -10.3589
       159        2.0000           -0.3722623             -10.1298
       160        2.0000           -0.3696917             -10.0598
       161        2.0000           -0.3648622              -9.9284
       162        2.0000           -0.3626206              -9.8674
       163        2.0000           -0.3565569              -9.7024
       164        2.0000           -0.3547066              -9.6521
       165        2.0000           -0.3520969              -9.5810
       166        2.0000           -0.3493455              -9.5062
       167        2.0000           -0.3419367              -9.3046
       168        2.0000           -0.3268320              -8.8936
       169        1.9998           -0.3121751              -8.4947 (HOMO)
       170        0.0002           -0.2941957              -8.0055 (LUMO)
       171        0.0000           -0.2895909              -7.8802
       172        0.0000           -0.2885655              -7.8523
       173        0.0000           -0.2877597              -7.8303
       174        0.0000           -0.2875572              -7.8248
       175                         -0.2832801              -7.7084
       176                         -0.2786497              -7.5824
       177                         -0.2777406              -7.5577
       178                         -0.2761103              -7.5133
       179                         -0.2757469              -7.5035
       180                         -0.2747906              -7.4774
       ...                                ...                  ...
       358                         13.3222222             362.5161
      -------------------------------------------------------------
                  HL-Gap            0.0179794 Eh            0.4892 eV
             Fermi-level           -0.3031913 Eh           -8.2503 eV

     #   Z          covCN         q      C6AA      α(0)
     1   6 C        3.697    -0.038    21.432     6.622
     2   7 N        2.722    -0.163    24.518     7.354
     3   6 C        3.697    -0.038    21.417     6.619
     4   6 C        3.747     0.000    20.641     6.480
     5   6 C        2.886    -0.035    28.877     8.810
     6   6 C        2.893    -0.077    29.914     8.967
     7   6 C        2.750     0.272    22.399     7.750
     8   8 O        0.858    -0.423    22.136     6.308
     9   7 N        2.693    -0.155    24.356     7.330
    10   6 C        2.896     0.060    26.660     8.466
    11   6 C        2.915    -0.061    29.527     8.910
    12   6 C        2.979    -0.032    28.781     8.800
    13   6 C        2.889     0.161    24.517     8.118
    14   7 N        2.690    -0.159    24.441     7.343
    15   6 C        2.890     0.078    26.262     8.402
    16   6 C        2.919    -0.059    29.457     8.900
    17   6 C        2.911    -0.049    29.228     8.865
    18   6 C        2.807     0.156    24.618     8.129
    19   9 F        0.787    -0.206    11.295     3.970
    20   6 C        2.877     0.080    26.205     8.392
    21  17 Cl       0.961    -0.138   103.451    15.561
    22   6 C        2.952    -0.057    29.408     8.894
    23   7 N        1.831    -0.268    27.803     7.814
    24   6 C        2.881     0.142    24.915     8.183
    25   7 N        1.845    -0.267    27.791     7.813
    26   6 C        2.985     0.105    25.674     8.312
    27   6 C        2.929    -0.087    30.170     9.008
    28   6 C        2.857     0.125    25.248     8.236
    29   8 O        1.704    -0.285    18.727     5.843
    30   6 C        3.769     0.110    18.807     6.180
    31   6 C        3.837    -0.074    21.888     6.656
    32   6 C        3.744     0.068    19.511     6.301
    33   8 O        1.696    -0.321    19.374     5.943
    34   6 C        3.748     0.064    19.561     6.308
    35   1 H        0.924     0.043     2.408     2.426
    36   1 H        0.924     0.037     2.490     2.468
    37   1 H        0.924     0.021     2.717     2.577
    38   1 H        0.924     0.038     2.473     2.459
    39   1 H        0.924     0.024     2.680     2.560
    40   1 H        0.924     0.042     2.426     2.436
    41   1 H        0.923     0.057     2.235     2.338
    42   1 H        0.923     0.054     2.269     2.356
    43   1 H        0.925     0.034     2.529     2.487
    44   1 H        0.925     0.072     2.068     2.249
    45   1 H        0.860     0.198     1.117     1.655
    46   1 H        0.925     0.088     1.903     2.157
    47   1 H        0.860     0.188     1.169     1.693
    48   1 H        0.925     0.053     2.280     2.361
    49   1 H        0.925     0.073     2.053     2.241
    50   1 H        0.925     0.087     1.904     2.158
    51   1 H        0.925     0.052     2.296     2.369
    52   1 H        0.925     0.062     2.179     2.308
    53   1 H        0.924     0.040     2.444     2.445
    54   1 H        0.924     0.049     2.334     2.389
    55   1 H        0.924     0.061     2.187     2.313
    56   1 H        0.924     0.056     2.242     2.341
    57   1 H        0.924     0.040     2.452     2.449
    58   1 H        0.924     0.051     2.313     2.379
    59   1 H        0.924     0.052     2.292     2.367
    60  22 Ti       3.637     1.052   101.773    24.485
    61  22 Ti       6.855     1.550    84.071    14.886
    62  22 Ti       3.227     1.048   102.641    24.739
    63  22 Ti       5.860     1.380    85.665    15.027
    64  22 Ti       5.627     1.117    88.246    15.252
    65  22 Ti       3.541     1.039   102.482    24.673
    66  22 Ti       2.352     0.882   202.633    34.855
    67  22 Ti       6.011     1.349    85.971    15.054
    68  22 Ti       3.414     1.009   103.041    24.778
    69  22 Ti       5.519     1.098    88.438    15.268
    70  22 Ti       5.687     1.189    87.532    15.190
    71  22 Ti       3.581     1.027   102.463    24.641
    72   6 C        2.246    -0.257    37.609     9.936
    73   6 C        2.142    -0.255    38.307    10.005
    74   6 C        2.248    -0.019    30.613     8.965
    75   6 C        1.838    -0.208    37.277     9.863
    76   6 C        1.894    -0.225    37.756     9.924
    77   6 C        1.821    -0.345    42.127    10.487
    78   6 C        2.631    -0.404    39.908    10.333
    79   8 O        1.554    -0.847    31.984     7.630
    80   8 O        1.464    -0.882    33.264     7.774
    81   8 O        1.557    -0.956    35.586     8.049
    82   8 O        1.523    -1.007    37.483     8.258
    83   8 O        1.523    -0.913    34.164     7.884
    84   8 O        1.458    -0.820    31.335     7.545
    85   8 O        1.455    -0.798    30.656     7.462
    86   8 O        0.727    -0.635    27.064     6.971
    87   8 O        1.453    -0.864    32.682     7.705
    88   8 O        1.476    -0.799    30.653     7.464
    89   8 O        1.603    -0.946    35.191     8.006
    90   8 O        1.547    -0.969    36.082     8.104
    91   8 O        1.700    -0.817    30.963     7.513
    92   8 O        1.453    -0.780    30.154     7.401

 Mol. C6AA /au·bohr⁶  :     198928.544121
 Mol. C8AA /au·bohr⁸  :    8282436.173120
 Mol. α(0) /au        :        749.691831


Wiberg/Mayer (AO) data.
largest (>0.10) Wiberg bond orders for each atom

 ---------------------------------------------------------------------------
     #   Z sym  total        # sym  WBO       # sym  WBO       # sym  WBO
 ---------------------------------------------------------------------------
     1   6 C    3.985 --     2 N    1.015    36 H    0.982    35 H    0.981
                            37 H    0.973
     2   7 N    3.138 --     4 C    1.015     1 C    1.015     3 C    1.014
     3   6 C    3.984 --     2 N    1.014    38 H    0.982    40 H    0.981
                            39 H    0.973
     4   6 C    3.989 --     5 C    1.015     2 N    1.015    41 H    0.947
                            42 H    0.946
     5   6 C    3.985 --     6 C    1.877     4 C    1.015    43 H    0.960
     6   6 C    3.984 --     5 C    1.877     7 C    1.007    44 H    0.950
     7   6 C    3.943 --     8 O    1.682     9 N    1.182     6 C    1.007
     8   8 O    2.006 --     7 C    1.682     9 N    0.160
     9   7 N    3.494 --     7 C    1.182    10 C    1.085    45 H    0.922
                             8 O    0.160
    10   6 C    3.962 --    11 C    1.462    28 C    1.230     9 N    1.085
    11   6 C    3.980 --    10 C    1.462    12 C    1.286    46 H    0.954
                            27 C    0.106
    12   6 C    3.986 --    11 C    1.286    13 C    1.235    26 C    1.230
    13   6 C    3.960 --    23 N    1.402    12 C    1.235    14 N    1.115
    14   7 N    3.415 --    13 C    1.115    15 C    1.103    47 H    0.924
    15   6 C    3.969 --    22 C    1.365    16 C    1.354    14 N    1.103
    16   6 C    3.978 --    17 C    1.451    15 C    1.354    48 H    0.966
    17   6 C    3.986 --    16 C    1.451    18 C    1.387    49 H    0.965
                            22 C    0.102
    18   6 C    3.884 --    17 C    1.387    20 C    1.350    19 F    0.972
    19   9 F    1.104 --    18 C    0.972
    20   6 C    3.926 --    22 C    1.408    18 C    1.350    21 Cl   0.997
    21  17 Cl   1.143 --    20 C    0.997
    22   6 C    3.974 --    20 C    1.408    15 C    1.365    50 H    0.960
                            17 C    0.102
    23   7 N    3.045 --    13 C    1.402    24 C    1.372
    24   6 C    3.955 --    25 N    1.480    23 N    1.372    51 H    0.958
    25   7 N    3.036 --    24 C    1.480    26 C    1.296
    26   6 C    3.978 --    25 N    1.296    27 C    1.281    12 C    1.230
    27   6 C    3.979 --    28 C    1.461    26 C    1.281    52 H    0.959
                            11 C    0.106
    28   6 C    3.929 --    27 C    1.461    10 C    1.230    29 O    1.049
    29   8 O    2.219 --    28 C    1.049    30 C    0.958
    30   6 C    3.941 --    31 C    0.989    34 C    0.980    29 O    0.958
                            53 H    0.956
    31   6 C    3.993 --    32 C    1.007    30 C    0.989    54 H    0.976
                            55 H    0.974
    32   6 C    3.956 --    31 C    1.007    33 O    0.974    57 H    0.972
                            56 H    0.972
    33   8 O    2.044 --    34 C    0.982    32 C    0.974
    34   6 C    3.955 --    33 O    0.982    30 C    0.980    59 H    0.971
                            58 H    0.969
    35   1 H    0.998 --     1 C    0.981
    36   1 H    0.999 --     1 C    0.982
    37   1 H    1.000 --     1 C    0.973
    38   1 H    0.999 --     3 C    0.982
    39   1 H    0.999 --     3 C    0.973
    40   1 H    0.998 --     3 C    0.981
    41   1 H    0.995 --     4 C    0.947
    42   1 H    0.995 --     4 C    0.946
    43   1 H    0.999 --     5 C    0.960
    44   1 H    0.994 --     6 C    0.950
    45   1 H    0.960 --     9 N    0.922
    46   1 H    0.992 --    11 C    0.954
    47   1 H    0.964 --    14 N    0.924
    48   1 H    0.997 --    16 C    0.966
    49   1 H    0.994 --    17 C    0.965
    50   1 H    0.992 --    22 C    0.960
    51   1 H    0.997 --    24 C    0.958
    52   1 H    0.995 --    27 C    0.959
    53   1 H    0.997 --    30 C    0.956
    54   1 H    0.997 --    31 C    0.976
    55   1 H    0.996 --    31 C    0.974
    56   1 H    0.996 --    32 C    0.972
    57   1 H    0.998 --    32 C    0.972
    58   1 H    0.997 --    34 C    0.969
    59   1 H    0.997 --    34 C    0.971
    60  22 Ti   2.823 --    79 O    0.845    80 O    0.812    66 Ti   0.331
                            61 Ti   0.201    63 Ti   0.198
    61  22 Ti   3.855 --    80 O    0.750    83 O    0.748    81 O    0.692
                            82 O    0.605    60 Ti   0.201    62 Ti   0.189
                            65 Ti   0.138    64 Ti   0.138
    62  22 Ti   2.723 --    88 O    0.964    81 O    0.598    68 Ti   0.371
                            61 Ti   0.189    66 Ti   0.140    83 O    0.110
    63  22 Ti   3.918 --    84 O    0.938    72 C    0.721    79 O    0.707
                            82 O    0.562    65 Ti   0.209    60 Ti   0.198
                            69 Ti   0.178    89 O    0.124
    64  22 Ti   4.076 --    78 C    0.898    85 O    0.769    76 C    0.744
                            83 O    0.599    70 Ti   0.284    65 Ti   0.174
                            77 C    0.164    73 C    0.152    61 Ti   0.138
    65  22 Ti   2.651 --    85 O    0.976    84 O    0.711    63 Ti   0.209
                            64 Ti   0.174    61 Ti   0.138    80 O    0.123
    66  22 Ti   3.768 --    86 O    1.997    67 Ti   0.608    60 Ti   0.331
                            81 O    0.152    79 O    0.147    62 Ti   0.140
                            89 O    0.112
    67  22 Ti   4.017 --    89 O    0.801    87 O    0.753    90 O    0.715
                            66 Ti   0.608    91 O    0.196    68 Ti   0.166
                            71 Ti   0.148    69 Ti   0.141
    68  22 Ti   2.745 --    87 O    0.835    88 O    0.763    62 Ti   0.371
                            71 Ti   0.221    67 Ti   0.166    70 Ti   0.130
    69  22 Ti   4.009 --    77 C    1.054    75 C    0.727    91 O    0.615
                            89 O    0.442    78 C    0.229    71 Ti   0.200
                            63 Ti   0.178    72 C    0.156    67 Ti   0.141
    70  22 Ti   4.082 --    92 O    0.969    73 C    0.669    78 C    0.654
                            90 O    0.442    64 Ti   0.284    71 Ti   0.211
                            77 C    0.142    68 Ti   0.130    88 O    0.113
    71  22 Ti   2.791 --    91 O    0.900    92 O    0.734    68 Ti   0.221
                            70 Ti   0.211    69 Ti   0.200    67 Ti   0.148
    72   6 C    3.843 --    75 C    2.739    63 Ti   0.721    69 Ti   0.156
    73   6 C    3.781 --    76 C    2.732    70 Ti   0.669    64 Ti   0.152
    74   6 C    3.979 --    77 C    2.010    78 C    1.602
    75   6 C    3.707 --    72 C    2.739    69 Ti   0.727
    76   6 C    3.748 --    73 C    2.732    64 Ti   0.744
    77   6 C    3.769 --    74 C    2.010    69 Ti   1.054    64 Ti   0.164
                            70 Ti   0.142
    78   6 C    3.829 --    74 C    1.602    64 Ti   0.898    70 Ti   0.654
                            69 Ti   0.229
    79   8 O    1.935 --    60 Ti   0.845    63 Ti   0.707    66 Ti   0.147
    80   8 O    1.890 --    60 Ti   0.812    61 Ti   0.750    65 Ti   0.123
    81   8 O    1.784 --    61 Ti   0.692    62 Ti   0.598    66 Ti   0.152
    82   8 O    1.720 --    61 Ti   0.605    63 Ti   0.562
    83   8 O    1.847 --    61 Ti   0.748    64 Ti   0.599    62 Ti   0.110
    84   8 O    1.974 --    63 Ti   0.938    65 Ti   0.711
    85   8 O    2.015 --    65 Ti   0.976    64 Ti   0.769
    86   8 O    2.172 --    66 Ti   1.997
    87   8 O    1.912 --    68 Ti   0.835    67 Ti   0.753
    88   8 O    2.009 --    62 Ti   0.964    68 Ti   0.763    70 Ti   0.113
    89   8 O    1.799 --    67 Ti   0.801    69 Ti   0.442    63 Ti   0.124
                            66 Ti   0.112
    90   8 O    1.772 --    67 Ti   0.715    70 Ti   0.442
    91   8 O    1.987 --    71 Ti   0.900    69 Ti   0.615    67 Ti   0.196
    92   8 O    2.032 --    70 Ti   0.969    71 Ti   0.734
 ---------------------------------------------------------------------------

Topologies differ in total number of bonds
Writing topology from bond orders to xtbtopo.mol

molecular dipole:
                 x           y           z       tot (Debye)
 q only:        3.702      -2.590      -1.339
   full:        2.370      -2.709      -0.705       9.322
molecular quadrupole (traceless):
                xx          xy          yy          xz          yz          zz
 q only:      -38.658      17.866     -12.124      58.461     -57.082      50.781
  q+dip:      -24.321      11.410     -29.410      93.938     -74.769      53.730
   full:      -24.368      14.705     -28.431      90.867     -75.466      52.799


           -------------------------------------------------
          | TOTAL ENERGY             -192.281566201615 Eh   |
          | GRADIENT NORM               0.107214008966 Eh/α |
          | HOMO-LUMO GAP               0.489244524687 eV   |
           -------------------------------------------------

------------------------------------------------------------------------
 * finished run on 2026/08/31 at 21:18:56.145     
------------------------------------------------------------------------
 total:
 * wall-time:     0 d,  0 h,  0 min,  1.745 sec
 *  cpu-time:     0 d,  0 h,  0 min, 18.047 sec
 * ratio c/w:    10.342 speedup
 SCF:
 * wall-time:     0 d,  0 h,  0 min,  1.694 sec
 *  cpu-time:     0 d,  0 h,  0 min, 17.859 sec
 * ratio c/w:    10.543 speedup

normal termination of xtb
