59
 energy: -100.280705497606 gnorm: 0.000613215518 xtb: 6.7.1pre (5071a88)
C           -1.44496587414805        7.14857635160516        8.55103135383810
N           -1.60672030702520        5.76470412777400        8.94276328673965
C           -2.17060930845708        5.66357471928502       10.27351553868421
C           -2.39246632238961        5.01193203283862        7.98108659531128
C           -2.17001231115178        3.53987469286340        8.08522918473854
C           -1.12465714545329        2.96679242884151        8.67592995998832
C           -0.98992131154635        1.49949912925877        8.71919049034677
O           -1.82120754308294        0.73513528265412        8.26226175180725
N            0.16480591711429        1.09162002193521        9.33162953361204
C            0.61527163062900       -0.20408853702729        9.55802995467495
C           -0.06967049439014       -1.32391829381170        9.15432718529421
C            0.43698884267769       -2.60787868018189        9.40925961578194
C           -0.20010296303954       -3.84148063674138        9.04866985799516
N           -1.40584436338094       -3.80252310056150        8.42154369344121
C           -2.23611728684014       -4.82747410572574        8.00052238001862
C           -3.44428026121176       -4.47165990142419        7.39402133138913
C           -4.32039298404948       -5.44291955023466        6.95555738132883
C           -3.99960439562845       -6.77896662516432        7.11806722487825
F           -4.86366630698410       -7.71763201300985        6.68775248762463
C           -2.80162381653853       -7.14866847172168        7.71774267539154
Cl          -2.40858035338954       -8.81566816582990        7.91643557997960
C           -1.92072403132994       -6.17601475800780        8.15782206011080
N            0.36985130250946       -5.00143212263631        9.32280682802726
C            1.54816334270292       -4.98600666633413        9.94682666712200
N            2.22515530462924       -3.94701557125232       10.33961321841547
C            1.67876240151578       -2.73756767984371       10.07915526994601
C            2.37314339868147       -1.58316522869281       10.49060290999314
C            1.85759336055782       -0.33817612237837       10.24969067456338
O            2.42687775605065        0.84506274883535       10.62250525158724
C            3.64562704207001        0.83010740192959       11.33958719884484
C            4.86107693700022        0.50025325252466       10.44990826227461
C            5.72975184836678        1.76435926703659       10.55137684052581
O            4.84586234226517        2.81199619797552       10.88176663998533
C            3.93061486699036        2.27478940516663       11.80008461160967
H           -0.81623154031221        7.65048262417066        9.28501227469399
H           -2.40179808886545        7.69034328175750        8.48470518807575
H           -0.94859563309787        7.19494736696906        7.58270930801163
H           -3.15124996822423        6.15945754995090       10.35340746237690
H           -1.48944068012036        6.12740815086823       10.98550424717248
H           -2.29177995251080        4.61454457561518       10.53624286857392
H           -2.09291511290271        5.31924004934017        6.97214114873971
H           -3.47415033822976        5.22490791606687        8.07247740816897
H           -2.91579846095180        2.90692505390103        7.62163433029946
H           -0.35631951461020        3.56977100414221        9.13583774243093
H            0.79749500285751        1.80301880705639        9.67345500217598
H           -1.00317601230957       -1.17255174595191        8.63824677061677
H           -1.76708172560446       -2.87455723638669        8.24521037968823
H           -3.69655480511892       -3.42925820584423        7.26725317017820
H           -5.25558601292403       -5.18129272815958        6.48701184421092
H           -0.98917383927055       -6.44833092733421        8.62435505010236
H            1.97873087250692       -5.95929849829690       10.14624720009835
H            3.31309124394754       -1.73501022058091       10.99303025462946
H            3.55309467329227        0.15380392938394       12.19730221459099
H            4.52124898723828        0.34694336141766        9.42583631205281
H            5.39628441344139       -0.38614165713541       10.78139950806655
H            6.22717025437288        2.02865480155675        9.61863121998575
H            6.48364534563694        1.64405870729980       11.34427457277876
H            4.36101957440525        2.26085877209571       12.81198079819529
H            3.03212633954744        2.89120460010566       11.79234773379239
