      -----------------------------------------------------------      
     |                   =====================                   |     
     |                           x T B                           |     
     |                   =====================                   |     
     |                         S. Grimme                         |     
     |          Mulliken Center for Theoretical Chemistry        |     
     |                    University of Bonn                     |     
      -----------------------------------------------------------      

   * xtb version 6.7.1pre (5071a88) compiled by 'Marcel@Raven' on 2024-07-23

   xtb is free software: you can redistribute it and/or modify it under
   the terms of the GNU Lesser General Public License as published by
   the Free Software Foundation, either version 3 of the License, or
   (at your option) any later version.
   
   xtb is distributed in the hope that it will be useful,
   but WITHOUT ANY WARRANTY; without even the implied warranty of
   MERCHANTABILITY or FITNESS FOR A PARTICULAR PURPOSE.  See the
   GNU Lesser General Public License for more details.
   
   Cite this work as:
   * C. Bannwarth, E. Caldeweyher, S. Ehlert, A. Hansen, P. Pracht,
     J. Seibert, S. Spicher, S. Grimme, WIREs Comput. Mol. Sci., 2020, 11,
     e01493. DOI: 10.1002/wcms.1493
   
   for GFN2-xTB:
   * C. Bannwarth, S. Ehlert and S. Grimme., J. Chem. Theory Comput., 2019,
     15, 1652-1671. DOI: 10.1021/acs.jctc.8b01176
   for GFN1-xTB:
   * S. Grimme, C. Bannwarth, P. Shushkov, J. Chem. Theory Comput., 2017,
     13, 1989-2009. DOI: 10.1021/acs.jctc.7b00118
   for GFN0-xTB:
   * P. Pracht, E. Caldeweyher, S. Ehlert, S. Grimme, ChemRxiv, 2019, preprint.
     DOI: 10.26434/chemrxiv.8326202.v1
   for GFN-FF:
   * S. Spicher and S. Grimme, Angew. Chem. Int. Ed., 2020, 59, 15665-15673.
     DOI: 10.1002/anie.202004239
   
   for ALPB and GBSA implicit solvation:
   * S. Ehlert, M. Stahn, S. Spicher, S. Grimme, J. Chem. Theory Comput.,
     2021, 17, 4250-4261. DOI: 10.1021/acs.jctc.1c00471
   
   for ddCOSMO and CPCM-X implicit solvation:
   * M. Stahn, S. Ehlert, S. Grimme, J. Phys. Chem. A,
     2023, XX, XXXX-XXXX. DOI: 10.1021/acs.jpca.3c04382
   
   for DFT-D4:
   * E. Caldeweyher, C. Bannwarth and S. Grimme, J. Chem. Phys., 2017,
     147, 034112. DOI: 10.1063/1.4993215
   * E. Caldeweyher, S. Ehlert, A. Hansen, H. Neugebauer, S. Spicher,
     C. Bannwarth and S. Grimme, J. Chem. Phys., 2019, 150, 154122.
     DOI: 10.1063/1.5090222
   * E. Caldeweyher, J.-M. Mewes, S. Ehlert and S. Grimme, Phys. Chem. Chem. Phys.
     2020, 22, 8499-8512. DOI: 10.1039/D0CP00502A
   
   for sTDA-xTB:
   * S. Grimme and C. Bannwarth, J. Chem. Phys., 2016, 145, 054103.
     DOI: 10.1063/1.4959605
   
   in the mass-spec context:
   * V. Asgeirsson, C. Bauer and S. Grimme, Chem. Sci., 2017, 8, 4879.
     DOI: 10.1039/c7sc00601b
   * J. Koopman and S. Grimme, ACS Omega 2019, 4, 12, 15120-15133.
     DOI: 10.1021/acsomega.9b02011
   
   for metadynamics refer to:
   * S. Grimme, J. Chem. Theory Comput., 2019, 155, 2847-2862
     DOI: 10.1021/acs.jctc.9b00143
   
   for SPH calculations refer to:
   * S. Spicher and S. Grimme, J. Chem. Theory Comput., 2021, 17, 1701-1714
     DOI: 10.1021/acs.jctc.0c01306
   
   for ONIOM refer to:
   * C. Plett, A. Katbashev, S. Ehlert, S. Grimme, M. Bursch,
     Phys. Chem. Chem. Phys., 2023, 25, 17860-17868. DOI: 10.1039/D3CP02178E
   
   for DIPRO refer to:
   * J. Kohn, N. Gildemeister, S. Grimme, D. Fazzi, A. Hansen,
     J. Chem. Phys., 2023, just accepted.
   
   for PTB refer to:
   * S. Grimme, M. Mueller, A. Hansen, J. Chem. Phys., 2023, 158, 124111.
     DOI: 10.1063/5.0137838
   
   with help from (in alphabetical order)
   P. Atkinson, C. Bannwarth, F. Bohle, G. Brandenburg, E. Caldeweyher
   M. Checinski, S. Dohm, S. Ehlert, S. Ehrlich, I. Gerasimov, C. Hölzer
   A. Katbashev, J. Kohn, J. Koopman, C. Lavigne, S. Lehtola, F. März, M. Müller,
   F. Musil, H. Neugebauer, J. Pisarek, C. Plett, P. Pracht, F. Pultar,
   J. Seibert, P. Shushkov, S. Spicher, M. Stahn, M. Steiner, T. Strunk,
   J. Stückrath, T. Rose, and J. Unsleber
   
 * started run on 2026/09/02 at 16:47:33.799     
   ID    Z sym.   atoms
    1    6 C      1, 3-7, 10-13, 15-18, 20, 22, 24, 26-28, 30-32, 34, 72-78
    2    7 N      2, 9, 14, 23, 25
    3    8 O      8, 29, 33, 79-92
    4    9 F      19
    5   17 Cl     21
    6    1 H      35-59
    7   22 Ti     60-71

           -------------------------------------------------
          |                Calculation Setup                |
           -------------------------------------------------

          program call               : "c:\Users\Andre\Proyectos doctorado\nano-qsar-ai-papers\kras-pancreatic-gC3N4-ai\tools\xtb\xtb-6.7.1\bin\xtb.exe" "c:\Users\Andre\Proyectos doctorado\nano-qsar-ai-papers\mxene-glioblastoma-qsar-ai\calculations\gbm\Afatinib\Afatinib_opt_orient_0deg.xyz" --opt loose --gfn 2 --chrg 0 --uhf 0 --iterations 500 --cycles 400 --norestart
          coordinate file            : c:\Users\Andre\Proyectos doctorado\nano-qsar-ai-papers\mxene-glioblastoma-qsar-ai\calculations\gbm\Afatinib\Afatinib_opt_orient_0deg.xyz
          omp threads                :                     4


molecular fragmentation (1/2 indicates fragments):
111111111111111111111111111111111111111111111111111111111112222222222222
22222222222222222222
# atoms in fragment 1/2:    59    33
 fragment masses (1/2) :      485.94      882.47
CMA distance (Bohr)    :  18.184
constraining FC (au)   :  0.0500

           -------------------------------------------------
          |                 G F N 2 - x T B                 |
           -------------------------------------------------

        Reference                      10.1021/acs.jctc.8b01176
      * Hamiltonian:
        H0-scaling (s, p, d)           1.850000    2.230000    2.230000
        zeta-weighting                 0.500000
      * Dispersion:
        s8                             2.700000
        a1                             0.520000
        a2                             5.000000
        s9                             5.000000
      * Repulsion:
        kExp                           1.500000    1.000000
        rExp                           1.000000
      * Coulomb:
        alpha                          2.000000
        third order                    shell-resolved
        anisotropic                    true
        a3                             3.000000
        a5                             4.000000
        cn-shift                       1.200000
        cn-exp                         4.000000
        max-rad                        5.000000


          ...................................................
          :                      SETUP                      :
          :.................................................:
          :  # basis functions                 371          :
          :  # atomic orbitals                 358          :
          :  # shells                          172          :
          :  # electrons                       338          :
          :  max. iterations                   500          :
          :  Hamiltonian                  GFN2-xTB          :
          :  restarted?                      false          :
          :  GBSA solvation                  false          :
          :  PC potential                    false          :
          :  electronic temp.          300.0000000     K    :
          :  accuracy                    1.0000000          :
          :  -> integral cutoff          0.2500000E+02      :
          :  -> integral neglect         0.1000000E-07      :
          :  -> SCF convergence          0.1000000E-05 Eh   :
          :  -> wf. convergence          0.1000000E-03 e    :
          :  Broyden damping             0.4000000          :
          :  net charge                          0          :
          :  unpaired electrons                  0          :
          ...................................................

 iter      E             dE          RMSdq      gap      omega  full diag
   1   -191.1977413 -0.191198E+03  0.132E+01    0.11       0.0  T
   2   -150.1949184  0.410028E+02  0.143E+01    0.10       1.0  T
   3      6.2172618  0.156412E+03  0.271E+01    0.06       1.0  T
   4   -156.6333496 -0.162851E+03  0.132E+01    0.03       1.0  T
   5    -34.8184279  0.121815E+03  0.191E+01    0.03       1.0  T
   6   -191.8766977 -0.157058E+03  0.731E+00    0.07       1.0  T
   7   -190.7051272  0.117157E+01  0.611E+00    0.13       1.0  T
   8   -189.1265928  0.157853E+01  0.651E+00    0.03       1.0  T
   9   -192.7886042 -0.366201E+01  0.597E+00    0.13       1.0  T
  10   -192.6677371  0.120867E+00  0.598E+00    0.08       1.0  T
  11   -192.8019398 -0.134203E+00  0.588E+00    0.13       1.0  T
  12   -191.4631841  0.133876E+01  0.602E+00    0.12       1.0  T
  13   -192.5091277 -0.104594E+01  0.538E+00    0.04       1.0  T
  14   -192.6286689 -0.119541E+00  0.502E+00    0.24       1.0  T
  15   -192.9641761 -0.335507E+00  0.445E+00    0.09       1.0  T
  16   -191.2906013  0.167357E+01  0.440E+00    0.17       1.0  T
  17   -193.8383786 -0.254778E+01  0.384E+00    0.15       1.0  T
  18   -193.7026877  0.135691E+00  0.354E+00    0.00       1.0  T
  19   -192.9717393  0.730948E+00  0.367E+00    0.11       1.0  T
  20   -191.3593293  0.161241E+01  0.382E+00    0.10       1.0  T
  21   -190.9793541  0.379975E+00  0.743E+00    0.04       1.0  T
  22   -190.8131670  0.166187E+00  0.704E+00    0.14       1.0  T
  23   -191.1675944 -0.354427E+00  0.450E+00    0.05       1.0  T
  24   -191.8099400 -0.642346E+00  0.317E+00    0.02       1.0  T
  25   -191.9435056 -0.133566E+00  0.642E+00    0.03       1.0  T
  26   -192.7796583 -0.836153E+00  0.291E+00    0.03       1.0  T
  27   -193.0581812 -0.278523E+00  0.271E+00    0.05       1.0  T
  28   -193.6623513 -0.604170E+00  0.217E+00    0.03       1.0  T
  29   -194.1249673 -0.462616E+00  0.193E+00    0.18       1.0  T
  30   -194.1265309 -0.156360E-02  0.183E+00    0.18       1.0  T
  31   -194.1337886 -0.725764E-02  0.162E+00    0.18       1.0  T
  32   -194.1404032 -0.661465E-02  0.139E+00    0.20       1.0  T
  33   -194.1481064 -0.770318E-02  0.115E+00    0.27       1.0  T
  34   -194.1576174 -0.951098E-02  0.102E+00    0.34       1.0  T
  35   -194.1570505  0.566833E-03  0.974E-01    0.33       1.0  T
  36   -194.1551838  0.186671E-02  0.963E-01    0.22       1.0  T
  37   -194.1528260  0.235787E-02  0.944E-01    0.16       1.0  T
  38   -194.1438432  0.898275E-02  0.931E-01    0.12       1.0  T
  39   -194.1642292 -0.203860E-01  0.717E-01    0.16       1.0  T
  40   -194.0398614  0.124368E+00  0.103E+00    0.02       1.0  T
  41   -194.1314693 -0.916080E-01  0.746E-01    0.06       1.0  T
  42   -194.0880537  0.434156E-01  0.847E-01    0.03       1.0  T
  43   -194.1267311 -0.386774E-01  0.703E-01    0.05       1.0  T
  44   -194.1612874 -0.345563E-01  0.509E-01    0.09       1.0  T
  45   -194.1719575 -0.106701E-01  0.459E-01    0.12       1.0  T
  46   -194.1744249 -0.246749E-02  0.446E-01    0.14       1.0  T
  47   -194.1775530 -0.312807E-02  0.423E-01    0.17       1.0  T
  48   -194.1788855 -0.133247E-02  0.405E-01    0.19       1.0  T
  49   -194.1800955 -0.121002E-02  0.386E-01    0.20       1.0  T
  50   -194.1817719 -0.167643E-02  0.358E-01    0.23       1.0  T
  51   -194.1841066 -0.233470E-02  0.303E-01    0.26       1.0  T
  52   -194.1865935 -0.248689E-02  0.226E-01    0.29       1.0  T
  53   -194.1878256 -0.123202E-02  0.164E-01    0.30       1.0  T
  54   -194.1887502 -0.924650E-03  0.935E-02    0.33       1.0  T
  55   -194.1888050 -0.547879E-04  0.806E-02    0.35       1.0  T
  56   -194.1887154  0.896013E-04  0.850E-02    0.36       1.0  T
  57   -194.1886859  0.295184E-04  0.918E-02    0.37       1.0  T
  58   -194.1886582  0.276368E-04  0.935E-02    0.38       1.0  T
  59   -194.1887214 -0.632131E-04  0.840E-02    0.39       1.0  T
  60   -194.1887464 -0.249144E-04  0.774E-02    0.41       1.0  T
  61   -194.1887595 -0.131448E-04  0.773E-02    0.42       1.0  T
  62   -194.1888053 -0.457514E-04  0.691E-02    0.44       1.0  T
  63   -194.1888823 -0.770652E-04  0.507E-02    0.45       1.0  T
  64   -194.1889164 -0.340978E-04  0.379E-02    0.46       1.0  T
  65   -194.1889319 -0.154367E-04  0.285E-02    0.47       1.0  T
  66   -194.1889392 -0.729753E-05  0.218E-02    0.48       1.0  T
  67   -194.1889442 -0.507880E-05  0.149E-02    0.48       1.0  T
  68   -194.1889464 -0.213710E-05  0.116E-02    0.48       1.0  T
  69   -194.1889476 -0.121596E-05  0.866E-03    0.48       1.2  T
  70   -194.1889490 -0.138161E-05  0.501E-03    0.49       2.1  T
  71   -194.1889494 -0.391618E-06  0.326E-03    0.49       3.2  T
  72   -194.1889495 -0.103673E-06  0.270E-03    0.49       3.9  T
  73   -194.1889495 -0.688363E-07  0.221E-03    0.49       4.7  T
  74   -194.1889496 -0.382915E-07  0.195E-03    0.49       5.4  T
  75   -194.1889496 -0.267489E-07  0.161E-03    0.49       6.5  T
  76   -194.1889496 -0.124705E-07  0.151E-03    0.48       6.9  T
  77   -194.1889496 -0.136335E-07  0.147E-03    0.48       7.1  T
  78   -194.1889496 -0.202910E-07  0.129E-03    0.48       8.1  T
  79   -194.1889497 -0.186502E-07  0.111E-03    0.48       9.4  T
  80   -194.1889497 -0.136132E-07  0.995E-04    0.48      10.5  T
  81   -194.1889497 -0.978821E-08  0.910E-04    0.48      11.5  T

   *** convergence criteria satisfied after 81 iterations ***

         #    Occupation            Energy/Eh            Energy/eV
      -------------------------------------------------------------
         1        2.0000           -1.0465878             -28.4791
       ...           ...                  ...                  ...
       163        2.0000           -0.3594879              -9.7822
       164        2.0000           -0.3531960              -9.6110
       165        2.0000           -0.3505213              -9.5382
       166        2.0000           -0.3466803              -9.4337
       167        2.0000           -0.3388602              -9.2209
       168        2.0000           -0.3239823              -8.8160
       169        1.9998           -0.3094269              -8.4199 (HOMO)
       170        0.0002           -0.2917055              -7.9377 (LUMO)
       171        0.0000           -0.2870371              -7.8107
       172        0.0000           -0.2857045              -7.7744
       173        0.0000           -0.2851970              -7.7606
       174        0.0000           -0.2847531              -7.7485
       ...           ...                  ...                  ...
       358                         13.3269930             362.6459
      -------------------------------------------------------------
                  HL-Gap            0.0177214 Eh            0.4822 eV
             Fermi-level           -0.3005713 Eh           -8.1790 eV

 SCC (total)                   0 d,  0 h,  0 min,  2.378 sec
 SCC setup                      ...        0 min,  0.002 sec (  0.084%)
 Dispersion                     ...        0 min,  0.001 sec (  0.042%)
 classical contributions        ...        0 min,  0.000 sec (  0.000%)
 integral evaluation            ...        0 min,  0.019 sec (  0.799%)
 iterations                     ...        0 min,  2.296 sec ( 96.552%)
 molecular gradient             ...        0 min,  0.058 sec (  2.439%)
 printout                       ...        0 min,  0.002 sec (  0.084%)

         :::::::::::::::::::::::::::::::::::::::::::::::::::::
         ::                     SUMMARY                     ::
         :::::::::::::::::::::::::::::::::::::::::::::::::::::
         :: total energy            -192.288953527198 Eh    ::
         :: gradient norm              0.105963555160 Eh/a0 ::
         :: HOMO-LUMO gap              0.482224098978 eV    ::
         ::.................................................::
         :: SCC energy              -194.186752040793 Eh    ::
         :: -> isotropic ES            1.020519498696 Eh    ::
         :: -> anisotropic ES         -0.374375588346 Eh    ::
         :: -> anisotropic XC         -0.023653874594 Eh    ::
         :: -> dispersion             -0.153048076419 Eh    ::
         :: repulsion energy           1.897798513595 Eh    ::
         :: add. restraining           0.000000000000 Eh    ::
         :: total charge              -0.000000000018 e     ::
         :::::::::::::::::::::::::::::::::::::::::::::::::::::

      ----------------------------------------------------------- 
     |                   =====================                   |
     |                        A N C O P T                        |
     |                   =====================                   |
     |               Approximate Normal Coordinate               |
     |                Rational Function Optimizer                |
      ----------------------------------------------------------- 
      ----------------------------------------------------------- 
     |                   =====================                   |
     |                        A N C O P T                        |
     |                   =====================                   |
     |               Approximate Normal Coordinate               |
     |                Rational Function Optimizer                |
      ----------------------------------------------------------- 

          ...................................................
          :                      SETUP                      :
          :.................................................:
          :   optimization level             loose          :
          :   max. optcycles                   400          :
          :   ANC micro-cycles                  20          :
          :   degrees of freedom               270          :
          :.................................................:
          :   RF solver                   davidson          :
          :   write xtbopt.log                true          :
          :   linear?                        false          :
          :   energy convergence         0.5000000E-04 Eh   :
          :   grad. convergence          0.4000000E-02 Eh/α :
          :   maxmium RF displ.          1.0000000          :
          :   Hlow (freq-cutoff)         0.1000000E-01      :
          :   Hmax (freq-cutoff)         5.0000000          :
          :   S6 in model hess.         20.0000000          :
          ...................................................

generating ANC from exact Hessian ...
Using Lindh-Hessian (1995)
 Shifting diagonal of input Hessian by   1.791455386138456E-002
 Lowest  eigenvalues of input Hessian
    0.010000    0.017284    0.017393    0.017428    0.000000    0.000000
    0.000000    0.000000    0.000000    0.017923    0.017926    0.000000
    0.017937    0.018084    0.018106    0.018111    0.018342    0.018355
 Highest eigenvalues
    2.078077    2.105325    2.180379    2.240444    2.262054    2.337089
 

........................................................................
.............................. CYCLE    1 ..............................
........................................................................

 iter      E             dE          RMSdq      gap      omega  full diag
   1   -194.1889497 -0.194189E+03  0.698E-04    0.48       0.0  T
   2   -194.1889497 -0.551472E-08  0.977E-04    0.48      10.7  T
   3   -194.1889497 -0.131990E-07  0.629E-04    0.48      16.6  T
     SCC iter.                  ...        0 min,  0.112 sec
     gradient                   ...        0 min,  0.051 sec
 * total energy  :  -192.2889536 Eh     change       -0.3887931E-07 Eh
   gradient norm :     0.1059649 Eh/α   predicted     0.0000000E+00 (-100.00%)
   displ. norm   :     0.2847826 α      lambda       -0.1557017E-01
   maximum displ.:     0.0872144 α      in ANC's #46, #98, #51, ...

........................................................................
.............................. CYCLE    2 ..............................
........................................................................

 iter      E             dE          RMSdq      gap      omega  full diag
   1   -194.2306977 -0.194231E+03  0.126E-01    0.60       0.0  T
   2   -194.2308981 -0.200305E-03  0.827E-02    0.60       1.0  T
   3   -194.2308684  0.296976E-04  0.579E-02    0.59       1.0  T
   4   -194.2308066  0.617115E-04  0.595E-02    0.61       1.0  T
   5   -194.2309964 -0.189739E-03  0.139E-02    0.60       1.0  T
   6   -194.2310062 -0.986033E-05  0.707E-03    0.60       1.5  T
   7   -194.2310091 -0.281241E-05  0.315E-03    0.60       3.3  T
   8   -194.2310093 -0.286171E-06  0.168E-03    0.60       6.2  T
   9   -194.2310094 -0.927411E-07  0.916E-04    0.60      11.4  T
  10   -194.2310094 -0.592928E-08  0.616E-04    0.60      16.9  T
     SCC iter.                  ...        0 min,  0.246 sec
     gradient                   ...        0 min,  0.052 sec
 * total energy  :  -192.3001867 Eh     change       -0.1123310E-01 Eh
   gradient norm :     0.0466902 Eh/α   predicted    -0.8419737E-02 ( -25.05%)
   displ. norm   :     0.3329875 α      lambda       -0.7054743E-02
   maximum displ.:     0.1365407 α      in ANC's #46, #51, #63, ...

........................................................................
.............................. CYCLE    3 ..............................
........................................................................

 iter      E             dE          RMSdq      gap      omega  full diag
   1   -194.2576478 -0.194258E+03  0.115E-01    0.61       0.0  T
   2   -194.2579137 -0.265867E-03  0.704E-02    0.61       1.0  T
   3   -194.2579605 -0.468012E-04  0.395E-02    0.61       1.0  T
   4   -194.2579384  0.220581E-04  0.333E-02    0.61       1.0  T
   5   -194.2579843 -0.458984E-04  0.205E-02    0.61       1.0  T
   6   -194.2580125 -0.281707E-04  0.541E-03    0.61       1.9  T
   7   -194.2580133 -0.874976E-06  0.332E-03    0.61       3.1  T
   8   -194.2580136 -0.285605E-06  0.151E-03    0.61       6.9  T
   9   -194.2580137 -0.836448E-07  0.791E-04    0.61      13.2  T
  10   -194.2580137 -0.879834E-08  0.488E-04    0.61      21.4  T
     SCC iter.                  ...        0 min,  0.237 sec
     gradient                   ...        0 min,  0.048 sec
 * total energy  :  -192.3044748 Eh     change       -0.4288113E-02 Eh
   gradient norm :     0.0222560 Eh/α   predicted    -0.3919661E-02 (  -8.59%)
   displ. norm   :     0.2493642 α      lambda       -0.1729381E-02
   maximum displ.:     0.1080503 α      in ANC's #46, #51, #1, ...

........................................................................
.............................. CYCLE    4 ..............................
........................................................................

 iter      E             dE          RMSdq      gap      omega  full diag
   1   -194.2620388 -0.194262E+03  0.139E-01    0.61       0.0  T
   2   -194.2621099 -0.711784E-04  0.625E-02    0.60       1.0  T
   3   -194.2620627  0.472100E-04  0.506E-02    0.60       1.0  T
   4   -194.2620911 -0.283669E-04  0.377E-02    0.61       1.0  T
   5   -194.2621359 -0.447774E-04  0.226E-02    0.60       1.0  T
   6   -194.2621422 -0.636389E-05  0.145E-02    0.60       1.0  T
   7   -194.2621536 -0.113383E-04  0.615E-03    0.61       1.7  T
   8   -194.2621543 -0.738470E-06  0.318E-03    0.61       3.3  T
   9   -194.2621545 -0.207626E-06  0.206E-03    0.61       5.1  T
  10   -194.2621545 -0.191521E-07  0.153E-03    0.61       6.8  T
  11   -194.2621546 -0.920421E-07  0.798E-04    0.61      13.1  T
  12   -194.2621546 -0.118892E-07  0.462E-04    0.61      22.6  T
     SCC iter.                  ...        0 min,  0.285 sec
     gradient                   ...        0 min,  0.048 sec
 * total energy  :  -192.3055352 Eh     change       -0.1060393E-02 Eh
   gradient norm :     0.0250581 Eh/α   predicted    -0.9184881E-03 ( -13.38%)
   displ. norm   :     0.5871927 α      lambda       -0.3921728E-02
   maximum displ.:     0.2435691 α      in ANC's #46, #1, #51, ...

........................................................................
.............................. CYCLE    5 ..............................
........................................................................

 iter      E             dE          RMSdq      gap      omega  full diag
   1   -194.2593501 -0.194259E+03  0.382E-01    0.56       0.0  T
   2   -194.2598890 -0.538893E-03  0.199E-01    0.64       1.0  T
   3   -194.2598053  0.836789E-04  0.125E-01    0.58       1.0  T
   4   -194.2596769  0.128404E-03  0.117E-01    0.64       1.0  T
   5   -194.2602219 -0.545030E-03  0.522E-02    0.61       1.0  T
   6   -194.2602292 -0.727910E-05  0.345E-02    0.61       1.0  T
   7   -194.2602692 -0.400267E-04  0.215E-02    0.61       1.0  T
   8   -194.2602883 -0.190224E-04  0.870E-03    0.61       1.2  T
   9   -194.2602883 -0.165095E-07  0.664E-03    0.61       1.6  T
  10   -194.2602893 -0.100688E-05  0.448E-03    0.61       2.3  T
  11   -194.2602898 -0.498123E-06  0.242E-03    0.61       4.3  T
  12   -194.2602899 -0.109555E-06  0.138E-03    0.61       7.6  T
  13   -194.2602899  0.648885E-08  0.119E-03    0.61       8.8  T
  14   -194.2602899 -0.407298E-07  0.744E-04    0.61      14.0  T
  15   -194.2602899 -0.981899E-08  0.458E-04    0.61      22.8  T
     SCC iter.                  ...        0 min,  0.356 sec
     gradient                   ...        0 min,  0.049 sec
 * total energy  :  -192.3050285 Eh     change        0.5066731E-03 Eh
   gradient norm :     0.0437596 Eh/α   predicted    -0.2637032E-02 (-620.46%)
   displ. norm   :     0.2081784 α      lambda       -0.4110243E-02
   maximum displ.:     0.1346112 α      in ANC's #1, #32, #30, ...

........................................................................
.............................. CYCLE    6 ..............................
........................................................................

 iter      E             dE          RMSdq      gap      omega  full diag
   1   -194.2637602 -0.194264E+03  0.262E-01    0.65       0.0  T
   2   -194.2638704 -0.110146E-03  0.147E-01    0.56       1.0  T
   3   -194.2636976  0.172775E-03  0.113E-01    0.64       1.0  T
   4   -194.2638362 -0.138561E-03  0.917E-02    0.59       1.0  T
   5   -194.2642270 -0.390836E-03  0.333E-02    0.60       1.0  T
   6   -194.2642223  0.470365E-05  0.263E-02    0.61       1.0  T
   7   -194.2642495 -0.272300E-04  0.122E-02    0.60       1.0  T
   8   -194.2642530 -0.352348E-05  0.645E-03    0.61       1.6  T
   9   -194.2642541 -0.102150E-05  0.452E-03    0.61       2.3  T
  10   -194.2642545 -0.422265E-06  0.328E-03    0.61       3.2  T
  11   -194.2642547 -0.227409E-06  0.194E-03    0.61       5.4  T
  12   -194.2642548 -0.113407E-06  0.922E-04    0.61      11.3  T
  13   -194.2642548 -0.820580E-08  0.709E-04    0.61      14.7  T
     SCC iter.                  ...        0 min,  0.315 sec
     gradient                   ...        0 min,  0.049 sec
 * total energy  :  -192.3071973 Eh     change       -0.2168824E-02 Eh
   gradient norm :     0.0143363 Eh/α   predicted    -0.2144215E-02 (  -1.13%)
   displ. norm   :     0.1834445 α      lambda       -0.1268003E-02
   maximum displ.:     0.0747351 α      in ANC's #30, #1, #32, ...

........................................................................
.............................. CYCLE    7 ..............................
........................................................................

 iter      E             dE          RMSdq      gap      omega  full diag
   1   -194.2642050 -0.194264E+03  0.233E-01    0.60       0.0  T
   2   -194.2641813  0.237255E-04  0.804E-02    0.63       1.0  T
   3   -194.2637505  0.430763E-03  0.107E-01    0.58       1.0  T
   4   -194.2642515 -0.501002E-03  0.417E-02    0.62       1.0  T
   5   -194.2642558 -0.430217E-05  0.339E-02    0.62       1.0  T
   6   -194.2642833 -0.275269E-04  0.186E-02    0.61       1.0  T
   7   -194.2642988 -0.154678E-04  0.783E-03    0.61       1.3  T
   8   -194.2643000 -0.118342E-05  0.424E-03    0.61       2.5  T
   9   -194.2643005 -0.496483E-06  0.269E-03    0.61       3.9  T
  10   -194.2643006 -0.861334E-07  0.171E-03    0.61       6.1  T
  11   -194.2643005  0.255983E-07  0.145E-03    0.61       7.2  T
  12   -194.2643006 -0.536625E-07  0.833E-04    0.61      12.5  T
  13   -194.2643006 -0.197086E-07  0.587E-04    0.61      17.8  T
     SCC iter.                  ...        0 min,  0.316 sec
     gradient                   ...        0 min,  0.047 sec
 * total energy  :  -192.3074298 Eh     change       -0.2324501E-03 Eh
   gradient norm :     0.0089789 Eh/α   predicted    -0.6553674E-03 ( 181.94%)
   displ. norm   :     0.1697511 α      lambda       -0.7476745E-03
   maximum displ.:     0.0585461 α      in ANC's #24, #18, #30, ...

........................................................................
.............................. CYCLE    8 ..............................
........................................................................

 iter      E             dE          RMSdq      gap      omega  full diag
   1   -194.2651083 -0.194265E+03  0.109E-01    0.61       0.0  T
   2   -194.2651117 -0.342513E-05  0.399E-02    0.60       1.0  T
   3   -194.2650347  0.770289E-04  0.447E-02    0.62       1.0  T
   4   -194.2651086 -0.739536E-04  0.240E-02    0.61       1.0  T
   5   -194.2651303 -0.217086E-04  0.126E-02    0.61       1.0  T
   6   -194.2651310 -0.653627E-06  0.844E-03    0.61       1.2  T
   7   -194.2651339 -0.294241E-05  0.376E-03    0.61       2.8  T
   8   -194.2651342 -0.262902E-06  0.187E-03    0.61       5.6  T
   9   -194.2651342 -0.436168E-07  0.130E-03    0.61       8.0  T
  10   -194.2651343 -0.509459E-07  0.866E-04    0.61      12.0  T
  11   -194.2651343 -0.185530E-07  0.524E-04    0.61      19.9  T
     SCC iter.                  ...        0 min,  0.255 sec
     gradient                   ...        0 min,  0.048 sec
 * total energy  :  -192.3079058 Eh     change       -0.4759753E-03 Eh
   gradient norm :     0.0115672 Eh/α   predicted    -0.3846150E-03 ( -19.19%)
   displ. norm   :     0.2145011 α      lambda       -0.5923921E-03
   maximum displ.:     0.0882378 α      in ANC's #18, #24, #6, ...

........................................................................
.............................. CYCLE    9 ..............................
........................................................................

 iter      E             dE          RMSdq      gap      omega  full diag
   1   -194.2664627 -0.194266E+03  0.104E-01    0.60       0.0  T
   2   -194.2664708 -0.810892E-05  0.374E-02    0.60       1.0  T
   3   -194.2664550  0.158398E-04  0.304E-02    0.61       1.0  T
   4   -194.2664683 -0.133845E-04  0.199E-02    0.60       1.0  T
   5   -194.2664723 -0.398622E-05  0.144E-02    0.61       1.0  T
   6   -194.2664737 -0.137960E-05  0.104E-02    0.60       1.0  T
   7   -194.2664795 -0.576144E-05  0.403E-03    0.60       2.6  T
   8   -194.2664797 -0.272295E-06  0.219E-03    0.60       4.8  T
   9   -194.2664798 -0.443237E-07  0.162E-03    0.60       6.4  T
  10   -194.2664798 -0.366126E-07  0.114E-03    0.60       9.1  T
  11   -194.2664799 -0.356391E-07  0.752E-04    0.60      13.9  T
  12   -194.2664799 -0.922415E-08  0.433E-04    0.60      24.1  T
     SCC iter.                  ...        0 min,  0.275 sec
     gradient                   ...        0 min,  0.048 sec
 * total energy  :  -192.3082289 Eh     change       -0.3231117E-03 Eh
   gradient norm :     0.0055989 Eh/α   predicted    -0.3098240E-03 (  -4.11%)
   displ. norm   :     0.2586378 α      lambda       -0.4390188E-03
   maximum displ.:     0.1077078 α      in ANC's #18, #6, #24, ...

........................................................................
.............................. CYCLE   10 ..............................
........................................................................

 iter      E             dE          RMSdq      gap      omega  full diag
   1   -194.2671792 -0.194267E+03  0.955E-02    0.62       0.0  T
   2   -194.2671880 -0.880915E-05  0.374E-02    0.62       1.0  T
   3   -194.2671809  0.715662E-05  0.258E-02    0.62       1.0  T
   4   -194.2671846 -0.370566E-05  0.180E-02    0.61       1.0  T
   5   -194.2671953 -0.107189E-04  0.917E-03    0.62       1.1  T
   6   -194.2671980 -0.272013E-05  0.414E-03    0.62       2.5  T
   7   -194.2671972  0.789267E-06  0.493E-03    0.62       2.1  T
   8   -194.2671986 -0.134753E-05  0.190E-03    0.62       5.5  T
   9   -194.2671986 -0.489471E-07  0.126E-03    0.62       8.3  T
  10   -194.2671986 -0.165548E-08  0.854E-04    0.62      12.2  T
  11   -194.2671986 -0.167791E-07  0.516E-04    0.62      20.2  T
     SCC iter.                  ...        0 min,  0.259 sec
     gradient                   ...        0 min,  0.049 sec
 * total energy  :  -192.3085036 Eh     change       -0.2747215E-03 Eh
   gradient norm :     0.0059587 Eh/α   predicted    -0.2341976E-03 ( -14.75%)
   displ. norm   :     0.4256227 α      lambda       -0.6228145E-03
   maximum displ.:     0.1758437 α      in ANC's #18, #6, #8, ...

........................................................................
.............................. CYCLE   11 ..............................
........................................................................

 iter      E             dE          RMSdq      gap      omega  full diag
   1   -194.2659200 -0.194266E+03  0.117E-01    0.59       0.0  T
   2   -194.2659105  0.948369E-05  0.570E-02    0.61       1.0  T
   3   -194.2658544  0.561684E-04  0.543E-02    0.59       1.0  T
   4   -194.2659366 -0.822851E-04  0.261E-02    0.61       1.0  T
   5   -194.2659514 -0.147901E-04  0.151E-02    0.60       1.0  T
   6   -194.2659509  0.551135E-06  0.111E-02    0.60       1.0  T
   7   -194.2659584 -0.753630E-05  0.400E-03    0.60       2.6  T
   8   -194.2659590 -0.576667E-06  0.225E-03    0.60       4.6  T
   9   -194.2659591 -0.119503E-06  0.141E-03    0.60       7.4  T
  10   -194.2659591 -0.163099E-07  0.812E-04    0.60      12.8  T
  11   -194.2659592 -0.201030E-07  0.528E-04    0.60      19.8  T
     SCC iter.                  ...        0 min,  0.263 sec
     gradient                   ...        0 min,  0.049 sec
 * total energy  :  -192.3088165 Eh     change       -0.3129615E-03 Eh
   gradient norm :     0.0095379 Eh/α   predicted    -0.3678203E-03 (  17.53%)
   displ. norm   :     0.2069975 α      lambda       -0.3382458E-03
   maximum displ.:     0.0962799 α      in ANC's #6, #8, #18, ...

........................................................................
.............................. CYCLE   12 ..............................
........................................................................

 iter      E             dE          RMSdq      gap      omega  full diag
   1   -194.2671797 -0.194267E+03  0.437E-02    0.61       0.0  T
   2   -194.2671745  0.517605E-05  0.242E-02    0.61       1.0  T
   3   -194.2671103  0.642173E-04  0.347E-02    0.60       1.0  T
   4   -194.2671805 -0.702495E-04  0.888E-03    0.61       1.2  T
   5   -194.2671818 -0.130098E-05  0.592E-03    0.60       1.8  T
   6   -194.2671830 -0.119725E-05  0.236E-03    0.61       4.4  T
   7   -194.2671832 -0.228798E-06  0.123E-03    0.61       8.5  T
   8   -194.2671833 -0.345593E-07  0.745E-04    0.61      14.0  T
   9   -194.2671833 -0.521771E-08  0.511E-04    0.61      20.4  T
     SCC iter.                  ...        0 min,  0.202 sec
     gradient                   ...        0 min,  0.048 sec
 * total energy  :  -192.3090353 Eh     change       -0.2187405E-03 Eh
   gradient norm :     0.0079009 Eh/α   predicted    -0.1763750E-03 ( -19.37%)
   displ. norm   :     0.3588968 α      lambda       -0.3397343E-03
   maximum displ.:     0.1720983 α      in ANC's #6, #8, #14, ...

........................................................................
.............................. CYCLE   13 ..............................
........................................................................

 iter      E             dE          RMSdq      gap      omega  full diag
   1   -194.2661321 -0.194266E+03  0.690E-02    0.62       0.0  T
   2   -194.2661251  0.700718E-05  0.387E-02    0.61       1.0  T
   3   -194.2660915  0.335876E-04  0.364E-02    0.62       1.0  T
   4   -194.2661299 -0.383423E-04  0.158E-02    0.61       1.0  T
   5   -194.2661386 -0.871339E-05  0.922E-03    0.61       1.1  T
   6   -194.2661429 -0.432464E-05  0.586E-03    0.61       1.8  T
   7   -194.2661446 -0.171968E-05  0.184E-03    0.61       5.7  T
   8   -194.2661447 -0.532002E-07  0.105E-03    0.61       9.9  T
   9   -194.2661447  0.124757E-08  0.796E-04    0.61      13.1  T
  10   -194.2661447 -0.136013E-07  0.487E-04    0.61      21.4  T
     SCC iter.                  ...        0 min,  0.225 sec
     gradient                   ...        0 min,  0.048 sec
 * total energy  :  -192.3093049 Eh     change       -0.2695737E-03 Eh
   gradient norm :     0.0076928 Eh/α   predicted    -0.1917489E-03 ( -28.87%)
   displ. norm   :     0.5411776 α      lambda       -0.5040026E-03
   maximum displ.:     0.2733615 α      in ANC's #6, #8, #14, ...

........................................................................
.............................. CYCLE   14 ..............................
........................................................................

 iter      E             dE          RMSdq      gap      omega  full diag
   1   -194.2647315 -0.194265E+03  0.993E-02    0.61       0.0  T
   2   -194.2647328 -0.128321E-05  0.513E-02    0.62       1.0  T
   3   -194.2646748  0.579850E-04  0.414E-02    0.60       1.0  T
   4   -194.2647291 -0.542936E-04  0.188E-02    0.62       1.0  T
   5   -194.2647350 -0.592407E-05  0.107E-02    0.61       1.0  T
   6   -194.2647396 -0.462312E-05  0.513E-03    0.61       2.0  T
   7   -194.2647410 -0.135733E-05  0.266E-03    0.61       3.9  T
   8   -194.2647412 -0.244982E-06  0.154E-03    0.61       6.8  T
   9   -194.2647412 -0.253522E-10  0.120E-03    0.61       8.7  T
  10   -194.2647412 -0.147229E-07  0.920E-04    0.61      11.3  T
  11   -194.2647413 -0.287616E-07  0.559E-04    0.61      18.6  T
     SCC iter.                  ...        0 min,  0.261 sec
     gradient                   ...        0 min,  0.092 sec
 * total energy  :  -192.3097003 Eh     change       -0.3954561E-03 Eh
   gradient norm :     0.0101361 Eh/α   predicted    -0.3258107E-03 ( -17.61%)
   displ. norm   :     0.5908920 α      lambda       -0.5817811E-03
   maximum displ.:     0.3114460 α      in ANC's #6, #8, #14, ...

........................................................................
.............................. CYCLE   15 ..............................
........................................................................

 iter      E             dE          RMSdq      gap      omega  full diag
   1   -194.2625714 -0.194263E+03  0.104E-01    0.62       0.0  T
   2   -194.2625666  0.482331E-05  0.562E-02    0.60       1.0  T
   3   -194.2624256  0.141043E-03  0.529E-02    0.62       1.0  T
   4   -194.2625573 -0.131789E-03  0.212E-02    0.61       1.0  T
   5   -194.2625632 -0.581550E-05  0.189E-02    0.60       1.0  T
   6   -194.2625832 -0.200118E-04  0.447E-03    0.61       2.3  T
   7   -194.2625839 -0.683449E-06  0.221E-03    0.61       4.7  T
   8   -194.2625840 -0.952635E-07  0.163E-03    0.61       6.4  T
   9   -194.2625840 -0.125504E-07  0.123E-03    0.61       8.5  T
  10   -194.2625840 -0.183433E-07  0.891E-04    0.61      11.7  T
  11   -194.2625840 -0.151435E-07  0.610E-04    0.61      17.1  T
     SCC iter.                  ...        0 min,  0.263 sec
     gradient                   ...        0 min,  0.048 sec
 * total energy  :  -192.3101846 Eh     change       -0.4842705E-03 Eh
   gradient norm :     0.0121069 Eh/α   predicted    -0.3924581E-03 ( -18.96%)
   displ. norm   :     0.6236274 α      lambda       -0.7983368E-03
   maximum displ.:     0.3393079 α      in ANC's #6, #8, #14, ...

........................................................................
.............................. CYCLE   16 ..............................
........................................................................

 iter      E             dE          RMSdq      gap      omega  full diag
   1   -194.2635564 -0.194264E+03  0.112E-01    0.61       0.0  T
   2   -194.2635613 -0.494499E-05  0.581E-02    0.61       1.0  T
   3   -194.2635328  0.285014E-04  0.304E-02    0.60       1.0  T
   4   -194.2635107  0.220608E-04  0.308E-02    0.61       1.0  T
   5   -194.2635598 -0.490584E-04  0.108E-02    0.61       1.0  T
   6   -194.2635642 -0.440993E-05  0.487E-03    0.61       2.1  T
   7   -194.2635654 -0.116631E-05  0.272E-03    0.61       3.8  T
   8   -194.2635656 -0.173962E-06  0.183E-03    0.61       5.7  T
   9   -194.2635655  0.298518E-07  0.151E-03    0.61       6.9  T
  10   -194.2635656 -0.627257E-07  0.993E-04    0.61      10.5  T
  11   -194.2635656 -0.239340E-07  0.635E-04    0.61      16.4  T
     SCC iter.                  ...        0 min,  0.250 sec
     gradient                   ...        0 min,  0.048 sec
 * total energy  :  -192.3108648 Eh     change       -0.6802595E-03 Eh
   gradient norm :     0.0124884 Eh/α   predicted    -0.5544127E-03 ( -18.50%)
   displ. norm   :     0.6742445 α      lambda       -0.1035352E-02
   maximum displ.:     0.3829530 α      in ANC's #6, #8, #14, ...

........................................................................
.............................. CYCLE   17 ..............................
........................................................................

 iter      E             dE          RMSdq      gap      omega  full diag
   1   -194.2641593 -0.194264E+03  0.123E-01    0.61       0.0  T
   2   -194.2641648 -0.547840E-05  0.624E-02    0.61       1.0  T
   3   -194.2640942  0.706071E-04  0.426E-02    0.60       1.0  T
   4   -194.2640962 -0.195745E-05  0.366E-02    0.61       1.0  T
   5   -194.2641679 -0.717067E-04  0.994E-03    0.61       1.0  T
   6   -194.2641701 -0.227641E-05  0.603E-03    0.61       1.7  T
   7   -194.2641721 -0.197411E-05  0.305E-03    0.61       3.4  T
   8   -194.2641722 -0.138448E-06  0.218E-03    0.61       4.8  T
   9   -194.2641723 -0.206108E-07  0.167E-03    0.61       6.2  T
  10   -194.2641723 -0.164315E-07  0.124E-03    0.61       8.4  T
  11   -194.2641723 -0.510385E-07  0.758E-04    0.61      13.8  T
  12   -194.2641723 -0.872146E-08  0.510E-04    0.61      20.4  T
     SCC iter.                  ...        0 min,  0.281 sec
     gradient                   ...        0 min,  0.047 sec
 * total energy  :  -192.3117399 Eh     change       -0.8750460E-03 Eh
   gradient norm :     0.0103609 Eh/α   predicted    -0.7530253E-03 ( -13.94%)
   displ. norm   :     0.7538160 α      lambda       -0.1137737E-02
   maximum displ.:     0.4473053 α      in ANC's #6, #8, #14, ...

........................................................................
.............................. CYCLE   18 ..............................
........................................................................

 iter      E             dE          RMSdq      gap      omega  full diag
   1   -194.2639307 -0.194264E+03  0.140E-01    0.60       0.0  T
   2   -194.2639353 -0.455431E-05  0.685E-02    0.61       1.0  T
   3   -194.2638428  0.924292E-04  0.486E-02    0.59       1.0  T
   4   -194.2638879 -0.450588E-04  0.336E-02    0.61       1.0  T
   5   -194.2639311 -0.431702E-04  0.149E-02    0.61       1.0  T
   6   -194.2639427 -0.116608E-04  0.636E-03    0.60       1.6  T
   7   -194.2639445 -0.181704E-05  0.336E-03    0.60       3.1  T
   8   -194.2639448 -0.205851E-06  0.234E-03    0.60       4.5  T
   9   -194.2639447  0.805630E-08  0.188E-03    0.60       5.5  T
  10   -194.2639448 -0.848146E-07  0.121E-03    0.60       8.6  T
  11   -194.2639449 -0.366537E-07  0.772E-04    0.60      13.5  T
  12   -194.2639449 -0.987112E-08  0.574E-04    0.60      18.2  T
     SCC iter.                  ...        0 min,  0.273 sec
     gradient                   ...        0 min,  0.049 sec
 * total energy  :  -192.3127524 Eh     change       -0.1012523E-02 Eh
   gradient norm :     0.0119588 Eh/α   predicted    -0.8921263E-03 ( -11.89%)
   displ. norm   :     0.7492086 α      lambda       -0.1364951E-02
   maximum displ.:     0.4693438 α      in ANC's #6, #8, #14, ...

........................................................................
.............................. CYCLE   19 ..............................
........................................................................

 iter      E             dE          RMSdq      gap      omega  full diag
   1   -194.2719229 -0.194272E+03  0.146E-01    0.60       0.0  T
   2   -194.2719330 -0.100884E-04  0.680E-02    0.61       1.0  T
   3   -194.2718875  0.454557E-04  0.393E-02    0.60       1.0  T
   4   -194.2718636  0.238800E-04  0.380E-02    0.61       1.0  T
   5   -194.2719264 -0.628088E-04  0.142E-02    0.61       1.0  T
   6   -194.2719390 -0.125932E-04  0.601E-03    0.61       1.7  T
   7   -194.2719404 -0.133794E-05  0.396E-03    0.61       2.6  T
   8   -194.2719409 -0.535153E-06  0.236E-03    0.61       4.4  T
   9   -194.2719410 -0.502130E-07  0.167E-03    0.61       6.3  T
  10   -194.2719410 -0.216748E-07  0.107E-03    0.61       9.7  T
  11   -194.2719410 -0.190858E-07  0.809E-04    0.61      12.9  T
  12   -194.2719410 -0.161534E-07  0.587E-04    0.61      17.7  T
     SCC iter.                  ...        0 min,  0.288 sec
     gradient                   ...        0 min,  0.049 sec
 * total energy  :  -192.3139229 Eh     change       -0.1170478E-02 Eh
   gradient norm :     0.0153975 Eh/α   predicted    -0.1065564E-02 (  -8.96%)
   displ. norm   :     0.8803323 α      lambda       -0.1594530E-02
   maximum displ.:     0.5441850 α      in ANC's #6, #8, #14, ...

........................................................................
.............................. CYCLE   20 ..............................
........................................................................

 iter      E             dE          RMSdq      gap      omega  full diag
   1   -194.2677449 -0.194268E+03  0.181E-01    0.60       0.0  T
   2   -194.2677559 -0.109681E-04  0.826E-02    0.61       1.0  T
   3   -194.2676003  0.155597E-03  0.625E-02    0.60       1.0  T
   4   -194.2676734 -0.731136E-04  0.437E-02    0.61       1.0  T
   5   -194.2677577 -0.842416E-04  0.146E-02    0.61       1.0  T
   6   -194.2677695 -0.118106E-04  0.631E-03    0.61       1.7  T
   7   -194.2677705 -0.105062E-05  0.482E-03    0.61       2.2  T
   8   -194.2677715 -0.944831E-06  0.282E-03    0.61       3.7  T
   9   -194.2677716 -0.994700E-07  0.188E-03    0.61       5.5  T
  10   -194.2677716 -0.156090E-07  0.133E-03    0.61       7.8  T
  11   -194.2677716 -0.447109E-07  0.870E-04    0.61      12.0  T
  12   -194.2677716 -0.220581E-07  0.622E-04    0.61      16.8  T
     SCC iter.                  ...        0 min,  0.274 sec
     gradient                   ...        0 min,  0.048 sec
 * total energy  :  -192.3154901 Eh     change       -0.1567212E-02 Eh
   gradient norm :     0.0192721 Eh/α   predicted    -0.1415139E-02 (  -9.70%)
   displ. norm   :     0.7987713 α      lambda       -0.3012239E-02
   maximum displ.:     0.4017905 α      in ANC's #28, #6, #8, ...
 * RMSD in coord.:     0.7276776 α      energy gain  -0.2653658E-01 Eh

generating ANC from exact Hessian ...
Using Lindh-Hessian (1995)
 Shifting diagonal of input Hessian by   1.834401070210041E-002
 Lowest  eigenvalues of input Hessian
    0.010000    0.017713    0.017823    0.017851    0.000000    0.000000
    0.000000    0.000000    0.000000    0.000000    0.018360    0.018367
    0.018374    0.018517    0.018552    0.018564    0.018598    0.018801
 Highest eigenvalues
    2.171498    2.230985    2.262200    2.290138    2.346833    2.356059
 

........................................................................
.............................. CYCLE   21 ..............................
........................................................................

 iter      E             dE          RMSdq      gap      omega  full diag
   1   -194.2749956 -0.194275E+03  0.225E-01    0.60       0.0  T
   2   -194.2751029 -0.107295E-03  0.110E-01    0.59       1.0  T
   3   -194.2748365  0.266386E-03  0.900E-02    0.58       1.0  T
   4   -194.2748597 -0.232120E-04  0.747E-02    0.58       1.0  T
   5   -194.2751611 -0.301387E-03  0.299E-02    0.57       1.0  T
   6   -194.2751905 -0.294519E-04  0.155E-02    0.58       1.0  T
   7   -194.2751996 -0.909191E-05  0.863E-03    0.57       1.2  T
   8   -194.2752013 -0.167837E-05  0.582E-03    0.57       1.8  T
   9   -194.2752016 -0.257203E-06  0.477E-03    0.57       2.2  T
  10   -194.2752025 -0.929576E-06  0.301E-03    0.57       3.5  T
  11   -194.2752028 -0.326307E-06  0.184E-03    0.57       5.7  T
  12   -194.2752030 -0.144067E-06  0.106E-03    0.57       9.9  T
  13   -194.2752030 -0.246802E-07  0.689E-04    0.57      15.1  T
  14   -194.2752030 -0.109585E-07  0.378E-04    0.57      27.6  T
     SCC iter.                  ...        0 min,  0.323 sec
     gradient                   ...        0 min,  0.049 sec
 * total energy  :  -192.3164259 Eh     change       -0.9358033E-03 Eh
   gradient norm :     0.0374952 Eh/α   predicted     0.0000000E+00 (-100.00%)
   displ. norm   :     0.2289697 α      lambda       -0.2680974E-02
   maximum displ.:     0.0902660 α      in ANC's #1, #8, #7, ...

........................................................................
.............................. CYCLE   22 ..............................
........................................................................

 iter      E             dE          RMSdq      gap      omega  full diag
   1   -194.2745962 -0.194275E+03  0.248E-01    0.57       0.0  T
   2   -194.2746841 -0.879003E-04  0.121E-01    0.57       1.0  T
   3   -194.2745811  0.103076E-03  0.866E-02    0.56       1.0  T
   4   -194.2745911 -0.100879E-04  0.705E-02    0.57       1.0  T
   5   -194.2748716 -0.280492E-03  0.326E-02    0.57       1.0  T
   6   -194.2748911 -0.194221E-04  0.243E-02    0.56       1.0  T
   7   -194.2749107 -0.196662E-04  0.982E-03    0.57       1.1  T
   8   -194.2749111 -0.412949E-06  0.579E-03    0.57       1.8  T
   9   -194.2749124 -0.121843E-05  0.349E-03    0.57       3.0  T
  10   -194.2749124 -0.374125E-07  0.265E-03    0.57       3.9  T
  11   -194.2749126 -0.204929E-06  0.142E-03    0.57       7.3  T
  12   -194.2749127 -0.544449E-07  0.756E-04    0.57      13.8  T
  13   -194.2749127 -0.208764E-07  0.467E-04    0.57      22.3  T
     SCC iter.                  ...        0 min,  0.304 sec
     gradient                   ...        0 min,  0.049 sec
 * total energy  :  -192.3175206 Eh     change       -0.1094690E-02 Eh
   gradient norm :     0.0235819 Eh/α   predicted    -0.1411250E-02 (  28.92%)
   displ. norm   :     0.4695090 α      lambda       -0.5339515E-02
   maximum displ.:     0.2287977 α      in ANC's #1, #8, #7, ...

........................................................................
.............................. CYCLE   23 ..............................
........................................................................

 iter      E             dE          RMSdq      gap      omega  full diag
   1   -194.2683910 -0.194268E+03  0.415E-01    0.54       0.0  T
   2   -194.2690585 -0.667482E-03  0.228E-01    0.62       1.0  T
   3   -194.2690646 -0.611604E-05  0.137E-01    0.56       1.0  T
   4   -194.2688839  0.180659E-03  0.130E-01    0.62       1.0  T
   5   -194.2695354 -0.651425E-03  0.563E-02    0.58       1.0  T
   6   -194.2695251  0.102775E-04  0.411E-02    0.57       1.0  T
   7   -194.2695910 -0.658958E-04  0.235E-02    0.58       1.0  T
   8   -194.2696133 -0.223363E-04  0.948E-03    0.58       1.1  T
   9   -194.2696137 -0.380198E-06  0.716E-03    0.58       1.5  T
  10   -194.2696149 -0.118897E-05  0.483E-03    0.58       2.2  T
  11   -194.2696154 -0.523018E-06  0.276E-03    0.58       3.8  T
  12   -194.2696158 -0.341128E-06  0.136E-03    0.58       7.7  T
  13   -194.2696158 -0.319707E-07  0.970E-04    0.58      10.8  T
  14   -194.2696158 -0.373859E-09  0.811E-04    0.58      12.9  T
     SCC iter.                  ...        0 min,  0.349 sec
     gradient                   ...        0 min,  0.049 sec
 * total energy  :  -192.3165447 Eh     change        0.9759060E-03 Eh
   gradient norm :     0.0424746 Eh/α   predicted    -0.3258292E-02 (-433.87%)
   displ. norm   :     0.2877482 α      lambda       -0.5678787E-02
   maximum displ.:     0.1768462 α      in ANC's #1, #41, #50, ...

........................................................................
.............................. CYCLE   24 ..............................
........................................................................

 iter      E             dE          RMSdq      gap      omega  full diag
   1   -194.2719546 -0.194272E+03  0.406E-01    0.62       0.0  T
   2   -194.2718958  0.587889E-04  0.169E-01    0.53       1.0  T
   3   -194.2713595  0.536334E-03  0.170E-01    0.64       1.0  T
   4   -194.2723746 -0.101519E-02  0.737E-02    0.56       1.0  T
   5   -194.2724793 -0.104681E-03  0.463E-02    0.58       1.0  T
   6   -194.2724589  0.204456E-04  0.348E-02    0.58       1.0  T
   7   -194.2725135 -0.546100E-04  0.182E-02    0.58       1.0  T
   8   -194.2725256 -0.121195E-04  0.912E-03    0.58       1.1  T
   9   -194.2725294 -0.374745E-05  0.536E-03    0.58       1.9  T
  10   -194.2725295 -0.151292E-06  0.399E-03    0.58       2.6  T
  11   -194.2725298 -0.309165E-06  0.252E-03    0.58       4.1  T
  12   -194.2725300 -0.201180E-06  0.125E-03    0.58       8.4  T
  13   -194.2725300 -0.162559E-07  0.848E-04    0.58      12.3  T
  14   -194.2725300 -0.349891E-08  0.724E-04    0.58      14.4  T
     SCC iter.                  ...        0 min,  0.340 sec
     gradient                   ...        0 min,  0.048 sec
 * total energy  :  -192.3192808 Eh     change       -0.2736059E-02 Eh
   gradient norm :     0.0231744 Eh/α   predicted    -0.3074505E-02 (  12.37%)
   displ. norm   :     0.2535481 α      lambda       -0.2688185E-02
   maximum displ.:     0.1117274 α      in ANC's #29, #8, #7, ...

........................................................................
.............................. CYCLE   25 ..............................
........................................................................

 iter      E             dE          RMSdq      gap      omega  full diag
   1   -194.2725786 -0.194273E+03  0.267E-01    0.53       0.0  T
   2   -194.2726697 -0.910428E-04  0.888E-02    0.53       1.0  T
   3   -194.2726212  0.485129E-04  0.607E-02    0.52       1.0  T
   4   -194.2726185  0.269475E-05  0.499E-02    0.53       1.0  T
   5   -194.2726632 -0.446740E-04  0.344E-02    0.52       1.0  T
   6   -194.2726991 -0.358986E-04  0.239E-02    0.52       1.0  T
   7   -194.2727192 -0.201585E-04  0.110E-02    0.52       1.0  T
   8   -194.2727216 -0.240810E-05  0.560E-03    0.52       1.9  T
   9   -194.2727216  0.432733E-07  0.423E-03    0.52       2.5  T
  10   -194.2727219 -0.355773E-06  0.304E-03    0.52       3.4  T
  11   -194.2727221 -0.195210E-06  0.193E-03    0.52       5.4  T
  12   -194.2727222 -0.101904E-06  0.115E-03    0.52       9.0  T
  13   -194.2727223 -0.250047E-07  0.747E-04    0.52      14.0  T
  14   -194.2727223 -0.361979E-08  0.461E-04    0.52      22.6  T
     SCC iter.                  ...        0 min,  0.325 sec
     gradient                   ...        0 min,  0.048 sec
 * total energy  :  -192.3205625 Eh     change       -0.1281699E-02 Eh
   gradient norm :     0.0141037 Eh/α   predicted    -0.1430499E-02 (  11.61%)
   displ. norm   :     0.4142956 α      lambda       -0.2187717E-02
   maximum displ.:     0.1872414 α      in ANC's #8, #7, #28, ...

........................................................................
.............................. CYCLE   26 ..............................
........................................................................

 iter      E             dE          RMSdq      gap      omega  full diag
   1   -194.2713071 -0.194271E+03  0.222E-01    0.47       0.0  T
   2   -194.2712731  0.340350E-04  0.839E-02    0.49       1.0  T
   3   -194.2709069  0.366141E-03  0.103E-01    0.44       1.0  T
   4   -194.2713367 -0.429765E-03  0.397E-02    0.47       1.0  T
   5   -194.2713469 -0.101745E-04  0.325E-02    0.47       1.0  T
   6   -194.2713788 -0.319847E-04  0.154E-02    0.46       1.0  T
   7   -194.2713895 -0.106867E-04  0.816E-03    0.47       1.3  T
   8   -194.2713922 -0.269379E-05  0.362E-03    0.47       2.9  T
   9   -194.2713923 -0.110939E-06  0.245E-03    0.47       4.3  T
  10   -194.2713924 -0.448945E-07  0.173E-03    0.47       6.0  T
  11   -194.2713925 -0.125803E-06  0.882E-04    0.47      11.8  T
  12   -194.2713925 -0.121961E-07  0.556E-04    0.47      18.8  T
     SCC iter.                  ...        0 min,  0.293 sec
     gradient                   ...        0 min,  0.048 sec
 * total energy  :  -192.3221705 Eh     change       -0.1608081E-02 Eh
   gradient norm :     0.0199890 Eh/α   predicted    -0.1281631E-02 ( -20.30%)
   displ. norm   :     0.7327895 α      lambda       -0.3295853E-02
   maximum displ.:     0.3494598 α      in ANC's #8, #7, #28, ...

........................................................................
.............................. CYCLE   27 ..............................
........................................................................

 iter      E             dE          RMSdq      gap      omega  full diag
   1   -194.2688014 -0.194269E+03  0.220E-01    0.45       0.0  T
   2   -194.2688703 -0.688957E-04  0.913E-02    0.42       1.0  T
   3   -194.2688245  0.458380E-04  0.498E-02    0.42       1.0  T
   4   -194.2688166  0.785708E-05  0.440E-02    0.40       1.0  T
   5   -194.2688766 -0.599747E-04  0.199E-02    0.42       1.0  T
   6   -194.2688819 -0.526930E-05  0.142E-02    0.41       1.0  T
   7   -194.2688929 -0.110538E-04  0.470E-03    0.41       2.2  T
   8   -194.2688933 -0.398594E-06  0.352E-03    0.41       3.0  T
   9   -194.2688937 -0.356180E-06  0.231E-03    0.41       4.5  T
  10   -194.2688937 -0.148783E-07  0.171E-03    0.41       6.1  T
  11   -194.2688938 -0.451001E-07  0.114E-03    0.41       9.2  T
  12   -194.2688938 -0.587512E-07  0.662E-04    0.41      15.8  T
  13   -194.2688938 -0.381661E-08  0.494E-04    0.41      21.1  T
     SCC iter.                  ...        0 min,  0.307 sec
     gradient                   ...        0 min,  0.047 sec
 * total energy  :  -192.3250512 Eh     change       -0.2880712E-02 Eh
   gradient norm :     0.0230101 Eh/α   predicted    -0.2532833E-02 ( -12.08%)
   displ. norm   :     0.7572332 α      lambda       -0.3706892E-02
   maximum displ.:     0.3842634 α      in ANC's #7, #8, #28, ...

........................................................................
.............................. CYCLE   28 ..............................
........................................................................

 iter      E             dE          RMSdq      gap      omega  full diag
   1   -194.2707296 -0.194271E+03  0.182E-01    0.43       0.0  T
   2   -194.2708135 -0.839839E-04  0.855E-02    0.38       1.0  T
   3   -194.2707149  0.986519E-04  0.678E-02    0.41       1.0  T
   4   -194.2708004 -0.854576E-04  0.405E-02    0.37       1.0  T
   5   -194.2708671 -0.667725E-04  0.166E-02    0.38       1.0  T
   6   -194.2708703 -0.317437E-05  0.106E-02    0.38       1.0  T
   7   -194.2708732 -0.294914E-05  0.951E-03    0.38       1.1  T
   8   -194.2708776 -0.437269E-05  0.383E-03    0.38       2.7  T
   9   -194.2708776  0.637039E-07  0.307E-03    0.38       3.4  T
  10   -194.2708778 -0.212910E-06  0.197E-03    0.38       5.3  T
  11   -194.2708778 -0.766317E-07  0.118E-03    0.38       8.8  T
  12   -194.2708779 -0.253263E-07  0.814E-04    0.38      12.8  T
  13   -194.2708779 -0.526063E-08  0.627E-04    0.38      16.6  T
     SCC iter.                  ...        0 min,  0.300 sec
     gradient                   ...        0 min,  0.048 sec
 * total energy  :  -192.3281166 Eh     change       -0.3065368E-02 Eh
   gradient norm :     0.0182542 Eh/α   predicted    -0.2916223E-02 (  -4.87%)
   displ. norm   :     0.7316733 α      lambda       -0.3206983E-02
   maximum displ.:     0.3945976 α      in ANC's #7, #8, #11, ...

........................................................................
.............................. CYCLE   29 ..............................
........................................................................

 iter      E             dE          RMSdq      gap      omega  full diag
   1   -194.2739197 -0.194274E+03  0.181E-01    0.39       0.0  T
   2   -194.2739717 -0.520362E-04  0.842E-02    0.37       1.0  T
   3   -194.2739008  0.708593E-04  0.583E-02    0.38       1.0  T
   4   -194.2739433 -0.424382E-04  0.424E-02    0.35       1.0  T
   5   -194.2740035 -0.601931E-04  0.200E-02    0.37       1.0  T
   6   -194.2739996  0.383303E-05  0.174E-02    0.37       1.0  T
   7   -194.2740120 -0.123212E-04  0.692E-03    0.36       1.5  T
   8   -194.2740134 -0.146277E-05  0.482E-03    0.37       2.2  T
   9   -194.2740142 -0.801657E-06  0.276E-03    0.37       3.8  T
  10   -194.2740143 -0.121753E-06  0.179E-03    0.37       5.8  T
  11   -194.2740144 -0.760596E-07  0.118E-03    0.36       8.9  T
  12   -194.2740145 -0.492671E-07  0.690E-04    0.37      15.1  T
  13   -194.2740145 -0.251717E-08  0.535E-04    0.37      19.5  T
     SCC iter.                  ...        0 min,  0.308 sec
     gradient                   ...        0 min,  0.049 sec
 * total energy  :  -192.3306446 Eh     change       -0.2527995E-02 Eh
   gradient norm :     0.0138647 Eh/α   predicted    -0.2461913E-02 (  -2.61%)
   displ. norm   :     0.6243708 α      lambda       -0.2839525E-02
   maximum displ.:     0.3667549 α      in ANC's #7, #8, #6, ...

........................................................................
.............................. CYCLE   30 ..............................
........................................................................

 iter      E             dE          RMSdq      gap      omega  full diag
   1   -194.2875177 -0.194288E+03  0.185E-01    0.45       0.0  T
   2   -194.2875473 -0.296150E-04  0.958E-02    0.36       1.0  T
   3   -194.2871708  0.376485E-03  0.112E-01    0.42       1.0  T
   4   -194.2876993 -0.528491E-03  0.424E-02    0.38       1.0  T
   5   -194.2877271 -0.277680E-04  0.312E-02    0.37       1.0  T
   6   -194.2877661 -0.390517E-04  0.132E-02    0.37       1.0  T
   7   -194.2877728 -0.669310E-05  0.635E-03    0.37       1.6  T
   8   -194.2877743 -0.143612E-05  0.376E-03    0.37       2.8  T
   9   -194.2877747 -0.398789E-06  0.253E-03    0.37       4.1  T
  10   -194.2877748 -0.880991E-07  0.180E-03    0.37       5.8  T
  11   -194.2877749 -0.117234E-06  0.957E-04    0.37      10.9  T
  12   -194.2877749 -0.152491E-07  0.688E-04    0.37      15.2  T
     SCC iter.                  ...        0 min,  0.309 sec
     gradient                   ...        0 min,  0.048 sec
 * total energy  :  -192.3319648 Eh     change       -0.1320221E-02 Eh
   gradient norm :     0.0338607 Eh/α   predicted    -0.1973248E-02 (  49.46%)
   displ. norm   :     0.6322596 α      lambda       -0.3090961E-02
   maximum displ.:     0.3501692 α      in ANC's #7, #8, #11, ...

........................................................................
.............................. CYCLE   31 ..............................
........................................................................

 iter      E             dE          RMSdq      gap      omega  full diag
   1   -194.2764634 -0.194276E+03  0.206E-01    0.31       0.0  T
   2   -194.2766622 -0.198891E-03  0.104E-01    0.35       1.0  T
   3   -194.2766712 -0.896494E-05  0.627E-02    0.30       1.0  T
   4   -194.2767155 -0.443120E-04  0.502E-02    0.35       1.0  T
   5   -194.2768045 -0.889312E-04  0.251E-02    0.33       1.0  T
   6   -194.2768035  0.922016E-06  0.189E-02    0.33       1.0  T
   7   -194.2768159 -0.124009E-04  0.832E-03    0.33       1.3  T
   8   -194.2768184 -0.249829E-05  0.524E-03    0.33       2.0  T
   9   -194.2768192 -0.815123E-06  0.317E-03    0.33       3.3  T
  10   -194.2768194 -0.193140E-06  0.215E-03    0.33       4.8  T
  11   -194.2768196 -0.204336E-06  0.114E-03    0.33       9.2  T
  12   -194.2768197 -0.295796E-07  0.775E-04    0.33      13.4  T
  13   -194.2768197 -0.111919E-07  0.527E-04    0.33      19.8  T
     SCC iter.                  ...        0 min,  0.313 sec
     gradient                   ...        0 min,  0.050 sec
 * total energy  :  -192.3336035 Eh     change       -0.1638645E-02 Eh
   gradient norm :     0.0134799 Eh/α   predicted    -0.2163291E-02 (  32.02%)
   displ. norm   :     0.4481924 α      lambda       -0.1700166E-02
   maximum displ.:     0.2787383 α      in ANC's #7, #8, #6, ...

........................................................................
.............................. CYCLE   32 ..............................
........................................................................

 iter      E             dE          RMSdq      gap      omega  full diag
   1   -194.2803904 -0.194280E+03  0.155E-01    0.36       0.0  T
   2   -194.2803474  0.430681E-04  0.658E-02    0.34       1.0  T
   3   -194.2798952  0.452122E-03  0.929E-02    0.36       1.0  T
   4   -194.2803973 -0.502053E-03  0.307E-02    0.34       1.0  T
   5   -194.2804244 -0.270742E-04  0.156E-02    0.34       1.0  T
   6   -194.2804311 -0.677387E-05  0.953E-03    0.35       1.1  T
   7   -194.2804351 -0.397397E-05  0.478E-03    0.34       2.2  T
   8   -194.2804356 -0.431993E-06  0.299E-03    0.35       3.5  T
   9   -194.2804356  0.164877E-08  0.236E-03    0.35       4.4  T
  10   -194.2804358 -0.220561E-06  0.122E-03    0.35       8.6  T
  11   -194.2804358 -0.129217E-07  0.663E-04    0.35      15.7  T
  12   -194.2804358 -0.679680E-08  0.420E-04    0.35      24.8  T
     SCC iter.                  ...        0 min,  0.300 sec
     gradient                   ...        0 min,  0.049 sec
 * total energy  :  -192.3349863 Eh     change       -0.1382792E-02 Eh
   gradient norm :     0.0101956 Eh/α   predicted    -0.1020845E-02 ( -26.18%)
   displ. norm   :     0.6208109 α      lambda       -0.2474180E-02
   maximum displ.:     0.3827110 α      in ANC's #7, #8, #6, ...

........................................................................
.............................. CYCLE   33 ..............................
........................................................................

 iter      E             dE          RMSdq      gap      omega  full diag
   1   -194.2879018 -0.194288E+03  0.239E-01    0.40       0.0  T
   2   -194.2876051  0.296746E-03  0.128E-01    0.34       1.0  T
   3   -194.2862696  0.133547E-02  0.179E-01    0.41       1.0  T
   4   -194.2880209 -0.175129E-02  0.394E-02    0.37       1.0  T
   5   -194.2880313 -0.103812E-04  0.313E-02    0.36       1.0  T
   6   -194.2880756 -0.443658E-04  0.164E-02    0.37       1.0  T
   7   -194.2880836 -0.797872E-05  0.732E-03    0.36       1.4  T
   8   -194.2880843 -0.685757E-06  0.451E-03    0.36       2.3  T
   9   -194.2880843  0.242085E-07  0.355E-03    0.36       2.9  T
  10   -194.2880845 -0.265253E-06  0.224E-03    0.36       4.6  T
  11   -194.2880847 -0.143484E-06  0.124E-03    0.36       8.4  T
  12   -194.2880847 -0.192739E-07  0.905E-04    0.36      11.5  T
  13   -194.2880847 -0.181097E-07  0.687E-04    0.36      15.2  T
     SCC iter.                  ...        0 min,  0.324 sec
     gradient                   ...        0 min,  0.046 sec
 * total energy  :  -192.3369851 Eh     change       -0.1998864E-02 Eh
   gradient norm :     0.0128983 Eh/α   predicted    -0.1713873E-02 ( -14.26%)
   displ. norm   :     0.7613095 α      lambda       -0.2417762E-02
   maximum displ.:     0.4908465 α      in ANC's #7, #8, #6, ...

........................................................................
.............................. CYCLE   34 ..............................
........................................................................

 iter      E             dE          RMSdq      gap      omega  full diag
   1   -194.2910206 -0.194291E+03  0.242E-01    0.40       0.0  T
   2   -194.2909379  0.827682E-04  0.112E-01    0.36       1.0  T
   3   -194.2899847  0.953205E-03  0.143E-01    0.41       1.0  T
   4   -194.2910326 -0.104791E-02  0.537E-02    0.38       1.0  T
   5   -194.2911378 -0.105228E-03  0.273E-02    0.37       1.0  T
   6   -194.2911509 -0.130966E-04  0.167E-02    0.38       1.0  T
   7   -194.2911605 -0.957489E-05  0.885E-03    0.38       1.2  T
   8   -194.2911630 -0.255902E-05  0.492E-03    0.38       2.1  T
   9   -194.2911630  0.383466E-07  0.360E-03    0.38       2.9  T
  10   -194.2911631 -0.159562E-06  0.245E-03    0.38       4.3  T
  11   -194.2911634 -0.223390E-06  0.135E-03    0.38       7.7  T
  12   -194.2911634 -0.498482E-07  0.909E-04    0.38      11.5  T
  13   -194.2911634 -0.112342E-07  0.642E-04    0.38      16.2  T
     SCC iter.                  ...        0 min,  0.308 sec
     gradient                   ...        0 min,  0.049 sec
 * total energy  :  -192.3391415 Eh     change       -0.2156388E-02 Eh
   gradient norm :     0.0198895 Eh/α   predicted    -0.1909530E-02 ( -11.45%)
   displ. norm   :     0.8028648 α      lambda       -0.2741337E-02
   maximum displ.:     0.5185833 α      in ANC's #7, #8, #6, ...

........................................................................
.............................. CYCLE   35 ..............................
........................................................................

 iter      E             dE          RMSdq      gap      omega  full diag
   1   -194.2919573 -0.194292E+03  0.297E-01    0.39       0.0  T
   2   -194.2918778  0.794504E-04  0.125E-01    0.34       1.0  T
   3   -194.2908245  0.105337E-02  0.161E-01    0.42       1.0  T
   4   -194.2920422 -0.121777E-02  0.539E-02    0.37       1.0  T
   5   -194.2920750 -0.327495E-04  0.411E-02    0.36       1.0  T
   6   -194.2921438 -0.688116E-04  0.195E-02    0.37       1.0  T
   7   -194.2921533 -0.949996E-05  0.101E-02    0.37       1.0  T
   8   -194.2921561 -0.284164E-05  0.561E-03    0.37       1.9  T
   9   -194.2921565 -0.369464E-06  0.412E-03    0.37       2.5  T
  10   -194.2921567 -0.202275E-06  0.273E-03    0.37       3.8  T
  11   -194.2921569 -0.174378E-06  0.168E-03    0.37       6.2  T
  12   -194.2921570 -0.134607E-06  0.916E-04    0.37      11.4  T
  13   -194.2921570 -0.105095E-07  0.661E-04    0.37      15.8  T
     SCC iter.                  ...        0 min,  0.307 sec
     gradient                   ...        0 min,  0.050 sec
 * total energy  :  -192.3415552 Eh     change       -0.2413634E-02 Eh
   gradient norm :     0.0150395 Eh/α   predicted    -0.2254194E-02 (  -6.61%)
   displ. norm   :     0.8241081 α      lambda       -0.2755683E-02
   maximum displ.:     0.5502911 α      in ANC's #7, #8, #6, ...

........................................................................
.............................. CYCLE   36 ..............................
........................................................................

 iter      E             dE          RMSdq      gap      omega  full diag
   1   -194.2939436 -0.194294E+03  0.284E-01    0.36       0.0  T
   2   -194.2939971 -0.535219E-04  0.105E-01    0.35       1.0  T
   3   -194.2937256  0.271534E-03  0.879E-02    0.37       1.0  T
   4   -194.2939114 -0.185836E-03  0.599E-02    0.35       1.0  T
   5   -194.2940419 -0.130480E-03  0.377E-02    0.36       1.0  T
   6   -194.2940722 -0.302837E-04  0.208E-02    0.36       1.0  T
   7   -194.2940957 -0.235320E-04  0.988E-03    0.36       1.1  T
   8   -194.2940987 -0.294262E-05  0.512E-03    0.36       2.0  T
   9   -194.2940988 -0.155294E-06  0.365E-03    0.36       2.9  T
  10   -194.2940988 -0.256538E-07  0.267E-03    0.36       3.9  T
  11   -194.2940991 -0.269916E-06  0.144E-03    0.36       7.2  T
  12   -194.2940992 -0.548360E-07  0.844E-04    0.36      12.4  T
  13   -194.2940992 -0.552760E-08  0.698E-04    0.36      14.9  T
     SCC iter.                  ...        0 min,  0.308 sec
     gradient                   ...        0 min,  0.052 sec
 * total energy  :  -192.3440290 Eh     change       -0.2473829E-02 Eh
   gradient norm :     0.0122923 Eh/α   predicted    -0.2313615E-02 (  -6.48%)
   displ. norm   :     0.8573833 α      lambda       -0.2770260E-02
   maximum displ.:     0.5863179 α      in ANC's #7, #8, #6, ...

........................................................................
.............................. CYCLE   37 ..............................
........................................................................

 iter      E             dE          RMSdq      gap      omega  full diag
   1   -194.2942779 -0.194294E+03  0.253E-01    0.34       0.0  T
   2   -194.2943036 -0.257325E-04  0.991E-02    0.34       1.0  T
   3   -194.2940942  0.209400E-03  0.862E-02    0.35       1.0  T
   4   -194.2943096 -0.215389E-03  0.493E-02    0.33       1.0  T
   5   -194.2943624 -0.528232E-04  0.343E-02    0.35       1.0  T
   6   -194.2943851 -0.227347E-04  0.206E-02    0.34       1.0  T
   7   -194.2944103 -0.251494E-04  0.938E-03    0.34       1.1  T
   8   -194.2944128 -0.249381E-05  0.504E-03    0.34       2.1  T
   9   -194.2944130 -0.240461E-06  0.329E-03    0.34       3.2  T
  10   -194.2944128  0.169627E-06  0.263E-03    0.34       4.0  T
  11   -194.2944131 -0.288096E-06  0.119E-03    0.34       8.8  T
  12   -194.2944132 -0.378776E-07  0.772E-04    0.34      13.5  T
  13   -194.2944132 -0.707999E-08  0.627E-04    0.34      16.6  T
     SCC iter.                  ...        0 min,  0.316 sec
     gradient                   ...        0 min,  0.051 sec
 * total energy  :  -192.3465773 Eh     change       -0.2548319E-02 Eh
   gradient norm :     0.0114862 Eh/α   predicted    -0.2403350E-02 (  -5.69%)
   displ. norm   :     0.8433049 α      lambda       -0.2861887E-02
   maximum displ.:     0.5822429 α      in ANC's #7, #8, #6, ...

........................................................................
.............................. CYCLE   38 ..............................
........................................................................

 iter      E             dE          RMSdq      gap      omega  full diag
   1   -194.2985919 -0.194299E+03  0.262E-01    0.31       0.0  T
   2   -194.2986121 -0.201867E-04  0.127E-01    0.36       1.0  T
   3   -194.2985696  0.424348E-04  0.947E-02    0.30       1.0  T
   4   -194.2988685 -0.298861E-03  0.393E-02    0.34       1.0  T
   5   -194.2988569  0.116247E-04  0.351E-02    0.32       1.0  T
   6   -194.2989130 -0.561492E-04  0.155E-02    0.32       1.0  T
   7   -194.2989161 -0.305724E-05  0.126E-02    0.33       1.0  T
   8   -194.2989227 -0.659341E-05  0.651E-03    0.33       1.6  T
   9   -194.2989231 -0.430491E-06  0.441E-03    0.33       2.4  T
  10   -194.2989229  0.142055E-06  0.333E-03    0.33       3.1  T
  11   -194.2989233 -0.365890E-06  0.205E-03    0.33       5.1  T
  12   -194.2989234 -0.919511E-07  0.157E-03    0.33       6.7  T
  13   -194.2989235 -0.866351E-07  0.820E-04    0.33      12.7  T
  14   -194.2989235  0.773659E-08  0.682E-04    0.33      15.3  T
     SCC iter.                  ...        0 min,  0.342 sec
     gradient                   ...        0 min,  0.048 sec
 * total energy  :  -192.3491202 Eh     change       -0.2542911E-02 Eh
   gradient norm :     0.0158117 Eh/α   predicted    -0.2448580E-02 (  -3.71%)
   displ. norm   :     0.8965271 α      lambda       -0.2703379E-02
   maximum displ.:     0.6203892 α      in ANC's #7, #8, #6, ...

........................................................................
.............................. CYCLE   39 ..............................
........................................................................

 iter      E             dE          RMSdq      gap      omega  full diag
   1   -194.2957133 -0.194296E+03  0.242E-01    0.32       0.0  T
   2   -194.2956352  0.780641E-04  0.119E-01    0.34       1.0  T
   3   -194.2952767  0.358476E-03  0.119E-01    0.31       1.0  T
   4   -194.2957557 -0.478978E-03  0.549E-02    0.32       1.0  T
   5   -194.2958293 -0.735804E-04  0.394E-02    0.33       1.0  T
   6   -194.2958948 -0.654967E-04  0.184E-02    0.31       1.0  T
   7   -194.2959029 -0.810292E-05  0.114E-02    0.32       1.0  T
   8   -194.2959050 -0.212098E-05  0.791E-03    0.32       1.3  T
   9   -194.2959062 -0.121264E-05  0.445E-03    0.32       2.3  T
  10   -194.2959059  0.373286E-06  0.346E-03    0.32       3.0  T
  11   -194.2959064 -0.507335E-06  0.199E-03    0.32       5.2  T
  12   -194.2959065 -0.132121E-06  0.134E-03    0.32       7.8  T
  13   -194.2959066 -0.458237E-07  0.818E-04    0.32      12.7  T
  14   -194.2959066 -0.244523E-08  0.533E-04    0.32      19.5  T
     SCC iter.                  ...        0 min,  0.352 sec
     gradient                   ...        0 min,  0.050 sec
 * total energy  :  -192.3515943 Eh     change       -0.2474121E-02 Eh
   gradient norm :     0.0142539 Eh/α   predicted    -0.2438128E-02 (  -1.45%)
   displ. norm   :     0.8448766 α      lambda       -0.2718849E-02
   maximum displ.:     0.5810544 α      in ANC's #7, #8, #6, ...

........................................................................
.............................. CYCLE   40 ..............................
........................................................................

 iter      E             dE          RMSdq      gap      omega  full diag
   1   -194.3036372 -0.194304E+03  0.240E-01    0.29       0.0  T
   2   -194.3034043  0.232902E-03  0.140E-01    0.36       1.0  T
   3   -194.3031985  0.205865E-03  0.129E-01    0.27       1.0  T
   4   -194.3038407 -0.642248E-03  0.473E-02    0.33       1.0  T
   5   -194.3038824 -0.416974E-04  0.365E-02    0.31       1.0  T
   6   -194.3039270 -0.445656E-04  0.214E-02    0.30       1.0  T
   7   -194.3039323 -0.529028E-05  0.157E-02    0.31       1.0  T
   8   -194.3039387 -0.643403E-05  0.107E-02    0.31       1.0  T
   9   -194.3039403 -0.162281E-05  0.740E-03    0.32       1.4  T
  10   -194.3039412 -0.864880E-06  0.472E-03    0.31       2.2  T
  11   -194.3039418 -0.619639E-06  0.315E-03    0.31       3.3  T
  12   -194.3039421 -0.276032E-06  0.219E-03    0.31       4.8  T
  13   -194.3039422 -0.150106E-06  0.112E-03    0.31       9.3  T
  14   -194.3039422 -0.338997E-08  0.766E-04    0.31      13.6  T
  15   -194.3039423 -0.297715E-08  0.469E-04    0.31      22.2  T
     SCC iter.                  ...        0 min,  0.443 sec
     gradient                   ...        0 min,  0.048 sec
 * total energy  :  -192.3538843 Eh     change       -0.2289993E-02 Eh
   gradient norm :     0.0117851 Eh/α   predicted    -0.2329811E-02 (   1.74%)
   displ. norm   :     0.8880483 α      lambda       -0.2456123E-02
   maximum displ.:     0.6125617 α      in ANC's #7, #8, #6, ...

........................................................................
.............................. CYCLE   41 ..............................
........................................................................

 iter      E             dE          RMSdq      gap      omega  full diag
   1   -194.2995406 -0.194300E+03  0.262E-01    0.31       0.0  T
   2   -194.2993892  0.151490E-03  0.110E-01    0.31       1.0  T
   3   -194.2987675  0.621664E-03  0.141E-01    0.30       1.0  T
   4   -194.2996136 -0.846155E-03  0.458E-02    0.31       1.0  T
   5   -194.2996267 -0.130076E-04  0.403E-02    0.32       1.0  T
   6   -194.2996963 -0.696189E-04  0.188E-02    0.30       1.0  T
   7   -194.2997049 -0.862822E-05  0.110E-02    0.31       1.0  T
   8   -194.2997068 -0.185779E-05  0.865E-03    0.31       1.2  T
   9   -194.2997084 -0.163312E-05  0.453E-03    0.31       2.3  T
  10   -194.2997078  0.583883E-06  0.399E-03    0.31       2.6  T
  11   -194.2997085 -0.728079E-06  0.205E-03    0.31       5.1  T
  12   -194.2997087 -0.123421E-06  0.134E-03    0.31       7.8  T
  13   -194.2997087 -0.421102E-07  0.894E-04    0.31      11.7  T
  14   -194.2997087  0.494757E-08  0.659E-04    0.31      15.8  T
     SCC iter.                  ...        0 min,  0.381 sec
     gradient                   ...        0 min,  0.050 sec
 * total energy  :  -192.3560880 Eh     change       -0.2203695E-02 Eh
   gradient norm :     0.0101306 Eh/α   predicted    -0.2196554E-02 (  -0.32%)
   displ. norm   :     0.8218125 α      lambda       -0.2332627E-02
   maximum displ.:     0.5603645 α      in ANC's #7, #8, #6, ...

........................................................................
.............................. CYCLE   42 ..............................
........................................................................

 iter      E             dE          RMSdq      gap      omega  full diag
   1   -194.3055235 -0.194306E+03  0.241E-01    0.32       0.0  T
   2   -194.3053403  0.183129E-03  0.109E-01    0.33       1.0  T
   3   -194.3047941  0.546201E-03  0.142E-01    0.28       1.0  T
   4   -194.3056855 -0.891396E-03  0.364E-02    0.32       1.0  T
   5   -194.3056763  0.918132E-05  0.344E-02    0.31       1.0  T
   6   -194.3057117 -0.353339E-04  0.226E-02    0.31       1.0  T
   7   -194.3057284 -0.167170E-04  0.124E-02    0.32       1.0  T
   8   -194.3057288 -0.364401E-06  0.113E-02    0.31       1.0  T
   9   -194.3057318 -0.307637E-05  0.587E-03    0.32       1.8  T
  10   -194.3057319 -0.354651E-07  0.435E-03    0.31       2.4  T
  11   -194.3057326 -0.718139E-06  0.244E-03    0.31       4.3  T
  12   -194.3057328 -0.230843E-06  0.141E-03    0.31       7.4  T
  13   -194.3057328 -0.292920E-07  0.962E-04    0.31      10.8  T
  14   -194.3057329 -0.203505E-08  0.666E-04    0.31      15.6  T
     SCC iter.                  ...        0 min,  0.365 sec
     gradient                   ...        0 min,  0.051 sec
 * total energy  :  -192.3581066 Eh     change       -0.2018609E-02 Eh
   gradient norm :     0.0122914 Eh/α   predicted    -0.1954019E-02 (  -3.20%)
   displ. norm   :     0.8543844 α      lambda       -0.2119892E-02
   maximum displ.:     0.5875679 α      in ANC's #7, #8, #6, ...
 * RMSD in coord.:     1.3246349 α      energy gain  -0.4261652E-01 Eh

generating ANC from exact Hessian ...
Using Lindh-Hessian (1995)
 Shifting diagonal of input Hessian by   1.659016542010113E-002
 Lowest  eigenvalues of input Hessian
    0.010000    0.016016    0.016136    0.016234    0.000000    0.000000
    0.000000    0.000000    0.000000    0.000000    0.016625    0.016690
    0.016707    0.016809    0.016861    0.016997    0.017058    0.017150
 Highest eigenvalues
    2.146334    2.206054    2.237376    2.260884    2.266890    2.318400
 

........................................................................
.............................. CYCLE   43 ..............................
........................................................................

 iter      E             dE          RMSdq      gap      omega  full diag
   1   -194.3036315 -0.194304E+03  0.237E-01    0.30       0.0  T
   2   -194.3033454  0.286133E-03  0.127E-01    0.34       1.0  T
   3   -194.3027629  0.582461E-03  0.156E-01    0.26       1.0  T
   4   -194.3037516 -0.988693E-03  0.425E-02    0.33       1.0  T
   5   -194.3037567 -0.507510E-05  0.408E-02    0.29       1.0  T
   6   -194.3038132 -0.565357E-04  0.230E-02    0.30       1.0  T
   7   -194.3038149 -0.170695E-05  0.191E-02    0.30       1.0  T
   8   -194.3038292 -0.143209E-04  0.991E-03    0.31       1.1  T
   9   -194.3038307 -0.141455E-05  0.739E-03    0.31       1.4  T
  10   -194.3038315 -0.796470E-06  0.489E-03    0.31       2.1  T
  11   -194.3038322 -0.754879E-06  0.323E-03    0.31       3.2  T
  12   -194.3038325 -0.284381E-06  0.213E-03    0.31       4.9  T
  13   -194.3038327 -0.161533E-06  0.108E-03    0.31       9.6  T
  14   -194.3038327 -0.576532E-08  0.757E-04    0.31      13.8  T
  15   -194.3038327 -0.150021E-08  0.629E-04    0.31      16.6  T
     SCC iter.                  ...        0 min,  0.363 sec
     gradient                   ...        0 min,  0.050 sec
 * total energy  :  -192.3599666 Eh     change       -0.1859970E-02 Eh
   gradient norm :     0.0134407 Eh/α   predicted     0.0000000E+00 (-100.00%)
   displ. norm   :     0.1481988 α      lambda       -0.6097392E-03
   maximum displ.:     0.0591692 α      in ANC's #6, #12, #4, ...

........................................................................
.............................. CYCLE   44 ..............................
........................................................................

 iter      E             dE          RMSdq      gap      omega  full diag
   1   -194.3073688 -0.194307E+03  0.780E-02    0.31       0.0  T
   2   -194.3073687  0.565088E-07  0.306E-02    0.31       1.0  T
   3   -194.3073102  0.584908E-04  0.382E-02    0.32       1.0  T
   4   -194.3073750 -0.647452E-04  0.162E-02    0.31       1.0  T
   5   -194.3073765 -0.155155E-05  0.117E-02    0.31       1.0  T
   6   -194.3073825 -0.600218E-05  0.649E-03    0.31       1.6  T
   7   -194.3073834 -0.841372E-06  0.369E-03    0.31       2.8  T
   8   -194.3073836 -0.202331E-06  0.297E-03    0.31       3.5  T
   9   -194.3073839 -0.270996E-06  0.178E-03    0.31       5.9  T
  10   -194.3073839 -0.370399E-07  0.106E-03    0.31       9.9  T
  11   -194.3073839  0.732027E-08  0.919E-04    0.31      11.3  T
  12   -194.3073839 -0.309461E-07  0.516E-04    0.31      20.2  T
     SCC iter.                  ...        0 min,  0.284 sec
     gradient                   ...        0 min,  0.049 sec
 * total energy  :  -192.3604824 Eh     change       -0.5157653E-03 Eh
   gradient norm :     0.0082710 Eh/α   predicted    -0.3115712E-03 ( -39.59%)
   displ. norm   :     0.6378473 α      lambda       -0.2148100E-02
   maximum displ.:     0.2580734 α      in ANC's #6, #12, #4, ...

........................................................................
.............................. CYCLE   45 ..............................
........................................................................

 iter      E             dE          RMSdq      gap      omega  full diag
   1   -194.3141665 -0.194314E+03  0.370E-01    0.31       0.0  T
   2   -194.3143810 -0.214535E-03  0.158E-01    0.31       1.0  T
   3   -194.3142135  0.167503E-03  0.130E-01    0.31       1.0  T
   4   -194.3145522 -0.338687E-03  0.658E-02    0.29       1.0  T
   5   -194.3146182 -0.659853E-04  0.410E-02    0.31       1.0  T
   6   -194.3146261 -0.789281E-05  0.256E-02    0.29       1.0  T
   7   -194.3146446 -0.185169E-04  0.169E-02    0.31       1.0  T
   8   -194.3146532 -0.860983E-05  0.932E-03    0.30       1.1  T
   9   -194.3146538 -0.576778E-06  0.714E-03    0.30       1.5  T
  10   -194.3146549 -0.115600E-05  0.467E-03    0.30       2.2  T
  11   -194.3146554 -0.439776E-06  0.316E-03    0.30       3.3  T
  12   -194.3146558 -0.381685E-06  0.198E-03    0.30       5.3  T
  13   -194.3146559 -0.131395E-06  0.135E-03    0.30       7.7  T
  14   -194.3146559 -0.285531E-07  0.834E-04    0.30      12.5  T
  15   -194.3146559  0.735042E-09  0.599E-04    0.30      17.4  T
     SCC iter.                  ...        0 min,  0.341 sec
     gradient                   ...        0 min,  0.049 sec
 * total energy  :  -192.3608605 Eh     change       -0.3781412E-03 Eh
   gradient norm :     0.0248006 Eh/α   predicted    -0.1511032E-02 ( 299.59%)
   displ. norm   :     0.4303862 α      lambda       -0.2914771E-02
   maximum displ.:     0.1875507 α      in ANC's #1, #6, #12, ...

........................................................................
.............................. CYCLE   46 ..............................
........................................................................

 iter      E             dE          RMSdq      gap      omega  full diag
   1   -194.3148209 -0.194315E+03  0.263E-01    0.30       0.0  T
   2   -194.3146558  0.165108E-03  0.163E-01    0.25       1.0  T
   3   -194.3139098  0.745973E-03  0.172E-01    0.37       1.0  T
   4   -194.3149524 -0.104254E-02  0.842E-02    0.27       1.0  T
   5   -194.3150793 -0.126912E-03  0.544E-02    0.30       1.0  T
   6   -194.3150409  0.383996E-04  0.488E-02    0.27       1.0  T
   7   -194.3151571 -0.116196E-03  0.193E-02    0.28       1.0  T
   8   -194.3151529  0.420086E-05  0.177E-02    0.29       1.0  T
   9   -194.3151700 -0.171157E-04  0.890E-03    0.29       1.2  T
  10   -194.3151719 -0.186306E-05  0.511E-03    0.28       2.0  T
  11   -194.3151723 -0.468621E-06  0.332E-03    0.29       3.1  T
  12   -194.3151726 -0.227622E-06  0.202E-03    0.29       5.2  T
  13   -194.3151727 -0.986053E-07  0.134E-03    0.29       7.8  T
  14   -194.3151727 -0.281497E-07  0.100E-03    0.29      10.4  T
  15   -194.3151727 -0.390273E-08  0.651E-04    0.29      16.0  T
  16   -194.3151727 -0.823059E-08  0.462E-04    0.29      22.6  T
     SCC iter.                  ...        0 min,  0.360 sec
     gradient                   ...        0 min,  0.050 sec
 * total energy  :  -192.3620658 Eh     change       -0.1205321E-02 Eh
   gradient norm :     0.0251245 Eh/α   predicted    -0.1727340E-02 (  43.31%)
   displ. norm   :     0.2279485 α      lambda       -0.1367562E-02
   maximum displ.:     0.0933054 α      in ANC's #6, #12, #10, ...

........................................................................
.............................. CYCLE   47 ..............................
........................................................................

 iter      E             dE          RMSdq      gap      omega  full diag
   1   -194.3141152 -0.194314E+03  0.173E-01    0.29       0.0  T
   2   -194.3141144  0.806975E-06  0.525E-02    0.30       1.0  T
   3   -194.3139406  0.173840E-03  0.610E-02    0.28       1.0  T
   4   -194.3141328 -0.192242E-03  0.265E-02    0.29       1.0  T
   5   -194.3141516 -0.187929E-04  0.168E-02    0.30       1.0  T
   6   -194.3141505  0.116061E-05  0.157E-02    0.29       1.0  T
   7   -194.3141597 -0.919405E-05  0.779E-03    0.29       1.3  T
   8   -194.3141609 -0.120252E-05  0.530E-03    0.29       2.0  T
   9   -194.3141622 -0.129198E-05  0.234E-03    0.29       4.5  T
  10   -194.3141622 -0.869030E-07  0.160E-03    0.29       6.5  T
  11   -194.3141623 -0.274320E-07  0.126E-03    0.29       8.3  T
  12   -194.3141623 -0.553119E-07  0.627E-04    0.29      16.6  T
  13   -194.3141623 -0.619090E-08  0.440E-04    0.29      23.7  T
     SCC iter.                  ...        0 min,  0.328 sec
     gradient                   ...        0 min,  0.050 sec
 * total energy  :  -192.3629832 Eh     change       -0.9173963E-03 Eh
   gradient norm :     0.0158027 Eh/α   predicted    -0.7193123E-03 ( -21.59%)
   displ. norm   :     0.5263379 α      lambda       -0.1578504E-02
   maximum displ.:     0.2387917 α      in ANC's #6, #12, #10, ...

........................................................................
.............................. CYCLE   48 ..............................
........................................................................

 iter      E             dE          RMSdq      gap      omega  full diag
   1   -194.3113042 -0.194311E+03  0.176E-01    0.29       0.0  T
   2   -194.3113186 -0.144364E-04  0.892E-02    0.29       1.0  T
   3   -194.3111465  0.172164E-03  0.831E-02    0.29       1.0  T
   4   -194.3113551 -0.208653E-03  0.392E-02    0.29       1.0  T
   5   -194.3113885 -0.333239E-04  0.272E-02    0.28       1.0  T
   6   -194.3114075 -0.190308E-04  0.187E-02    0.29       1.0  T
   7   -194.3114136 -0.606524E-05  0.122E-02    0.28       1.0  T
   8   -194.3114156 -0.204232E-05  0.950E-03    0.29       1.1  T
   9   -194.3114199 -0.433830E-05  0.449E-03    0.29       2.3  T
  10   -194.3114200 -0.731355E-07  0.294E-03    0.29       3.5  T
  11   -194.3114200 -0.964658E-08  0.236E-03    0.29       4.4  T
  12   -194.3114202 -0.180449E-06  0.144E-03    0.29       7.2  T
  13   -194.3114203 -0.802430E-07  0.830E-04    0.29      12.6  T
  14   -194.3114203 -0.260960E-08  0.565E-04    0.29      18.4  T
     SCC iter.                  ...        0 min,  0.340 sec
     gradient                   ...        0 min,  0.049 sec
 * total energy  :  -192.3640548 Eh     change       -0.1071542E-02 Eh
   gradient norm :     0.0118486 Eh/α   predicted    -0.1007901E-02 (  -5.94%)
   displ. norm   :     0.6839648 α      lambda       -0.1672352E-02
   maximum displ.:     0.3192152 α      in ANC's #6, #12, #10, ...

........................................................................
.............................. CYCLE   49 ..............................
........................................................................

 iter      E             dE          RMSdq      gap      omega  full diag
   1   -194.3083327 -0.194308E+03  0.244E-01    0.30       0.0  T
   2   -194.3072221  0.111069E-02  0.169E-01    0.22       1.0  T
   3   -194.3060932  0.112889E-02  0.212E-01    0.40       1.0  T
   4   -194.3083867 -0.229358E-02  0.672E-02    0.30       1.0  T
   5   -194.3085101 -0.123369E-03  0.328E-02    0.29       1.0  T
   6   -194.3084653  0.448190E-04  0.396E-02    0.26       1.0  T
   7   -194.3085578 -0.925094E-04  0.162E-02    0.27       1.0  T
   8   -194.3085527  0.506918E-05  0.147E-02    0.28       1.0  T
   9   -194.3085684 -0.156632E-04  0.612E-03    0.27       1.7  T
  10   -194.3085683  0.109302E-06  0.486E-03    0.28       2.1  T
  11   -194.3085690 -0.750069E-06  0.309E-03    0.27       3.4  T
  12   -194.3085692 -0.162433E-06  0.197E-03    0.27       5.3  T
  13   -194.3085693 -0.131162E-06  0.124E-03    0.27       8.4  T
  14   -194.3085694 -0.390233E-07  0.843E-04    0.27      12.4  T
  15   -194.3085694  0.186242E-08  0.650E-04    0.27      16.1  T
     SCC iter.                  ...        0 min,  0.365 sec
     gradient                   ...        0 min,  0.049 sec
 * total energy  :  -192.3653671 Eh     change       -0.1312293E-02 Eh
   gradient norm :     0.0105442 Eh/α   predicted    -0.1227351E-02 (  -6.47%)
   displ. norm   :     0.7423995 α      lambda       -0.1508662E-02
   maximum displ.:     0.3605454 α      in ANC's #6, #12, #10, ...

........................................................................
.............................. CYCLE   50 ..............................
........................................................................

 iter      E             dE          RMSdq      gap      omega  full diag
   1   -194.3059650 -0.194306E+03  0.214E-01    0.27       0.0  T
   2   -194.3051977  0.767318E-03  0.160E-01    0.22       1.0  T
   3   -194.3044910  0.706674E-03  0.169E-01    0.36       1.0  T
   4   -194.3059800 -0.148893E-02  0.717E-02    0.25       1.0  T
   5   -194.3061020 -0.122006E-03  0.357E-02    0.27       1.0  T
   6   -194.3060904  0.115707E-04  0.361E-02    0.24       1.0  T
   7   -194.3061613 -0.709374E-04  0.182E-02    0.25       1.0  T
   8   -194.3061695 -0.813313E-05  0.137E-02    0.26       1.0  T
   9   -194.3061833 -0.138116E-04  0.647E-03    0.26       1.6  T
  10   -194.3061828  0.470846E-06  0.519E-03    0.26       2.0  T
  11   -194.3061836 -0.791048E-06  0.336E-03    0.26       3.1  T
  12   -194.3061839 -0.241251E-06  0.214E-03    0.26       4.9  T
  13   -194.3061841 -0.197848E-06  0.139E-03    0.26       7.5  T
  14   -194.3061841 -0.332971E-07  0.985E-04    0.26      10.6  T
  15   -194.3061841  0.568957E-08  0.807E-04    0.26      12.9  T
     SCC iter.                  ...        0 min,  0.371 sec
     gradient                   ...        0 min,  0.049 sec
 * total energy  :  -192.3666685 Eh     change       -0.1301400E-02 Eh
   gradient norm :     0.0102523 Eh/α   predicted    -0.1170088E-02 ( -10.09%)
   displ. norm   :     0.7727546 α      lambda       -0.1621103E-02
   maximum displ.:     0.3954799 α      in ANC's #6, #12, #4, ...

........................................................................
.............................. CYCLE   51 ..............................
........................................................................

 iter      E             dE          RMSdq      gap      omega  full diag
   1   -194.3086108 -0.194309E+03  0.246E-01    0.28       0.0  T
   2   -194.3016415  0.696931E-02  0.269E-01    0.16       1.0  T
   3   -194.3049007 -0.325919E-02  0.237E-01    0.45       1.0  T
   4   -194.3079687 -0.306802E-02  0.129E-01    0.35       1.0  T
   5   -194.3085389 -0.570185E-03  0.715E-02    0.31       1.0  T
   6   -194.3090741 -0.535218E-03  0.478E-02    0.26       1.0  T
   7   -194.3090816 -0.741998E-05  0.376E-02    0.24       1.0  T
   8   -194.3091054 -0.238660E-04  0.186E-02    0.26       1.0  T
   9   -194.3091161 -0.106520E-04  0.120E-02    0.24       1.0  T
  10   -194.3091262 -0.100981E-04  0.753E-03    0.25       1.4  T
  11   -194.3091266 -0.400432E-06  0.584E-03    0.25       1.8  T
  12   -194.3091274 -0.789868E-06  0.412E-03    0.25       2.5  T
  13   -194.3091274 -0.512225E-07  0.271E-03    0.25       3.8  T
  14   -194.3091278 -0.400106E-06  0.163E-03    0.25       6.4  T
  15   -194.3091278 -0.116293E-07  0.118E-03    0.25       8.9  T
  16   -194.3091279 -0.331476E-07  0.801E-04    0.25      13.0  T
  17   -194.3091279  0.104873E-08  0.557E-04    0.25      18.7  T
     SCC iter.                  ...        0 min,  0.397 sec
     gradient                   ...        0 min,  0.049 sec
 * total energy  :  -192.3678824 Eh     change       -0.1213965E-02 Eh
   gradient norm :     0.0093846 Eh/α   predicted    -0.1294572E-02 (   6.64%)
   displ. norm   :     0.7671684 α      lambda       -0.1413006E-02
   maximum displ.:     0.4062006 α      in ANC's #6, #12, #4, ...

........................................................................
.............................. CYCLE   52 ..............................
........................................................................

 iter      E             dE          RMSdq      gap      omega  full diag
   1   -194.3116568 -0.194312E+03  0.224E-01    0.25       0.0  T
   2   -194.3071097  0.454707E-02  0.224E-01    0.16       1.0  T
   3   -194.3078890 -0.779323E-03  0.221E-01    0.43       1.0  T
   4   -194.3112116 -0.332263E-02  0.115E-01    0.30       1.0  T
   5   -194.3116311 -0.419458E-03  0.595E-02    0.28       1.0  T
   6   -194.3119924 -0.361264E-03  0.395E-02    0.24       1.0  T
   7   -194.3120104 -0.180030E-04  0.273E-02    0.23       1.0  T
   8   -194.3120014  0.896362E-05  0.184E-02    0.24       1.0  T
   9   -194.3120302 -0.287983E-04  0.828E-03    0.23       1.3  T
  10   -194.3120342 -0.399074E-05  0.609E-03    0.23       1.7  T
  11   -194.3120349 -0.701097E-06  0.431E-03    0.23       2.4  T
  12   -194.3120351 -0.218988E-06  0.312E-03    0.23       3.3  T
  13   -194.3120351 -0.122735E-07  0.223E-03    0.23       4.7  T
  14   -194.3120355 -0.387915E-06  0.120E-03    0.23       8.7  T
  15   -194.3120355 -0.977403E-08  0.905E-04    0.23      11.5  T
  16   -194.3120355 -0.104927E-07  0.666E-04    0.23      15.7  T
     SCC iter.                  ...        0 min,  0.363 sec
     gradient                   ...        0 min,  0.049 sec
 * total energy  :  -192.3690905 Eh     change       -0.1208112E-02 Eh
   gradient norm :     0.0079665 Eh/α   predicted    -0.1122320E-02 (  -7.10%)
   displ. norm   :     0.8199847 α      lambda       -0.1310733E-02
   maximum displ.:     0.4520421 α      in ANC's #6, #12, #10, ...

........................................................................
.............................. CYCLE   53 ..............................
........................................................................

 iter      E             dE          RMSdq      gap      omega  full diag
   1   -194.3139224 -0.194314E+03  0.225E-01    0.25       0.0  T
   2   -194.3029342  0.109882E-01  0.289E-01    0.13       1.0  T
   3   -194.3093912 -0.645707E-02  0.232E-01    0.44       1.0  T
   4   -194.3128671 -0.347591E-02  0.129E-01    0.34       1.0  T
   5   -194.3134322 -0.565084E-03  0.824E-02    0.29       1.0  T
   6   -194.3141628 -0.730590E-03  0.558E-02    0.25       1.0  T
   7   -194.3142951 -0.132252E-03  0.387E-02    0.23       1.0  T
   8   -194.3143250 -0.299166E-04  0.175E-02    0.23       1.0  T
   9   -194.3143457 -0.207031E-04  0.102E-02    0.21       1.0  T
  10   -194.3143520 -0.626227E-05  0.648E-03    0.22       1.6  T
  11   -194.3143521 -0.169375E-06  0.526E-03    0.22       2.0  T
  12   -194.3143530 -0.833937E-06  0.340E-03    0.22       3.1  T
  13   -194.3143529  0.978557E-08  0.229E-03    0.22       4.5  T
  14   -194.3143531 -0.178920E-06  0.152E-03    0.22       6.9  T
  15   -194.3143532 -0.672896E-07  0.956E-04    0.22      10.9  T
  16   -194.3143532 -0.140751E-07  0.672E-04    0.22      15.5  T
     SCC iter.                  ...        0 min,  0.375 sec
     gradient                   ...        0 min,  0.051 sec
 * total energy  :  -192.3702774 Eh     change       -0.1186848E-02 Eh
   gradient norm :     0.0066263 Eh/α   predicted    -0.1096021E-02 (  -7.65%)
   displ. norm   :     0.8316356 α      lambda       -0.1290144E-02
   maximum displ.:     0.4945928 α      in ANC's #6, #12, #13, ...

........................................................................
.............................. CYCLE   54 ..............................
........................................................................

 iter      E             dE          RMSdq      gap      omega  full diag
   1   -194.3201343 -0.194320E+03  0.229E-01    0.24       0.0  T
   2   -194.2858350  0.342992E-01  0.463E-01    0.10       1.0  T
   3   -194.3169392 -0.311042E-01  0.196E-01    0.39       1.0  T
   4   -194.3196438 -0.270455E-02  0.124E-01    0.29       1.0  T
   5   -194.3197271 -0.833427E-04  0.845E-02    0.28       1.0  T
   6   -194.3203469 -0.619762E-03  0.667E-02    0.25       1.0  T
   7   -194.3205063 -0.159376E-03  0.485E-02    0.23       1.0  T
   8   -194.3206802 -0.173917E-03  0.194E-02    0.22       1.0  T
   9   -194.3207146 -0.344014E-04  0.863E-03    0.21       1.2  T
  10   -194.3207172 -0.259332E-05  0.635E-03    0.21       1.6  T
  11   -194.3207180 -0.779879E-06  0.486E-03    0.21       2.1  T
  12   -194.3207189 -0.911172E-06  0.307E-03    0.21       3.4  T
  13   -194.3207189  0.103211E-07  0.247E-03    0.21       4.2  T
  14   -194.3207192 -0.368957E-06  0.153E-03    0.21       6.8  T
  15   -194.3207194 -0.152738E-06  0.817E-04    0.21      12.8  T
  16   -194.3207194 -0.122313E-07  0.568E-04    0.21      18.4  T
     SCC iter.                  ...        0 min,  0.376 sec
     gradient                   ...        0 min,  0.051 sec
 * total energy  :  -192.3714331 Eh     change       -0.1155765E-02 Eh
   gradient norm :     0.0067077 Eh/α   predicted    -0.1091223E-02 (  -5.58%)
   displ. norm   :     0.8948172 α      lambda       -0.1259032E-02
   maximum displ.:     0.5333675 α      in ANC's #6, #12, #13, ...

........................................................................
.............................. CYCLE   55 ..............................
........................................................................

 iter      E             dE          RMSdq      gap      omega  full diag
   1   -194.3154992 -0.194315E+03  0.240E-01    0.22       0.0  T
   2   -194.2678155  0.476838E-01  0.540E-01    0.08       1.0  T
   3   -194.3122116 -0.443961E-01  0.195E-01    0.37       1.0  T
   4   -194.3149530 -0.274140E-02  0.131E-01    0.27       1.0  T
   5   -194.3148613  0.916573E-04  0.912E-02    0.27       1.0  T
   6   -194.3155574 -0.696087E-03  0.707E-02    0.24       1.0  T
   7   -194.3157660 -0.208540E-03  0.485E-02    0.22       1.0  T
   8   -194.3159939 -0.227948E-03  0.240E-02    0.20       1.0  T
   9   -194.3160446 -0.506397E-04  0.118E-02    0.20       1.0  T
  10   -194.3160553 -0.107560E-04  0.723E-03    0.20       1.4  T
  11   -194.3160574 -0.208358E-05  0.504E-03    0.19       2.1  T
  12   -194.3160588 -0.145765E-05  0.275E-03    0.19       3.8  T
  13   -194.3160583  0.549051E-06  0.282E-03    0.19       3.7  T
  14   -194.3160588 -0.482163E-06  0.198E-03    0.19       5.3  T
  15   -194.3160592 -0.413164E-06  0.859E-04    0.19      12.1  T
  16   -194.3160592 -0.398849E-07  0.490E-04    0.19      21.3  T
     SCC iter.                  ...        0 min,  0.367 sec
     gradient                   ...        0 min,  0.050 sec
 * total energy  :  -192.3725687 Eh     change       -0.1135582E-02 Eh
   gradient norm :     0.0082489 Eh/α   predicted    -0.1133569E-02 (  -0.18%)
   displ. norm   :     0.8400162 α      lambda       -0.1358697E-02
   maximum displ.:     0.5633534 α      in ANC's #6, #12, #13, ...

........................................................................
.............................. CYCLE   56 ..............................
........................................................................

 iter      E             dE          RMSdq      gap      omega  full diag
   1   -194.3219496 -0.194322E+03  0.254E-01    0.21       0.0  T
   2   -194.2004083  0.121541E+00  0.850E-01    0.06       1.0  T
   3   -194.3197468 -0.119339E+00  0.174E-01    0.31       1.0  T
   4   -194.3208998 -0.115301E-02  0.145E-01    0.23       1.0  T
   5   -194.3217271 -0.827242E-03  0.975E-02    0.23       1.0  T
   6   -194.3218819 -0.154881E-03  0.741E-02    0.23       1.0  T
   7   -194.3223879 -0.505998E-03  0.547E-02    0.21       1.0  T
   8   -194.3225578 -0.169869E-03  0.303E-02    0.20       1.0  T
   9   -194.3226580 -0.100151E-03  0.169E-02    0.19       1.0  T
  10   -194.3226890 -0.310788E-04  0.840E-03    0.18       1.2  T
  11   -194.3226941 -0.503434E-05  0.498E-03    0.18       2.1  T
  12   -194.3226972 -0.309331E-05  0.174E-03    0.18       6.0  T
  13   -194.3226963  0.909983E-06  0.267E-03    0.18       3.9  T
  14   -194.3226965 -0.240884E-06  0.240E-03    0.18       4.3  T
  15   -194.3226971 -0.621304E-06  0.133E-03    0.18       7.8  T
  16   -194.3226973 -0.133524E-06  0.771E-04    0.18      13.5  T
  17   -194.3226973 -0.589154E-07  0.311E-04    0.18      33.5  T
     SCC iter.                  ...        0 min,  0.416 sec
     gradient                   ...        0 min,  0.049 sec
 * total energy  :  -192.3737981 Eh     change       -0.1229416E-02 Eh
   gradient norm :     0.0087588 Eh/α   predicted    -0.1158721E-02 (  -5.75%)
   displ. norm   :     0.8627551 α      lambda       -0.1395110E-02
   maximum displ.:     0.5935454 α      in ANC's #6, #12, #13, ...

........................................................................
.............................. CYCLE   57 ..............................
........................................................................

 iter      E             dE          RMSdq      gap      omega  full diag
   1   -194.3230205 -0.194323E+03  0.264E-01    0.19       0.0  T
   2   -194.2051320  0.117889E+00  0.841E-01    0.05       1.0  T
   3   -194.3192562 -0.114124E+00  0.203E-01    0.32       1.0  T
   4   -194.3215959 -0.233964E-02  0.160E-01    0.22       1.0  T
   5   -194.3222968 -0.700913E-03  0.111E-01    0.23       1.0  T
   6   -194.3225146 -0.217858E-03  0.892E-02    0.22       1.0  T
   7   -194.3232534 -0.738740E-03  0.644E-02    0.20       1.0  T
   8   -194.3235618 -0.308416E-03  0.317E-02    0.18       1.0  T
   9   -194.3236904 -0.128583E-03  0.133E-02    0.17       1.0  T
  10   -194.3237112 -0.208473E-04  0.517E-03    0.17       2.0  T
  11   -194.3237121 -0.917692E-06  0.367E-03    0.17       2.8  T
  12   -194.3237116  0.565021E-06  0.340E-03    0.16       3.1  T
  13   -194.3237099  0.163808E-05  0.434E-03    0.16       2.4  T
  14   -194.3237109 -0.935907E-06  0.357E-03    0.16       2.9  T
  15   -194.3237123 -0.140349E-05  0.187E-03    0.16       5.6  T
  16   -194.3237126 -0.333241E-06  0.695E-04    0.16      15.0  T
  17   -194.3237125  0.578988E-07  0.754E-04    0.17      13.8  T
     SCC iter.                  ...        0 min,  0.451 sec
     gradient                   ...        0 min,  0.049 sec
 * total energy  :  -192.3751329 Eh     change       -0.1334714E-02 Eh
   gradient norm :     0.0088226 Eh/α   predicted    -0.1216781E-02 (  -8.84%)
   displ. norm   :     0.8655549 α      lambda       -0.1657749E-02
   maximum displ.:     0.6264542 α      in ANC's #6, #5, #12, ...

........................................................................
.............................. CYCLE   58 ..............................
........................................................................

 iter      E             dE          RMSdq      gap      omega  full diag
   1   -194.3267470 -0.194327E+03  0.320E-01    0.18       0.0  T
   2   -194.0639589  0.262788E+00  0.126E+00    0.06       1.0  T
   3   -194.3219296 -0.257971E+00  0.237E-01    0.32       1.0  T
   4   -194.3239529 -0.202331E-02  0.204E-01    0.22       1.0  T
   5   -194.3258670 -0.191413E-02  0.133E-01    0.22       1.0  T
   6   -194.3259138 -0.467325E-04  0.112E-01    0.22       1.0  T
   7   -194.3270018 -0.108806E-02  0.824E-02    0.19       1.0  T
   8   -194.3274504 -0.448593E-03  0.480E-02    0.17       1.0  T
   9   -194.3277417 -0.291253E-03  0.210E-02    0.16       1.0  T
  10   -194.3277957 -0.540025E-04  0.728E-03    0.15       1.4  T
  11   -194.3277927  0.291256E-05  0.817E-03    0.15       1.3  T
  12   -194.3277837  0.903828E-05  0.103E-02    0.15       1.0  T
  13   -194.3277833  0.447044E-06  0.987E-03    0.15       1.1  T
  14   -194.3277899 -0.659566E-05  0.741E-03    0.15       1.4  T
  15   -194.3277958 -0.599359E-05  0.376E-03    0.15       2.8  T
  16   -194.3277975 -0.168212E-05  0.830E-04    0.15      12.6  T
  17   -194.3277972  0.365475E-06  0.161E-03    0.15       6.5  T
  18   -194.3277973 -0.156225E-06  0.123E-03    0.15       8.5  T
  19   -194.3277975 -0.200238E-06  0.467E-04    0.15      22.3  T
  20   -194.3277975 -0.235435E-07  0.136E-04    0.15      76.5  T
     SCC iter.                  ...        0 min,  0.460 sec
     gradient                   ...        0 min,  0.048 sec
 * total energy  :  -192.3766630 Eh     change       -0.1530173E-02 Eh
   gradient norm :     0.0109114 Eh/α   predicted    -0.1449863E-02 (  -5.25%)
   displ. norm   :     0.8941429 α      lambda       -0.1709047E-02
   maximum displ.:     0.6487304 α      in ANC's #6, #12, #5, ...

........................................................................
.............................. CYCLE   59 ..............................
........................................................................

 iter      E             dE          RMSdq      gap      omega  full diag
   1   -194.3229412 -0.194323E+03  0.318E-01    0.17       0.0  T
   2   -193.9197900  0.403151E+00  0.156E+00    0.09       1.0  T
   3   -194.3191959 -0.399406E+00  0.215E-01    0.26       1.0  T
   4   -194.3199475 -0.751610E-03  0.203E-01    0.20       1.0  T
   5   -194.3226893 -0.274180E-02  0.113E-01    0.19       1.0  T
   6   -194.3224864  0.202919E-03  0.102E-01    0.19       1.0  T
   7   -194.3235829 -0.109652E-02  0.652E-02    0.17       1.0  T
   8   -194.3238184 -0.235439E-03  0.406E-02    0.16       1.0  T
   9   -194.3240252 -0.206772E-03  0.181E-02    0.15       1.0  T
  10   -194.3240651 -0.399785E-04  0.599E-03    0.14       1.7  T
  11   -194.3240645  0.625134E-06  0.588E-03    0.14       1.8  T
  12   -194.3240562  0.831847E-05  0.886E-03    0.14       1.2  T
  13   -194.3240538  0.238067E-05  0.922E-03    0.14       1.1  T
  14   -194.3240601 -0.626286E-05  0.669E-03    0.14       1.6  T
  15   -194.3240652 -0.509797E-05  0.322E-03    0.14       3.2  T
  16   -194.3240664 -0.123860E-05  0.659E-04    0.14      15.8  T
  17   -194.3240660  0.374956E-06  0.159E-03    0.14       6.5  T
  18   -194.3240662 -0.189797E-06  0.116E-03    0.14       9.0  T
  19   -194.3240664 -0.153589E-06  0.550E-04    0.14      19.0  T
  20   -194.3240664 -0.372995E-07  0.168E-04    0.14      62.1  T
     SCC iter.                  ...        0 min,  0.472 sec
     gradient                   ...        0 min,  0.049 sec
 * total energy  :  -192.3783013 Eh     change       -0.1638248E-02 Eh
   gradient norm :     0.0126230 Eh/α   predicted    -0.1537712E-02 (  -6.14%)
   displ. norm   :     0.8293063 α      lambda       -0.1966882E-02
   maximum displ.:     0.6098810 α      in ANC's #6, #5, #15, ...

........................................................................
.............................. CYCLE   60 ..............................
........................................................................

 iter      E             dE          RMSdq      gap      omega  full diag
   1   -194.3243690 -0.194324E+03  0.326E-01    0.17       0.0  T
   2   -193.7815376  0.542831E+00  0.181E+00    0.14       1.0  T
   3   -194.3205921 -0.539055E+00  0.218E-01    0.25       1.0  T
   4   -194.3213235 -0.731410E-03  0.207E-01    0.20       1.0  T
   5   -194.3240705 -0.274699E-02  0.124E-01    0.18       1.0  T
   6   -194.3238475  0.223039E-03  0.114E-01    0.19       1.0  T
   7   -194.3252602 -0.141269E-02  0.705E-02    0.16       1.0  T
   8   -194.3255978 -0.337628E-03  0.413E-02    0.15       1.0  T
   9   -194.3258263 -0.228512E-03  0.151E-02    0.14       1.0  T
  10   -194.3258415 -0.151762E-04  0.949E-03    0.13       1.1  T
  11   -194.3258381  0.336597E-05  0.108E-02    0.13       1.0  T
  12   -194.3258338  0.432681E-05  0.113E-02    0.13       1.0  T
  13   -194.3258399 -0.606477E-05  0.890E-03    0.13       1.2  T
  14   -194.3258470 -0.708859E-05  0.559E-03    0.13       1.9  T
  15   -194.3258505 -0.356811E-05  0.255E-03    0.13       4.1  T
  16   -194.3258511 -0.548264E-06  0.124E-03    0.13       8.4  T
  17   -194.3258505  0.611762E-06  0.229E-03    0.13       4.6  T
  18   -194.3258509 -0.464534E-06  0.148E-03    0.13       7.1  T
  19   -194.3258512 -0.261827E-06  0.554E-04    0.13      18.8  T
  20   -194.3258512 -0.377003E-07  0.112E-04    0.13      92.7  T
     SCC iter.                  ...        0 min,  0.458 sec
     gradient                   ...        0 min,  0.050 sec
 * total energy  :  -192.3799964 Eh     change       -0.1695072E-02 Eh
   gradient norm :     0.0150681 Eh/α   predicted    -0.1659807E-02 (  -2.08%)
   displ. norm   :     0.8528357 α      lambda       -0.1830415E-02
   maximum displ.:     0.6307087 α      in ANC's #6, #12, #5, ...

........................................................................
.............................. CYCLE   61 ..............................
........................................................................

 iter      E             dE          RMSdq      gap      omega  full diag
   1   -194.3165231 -0.194317E+03  0.304E-01    0.17       0.0  T
   2   -193.7288641  0.587659E+00  0.189E+00    0.18       1.0  T
   3   -194.3147542 -0.585890E+00  0.177E-01    0.20       1.0  T
   4   -194.3149868 -0.232585E-03  0.159E-01    0.18       1.0  T
   5   -194.3173322 -0.234535E-02  0.855E-02    0.15       1.0  T
   6   -194.3174343 -0.102071E-03  0.679E-02    0.15       1.0  T
   7   -194.3180905 -0.656249E-03  0.224E-02    0.13       1.0  T
   8   -194.3181090 -0.185027E-04  0.119E-02    0.13       1.0  T
   9   -194.3181206 -0.115533E-04  0.775E-03    0.13       1.3  T
  10   -194.3181206 -0.676540E-07  0.700E-03    0.13       1.5  T
  11   -194.3181256 -0.495712E-05  0.377E-03    0.13       2.8  T
  12   -194.3181258 -0.209183E-06  0.290E-03    0.13       3.6  T
  13   -194.3181262 -0.394311E-06  0.213E-03    0.13       4.9  T
  14   -194.3181267 -0.504189E-06  0.932E-04    0.13      11.2  T
  15   -194.3181267 -0.344229E-07  0.627E-04    0.13      16.6  T
     SCC iter.                  ...        0 min,  0.347 sec
     gradient                   ...        0 min,  0.051 sec
 * total energy  :  -192.3817012 Eh     change       -0.1704821E-02 Eh
   gradient norm :     0.0134790 Eh/α   predicted    -0.1580866E-02 (  -7.27%)
   displ. norm   :     0.7504850 α      lambda       -0.1938486E-02
   maximum displ.:     0.5799577 α      in ANC's #6, #5, #15, ...

........................................................................
.............................. CYCLE   62 ..............................
........................................................................

 iter      E             dE          RMSdq      gap      omega  full diag
   1   -194.3196546 -0.194320E+03  0.274E-01    0.17       0.0  T
   2   -193.7121424  0.607512E+00  0.192E+00    0.20       1.0  T
   3   -194.3186758 -0.606533E+00  0.155E-01    0.19       1.0  T
   4   -194.3194856 -0.809868E-03  0.115E-01    0.17       1.0  T
   5   -194.3208706 -0.138499E-02  0.734E-02    0.15       1.0  T
   6   -194.3209336 -0.630331E-04  0.576E-02    0.14       1.0  T
   7   -194.3213651 -0.431443E-03  0.224E-02    0.13       1.0  T
   8   -194.3214204 -0.553174E-04  0.953E-03    0.13       1.1  T
   9   -194.3214185  0.193323E-05  0.822E-03    0.12       1.3  T
  10   -194.3214201 -0.161742E-05  0.708E-03    0.12       1.5  T
  11   -194.3214194  0.706550E-06  0.652E-03    0.12       1.6  T
  12   -194.3214253 -0.589762E-05  0.162E-03    0.13       6.4  T
  13   -194.3214253  0.106274E-07  0.116E-03    0.13       9.0  T
  14   -194.3214253 -0.685778E-07  0.719E-04    0.13      14.5  T
  15   -194.3214253  0.355237E-07  0.771E-04    0.13      13.5  T
     SCC iter.                  ...        0 min,  0.361 sec
     gradient                   ...        0 min,  0.050 sec
 * total energy  :  -192.3834201 Eh     change       -0.1718941E-02 Eh
   gradient norm :     0.0107924 Eh/α   predicted    -0.1515149E-02 ( -11.86%)
   displ. norm   :     0.7889847 α      lambda       -0.1849045E-02
   maximum displ.:     0.6108053 α      in ANC's #6, #5, #12, ...

........................................................................
.............................. CYCLE   63 ..............................
........................................................................

 iter      E             dE          RMSdq      gap      omega  full diag
   1   -194.3219738 -0.194322E+03  0.266E-01    0.15       0.0  T
   2   -193.8211466  0.500827E+00  0.176E+00    0.12       1.0  T
   3   -194.3184515 -0.497305E+00  0.183E-01    0.21       1.0  T
   4   -194.3222416 -0.379013E-02  0.104E-01    0.15       1.0  T
   5   -194.3208162  0.142545E-02  0.117E-01    0.17       1.0  T
   6   -194.3223458 -0.152958E-02  0.707E-02    0.15       1.0  T
   7   -194.3226809 -0.335111E-03  0.448E-02    0.14       1.0  T
   8   -194.3229257 -0.244861E-03  0.174E-02    0.13       1.0  T
   9   -194.3229651 -0.393187E-04  0.586E-03    0.12       1.8  T
  10   -194.3229611  0.392671E-05  0.678E-03    0.12       1.5  T
  11   -194.3229627 -0.158196E-05  0.578E-03    0.12       1.8  T
  12   -194.3229651 -0.238303E-05  0.347E-03    0.12       3.0  T
  13   -194.3229661 -0.105006E-05  0.195E-03    0.12       5.4  T
  14   -194.3229666 -0.432559E-06  0.843E-04    0.12      12.4  T
  15   -194.3229666  0.121804E-07  0.748E-04    0.12      13.9  T
     SCC iter.                  ...        0 min,  0.345 sec
     gradient                   ...        0 min,  0.050 sec
 * total energy  :  -192.3851275 Eh     change       -0.1707434E-02 Eh
   gradient norm :     0.0116517 Eh/α   predicted    -0.1500040E-02 ( -12.15%)
   displ. norm   :     0.7826036 α      lambda       -0.1889354E-02
   maximum displ.:     0.6130606 α      in ANC's #6, #5, #12, ...

........................................................................
.............................. CYCLE   64 ..............................
........................................................................

 iter      E             dE          RMSdq      gap      omega  full diag
   1   -194.3272407 -0.194327E+03  0.250E-01    0.15       0.0  T
   2   -193.8422249  0.485016E+00  0.173E+00    0.11       1.0  T
   3   -194.3250024 -0.482778E+00  0.157E-01    0.19       1.0  T
   4   -194.3272390 -0.223657E-02  0.987E-02    0.15       1.0  T
   5   -194.3266360  0.602986E-03  0.101E-01    0.16       1.0  T
   6   -194.3277756 -0.113962E-02  0.541E-02    0.14       1.0  T
   7   -194.3280490 -0.273420E-03  0.285E-02    0.13       1.0  T
   8   -194.3281508 -0.101786E-03  0.111E-02    0.12       1.0  T
   9   -194.3281598 -0.901045E-05  0.633E-03    0.12       1.6  T
  10   -194.3281598 -0.584475E-08  0.542E-03    0.12       1.9  T
  11   -194.3281587  0.117614E-05  0.530E-03    0.12       2.0  T
  12   -194.3281615 -0.282633E-05  0.264E-03    0.12       4.0  T
  13   -194.3281620 -0.470182E-06  0.151E-03    0.12       6.9  T
  14   -194.3281620  0.238742E-10  0.122E-03    0.12       8.6  T
  15   -194.3281616  0.398139E-06  0.181E-03    0.12       5.8  T
  16   -194.3281619 -0.345390E-06  0.109E-03    0.12       9.6  T
  17   -194.3281619  0.122646E-07  0.972E-04    0.12      10.7  T
  18   -194.3281620 -0.977819E-07  0.500E-04    0.12      20.9  T
     SCC iter.                  ...        0 min,  0.415 sec
     gradient                   ...        0 min,  0.050 sec
 * total energy  :  -192.3868903 Eh     change       -0.1762705E-02 Eh
   gradient norm :     0.0119010 Eh/α   predicted    -0.1523263E-02 ( -13.58%)
   displ. norm   :     0.8133292 α      lambda       -0.1990687E-02
   maximum displ.:     0.6345960 α      in ANC's #6, #5, #12, ...

........................................................................
.............................. CYCLE   65 ..............................
........................................................................

 iter      E             dE          RMSdq      gap      omega  full diag
   1   -194.3316402 -0.194332E+03  0.252E-01    0.13       0.0  T
   2   -194.2006510  0.130989E+00  0.908E-01    0.01       1.0  T
   3   -194.3241292 -0.123478E+00  0.232E-01    0.28       1.0  T
   4   -194.3302590 -0.612982E-02  0.173E-01    0.17       1.0  T
   5   -194.3284541  0.180490E-02  0.154E-01    0.20       1.0  T
   6   -194.3298494 -0.139529E-02  0.125E-01    0.17       1.0  T
   7   -194.3309313 -0.108195E-02  0.856E-02    0.15       1.0  T
   8   -194.3318777 -0.946368E-03  0.225E-02    0.13       1.0  T
   9   -194.3319374 -0.597414E-04  0.985E-03    0.12       1.1  T
  10   -194.3319304  0.701313E-05  0.109E-02    0.12       1.0  T
  11   -194.3319425 -0.120556E-04  0.527E-03    0.12       2.0  T
  12   -194.3319444 -0.192082E-05  0.300E-03    0.12       3.5  T
  13   -194.3319442  0.139253E-06  0.254E-03    0.12       4.1  T
  14   -194.3319446 -0.303484E-06  0.155E-03    0.12       6.7  T
  15   -194.3319446 -0.441544E-07  0.114E-03    0.12       9.1  T
  16   -194.3319446 -0.404549E-07  0.665E-04    0.12      15.7  T
  17   -194.3319446  0.180529E-07  0.623E-04    0.12      16.7  T
     SCC iter.                  ...        0 min,  0.420 sec
     gradient                   ...        0 min,  0.051 sec
 * total energy  :  -192.3887836 Eh     change       -0.1893374E-02 Eh
   gradient norm :     0.0110203 Eh/α   predicted    -0.1653771E-02 ( -12.65%)
   displ. norm   :     0.8501637 α      lambda       -0.2139342E-02
   maximum displ.:     0.6589948 α      in ANC's #6, #5, #12, ...

........................................................................
.............................. CYCLE   66 ..............................
........................................................................

 iter      E             dE          RMSdq      gap      omega  full diag
   1   -194.3340299 -0.194334E+03  0.251E-01    0.14       0.0  T
   2   -194.2029245  0.131105E+00  0.907E-01    0.01       1.0  T
   3   -194.3274548 -0.124530E+00  0.219E-01    0.27       1.0  T
   4   -194.3326933 -0.523848E-02  0.162E-01    0.17       1.0  T
   5   -194.3311465  0.154677E-02  0.148E-01    0.19       1.0  T
   6   -194.3325082 -0.136167E-02  0.117E-01    0.17       1.0  T
   7   -194.3335312 -0.102301E-02  0.775E-02    0.15       1.0  T
   8   -194.3342499 -0.718721E-03  0.257E-02    0.13       1.0  T
   9   -194.3343386 -0.886579E-04  0.720E-03    0.12       1.4  T
  10   -194.3343328  0.574868E-05  0.836E-03    0.12       1.2  T
  11   -194.3343377 -0.490421E-05  0.522E-03    0.12       2.0  T
  12   -194.3343394 -0.164773E-05  0.307E-03    0.12       3.4  T
  13   -194.3343397 -0.364889E-06  0.201E-03    0.12       5.2  T
  14   -194.3343398 -0.316917E-07  0.150E-03    0.12       7.0  T
  15   -194.3343398 -0.490003E-07  0.110E-03    0.12       9.5  T
  16   -194.3343398 -0.249448E-07  0.713E-04    0.12      14.6  T
  17   -194.3343398  0.122046E-07  0.599E-04    0.12      17.4  T
     SCC iter.                  ...        0 min,  0.400 sec
     gradient                   ...        0 min,  0.049 sec
 * total energy  :  -192.3908245 Eh     change       -0.2040912E-02 Eh
   gradient norm :     0.0107130 Eh/α   predicted    -0.1842813E-02 (  -9.71%)
   displ. norm   :     0.8800962 α      lambda       -0.2277510E-02
   maximum displ.:     0.6750449 α      in ANC's #6, #5, #12, ...
 * RMSD in coord.:     1.6449327 α      energy gain  -0.3271791E-01 Eh

generating ANC from exact Hessian ...
Using Lindh-Hessian (1995)
 Shifting diagonal of input Hessian by   1.657592106779375E-002
 Lowest  eigenvalues of input Hessian
    0.010000    0.016002    0.016162    0.016246    0.000000    0.000000
    0.000000    0.000000    0.000000    0.000000    0.016617    0.016704
    0.016787    0.016836    0.016896    0.016983    0.017015    0.017167
 Highest eigenvalues
    2.142390    2.193309    2.244226    2.265671    2.288476    2.310271
 

........................................................................
.............................. CYCLE   67 ..............................
........................................................................

 iter      E             dE          RMSdq      gap      omega  full diag
   1   -194.3352185 -0.194335E+03  0.271E-01    0.13       0.0  T
   2   -194.3264727  0.874580E-02  0.255E-01    0.08       1.0  T
   3   -194.3206724  0.580027E-02  0.347E-01    0.52       1.0  T
   4   -194.3300353 -0.936291E-02  0.219E-01    0.28       1.0  T
   5   -194.3322342 -0.219892E-02  0.152E-01    0.20       1.0  T
   6   -194.3345512 -0.231698E-02  0.906E-02    0.16       1.0  T
   7   -194.3352779 -0.726640E-03  0.353E-02    0.13       1.0  T
   8   -194.3348013  0.476559E-03  0.644E-02    0.11       1.0  T
   9   -194.3353596 -0.558304E-03  0.114E-02    0.13       1.0  T
  10   -194.3353614 -0.177053E-05  0.870E-03    0.13       1.2  T
  11   -194.3353595  0.192007E-05  0.844E-03    0.13       1.2  T
  12   -194.3353586  0.836376E-06  0.737E-03    0.13       1.4  T
  13   -194.3353638 -0.515126E-05  0.292E-03    0.13       3.6  T
  14   -194.3353638 -0.217320E-07  0.236E-03    0.13       4.4  T
  15   -194.3353639 -0.787217E-07  0.167E-03    0.13       6.3  T
  16   -194.3353640 -0.131499E-06  0.996E-04    0.13      10.5  T
  17   -194.3353640 -0.166473E-07  0.561E-04    0.13      18.6  T
     SCC iter.                  ...        0 min,  0.409 sec
     gradient                   ...        0 min,  0.051 sec
 * total energy  :  -192.3929772 Eh     change       -0.2152635E-02 Eh
   gradient norm :     0.0117839 Eh/α   predicted     0.0000000E+00 (-100.00%)
   displ. norm   :     0.1692781 α      lambda       -0.7090967E-03
   maximum displ.:     0.0695910 α      in ANC's #7, #13, #1, ...

........................................................................
.............................. CYCLE   68 ..............................
........................................................................

 iter      E             dE          RMSdq      gap      omega  full diag
   1   -194.3338733 -0.194334E+03  0.116E-01    0.15       0.0  T
   2   -194.2055949  0.128278E+00  0.893E-01    0.02       1.0  T
   3   -194.3335799 -0.127985E+00  0.798E-02    0.15       1.0  T
   4   -194.3336758 -0.958675E-04  0.643E-02    0.15       1.0  T
   5   -194.3340362 -0.360404E-03  0.390E-02    0.14       1.0  T
   6   -194.3339654  0.707681E-04  0.392E-02    0.14       1.0  T
   7   -194.3341259 -0.160406E-03  0.215E-02    0.14       1.0  T
   8   -194.3341553 -0.294220E-04  0.141E-02    0.13       1.0  T
   9   -194.3341743 -0.190627E-04  0.700E-03    0.13       1.5  T
  10   -194.3341755 -0.118737E-05  0.570E-03    0.13       1.8  T
  11   -194.3341798 -0.424952E-05  0.217E-03    0.13       4.8  T
  12   -194.3341801 -0.290706E-06  0.113E-03    0.13       9.2  T
  13   -194.3341802 -0.127791E-06  0.519E-04    0.13      20.1  T
  14   -194.3341802  0.154094E-07  0.509E-04    0.13      20.5  T
     SCC iter.                  ...        0 min,  0.353 sec
     gradient                   ...        0 min,  0.051 sec
 * total energy  :  -192.3934419 Eh     change       -0.4647192E-03 Eh
   gradient norm :     0.0090876 Eh/α   predicted    -0.3647096E-03 ( -21.52%)
   displ. norm   :     0.6276616 α      lambda       -0.2457228E-02
   maximum displ.:     0.2760506 α      in ANC's #7, #13, #2, ...

........................................................................
.............................. CYCLE   69 ..............................
........................................................................

 iter      E             dE          RMSdq      gap      omega  full diag
   1   -194.3264469 -0.194326E+03  0.355E-01    0.19       0.0  T
   2   -193.7113868  0.615060E+00  0.195E+00    0.20       1.0  T
   3   -194.3270989 -0.615712E+00  0.167E-01    0.19       1.0  T
   4   -194.3247856  0.231332E-02  0.170E-01    0.23       1.0  T
   5   -194.3272140 -0.242842E-02  0.126E-01    0.19       1.0  T
   6   -194.3272189 -0.488737E-05  0.108E-01    0.19       1.0  T
   7   -194.3275196 -0.300732E-03  0.946E-02    0.18       1.0  T
   8   -194.3280115 -0.491840E-03  0.737E-02    0.17       1.0  T
   9   -194.3284535 -0.442061E-03  0.446E-02    0.15       1.0  T
  10   -194.3286398 -0.186321E-03  0.249E-02    0.15       1.0  T
  11   -194.3287122 -0.723177E-04  0.108E-02    0.14       1.0  T
  12   -194.3287261 -0.139012E-04  0.241E-03    0.14       4.3  T
  13   -194.3287237  0.232421E-05  0.455E-03    0.14       2.3  T
  14   -194.3287248 -0.102513E-05  0.353E-03    0.14       3.0  T
  15   -194.3287262 -0.139143E-05  0.180E-03    0.14       5.8  T
  16   -194.3287265 -0.389719E-06  0.451E-04    0.14      23.1  T
  17   -194.3287266 -0.123171E-07  0.255E-04    0.14      40.9  T
     SCC iter.                  ...        0 min,  0.423 sec
     gradient                   ...        0 min,  0.051 sec
 * total energy  :  -192.3941478 Eh     change       -0.7059222E-03 Eh
   gradient norm :     0.0222637 Eh/α   predicted    -0.1712653E-02 ( 142.61%)
   displ. norm   :     0.3299190 α      lambda       -0.2109986E-02
   maximum displ.:     0.1436755 α      in ANC's #7, #13, #2, ...

........................................................................
.............................. CYCLE   70 ..............................
........................................................................

 iter      E             dE          RMSdq      gap      omega  full diag
   1   -194.3182602 -0.194318E+03  0.337E-01    0.08       0.0  T
   2   -194.2944206  0.238396E-01  0.632E-01    0.93       1.0  T
   3   -194.3205000 -0.260794E-01  0.256E-01    0.47       1.0  T
   4   -194.3285208 -0.802085E-02  0.112E-01    0.16       1.0  T
   5   -194.3278604  0.660450E-03  0.907E-02    0.12       1.0  T
   6   -194.3273017  0.558683E-03  0.108E-01    0.18       1.0  T
   7   -194.3288036 -0.150189E-02  0.194E-02    0.13       1.0  T
   8   -194.3287992  0.432625E-05  0.154E-02    0.13       1.0  T
   9   -194.3288115 -0.122818E-04  0.944E-03    0.14       1.1  T
  10   -194.3287980  0.135112E-04  0.118E-02    0.13       1.0  T
  11   -194.3288126 -0.146048E-04  0.597E-03    0.14       1.7  T
  12   -194.3288154 -0.277243E-05  0.338E-03    0.14       3.1  T
  13   -194.3288153  0.418307E-07  0.335E-03    0.14       3.1  T
  14   -194.3288167 -0.130380E-05  0.102E-03    0.14      10.2  T
  15   -194.3288167 -0.429017E-07  0.595E-04    0.14      17.5  T
  16   -194.3288167  0.183778E-07  0.603E-04    0.14      17.3  T
     SCC iter.                  ...        0 min,  0.370 sec
     gradient                   ...        0 min,  0.050 sec
 * total energy  :  -192.3954025 Eh     change       -0.1254692E-02 Eh
   gradient norm :     0.0185707 Eh/α   predicted    -0.1169828E-02 (  -6.76%)
   displ. norm   :     0.4230891 α      lambda       -0.1846891E-02
   maximum displ.:     0.2014078 α      in ANC's #7, #13, #2, ...

........................................................................
.............................. CYCLE   71 ..............................
........................................................................

 iter      E             dE          RMSdq      gap      omega  full diag
   1   -194.3337432 -0.194334E+03  0.211E-01    0.13       0.0  T
   2   -194.3299083  0.383489E-02  0.182E-01    0.24       1.0  T
   3   -193.9048423  0.425066E+00  0.163E+00    0.09       1.0  T
   4   -194.3333426 -0.428500E+00  0.125E-01    0.16       1.0  T
   5   -194.3321911  0.115153E-02  0.113E-01    0.19       1.0  T
   6   -194.3327877 -0.596565E-03  0.948E-02    0.18       1.0  T
   7   -194.3333130 -0.525314E-03  0.752E-02    0.17       1.0  T
   8   -194.3335078 -0.194831E-03  0.616E-02    0.16       1.0  T
   9   -194.3337633 -0.255541E-03  0.438E-02    0.16       1.0  T
  10   -194.3338700 -0.106682E-03  0.333E-02    0.15       1.0  T
  11   -194.3339630 -0.929761E-04  0.211E-02    0.15       1.0  T
  12   -194.3340139 -0.509246E-04  0.849E-03    0.14       1.2  T
  13   -194.3340228 -0.889923E-05  0.206E-03    0.14       5.1  T
  14   -194.3340229 -0.116902E-06  0.168E-03    0.14       6.2  T
  15   -194.3340223  0.673573E-06  0.260E-03    0.14       4.0  T
  16   -194.3340224 -0.150506E-06  0.250E-03    0.14       4.2  T
  17   -194.3340229 -0.440933E-06  0.163E-03    0.14       6.4  T
  18   -194.3340231 -0.220178E-06  0.103E-03    0.14      10.1  T
  19   -194.3340232 -0.116240E-06  0.379E-04    0.14      27.5  T
  20   -194.3340232 -0.174031E-07  0.916E-05    0.14     113.8  T
     SCC iter.                  ...        0 min,  0.478 sec
     gradient                   ...        0 min,  0.051 sec
 * total energy  :  -192.3965289 Eh     change       -0.1126365E-02 Eh
   gradient norm :     0.0125546 Eh/α   predicted    -0.1088752E-02 (  -3.34%)
   displ. norm   :     0.6146549 α      lambda       -0.1841711E-02
   maximum displ.:     0.3029089 α      in ANC's #7, #13, #2, ...

........................................................................
.............................. CYCLE   72 ..............................
........................................................................

 iter      E             dE          RMSdq      gap      omega  full diag
   1   -194.3358756 -0.194336E+03  0.246E-01    0.15       0.0  T
   2   -194.3354081  0.467459E-03  0.110E-01    0.13       1.0  T
   3   -194.3299435  0.546466E-02  0.214E-01    0.32       1.0  T
   4   -194.3354593 -0.551583E-02  0.749E-02    0.13       1.0  T
   5   -194.3350051  0.454157E-03  0.837E-02    0.18       1.0  T
   6   -194.3359781 -0.972944E-03  0.224E-02    0.14       1.0  T
   7   -194.3359768  0.131708E-05  0.157E-02    0.15       1.0  T
   8   -194.3359789 -0.215571E-05  0.984E-03    0.14       1.1  T
   9   -194.3359832 -0.424057E-05  0.608E-03    0.14       1.7  T
  10   -194.3359831  0.654378E-07  0.466E-03    0.15       2.2  T
  11   -194.3359831 -0.119929E-07  0.385E-03    0.14       2.7  T
  12   -194.3359836 -0.475976E-06  0.270E-03    0.15       3.9  T
  13   -194.3359836  0.391888E-07  0.210E-03    0.15       5.0  T
  14   -194.3359837 -0.175789E-06  0.149E-03    0.14       7.0  T
  15   -194.3359839 -0.154533E-06  0.803E-04    0.15      13.0  T
  16   -194.3359839 -0.866132E-08  0.585E-04    0.15      17.8  T
     SCC iter.                  ...        0 min,  0.368 sec
     gradient                   ...        0 min,  0.050 sec
 * total energy  :  -192.3979575 Eh     change       -0.1428673E-02 Eh
   gradient norm :     0.0133737 Eh/α   predicted    -0.1268760E-02 ( -11.19%)
   displ. norm   :     0.7538998 α      lambda       -0.2148378E-02
   maximum displ.:     0.3732265 α      in ANC's #7, #13, #2, ...

........................................................................
.............................. CYCLE   73 ..............................
........................................................................

 iter      E             dE          RMSdq      gap      omega  full diag
   1   -194.3352029 -0.194335E+03  0.264E-01    0.18       0.0  T
   2   -194.2381754  0.970275E-01  0.789E-01    0.04       1.0  T
   3   -194.3294597 -0.912842E-01  0.220E-01    0.36       1.0  T
   4   -194.3341267 -0.466701E-02  0.181E-01    0.21       1.0  T
   5   -194.3332583  0.868418E-03  0.134E-01    0.24       1.0  T
   6   -194.3339319 -0.673586E-03  0.120E-01    0.22       1.0  T
   7   -194.3344929 -0.561035E-03  0.962E-02    0.20       1.0  T
   8   -194.3351242 -0.631335E-03  0.613E-02    0.18       1.0  T
   9   -194.3355046 -0.380365E-03  0.311E-02    0.17       1.0  T
  10   -194.3356250 -0.120386E-03  0.924E-03    0.15       1.1  T
  11   -194.3356255 -0.547212E-06  0.797E-03    0.15       1.3  T
  12   -194.3356236  0.188289E-05  0.815E-03    0.15       1.3  T
  13   -194.3356308 -0.714106E-05  0.379E-03    0.15       2.8  T
  14   -194.3356319 -0.114853E-05  0.221E-03    0.15       4.7  T
  15   -194.3356321 -0.186529E-06  0.153E-03    0.15       6.8  T
  16   -194.3356320  0.922654E-07  0.150E-03    0.15       7.0  T
  17   -194.3356322 -0.223953E-06  0.699E-04    0.15      14.9  T
  18   -194.3356322  0.295552E-07  0.702E-04    0.15      14.8  T
     SCC iter.                  ...        0 min,  0.424 sec
     gradient                   ...        0 min,  0.049 sec
 * total energy  :  -192.3997211 Eh     change       -0.1763594E-02 Eh
   gradient norm :     0.0129821 Eh/α   predicted    -0.1684731E-02 (  -4.47%)
   displ. norm   :     0.7814174 α      lambda       -0.2055345E-02
   maximum displ.:     0.3906052 α      in ANC's #7, #13, #2, ...

........................................................................
.............................. CYCLE   74 ..............................
........................................................................

 iter      E             dE          RMSdq      gap      omega  full diag
   1   -194.3346423 -0.194335E+03  0.265E-01    0.18       0.0  T
   2   -194.2518175  0.828249E-01  0.732E-01    0.04       1.0  T
   3   -194.3299091 -0.780916E-01  0.206E-01    0.35       1.0  T
   4   -194.3335036 -0.359453E-02  0.187E-01    0.22       1.0  T
   5   -194.3331045  0.399056E-03  0.123E-01    0.25       1.0  T
   6   -194.3336738 -0.569223E-03  0.109E-01    0.23       1.0  T
   7   -194.3341942 -0.520403E-03  0.865E-02    0.21       1.0  T
   8   -194.3347476 -0.553431E-03  0.495E-02    0.18       1.0  T
   9   -194.3350154 -0.267808E-03  0.231E-02    0.17       1.0  T
  10   -194.3350785 -0.630638E-04  0.693E-03    0.16       1.5  T
  11   -194.3350757  0.274281E-05  0.708E-03    0.16       1.5  T
  12   -194.3350740  0.172997E-05  0.723E-03    0.16       1.4  T
  13   -194.3350793 -0.524841E-05  0.378E-03    0.16       2.8  T
  14   -194.3350806 -0.134354E-05  0.162E-03    0.16       6.5  T
  15   -194.3350805  0.912016E-07  0.149E-03    0.16       7.0  T
  16   -194.3350806 -0.588792E-07  0.119E-03    0.16       8.8  T
  17   -194.3350807 -0.955382E-07  0.680E-04    0.16      15.3  T
  18   -194.3350807  0.323223E-08  0.547E-04    0.16      19.1  T
     SCC iter.                  ...        0 min,  0.418 sec
     gradient                   ...        0 min,  0.050 sec
 * total energy  :  -192.4013901 Eh     change       -0.1668974E-02 Eh
   gradient norm :     0.0105079 Eh/α   predicted    -0.1655184E-02 (  -0.83%)
   displ. norm   :     0.8013461 α      lambda       -0.1829650E-02
   maximum displ.:     0.4036894 α      in ANC's #7, #13, #2, ...

........................................................................
.............................. CYCLE   75 ..............................
........................................................................

 iter      E             dE          RMSdq      gap      omega  full diag
   1   -194.3359005 -0.194336E+03  0.254E-01    0.18       0.0  T
   2   -194.3343412  0.155934E-02  0.142E-01    0.13       1.0  T
   3   -194.3283317  0.600949E-02  0.266E-01    0.44       1.0  T
   4   -194.3345655 -0.623380E-02  0.119E-01    0.25       1.0  T
   5   -194.3359556 -0.139013E-02  0.430E-02    0.18       1.0  T
   6   -194.3359908 -0.352004E-04  0.305E-02    0.17       1.0  T
   7   -194.3359618  0.289846E-04  0.233E-02    0.18       1.0  T
   8   -194.3359608  0.105604E-05  0.212E-02    0.16       1.0  T
   9   -194.3360127 -0.519025E-04  0.105E-02    0.17       1.0  T
  10   -194.3360119  0.767490E-06  0.853E-03    0.16       1.2  T
  11   -194.3360149 -0.302233E-05  0.576E-03    0.17       1.8  T
  12   -194.3360163 -0.133306E-05  0.369E-03    0.17       2.8  T
  13   -194.3360156  0.639975E-06  0.350E-03    0.17       3.0  T
  14   -194.3360166 -0.941038E-06  0.177E-03    0.17       5.9  T
  15   -194.3360165  0.112219E-06  0.175E-03    0.17       6.0  T
  16   -194.3360166 -0.141290E-06  0.125E-03    0.17       8.3  T
  17   -194.3360167 -0.914339E-07  0.639E-04    0.17      16.3  T
  18   -194.3360167 -0.297868E-07  0.249E-04    0.17      41.8  T
     SCC iter.                  ...        0 min,  0.431 sec
     gradient                   ...        0 min,  0.050 sec
 * total energy  :  -192.4029755 Eh     change       -0.1585344E-02 Eh
   gradient norm :     0.0089091 Eh/α   predicted    -0.1502285E-02 (  -5.24%)
   displ. norm   :     0.7755517 α      lambda       -0.1769192E-02
   maximum displ.:     0.3864168 α      in ANC's #7, #2, #13, ...

........................................................................
.............................. CYCLE   76 ..............................
........................................................................

 iter      E             dE          RMSdq      gap      omega  full diag
   1   -194.3430098 -0.194343E+03  0.264E-01    0.19       0.0  T
   2   -194.3341893  0.882047E-02  0.261E-01    0.10       1.0  T
   3   -194.3348061 -0.616745E-03  0.293E-01    0.50       1.0  T
   4   -194.3409581 -0.615200E-02  0.153E-01    0.32       1.0  T
   5   -194.3421302 -0.117216E-02  0.986E-02    0.25       1.0  T
   6   -194.3429730 -0.842768E-03  0.718E-02    0.20       1.0  T
   7   -194.3429746 -0.164252E-05  0.538E-02    0.20       1.0  T
   8   -194.3432471 -0.272444E-03  0.205E-02    0.17       1.0  T
   9   -194.3432647 -0.175620E-04  0.158E-02    0.17       1.0  T
  10   -194.3432766 -0.119464E-04  0.940E-03    0.17       1.1  T
  11   -194.3432788 -0.215626E-05  0.736E-03    0.18       1.4  T
  12   -194.3432805 -0.173737E-05  0.458E-03    0.17       2.3  T
  13   -194.3432808 -0.312278E-06  0.300E-03    0.17       3.5  T
  14   -194.3432809 -0.125800E-06  0.217E-03    0.17       4.8  T
  15   -194.3432809 -0.104134E-07  0.165E-03    0.17       6.3  T
  16   -194.3432811 -0.143890E-06  0.965E-04    0.17      10.8  T
  17   -194.3432811 -0.911635E-08  0.561E-04    0.17      18.6  T
     SCC iter.                  ...        0 min,  0.401 sec
     gradient                   ...        0 min,  0.050 sec
 * total energy  :  -192.4044485 Eh     change       -0.1473035E-02 Eh
   gradient norm :     0.0072762 Eh/α   predicted    -0.1416669E-02 (  -3.83%)
   displ. norm   :     0.8003718 α      lambda       -0.1426047E-02
   maximum displ.:     0.3889660 α      in ANC's #7, #2, #13, ...

........................................................................
.............................. CYCLE   77 ..............................
........................................................................

 iter      E             dE          RMSdq      gap      omega  full diag
   1   -194.3448363 -0.194345E+03  0.266E-01    0.18       0.0  T
   2   -194.3446829  0.153394E-03  0.114E-01    0.18       1.0  T
   3   -194.3408261  0.385676E-02  0.182E-01    0.13       1.0  T
   4   -194.3430268 -0.220068E-02  0.120E-01    0.27       1.0  T
   5   -194.3448595 -0.183267E-02  0.474E-02    0.18       1.0  T
   6   -194.3449484 -0.889011E-04  0.199E-02    0.18       1.0  T
   7   -194.3449416  0.673051E-05  0.145E-02    0.17       1.0  T
   8   -194.3449501 -0.840915E-05  0.979E-03    0.18       1.1  T
   9   -194.3449521 -0.204709E-05  0.775E-03    0.18       1.3  T
  10   -194.3449519  0.248304E-06  0.658E-03    0.18       1.6  T
  11   -194.3449528 -0.944199E-06  0.420E-03    0.18       2.5  T
  12   -194.3449537 -0.943084E-06  0.267E-03    0.18       3.9  T
  13   -194.3449539 -0.193911E-06  0.178E-03    0.18       5.9  T
  14   -194.3449539  0.411099E-07  0.138E-03    0.18       7.6  T
  15   -194.3449539 -0.302309E-07  0.108E-03    0.18       9.6  T
  16   -194.3449540 -0.865827E-07  0.572E-04    0.18      18.2  T
  17   -194.3449540 -0.128690E-07  0.344E-04    0.18      30.3  T
     SCC iter.                  ...        0 min,  0.387 sec
     gradient                   ...        0 min,  0.050 sec
 * total energy  :  -192.4056870 Eh     change       -0.1238493E-02 Eh
   gradient norm :     0.0079791 Eh/α   predicted    -0.1169788E-02 (  -5.55%)
   displ. norm   :     0.7653363 α      lambda       -0.1333691E-02
   maximum displ.:     0.3933298 α      in ANC's #2, #7, #6, ...

........................................................................
.............................. CYCLE   78 ..............................
........................................................................

 iter      E             dE          RMSdq      gap      omega  full diag
   1   -194.3526426 -0.194353E+03  0.274E-01    0.18       0.0  T
   2   -194.3526080  0.346000E-04  0.110E-01    0.18       1.0  T
   3   -194.3516130  0.994934E-03  0.118E-01    0.17       1.0  T
   4   -194.3521439 -0.530837E-03  0.757E-02    0.21       1.0  T
   5   -194.3508155  0.132839E-02  0.112E-01    0.14       1.0  T
   6   -194.3526550 -0.183954E-02  0.317E-02    0.19       1.0  T
   7   -194.3527267 -0.716693E-04  0.180E-02    0.18       1.0  T
   8   -194.3527417 -0.149702E-04  0.127E-02    0.18       1.0  T
   9   -194.3527480 -0.634387E-05  0.768E-03    0.18       1.4  T
  10   -194.3527485 -0.448498E-06  0.594E-03    0.18       1.8  T
  11   -194.3527482  0.240368E-06  0.475E-03    0.18       2.2  T
  12   -194.3527486 -0.352450E-06  0.288E-03    0.18       3.6  T
  13   -194.3527492 -0.592168E-06  0.172E-03    0.18       6.1  T
  14   -194.3527492 -0.584387E-07  0.124E-03    0.18       8.4  T
  15   -194.3527492 -0.335870E-07  0.673E-04    0.18      15.5  T
  16   -194.3527492  0.167654E-07  0.601E-04    0.18      17.4  T
     SCC iter.                  ...        0 min,  0.368 sec
     gradient                   ...        0 min,  0.050 sec
 * total energy  :  -192.4068124 Eh     change       -0.1125392E-02 Eh
   gradient norm :     0.0099742 Eh/α   predicted    -0.1057447E-02 (  -6.04%)
   displ. norm   :     0.7982687 α      lambda       -0.1353830E-02
   maximum displ.:     0.4146442 α      in ANC's #2, #7, #6, ...

........................................................................
.............................. CYCLE   79 ..............................
........................................................................

 iter      E             dE          RMSdq      gap      omega  full diag
   1   -194.3460212 -0.194346E+03  0.297E-01    0.18       0.0  T
   2   -194.3459270  0.942585E-04  0.119E-01    0.20       1.0  T
   3   -194.3264809  0.194461E-01  0.352E-01    0.09       1.0  T
   4   -194.3447372 -0.182563E-01  0.108E-01    0.26       1.0  T
   5   -194.3459577 -0.122048E-02  0.595E-02    0.20       1.0  T
   6   -194.3459988 -0.411040E-04  0.390E-02    0.20       1.0  T
   7   -194.3460693 -0.705108E-04  0.276E-02    0.19       1.0  T
   8   -194.3461224 -0.531482E-04  0.184E-02    0.19       1.0  T
   9   -194.3461424 -0.200163E-04  0.946E-03    0.18       1.1  T
  10   -194.3461457 -0.329945E-05  0.653E-03    0.18       1.6  T
  11   -194.3461464 -0.688508E-06  0.428E-03    0.18       2.4  T
  12   -194.3461461  0.349982E-06  0.359E-03    0.18       2.9  T
  13   -194.3461466 -0.551072E-06  0.242E-03    0.18       4.3  T
  14   -194.3461470 -0.408419E-06  0.124E-03    0.18       8.4  T
  15   -194.3461471 -0.585563E-07  0.702E-04    0.18      14.8  T
  16   -194.3461471  0.904006E-08  0.527E-04    0.18      19.8  T
     SCC iter.                  ...        0 min,  0.380 sec
     gradient                   ...        0 min,  0.052 sec
 * total energy  :  -192.4079515 Eh     change       -0.1139085E-02 Eh
   gradient norm :     0.0124778 Eh/α   predicted    -0.1108276E-02 (  -2.70%)
   displ. norm   :     0.7401537 α      lambda       -0.1521382E-02
   maximum displ.:     0.4301927 α      in ANC's #2, #6, #7, ...

........................................................................
.............................. CYCLE   80 ..............................
........................................................................

 iter      E             dE          RMSdq      gap      omega  full diag
   1   -194.3502461 -0.194350E+03  0.313E-01    0.19       0.0  T
   2   -194.3440148  0.623125E-02  0.227E-01    0.11       1.0  T
   3   -194.3375635  0.645126E-02  0.382E-01    0.59       1.0  T
   4   -194.3463931 -0.882956E-02  0.176E-01    0.40       1.0  T
   5   -194.3490920 -0.269886E-02  0.111E-01    0.25       1.0  T
   6   -194.3500095 -0.917522E-03  0.760E-02    0.22       1.0  T
   7   -194.3504066 -0.397069E-03  0.445E-02    0.18       1.0  T
   8   -194.3504526 -0.460055E-04  0.252E-02    0.17       1.0  T
   9   -194.3504713 -0.186932E-04  0.171E-02    0.17       1.0  T
  10   -194.3504933 -0.220177E-04  0.786E-03    0.17       1.3  T
  11   -194.3504918  0.151553E-05  0.719E-03    0.18       1.5  T
  12   -194.3504943 -0.252024E-05  0.476E-03    0.17       2.2  T
  13   -194.3504952 -0.917525E-06  0.256E-03    0.17       4.1  T
  14   -194.3504952 -0.203275E-08  0.188E-03    0.17       5.6  T
  15   -194.3504954 -0.206789E-06  0.939E-04    0.17      11.1  T
  16   -194.3504953  0.732978E-07  0.914E-04    0.17      11.4  T
     SCC iter.                  ...        0 min,  0.380 sec
     gradient                   ...        0 min,  0.052 sec
 * total energy  :  -192.4092023 Eh     change       -0.1250832E-02 Eh
   gradient norm :     0.0111526 Eh/α   predicted    -0.1177421E-02 (  -5.87%)
   displ. norm   :     0.7567003 α      lambda       -0.1513007E-02
   maximum displ.:     0.4278724 α      in ANC's #2, #6, #7, ...

........................................................................
.............................. CYCLE   81 ..............................
........................................................................

 iter      E             dE          RMSdq      gap      omega  full diag
   1   -194.3463350 -0.194346E+03  0.319E-01    0.15       0.0  T
   2   -194.3438145  0.252047E-02  0.190E-01    0.28       1.0  T
   3   -193.9162203  0.427594E+00  0.169E+00    0.10       1.0  T
   4   -194.3454691 -0.429249E+00  0.168E-01    0.20       1.0  T
   5   -194.3460770 -0.607953E-03  0.932E-02    0.21       1.0  T
   6   -194.3457056  0.371378E-03  0.924E-02    0.23       1.0  T
   7   -194.3463504 -0.644807E-03  0.693E-02    0.21       1.0  T
   8   -194.3464338 -0.833989E-04  0.554E-02    0.20       1.0  T
   9   -194.3465783 -0.144430E-03  0.435E-02    0.19       1.0  T
  10   -194.3466798 -0.101567E-03  0.335E-02    0.19       1.0  T
  11   -194.3467300 -0.502139E-04  0.251E-02    0.18       1.0  T
  12   -194.3467898 -0.597086E-04  0.127E-02    0.18       1.0  T
  13   -194.3468019 -0.121667E-04  0.777E-03    0.17       1.3  T
  14   -194.3468058 -0.383905E-05  0.511E-03    0.17       2.0  T
  15   -194.3468082 -0.245386E-05  0.179E-03    0.17       5.8  T
  16   -194.3468085 -0.258542E-06  0.862E-04    0.17      12.1  T
  17   -194.3468085 -0.419442E-07  0.510E-04    0.17      20.5  T
     SCC iter.                  ...        0 min,  0.390 sec
     gradient                   ...        0 min,  0.051 sec
 * total energy  :  -192.4104567 Eh     change       -0.1254366E-02 Eh
   gradient norm :     0.0121529 Eh/α   predicted    -0.1189676E-02 (  -5.16%)
   displ. norm   :     0.7558032 α      lambda       -0.1444419E-02
   maximum displ.:     0.4283950 α      in ANC's #2, #6, #17, ...

........................................................................
.............................. CYCLE   82 ..............................
........................................................................

 iter      E             dE          RMSdq      gap      omega  full diag
   1   -194.3445775 -0.194345E+03  0.307E-01    0.18       0.0  T
   2   -194.3401445  0.443300E-02  0.201E-01    0.12       1.0  T
   3   -194.3313001  0.884439E-02  0.376E-01    0.55       1.0  T
   4   -194.3406611 -0.936101E-02  0.177E-01    0.36       1.0  T
   5   -194.3438027 -0.314165E-02  0.100E-01    0.22       1.0  T
   6   -194.3445563 -0.753596E-03  0.603E-02    0.19       1.0  T
   7   -194.3445690 -0.126717E-04  0.494E-02    0.15       1.0  T
   8   -194.3447951 -0.226072E-03  0.181E-02    0.17       1.0  T
   9   -194.3447485  0.466085E-04  0.232E-02    0.16       1.0  T
  10   -194.3448048 -0.562840E-04  0.926E-03    0.16       1.1  T
  11   -194.3448081 -0.338087E-05  0.560E-03    0.17       1.9  T
  12   -194.3448069  0.125022E-05  0.516E-03    0.17       2.0  T
  13   -194.3448091 -0.217738E-05  0.215E-03    0.17       4.8  T
  14   -194.3448090  0.606882E-07  0.174E-03    0.17       6.0  T
  15   -194.3448091 -0.122874E-06  0.117E-03    0.17       8.9  T
  16   -194.3448091  0.643439E-09  0.900E-04    0.17      11.6  T
  17   -194.3448092 -0.546440E-07  0.484E-04    0.17      21.5  T
     SCC iter.                  ...        0 min,  0.411 sec
     gradient                   ...        0 min,  0.051 sec
 * total energy  :  -192.4117358 Eh     change       -0.1279190E-02 Eh
   gradient norm :     0.0123695 Eh/α   predicted    -0.1134766E-02 ( -11.29%)
   displ. norm   :     0.7460208 α      lambda       -0.1584908E-02
   maximum displ.:     0.4185040 α      in ANC's #6, #2, #17, ...

........................................................................
.............................. CYCLE   83 ..............................
........................................................................

 iter      E             dE          RMSdq      gap      omega  full diag
   1   -194.3500829 -0.194350E+03  0.305E-01    0.17       0.0  T
   2   -194.3474240  0.265892E-02  0.165E-01    0.12       1.0  T
   3   -194.3376361  0.978785E-02  0.353E-01    0.51       1.0  T
   4   -194.3466408 -0.900470E-02  0.163E-01    0.31       1.0  T
   5   -194.3498852 -0.324441E-02  0.717E-02    0.18       1.0  T
   6   -194.3501468 -0.261632E-03  0.443E-02    0.18       1.0  T
   7   -194.3498185  0.328369E-03  0.575E-02    0.14       1.0  T
   8   -194.3502464 -0.427894E-03  0.163E-02    0.17       1.0  T
   9   -194.3502477 -0.131903E-05  0.135E-02    0.16       1.0  T
  10   -194.3502599 -0.121908E-04  0.728E-03    0.16       1.4  T
  11   -194.3502628 -0.290601E-05  0.418E-03    0.16       2.5  T
  12   -194.3502621  0.666868E-06  0.390E-03    0.16       2.7  T
  13   -194.3502631 -0.937650E-06  0.226E-03    0.16       4.6  T
  14   -194.3502634 -0.363661E-06  0.120E-03    0.16       8.7  T
  15   -194.3502633  0.680528E-07  0.122E-03    0.16       8.5  T
  16   -194.3502634 -0.359177E-07  0.834E-04    0.16      12.5  T
  17   -194.3502634 -0.554118E-07  0.448E-04    0.16      23.3  T
     SCC iter.                  ...        0 min,  0.402 sec
     gradient                   ...        0 min,  0.052 sec
 * total energy  :  -192.4130607 Eh     change       -0.1324857E-02 Eh
   gradient norm :     0.0124797 Eh/α   predicted    -0.1233492E-02 (  -6.90%)
   displ. norm   :     0.7896110 α      lambda       -0.1528793E-02
   maximum displ.:     0.4378268 α      in ANC's #6, #2, #7, ...

........................................................................
.............................. CYCLE   84 ..............................
........................................................................

 iter      E             dE          RMSdq      gap      omega  full diag
   1   -194.3463348 -0.194346E+03  0.315E-01    0.15       0.0  T
   2   -194.3453308  0.100403E-02  0.144E-01    0.21       1.0  T
   3   -193.8601767  0.485154E+00  0.180E+00    0.13       1.0  T
   4   -194.3462622 -0.486085E+00  0.826E-02    0.17       1.0  T
   5   -194.3458145  0.447696E-03  0.770E-02    0.19       1.0  T
   6   -194.3461633 -0.348781E-03  0.535E-02    0.18       1.0  T
   7   -194.3463814 -0.218084E-03  0.370E-02    0.17       1.0  T
   8   -194.3463394  0.420106E-04  0.336E-02    0.17       1.0  T
   9   -194.3464212 -0.818787E-04  0.240E-02    0.17       1.0  T
  10   -194.3464504 -0.291467E-04  0.178E-02    0.17       1.0  T
  11   -194.3464670 -0.166327E-04  0.126E-02    0.16       1.0  T
  12   -194.3464831 -0.161390E-04  0.598E-03    0.16       1.7  T
  13   -194.3464852 -0.206949E-05  0.416E-03    0.16       2.5  T
  14   -194.3464866 -0.140023E-05  0.244E-03    0.16       4.3  T
  15   -194.3464872 -0.551174E-06  0.709E-04    0.16      14.7  T
  16   -194.3464872 -0.228494E-07  0.326E-04    0.16      32.0  T
     SCC iter.                  ...        0 min,  0.455 sec
     gradient                   ...        0 min,  0.050 sec
 * total energy  :  -192.4142955 Eh     change       -0.1234811E-02 Eh
   gradient norm :     0.0174972 Eh/α   predicted    -0.1240994E-02 (   0.50%)
   displ. norm   :     0.7233101 α      lambda       -0.1409968E-02
   maximum displ.:     0.4147063 α      in ANC's #6, #2, #16, ...

........................................................................
.............................. CYCLE   85 ..............................
........................................................................

 iter      E             dE          RMSdq      gap      omega  full diag
   1   -194.3530999 -0.194353E+03  0.278E-01    0.17       0.0  T
   2   -194.3437520  0.934792E-02  0.262E-01    0.10       1.0  T
   3   -194.3408594  0.289264E-02  0.349E-01    0.53       1.0  T
   4   -194.3489873 -0.812792E-02  0.185E-01    0.34       1.0  T
   5   -194.3510218 -0.203453E-02  0.131E-01    0.24       1.0  T
   6   -194.3522950 -0.127320E-02  0.956E-02    0.21       1.0  T
   7   -194.3528563 -0.561323E-03  0.597E-02    0.18       1.0  T
   8   -194.3532049 -0.348516E-03  0.240E-02    0.15       1.0  T
   9   -194.3531636  0.412487E-04  0.268E-02    0.15       1.0  T
  10   -194.3532482 -0.845655E-04  0.541E-03    0.16       1.9  T
  11   -194.3532471  0.107035E-05  0.549E-03    0.16       1.9  T
  12   -194.3532494 -0.229238E-05  0.239E-03    0.16       4.4  T
  13   -194.3532495 -0.608792E-07  0.167E-03    0.16       6.2  T
  14   -194.3532495 -0.593479E-07  0.116E-03    0.16       9.0  T
  15   -194.3532496 -0.592419E-07  0.756E-04    0.16      13.8  T
  16   -194.3532496 -0.117676E-07  0.539E-04    0.16      19.3  T
     SCC iter.                  ...        0 min,  0.414 sec
     gradient                   ...        0 min,  0.052 sec
 * total energy  :  -192.4154689 Eh     change       -0.1173421E-02 Eh
   gradient norm :     0.0130113 Eh/α   predicted    -0.1073815E-02 (  -8.49%)
   displ. norm   :     0.7275880 α      lambda       -0.1290464E-02
   maximum displ.:     0.4204248 α      in ANC's #6, #2, #16, ...

........................................................................
.............................. CYCLE   86 ..............................
........................................................................

 iter      E             dE          RMSdq      gap      omega  full diag
   1   -194.3554352 -0.194355E+03  0.282E-01    0.15       0.0  T
   2   -194.3532176  0.221756E-02  0.160E-01    0.23       1.0  T
   3   -193.8342623  0.518955E+00  0.186E+00    0.15       1.0  T
   4   -194.3547244 -0.520462E+00  0.131E-01    0.15       1.0  T
   5   -194.3547530 -0.285863E-04  0.846E-02    0.19       1.0  T
   6   -194.3550475 -0.294529E-03  0.701E-02    0.19       1.0  T
   7   -194.3553577 -0.310210E-03  0.509E-02    0.18       1.0  T
   8   -194.3554513 -0.935806E-04  0.383E-02    0.17       1.0  T
   9   -194.3555192 -0.679240E-04  0.288E-02    0.17       1.0  T
  10   -194.3555584 -0.391726E-04  0.221E-02    0.17       1.0  T
  11   -194.3555912 -0.328158E-04  0.148E-02    0.16       1.0  T
  12   -194.3556111 -0.199157E-04  0.734E-03    0.16       1.4  T
  13   -194.3556156 -0.452739E-05  0.423E-03    0.16       2.5  T
  14   -194.3556169 -0.123621E-05  0.253E-03    0.16       4.1  T
  15   -194.3556175 -0.576100E-06  0.718E-04    0.16      14.5  T
  16   -194.3556175 -0.499298E-08  0.491E-04    0.16      21.2  T
     SCC iter.                  ...        0 min,  0.377 sec
     gradient                   ...        0 min,  0.051 sec
 * total energy  :  -192.4165362 Eh     change       -0.1067225E-02 Eh
   gradient norm :     0.0117460 Eh/α   predicted    -0.9868147E-03 (  -7.53%)
   displ. norm   :     0.7371878 α      lambda       -0.1243485E-02
   maximum displ.:     0.4241883 α      in ANC's #6, #2, #8, ...

........................................................................
.............................. CYCLE   87 ..............................
........................................................................

 iter      E             dE          RMSdq      gap      omega  full diag
   1   -194.3557772 -0.194356E+03  0.280E-01    0.14       0.0  T
   2   -194.3519257  0.385155E-02  0.202E-01    0.27       1.0  T
   3   -193.8676832  0.484243E+00  0.179E+00    0.13       1.0  T
   4   -194.3544753 -0.486792E+00  0.187E-01    0.17       1.0  T
   5   -194.3546364 -0.161090E-03  0.114E-01    0.21       1.0  T
   6   -194.3548592 -0.222753E-03  0.103E-01    0.21       1.0  T
   7   -194.3554090 -0.549804E-03  0.849E-02    0.19       1.0  T
   8   -194.3555706 -0.161621E-03  0.711E-02    0.19       1.0  T
   9   -194.3558038 -0.233169E-03  0.562E-02    0.18       1.0  T
  10   -194.3559140 -0.110234E-03  0.466E-02    0.17       1.0  T
  11   -194.3560522 -0.138179E-03  0.324E-02    0.17       1.0  T
  12   -194.3561465 -0.943385E-04  0.169E-02    0.16       1.0  T
  13   -194.3561741 -0.275430E-04  0.749E-03    0.16       1.4  T
  14   -194.3561794 -0.529982E-05  0.331E-03    0.16       3.2  T
  15   -194.3561799 -0.526859E-06  0.174E-03    0.15       6.0  T
  16   -194.3561795  0.427819E-06  0.251E-03    0.15       4.2  T
  17   -194.3561796 -0.155530E-06  0.213E-03    0.15       4.9  T
  18   -194.3561800 -0.368616E-06  0.134E-03    0.15       7.8  T
  19   -194.3561801 -0.122355E-06  0.728E-04    0.15      14.3  T
  20   -194.3561802 -0.522796E-07  0.329E-04    0.15      31.7  T
     SCC iter.                  ...        0 min,  0.474 sec
     gradient                   ...        0 min,  0.051 sec
 * total energy  :  -192.4174325 Eh     change       -0.8963106E-03 Eh
   gradient norm :     0.0149372 Eh/α   predicted    -0.9596295E-03 (   7.06%)
   displ. norm   :     0.6168508 α      lambda       -0.1164519E-02
   maximum displ.:     0.3567665 α      in ANC's #6, #2, #11, ...

........................................................................
.............................. CYCLE   88 ..............................
........................................................................

 iter      E             dE          RMSdq      gap      omega  full diag
   1   -194.3616053 -0.194362E+03  0.272E-01    0.18       0.0  T
   2   -194.2986923  0.629130E-01  0.665E-01    0.05       1.0  T
   3   -194.3556229 -0.569306E-01  0.239E-01    0.36       1.0  T
   4   -194.3607261 -0.510318E-02  0.180E-01    0.19       1.0  T
   5   -194.3602972  0.428871E-03  0.122E-01    0.23       1.0  T
   6   -194.3610303 -0.733106E-03  0.988E-02    0.21       1.0  T
   7   -194.3615702 -0.539863E-03  0.732E-02    0.19       1.0  T
   8   -194.3620035 -0.433309E-03  0.348E-02    0.17       1.0  T
   9   -194.3621294 -0.125918E-03  0.143E-02    0.16       1.0  T
  10   -194.3621458 -0.163874E-04  0.719E-03    0.16       1.5  T
  11   -194.3621449  0.908260E-06  0.654E-03    0.16       1.6  T
  12   -194.3621448  0.778640E-07  0.565E-03    0.16       1.8  T
  13   -194.3621476 -0.275860E-05  0.293E-03    0.16       3.6  T
  14   -194.3621480 -0.403196E-06  0.200E-03    0.16       5.2  T
  15   -194.3621480 -0.203204E-07  0.155E-03    0.16       6.7  T
  16   -194.3621480 -0.195602E-07  0.127E-03    0.16       8.2  T
  17   -194.3621482 -0.151158E-06  0.538E-04    0.16      19.4  T
  18   -194.3621482  0.176155E-07  0.518E-04    0.16      20.1  T
     SCC iter.                  ...        0 min,  0.426 sec
     gradient                   ...        0 min,  0.051 sec
 * total energy  :  -192.4180870 Eh     change       -0.6545661E-03 Eh
   gradient norm :     0.0170821 Eh/α   predicted    -0.8038123E-03 (  22.80%)
   displ. norm   :     0.6259064 α      lambda       -0.1105104E-02
   maximum displ.:     0.3680599 α      in ANC's #6, #2, #8, ...

........................................................................
.............................. CYCLE   89 ..............................
........................................................................

 iter      E             dE          RMSdq      gap      omega  full diag
   1   -194.3483412 -0.194348E+03  0.242E-01    0.14       0.0  T
   2   -194.3456517  0.268953E-02  0.166E-01    0.25       1.0  T
   3   -193.8905909  0.455061E+00  0.174E+00    0.11       1.0  T
   4   -194.3481156 -0.457525E+00  0.119E-01    0.16       1.0  T
   5   -194.3474507  0.664870E-03  0.934E-02    0.20       1.0  T
   6   -194.3478702 -0.419480E-03  0.791E-02    0.19       1.0  T
   7   -194.3480651 -0.194912E-03  0.658E-02    0.19       1.0  T
   8   -194.3482555 -0.190436E-03  0.513E-02    0.18       1.0  T
   9   -194.3483615 -0.105939E-03  0.411E-02    0.17       1.0  T
  10   -194.3484447 -0.831911E-04  0.322E-02    0.17       1.0  T
  11   -194.3484998 -0.551334E-04  0.235E-02    0.17       1.0  T
  12   -194.3485559 -0.560954E-04  0.109E-02    0.16       1.0  T
  13   -194.3485649 -0.902936E-05  0.663E-03    0.16       1.6  T
  14   -194.3485680 -0.308509E-05  0.432E-03    0.16       2.4  T
  15   -194.3485697 -0.165996E-05  0.183E-03    0.16       5.7  T
  16   -194.3485700 -0.306047E-06  0.921E-04    0.16      11.3  T
  17   -194.3485700 -0.296697E-07  0.661E-04    0.16      15.8  T
     SCC iter.                  ...        0 min,  0.389 sec
     gradient                   ...        0 min,  0.050 sec
 * total energy  :  -192.4186732 Eh     change       -0.5861403E-03 Eh
   gradient norm :     0.0178049 Eh/α   predicted    -0.7690251E-03 (  31.20%)
   displ. norm   :     0.4348914 α      lambda       -0.1160258E-02
   maximum displ.:     0.2259148 α      in ANC's #6, #13, #11, ...

........................................................................
.............................. CYCLE   90 ..............................
........................................................................

 iter      E             dE          RMSdq      gap      omega  full diag
   1   -194.3603964 -0.194360E+03  0.211E-01    0.13       0.0  T
   2   -194.3543181  0.607835E-02  0.238E-01    0.36       1.0  T
   3   -194.3195719  0.347462E-01  0.507E-01    0.06       1.0  T
   4   -194.3582324 -0.386605E-01  0.177E-01    0.27       1.0  T
   5   -194.3591208 -0.888469E-03  0.135E-01    0.24       1.0  T
   6   -194.3597534 -0.632556E-03  0.115E-01    0.22       1.0  T
   7   -194.3605430 -0.789636E-03  0.848E-02    0.20       1.0  T
   8   -194.3611099 -0.566865E-03  0.460E-02    0.17       1.0  T
   9   -194.3613585 -0.248590E-03  0.147E-02    0.16       1.0  T
  10   -194.3613744 -0.159332E-04  0.831E-03    0.16       1.3  T
  11   -194.3613722  0.217242E-05  0.748E-03    0.15       1.4  T
  12   -194.3613749 -0.267570E-05  0.530E-03    0.15       2.0  T
  13   -194.3613776 -0.267713E-05  0.255E-03    0.15       4.1  T
  14   -194.3613778 -0.260410E-06  0.153E-03    0.15       6.8  T
  15   -194.3613780 -0.126230E-06  0.827E-04    0.16      12.6  T
  16   -194.3613780 -0.638491E-08  0.621E-04    0.16      16.8  T
     SCC iter.                  ...        0 min,  0.393 sec
     gradient                   ...        0 min,  0.051 sec
 * total energy  :  -192.4190656 Eh     change       -0.3923967E-03 Eh
   gradient norm :     0.0225059 Eh/α   predicted    -0.6898541E-03 (  75.81%)
   displ. norm   :     0.4283537 α      lambda       -0.1425471E-02
   maximum displ.:     0.2470490 α      in ANC's #6, #2, #8, ...

........................................................................
.............................. CYCLE   91 ..............................
........................................................................

 iter      E             dE          RMSdq      gap      omega  full diag
   1   -194.3554182 -0.194355E+03  0.192E-01    0.18       0.0  T
   2   -194.2860284  0.693898E-01  0.691E-01    0.05       1.0  T
   3   -194.3525345 -0.665061E-01  0.164E-01    0.26       1.0  T
   4   -194.3548781 -0.234355E-02  0.131E-01    0.16       1.0  T
   5   -194.3551328 -0.254783E-03  0.779E-02    0.19       1.0  T
   6   -194.3554947 -0.361840E-03  0.587E-02    0.18       1.0  T
   7   -194.3557204 -0.225716E-03  0.391E-02    0.17       1.0  T
   8   -194.3558197 -0.993436E-04  0.217E-02    0.16       1.0  T
   9   -194.3558682 -0.484693E-04  0.972E-03    0.16       1.1  T
  10   -194.3558739 -0.566141E-05  0.546E-03    0.16       1.9  T
  11   -194.3558758 -0.193779E-05  0.303E-03    0.15       3.4  T
  12   -194.3558752  0.625892E-06  0.298E-03    0.15       3.5  T
  13   -194.3558757 -0.488936E-06  0.214E-03    0.15       4.9  T
  14   -194.3558759 -0.238266E-06  0.148E-03    0.15       7.0  T
  15   -194.3558761 -0.158477E-06  0.744E-04    0.16      14.0  T
  16   -194.3558761  0.374993E-08  0.579E-04    0.16      18.0  T
     SCC iter.                  ...        0 min,  0.395 sec
     gradient                   ...        0 min,  0.051 sec
 * total energy  :  -192.4194096 Eh     change       -0.3440074E-03 Eh
   gradient norm :     0.0278136 Eh/α   predicted    -0.8435164E-03 ( 145.20%)
   displ. norm   :     0.2861407 α      lambda       -0.1685344E-02
   maximum displ.:     0.1491020 α      in ANC's #6, #8, #4, ...

........................................................................
.............................. CYCLE   92 ..............................
........................................................................

 iter      E             dE          RMSdq      gap      omega  full diag
   1   -194.3586988 -0.194359E+03  0.223E-01    0.23       0.0  T
   2   -193.8768682  0.481831E+00  0.181E+00    0.12       1.0  T
   3   -194.3592426 -0.482374E+00  0.121E-01    0.21       1.0  T
   4   -194.3596372 -0.394622E-03  0.124E-01    0.17       1.0  T
   5   -194.3597011 -0.638682E-04  0.805E-02    0.20       1.0  T
   6   -194.3602451 -0.544034E-03  0.553E-02    0.18       1.0  T
   7   -194.3601993  0.458480E-04  0.502E-02    0.18       1.0  T
   8   -194.3603644 -0.165160E-03  0.381E-02    0.18       1.0  T
   9   -194.3603986 -0.342268E-04  0.320E-02    0.17       1.0  T
  10   -194.3604468 -0.481445E-04  0.245E-02    0.17       1.0  T
  11   -194.3604957 -0.488799E-04  0.146E-02    0.17       1.0  T
  12   -194.3605156 -0.199214E-04  0.731E-03    0.16       1.4  T
  13   -194.3605202 -0.466172E-05  0.324E-03    0.16       3.2  T
  14   -194.3605210 -0.730141E-06  0.137E-03    0.16       7.6  T
  15   -194.3605206  0.357148E-06  0.198E-03    0.16       5.3  T
  16   -194.3605206 -0.128869E-07  0.186E-03    0.16       5.6  T
  17   -194.3605209 -0.260537E-06  0.125E-03    0.16       8.4  T
  18   -194.3605210 -0.724600E-07  0.867E-04    0.16      12.0  T
  19   -194.3605210 -0.675197E-07  0.472E-04    0.16      22.1  T
     SCC iter.                  ...        0 min,  0.455 sec
     gradient                   ...        0 min,  0.051 sec
 * total energy  :  -192.4198964 Eh     change       -0.4867707E-03 Eh
   gradient norm :     0.0232750 Eh/α   predicted    -0.9116685E-03 (  87.29%)
   displ. norm   :     0.3579975 α      lambda       -0.1260191E-02
   maximum displ.:     0.2083917 α      in ANC's #6, #2, #11, ...
 * RMSD in coord.:     1.3507005 α      energy gain  -0.2907182E-01 Eh

generating ANC from exact Hessian ...
Using Lindh-Hessian (1995)
 Shifting diagonal of input Hessian by   1.785575327825119E-002
 Lowest  eigenvalues of input Hessian
    0.010000    0.017383    0.017535    0.017632    0.000000    0.000000
    0.000000    0.000000    0.000000    0.000000    0.017967    0.018050
    0.018080    0.018169    0.018243    0.018369    0.018467    0.018532
 Highest eigenvalues
    2.140245    2.187980    2.242359    2.264179    2.271758    2.305169
 

........................................................................
.............................. CYCLE   93 ..............................
........................................................................

 iter      E             dE          RMSdq      gap      omega  full diag
   1   -194.3593657 -0.194359E+03  0.160E-01    0.13       0.0  T
   2   -194.3538753  0.549035E-02  0.233E-01    0.38       1.0  T
   3   -194.3594380 -0.556263E-02  0.107E-01    0.14       1.0  T
   4   -194.3600618 -0.623786E-03  0.648E-02    0.18       1.0  T
   5   -194.3598431  0.218625E-03  0.616E-02    0.14       1.0  T
   6   -194.3601512 -0.308024E-03  0.505E-02    0.18       1.0  T
   7   -194.3603396 -0.188420E-03  0.266E-02    0.17       1.0  T
   8   -194.3604195 -0.799036E-04  0.847E-03    0.16       1.2  T
   9   -194.3604183  0.116871E-05  0.729E-03    0.16       1.4  T
  10   -194.3604200 -0.172498E-05  0.516E-03    0.16       2.0  T
  11   -194.3604213 -0.123594E-05  0.339E-03    0.16       3.1  T
  12   -194.3604222 -0.936706E-06  0.174E-03    0.16       6.0  T
  13   -194.3604223 -0.536501E-07  0.136E-03    0.16       7.7  T
  14   -194.3604223 -0.288805E-07  0.901E-04    0.16      11.6  T
  15   -194.3604223 -0.560054E-07  0.533E-04    0.16      19.6  T
     SCC iter.                  ...        0 min,  0.365 sec
     gradient                   ...        0 min,  0.050 sec
 * total energy  :  -192.4203472 Eh     change       -0.4508286E-03 Eh
   gradient norm :     0.0186434 Eh/α   predicted     0.0000000E+00 (-100.00%)
   displ. norm   :     0.1054755 α      lambda       -0.6586373E-03
   maximum displ.:     0.0429503 α      in ANC's #6, #24, #32, ...

........................................................................
.............................. CYCLE   94 ..............................
........................................................................

 iter      E             dE          RMSdq      gap      omega  full diag
   1   -194.3593403 -0.194359E+03  0.112E-01    0.14       0.0  T
   2   -194.3554287  0.391160E-02  0.177E-01    0.29       1.0  T
   3   -194.3561682 -0.739514E-03  0.150E-01    0.11       1.0  T
   4   -194.3585997 -0.243152E-02  0.903E-02    0.21       1.0  T
   5   -194.3595091 -0.909356E-03  0.422E-02    0.17       1.0  T
   6   -194.3596396 -0.130556E-03  0.293E-02    0.17       1.0  T
   7   -194.3597050 -0.654107E-04  0.107E-02    0.16       1.0  T
   8   -194.3596970  0.806307E-05  0.116E-02    0.15       1.0  T
   9   -194.3597079 -0.109043E-04  0.592E-03    0.16       1.8  T
  10   -194.3597105 -0.261043E-05  0.232E-03    0.16       4.5  T
  11   -194.3597108 -0.314217E-06  0.116E-03    0.16       9.0  T
  12   -194.3597106  0.159242E-06  0.139E-03    0.16       7.5  T
  13   -194.3597108 -0.176075E-06  0.623E-04    0.16      16.7  T
  14   -194.3597108 -0.216243E-07  0.352E-04    0.16      29.6  T
     SCC iter.                  ...        0 min,  0.326 sec
     gradient                   ...        0 min,  0.050 sec
 * total energy  :  -192.4206723 Eh     change       -0.3250825E-03 Eh
   gradient norm :     0.0084176 Eh/α   predicted    -0.3329838E-03 (   2.43%)
   displ. norm   :     0.2079052 α      lambda       -0.8395526E-03
   maximum displ.:     0.1015183 α      in ANC's #6, #9, #24, ...

........................................................................
.............................. CYCLE   95 ..............................
........................................................................

 iter      E             dE          RMSdq      gap      omega  full diag
   1   -194.3592539 -0.194359E+03  0.203E-01    0.16       0.0  T
   2   -194.3536956  0.555834E-02  0.211E-01    0.10       1.0  T
   3   -194.3515074  0.218823E-02  0.248E-01    0.40       1.0  T
   4   -194.3580672 -0.655986E-02  0.128E-01    0.22       1.0  T
   5   -194.3590868 -0.101954E-02  0.617E-02    0.18       1.0  T
   6   -194.3593667 -0.279966E-03  0.401E-02    0.16       1.0  T
   7   -194.3593997 -0.329791E-04  0.225E-02    0.16       1.0  T
   8   -194.3594186 -0.188914E-04  0.100E-02    0.16       1.0  T
   9   -194.3594121  0.651679E-05  0.109E-02    0.15       1.0  T
  10   -194.3594236 -0.115579E-04  0.400E-03    0.16       2.6  T
  11   -194.3594241 -0.467260E-06  0.258E-03    0.16       4.0  T
  12   -194.3594243 -0.219903E-06  0.171E-03    0.16       6.1  T
  13   -194.3594237  0.626288E-06  0.248E-03    0.16       4.2  T
  14   -194.3594244 -0.668236E-06  0.708E-04    0.16      14.7  T
  15   -194.3594244 -0.325568E-08  0.524E-04    0.16      19.9  T
     SCC iter.                  ...        0 min,  0.338 sec
     gradient                   ...        0 min,  0.051 sec
 * total energy  :  -192.4204598 Eh     change        0.2125061E-03 Eh
   gradient norm :     0.0208459 Eh/α   predicted    -0.4379215E-03 (-306.07%)
   displ. norm   :     0.1358230 α      lambda       -0.1493278E-02
   maximum displ.:     0.0958248 α      in ANC's #1, #24, #6, ...

........................................................................
.............................. CYCLE   96 ..............................
........................................................................

 iter      E             dE          RMSdq      gap      omega  full diag
   1   -194.3596826 -0.194360E+03  0.179E-01    0.17       0.0  T
   2   -194.3552493  0.443322E-02  0.188E-01    0.11       1.0  T
   3   -194.3533708  0.187850E-02  0.238E-01    0.37       1.0  T
   4   -194.3582383 -0.486750E-02  0.120E-01    0.24       1.0  T
   5   -194.3597659 -0.152759E-02  0.505E-02    0.17       1.0  T
   6   -194.3598576 -0.917048E-04  0.372E-02    0.17       1.0  T
   7   -194.3598861 -0.285212E-04  0.240E-02    0.16       1.0  T
   8   -194.3599003 -0.141799E-04  0.184E-02    0.15       1.0  T
   9   -194.3599318 -0.314956E-04  0.775E-03    0.16       1.3  T
  10   -194.3599306  0.123741E-05  0.579E-03    0.16       1.8  T
  11   -194.3599337 -0.316038E-05  0.253E-03    0.16       4.1  T
  12   -194.3599339 -0.110229E-06  0.191E-03    0.16       5.5  T
  13   -194.3599340 -0.102637E-06  0.129E-03    0.16       8.1  T
  14   -194.3599340 -0.715299E-07  0.864E-04    0.16      12.1  T
  15   -194.3599341 -0.553680E-07  0.436E-04    0.16      23.9  T
     SCC iter.                  ...        0 min,  0.348 sec
     gradient                   ...        0 min,  0.051 sec
 * total energy  :  -192.4208480 Eh     change       -0.3882420E-03 Eh
   gradient norm :     0.0117438 Eh/α   predicted    -0.7604133E-03 (  95.86%)
   displ. norm   :     0.2447120 α      lambda       -0.1331879E-02
   maximum displ.:     0.2040937 α      in ANC's #1, #24, #23, ...

........................................................................
.............................. CYCLE   97 ..............................
........................................................................

 iter      E             dE          RMSdq      gap      omega  full diag
   1   -194.3597460 -0.194360E+03  0.387E-01    0.17       0.0  T
   2   -194.3525170  0.722901E-02  0.251E-01    0.10       1.0  T
   3   -194.3415403  0.109767E-01  0.455E-01    0.67       1.0  T
   4   -194.3542704 -0.127301E-01  0.213E-01    0.42       1.0  T
   5   -194.3579278 -0.365733E-02  0.136E-01    0.25       1.0  T
   6   -194.3595053 -0.157755E-02  0.921E-02    0.19       1.0  T
   7   -194.3598743 -0.369047E-03  0.476E-02    0.16       1.0  T
   8   -194.3595136  0.360707E-03  0.666E-02    0.14       1.0  T
   9   -194.3599067 -0.393054E-03  0.249E-02    0.15       1.0  T
  10   -194.3599621 -0.554076E-04  0.107E-02    0.16       1.0  T
  11   -194.3599666 -0.446864E-05  0.776E-03    0.16       1.3  T
  12   -194.3599724 -0.579318E-05  0.307E-03    0.16       3.4  T
  13   -194.3599725 -0.124023E-06  0.192E-03    0.16       5.4  T
  14   -194.3599725 -0.207432E-07  0.124E-03    0.16       8.4  T
  15   -194.3599726 -0.545772E-07  0.805E-04    0.16      13.0  T
  16   -194.3599726 -0.177452E-07  0.562E-04    0.16      18.6  T
     SCC iter.                  ...        0 min,  0.381 sec
     gradient                   ...        0 min,  0.051 sec
 * total energy  :  -192.4197972 Eh     change        0.1050835E-02 Eh
   gradient norm :     0.0193295 Eh/α   predicted    -0.7058185E-03 (-167.17%)
   displ. norm   :     0.1915247 α      lambda       -0.2764088E-02
   maximum displ.:     0.1490207 α      in ANC's #1, #24, #6, ...

........................................................................
.............................. CYCLE   98 ..............................
........................................................................

 iter      E             dE          RMSdq      gap      omega  full diag
   1   -194.3592212 -0.194359E+03  0.319E-01    0.13       0.0  T
   2   -194.3526733  0.654795E-02  0.267E-01    0.39       1.0  T
   3   -194.0277444  0.324929E+00  0.147E+00    0.07       1.0  T
   4   -194.3588950 -0.331151E+00  0.197E-01    0.22       1.0  T
   5   -194.3579613  0.933625E-03  0.143E-01    0.24       1.0  T
   6   -194.3586898 -0.728510E-03  0.131E-01    0.23       1.0  T
   7   -194.3587925 -0.102640E-03  0.116E-01    0.22       1.0  T
   8   -194.3592079 -0.415443E-03  0.953E-02    0.21       1.0  T
   9   -194.3596024 -0.394477E-03  0.749E-02    0.19       1.0  T
  10   -194.3598428 -0.240442E-03  0.610E-02    0.18       1.0  T
  11   -194.3599958 -0.153003E-03  0.495E-02    0.18       1.0  T
  12   -194.3601440 -0.148156E-03  0.351E-02    0.17       1.0  T
  13   -194.3602596 -0.115580E-03  0.173E-02    0.16       1.0  T
  14   -194.3602854 -0.258092E-04  0.888E-03    0.16       1.2  T
  15   -194.3602940 -0.858044E-05  0.249E-03    0.16       4.2  T
  16   -194.3602941 -0.168992E-06  0.189E-03    0.16       5.5  T
  17   -194.3602944 -0.227343E-06  0.122E-03    0.16       8.5  T
  18   -194.3602945 -0.149885E-06  0.381E-04    0.16      27.4  T
  19   -194.3602945  0.502519E-08  0.331E-04    0.16      31.5  T
     SCC iter.                  ...        0 min,  0.428 sec
     gradient                   ...        0 min,  0.052 sec
 * total energy  :  -192.4211936 Eh     change       -0.1396464E-02 Eh
   gradient norm :     0.0047478 Eh/α   predicted    -0.1432739E-02 (   2.60%)
   displ. norm   :     0.1379897 α      lambda       -0.2776856E-03
   maximum displ.:     0.0850011 α      in ANC's #6, #9, #4, ...

........................................................................
.............................. CYCLE   99 ..............................
........................................................................

 iter      E             dE          RMSdq      gap      omega  full diag
   1   -194.3605283 -0.194361E+03  0.101E-01    0.17       0.0  T
   2   -194.3427062  0.178221E-01  0.339E-01    0.08       1.0  T
   3   -194.3592244 -0.165182E-01  0.973E-02    0.21       1.0  T
   4   -194.3605298 -0.130547E-02  0.515E-02    0.17       1.0  T
   5   -194.3604357  0.941337E-04  0.419E-02    0.17       1.0  T
   6   -194.3605492 -0.113495E-03  0.316E-02    0.17       1.0  T
   7   -194.3606264 -0.772473E-04  0.191E-02    0.16       1.0  T
   8   -194.3606644 -0.380003E-04  0.602E-03    0.16       1.7  T
   9   -194.3606680 -0.358278E-05  0.284E-03    0.16       3.7  T
  10   -194.3606684 -0.337493E-06  0.176E-03    0.16       5.9  T
  11   -194.3606683  0.447170E-07  0.147E-03    0.16       7.1  T
  12   -194.3606683 -0.179338E-07  0.115E-03    0.16       9.1  T
  13   -194.3606684 -0.112459E-06  0.611E-04    0.16      17.1  T
  14   -194.3606685 -0.226885E-07  0.355E-04    0.16      29.3  T
     SCC iter.                  ...        0 min,  0.339 sec
     gradient                   ...        0 min,  0.052 sec
 * total energy  :  -192.4213147 Eh     change       -0.1210597E-03 Eh
   gradient norm :     0.0069170 Eh/α   predicted    -0.1414935E-03 (  16.88%)
   displ. norm   :     0.2015755 α      lambda       -0.3064505E-03
   maximum displ.:     0.1359870 α      in ANC's #6, #9, #4, ...

........................................................................
.............................. CYCLE  100 ..............................
........................................................................

 iter      E             dE          RMSdq      gap      omega  full diag
   1   -194.3602642 -0.194360E+03  0.763E-02    0.15       0.0  T
   2   -194.3584916  0.177258E-02  0.109E-01    0.22       1.0  T
   3   -194.3516295  0.686208E-02  0.234E-01    0.09       1.0  T
   4   -194.3602100 -0.858047E-02  0.442E-02    0.17       1.0  T
   5   -194.3602362 -0.262500E-04  0.309E-02    0.17       1.0  T
   6   -194.3603024 -0.661479E-04  0.224E-02    0.16       1.0  T
   7   -194.3603344 -0.320081E-04  0.129E-02    0.16       1.0  T
   8   -194.3603492 -0.148131E-04  0.568E-03    0.16       1.8  T
   9   -194.3603513 -0.205616E-05  0.319E-03    0.15       3.3  T
  10   -194.3603513 -0.655069E-07  0.249E-03    0.15       4.2  T
  11   -194.3603515 -0.209296E-06  0.151E-03    0.15       6.9  T
  12   -194.3603516 -0.878667E-07  0.942E-04    0.15      11.1  T
  13   -194.3603516 -0.201418E-07  0.668E-04    0.15      15.6  T
     SCC iter.                  ...        0 min,  0.324 sec
     gradient                   ...        0 min,  0.053 sec
 * total energy  :  -192.4215723 Eh     change       -0.2575634E-03 Eh
   gradient norm :     0.0058487 Eh/α   predicted    -0.1594567E-03 ( -38.09%)
   displ. norm   :     0.5780627 α      lambda       -0.7307722E-03
   maximum displ.:     0.3990839 α      in ANC's #6, #9, #4, ...

........................................................................
.............................. CYCLE  101 ..............................
........................................................................

 iter      E             dE          RMSdq      gap      omega  full diag
   1   -194.3571060 -0.194357E+03  0.204E-01    0.12       0.0  T
   2   -194.3476822  0.942381E-02  0.313E-01    0.46       1.0  T
   3   -194.3586298 -0.109477E-01  0.111E-01    0.16       1.0  T
   4   -194.3545827  0.404712E-02  0.173E-01    0.10       1.0  T
   5   -194.3573805 -0.279778E-02  0.109E-01    0.21       1.0  T
   6   -194.3585241 -0.114366E-02  0.661E-02    0.17       1.0  T
   7   -194.3587371 -0.212951E-03  0.395E-02    0.16       1.0  T
   8   -194.3588154 -0.783377E-04  0.252E-02    0.16       1.0  T
   9   -194.3588927 -0.772760E-04  0.869E-03    0.15       1.2  T
  10   -194.3588899  0.280753E-05  0.889E-03    0.15       1.2  T
  11   -194.3588857  0.421965E-05  0.902E-03    0.15       1.2  T
  12   -194.3588939 -0.823347E-05  0.415E-03    0.15       2.5  T
  13   -194.3588956 -0.171648E-05  0.176E-03    0.15       5.9  T
  14   -194.3588957 -0.584628E-07  0.119E-03    0.15       8.8  T
  15   -194.3588957 -0.458863E-07  0.807E-04    0.15      12.9  T
  16   -194.3588958 -0.175806E-07  0.564E-04    0.15      18.5  T
     SCC iter.                  ...        0 min,  0.387 sec
     gradient                   ...        0 min,  0.051 sec
 * total energy  :  -192.4221144 Eh     change       -0.5421046E-03 Eh
   gradient norm :     0.0066316 Eh/α   predicted    -0.4875173E-03 ( -10.07%)
   displ. norm   :     0.6058387 α      lambda       -0.5538970E-03
   maximum displ.:     0.4297927 α      in ANC's #6, #4, #9, ...

........................................................................
.............................. CYCLE  102 ..............................
........................................................................

 iter      E             dE          RMSdq      gap      omega  full diag
   1   -194.3568166 -0.194357E+03  0.162E-01    0.13       0.0  T
   2   -194.3519494  0.486721E-02  0.195E-01    0.28       1.0  T
   3   -194.2884204  0.635290E-01  0.664E-01    0.05       1.0  T
   4   -194.3563515 -0.679311E-01  0.124E-01    0.18       1.0  T
   5   -194.3559808  0.370762E-03  0.988E-02    0.19       1.0  T
   6   -194.3562757 -0.294976E-03  0.901E-02    0.18       1.0  T
   7   -194.3566195 -0.343752E-03  0.706E-02    0.18       1.0  T
   8   -194.3568745 -0.255013E-03  0.499E-02    0.17       1.0  T
   9   -194.3570579 -0.183355E-03  0.322E-02    0.16       1.0  T
  10   -194.3571645 -0.106659E-03  0.149E-02    0.15       1.0  T
  11   -194.3571901 -0.255674E-04  0.325E-03    0.15       3.2  T
  12   -194.3571848  0.532548E-05  0.679E-03    0.14       1.5  T
  13   -194.3571862 -0.142498E-05  0.580E-03    0.15       1.8  T
  14   -194.3571889 -0.276809E-05  0.362E-03    0.15       2.9  T
  15   -194.3571903 -0.136271E-05  0.158E-03    0.15       6.6  T
  16   -194.3571906 -0.262012E-06  0.564E-04    0.15      18.5  T
  17   -194.3571906 -0.159983E-07  0.305E-04    0.15      34.2  T
     SCC iter.                  ...        0 min,  0.394 sec
     gradient                   ...        0 min,  0.054 sec
 * total energy  :  -192.4225594 Eh     change       -0.4450908E-03 Eh
   gradient norm :     0.0092632 Eh/α   predicted    -0.3786311E-03 ( -14.93%)
   displ. norm   :     0.6354625 α      lambda       -0.6007929E-03
   maximum displ.:     0.4637391 α      in ANC's #6, #4, #9, ...

........................................................................
.............................. CYCLE  103 ..............................
........................................................................

 iter      E             dE          RMSdq      gap      omega  full diag
   1   -194.3573818 -0.194357E+03  0.156E-01    0.14       0.0  T
   2   -194.3551036  0.227827E-02  0.138E-01    0.21       1.0  T
   3   -194.1528720  0.202232E+00  0.116E+00    0.04       1.0  T
   4   -194.3570723 -0.204200E+00  0.933E-02    0.15       1.0  T
   5   -194.3569256  0.146634E-03  0.695E-02    0.17       1.0  T
   6   -194.3571288 -0.203217E-03  0.582E-02    0.17       1.0  T
   7   -194.3573512 -0.222316E-03  0.405E-02    0.16       1.0  T
   8   -194.3573542 -0.305221E-05  0.359E-02    0.16       1.0  T
   9   -194.3574434 -0.891498E-04  0.251E-02    0.15       1.0  T
  10   -194.3574914 -0.480259E-04  0.150E-02    0.15       1.0  T
  11   -194.3575171 -0.256719E-04  0.538E-03    0.15       1.9  T
  12   -194.3575202 -0.315734E-05  0.175E-03    0.15       6.0  T
  13   -194.3575204 -0.209835E-06  0.107E-03    0.15       9.7  T
  14   -194.3575205 -0.384093E-07  0.582E-04    0.15      17.9  T
  15   -194.3575205 -0.190465E-08  0.420E-04    0.15      24.8  T
     SCC iter.                  ...        0 min,  0.361 sec
     gradient                   ...        0 min,  0.051 sec
 * total energy  :  -192.4230865 Eh     change       -0.5270340E-03 Eh
   gradient norm :     0.0095496 Eh/α   predicted    -0.4217261E-03 ( -19.98%)
   displ. norm   :     0.5441724 α      lambda       -0.7375502E-03
   maximum displ.:     0.4043834 α      in ANC's #6, #4, #10, ...

........................................................................
.............................. CYCLE  104 ..............................
........................................................................

 iter      E             dE          RMSdq      gap      omega  full diag
   1   -194.3640175 -0.194364E+03  0.145E-01    0.15       0.0  T
   2   -194.3635581  0.459420E-03  0.849E-02    0.13       1.0  T
   3   -194.3594439  0.411418E-02  0.183E-01    0.27       1.0  T
   4   -194.3633079 -0.386397E-02  0.774E-02    0.13       1.0  T
   5   -194.3635171 -0.209177E-03  0.631E-02    0.17       1.0  T
   6   -194.3640739 -0.556838E-03  0.150E-02    0.15       1.0  T
   7   -194.3640723  0.155614E-05  0.105E-02    0.15       1.0  T
   8   -194.3640757 -0.334052E-05  0.638E-03    0.15       1.6  T
   9   -194.3640761 -0.460111E-06  0.535E-03    0.15       1.9  T
  10   -194.3640772 -0.108510E-05  0.342E-03    0.15       3.0  T
  11   -194.3640772 -0.311220E-07  0.234E-03    0.15       4.5  T
  12   -194.3640775 -0.204561E-06  0.132E-03    0.15       7.9  T
  13   -194.3640775 -0.129926E-07  0.107E-03    0.15       9.8  T
  14   -194.3640775 -0.492064E-07  0.635E-04    0.15      16.4  T
  15   -194.3640775 -0.340521E-09  0.500E-04    0.15      20.9  T
     SCC iter.                  ...        0 min,  0.345 sec
     gradient                   ...        0 min,  0.050 sec
 * total energy  :  -192.4236896 Eh     change       -0.6031272E-03 Eh
   gradient norm :     0.0073423 Eh/α   predicted    -0.4780058E-03 ( -20.75%)
   displ. norm   :     0.6578230 α      lambda       -0.7304939E-03
   maximum displ.:     0.4881985 α      in ANC's #6, #4, #10, ...

........................................................................
.............................. CYCLE  105 ..............................
........................................................................

 iter      E             dE          RMSdq      gap      omega  full diag
   1   -194.3644716 -0.194364E+03  0.157E-01    0.16       0.0  T
   2   -194.3441338  0.203378E-01  0.373E-01    0.07       1.0  T
   3   -194.3601434 -0.160096E-01  0.180E-01    0.27       1.0  T
   4   -194.3640474 -0.390406E-02  0.106E-01    0.17       1.0  T
   5   -194.3638001  0.247355E-03  0.819E-02    0.18       1.0  T
   6   -194.3643205 -0.520448E-03  0.558E-02    0.17       1.0  T
   7   -194.3645739 -0.253378E-03  0.303E-02    0.16       1.0  T
   8   -194.3646549 -0.809763E-04  0.117E-02    0.15       1.0  T
   9   -194.3646678 -0.128688E-04  0.579E-03    0.15       1.8  T
  10   -194.3646680 -0.253165E-06  0.448E-03    0.15       2.3  T
  11   -194.3646682 -0.192045E-06  0.322E-03    0.15       3.2  T
  12   -194.3646683 -0.146593E-06  0.235E-03    0.15       4.4  T
  13   -194.3646687 -0.354981E-06  0.148E-03    0.15       7.0  T
  14   -194.3646687 -0.500405E-07  0.992E-04    0.15      10.5  T
  15   -194.3646688 -0.180806E-07  0.665E-04    0.15      15.7  T
     SCC iter.                  ...        0 min,  0.347 sec
     gradient                   ...        0 min,  0.051 sec
 * total energy  :  -192.4243285 Eh     change       -0.6389025E-03 Eh
   gradient norm :     0.0082100 Eh/α   predicted    -0.5233308E-03 ( -18.09%)
   displ. norm   :     0.6796758 α      lambda       -0.7665516E-03
   maximum displ.:     0.5055776 α      in ANC's #6, #4, #10, ...

........................................................................
.............................. CYCLE  106 ..............................
........................................................................

 iter      E             dE          RMSdq      gap      omega  full diag
   1   -194.3636599 -0.194364E+03  0.158E-01    0.15       0.0  T
   2   -194.3635765  0.834101E-04  0.759E-02    0.15       1.0  T
   3   -194.3621870  0.138949E-02  0.120E-01    0.13       1.0  T
   4   -194.3617784  0.408652E-03  0.112E-01    0.21       1.0  T
   5   -194.3635851 -0.180667E-02  0.357E-02    0.14       1.0  T
   6   -194.3636595 -0.744177E-04  0.233E-02    0.15       1.0  T
   7   -194.3637128 -0.533689E-04  0.896E-03    0.15       1.2  T
   8   -194.3637141 -0.129148E-05  0.646E-03    0.15       1.6  T
   9   -194.3637151 -0.956828E-06  0.461E-03    0.15       2.3  T
  10   -194.3637150  0.733465E-07  0.374E-03    0.15       2.8  T
  11   -194.3637152 -0.159998E-06  0.272E-03    0.15       3.8  T
  12   -194.3637155 -0.295066E-06  0.155E-03    0.15       6.7  T
  13   -194.3637155 -0.470570E-07  0.119E-03    0.15       8.7  T
  14   -194.3637155 -0.259288E-07  0.812E-04    0.15      12.8  T
  15   -194.3637155  0.115418E-08  0.629E-04    0.15      16.6  T
     SCC iter.                  ...        0 min,  0.350 sec
     gradient                   ...        0 min,  0.050 sec
 * total energy  :  -192.4250261 Eh     change       -0.6975521E-03 Eh
   gradient norm :     0.0092439 Eh/α   predicted    -0.5603669E-03 ( -19.67%)
   displ. norm   :     0.6842347 α      lambda       -0.8509817E-03
   maximum displ.:     0.5070826 α      in ANC's #6, #4, #10, ...

........................................................................
.............................. CYCLE  107 ..............................
........................................................................

 iter      E             dE          RMSdq      gap      omega  full diag
   1   -194.3635336 -0.194364E+03  0.156E-01    0.16       0.0  T
   2   -194.3535168  0.100168E-01  0.268E-01    0.09       1.0  T
   3   -194.3586837 -0.516695E-02  0.187E-01    0.29       1.0  T
   4   -194.3630235 -0.433980E-02  0.110E-01    0.17       1.0  T
   5   -194.3629155  0.108072E-03  0.775E-02    0.18       1.0  T
   6   -194.3634004 -0.484966E-03  0.518E-02    0.17       1.0  T
   7   -194.3635897 -0.189254E-03  0.285E-02    0.16       1.0  T
   8   -194.3636623 -0.726072E-04  0.872E-03    0.15       1.2  T
   9   -194.3636629 -0.565862E-06  0.738E-03    0.15       1.4  T
  10   -194.3636641 -0.123230E-05  0.541E-03    0.15       1.9  T
  11   -194.3636651 -0.104883E-05  0.318E-03    0.15       3.3  T
  12   -194.3636653 -0.134872E-06  0.218E-03    0.15       4.8  T
  13   -194.3636652  0.524003E-07  0.187E-03    0.15       5.6  T
  14   -194.3636654 -0.138532E-06  0.125E-03    0.15       8.4  T
  15   -194.3636654 -0.374908E-07  0.896E-04    0.15      11.6  T
  16   -194.3636654 -0.149088E-07  0.555E-04    0.15      18.8  T
     SCC iter.                  ...        0 min,  0.388 sec
     gradient                   ...        0 min,  0.052 sec
 * total energy  :  -192.4257911 Eh     change       -0.7649997E-03 Eh
   gradient norm :     0.0086349 Eh/α   predicted    -0.6247332E-03 ( -18.34%)
   displ. norm   :     0.7457316 α      lambda       -0.8826291E-03
   maximum displ.:     0.5596139 α      in ANC's #6, #4, #10, ...

........................................................................
.............................. CYCLE  108 ..............................
........................................................................

 iter      E             dE          RMSdq      gap      omega  full diag
   1   -194.3610145 -0.194361E+03  0.159E-01    0.15       0.0  T
   2   -194.3590377  0.197683E-02  0.135E-01    0.11       1.0  T
   3   -194.3541518  0.488583E-02  0.226E-01    0.34       1.0  T
   4   -194.3599291 -0.577727E-02  0.111E-01    0.20       1.0  T
   5   -194.3607542 -0.825121E-03  0.537E-02    0.17       1.0  T
   6   -194.3610268 -0.272573E-03  0.293E-02    0.15       1.0  T
   7   -194.3610449 -0.181103E-04  0.183E-02    0.15       1.0  T
   8   -194.3610694 -0.244981E-04  0.863E-03    0.15       1.2  T
   9   -194.3610699 -0.508860E-06  0.705E-03    0.15       1.5  T
  10   -194.3610723 -0.240525E-05  0.383E-03    0.15       2.7  T
  11   -194.3610721  0.208132E-06  0.333E-03    0.15       3.1  T
  12   -194.3610726 -0.444105E-06  0.216E-03    0.15       4.8  T
  13   -194.3610726 -0.553317E-07  0.162E-03    0.15       6.4  T
  14   -194.3610727 -0.126689E-06  0.110E-03    0.15       9.5  T
  15   -194.3610726  0.125707E-06  0.132E-03    0.15       7.9  T
  16   -194.3610728 -0.166456E-06  0.439E-04    0.15      23.7  T
  17   -194.3610728 -0.257552E-08  0.237E-04    0.15      44.0  T
     SCC iter.                  ...        0 min,  0.396 sec
     gradient                   ...        0 min,  0.051 sec
 * total energy  :  -192.4265825 Eh     change       -0.7914525E-03 Eh
   gradient norm :     0.0075302 Eh/α   predicted    -0.6867797E-03 ( -13.23%)
   displ. norm   :     0.7504715 α      lambda       -0.8575285E-03
   maximum displ.:     0.5668920 α      in ANC's #6, #4, #10, ...

........................................................................
.............................. CYCLE  109 ..............................
........................................................................

 iter      E             dE          RMSdq      gap      omega  full diag
   1   -194.3606367 -0.194361E+03  0.148E-01    0.15       0.0  T
   2   -194.3544854  0.615133E-02  0.211E-01    0.10       1.0  T
   3   -194.3554255 -0.940101E-03  0.193E-01    0.29       1.0  T
   4   -194.3599299 -0.450436E-02  0.104E-01    0.18       1.0  T
   5   -194.3601309 -0.201055E-03  0.691E-02    0.17       1.0  T
   6   -194.3605581 -0.427162E-03  0.437E-02    0.16       1.0  T
   7   -194.3606763 -0.118264E-03  0.211E-02    0.15       1.0  T
   8   -194.3607119 -0.355522E-04  0.758E-03    0.15       1.4  T
   9   -194.3607125 -0.562753E-06  0.600E-03    0.14       1.7  T
  10   -194.3607134 -0.922060E-06  0.384E-03    0.15       2.7  T
  11   -194.3607138 -0.433556E-06  0.252E-03    0.15       4.1  T
  12   -194.3607138 -0.327521E-07  0.179E-03    0.15       5.8  T
  13   -194.3607140 -0.186946E-06  0.102E-03    0.15      10.2  T
  14   -194.3607141 -0.164582E-07  0.784E-04    0.15      13.3  T
  15   -194.3607140  0.122671E-08  0.691E-04    0.15      15.1  T
     SCC iter.                  ...        0 min,  0.367 sec
     gradient                   ...        0 min,  0.052 sec
 * total energy  :  -192.4273516 Eh     change       -0.7690559E-03 Eh
   gradient norm :     0.0067882 Eh/α   predicted    -0.6702934E-03 ( -12.84%)
   displ. norm   :     0.7834662 α      lambda       -0.8618339E-03
   maximum displ.:     0.5966705 α      in ANC's #6, #4, #10, ...

........................................................................
.............................. CYCLE  110 ..............................
........................................................................

 iter      E             dE          RMSdq      gap      omega  full diag
   1   -194.3597372 -0.194360E+03  0.159E-01    0.15       0.0  T
   2   -194.3511922  0.854501E-02  0.244E-01    0.09       1.0  T
   3   -194.3541502 -0.295804E-02  0.200E-01    0.30       1.0  T
   4   -194.3588682 -0.471799E-02  0.110E-01    0.19       1.0  T
   5   -194.3591274 -0.259163E-03  0.753E-02    0.18       1.0  T
   6   -194.3595931 -0.465713E-03  0.509E-02    0.16       1.0  T
   7   -194.3597584 -0.165294E-03  0.253E-02    0.15       1.0  T
   8   -194.3598203 -0.619243E-04  0.770E-03    0.14       1.4  T
   9   -194.3598224 -0.210193E-05  0.517E-03    0.14       2.0  T
  10   -194.3598229 -0.524557E-06  0.304E-03    0.14       3.4  T
  11   -194.3598232 -0.244240E-06  0.202E-03    0.15       5.2  T
  12   -194.3598232 -0.631651E-07  0.139E-03    0.15       7.5  T
  13   -194.3598233 -0.940912E-07  0.799E-04    0.15      13.1  T
  14   -194.3598234 -0.250541E-07  0.500E-04    0.14      20.8  T
     SCC iter.                  ...        0 min,  0.327 sec
     gradient                   ...        0 min,  0.051 sec
 * total energy  :  -192.4281385 Eh     change       -0.7869380E-03 Eh
   gradient norm :     0.0081413 Eh/α   predicted    -0.6954692E-03 ( -11.62%)
   displ. norm   :     0.8110934 α      lambda       -0.9479200E-03
   maximum displ.:     0.6203692 α      in ANC's #6, #4, #10, ...

........................................................................
.............................. CYCLE  111 ..............................
........................................................................

 iter      E             dE          RMSdq      gap      omega  full diag
   1   -194.3620277 -0.194362E+03  0.163E-01    0.15       0.0  T
   2   -194.3574476  0.458009E-02  0.184E-01    0.10       1.0  T
   3   -194.3548045  0.264309E-02  0.230E-01    0.34       1.0  T
   4   -194.3605214 -0.571682E-02  0.121E-01    0.20       1.0  T
   5   -194.3616838 -0.116247E-02  0.619E-02    0.16       1.0  T
   6   -194.3620089 -0.325081E-03  0.373E-02    0.15       1.0  T
   7   -194.3620799 -0.709984E-04  0.169E-02    0.14       1.0  T
   8   -194.3620930 -0.131032E-04  0.941E-03    0.14       1.1  T
   9   -194.3620974 -0.437935E-05  0.588E-03    0.14       1.8  T
  10   -194.3620988 -0.138340E-05  0.303E-03    0.14       3.4  T
  11   -194.3620985  0.336306E-06  0.286E-03    0.14       3.7  T
  12   -194.3620988 -0.343660E-06  0.192E-03    0.14       5.4  T
  13   -194.3620990 -0.215624E-06  0.102E-03    0.14      10.2  T
  14   -194.3620990  0.171774E-07  0.946E-04    0.14      11.0  T
  15   -194.3620990 -0.248842E-07  0.740E-04    0.14      14.1  T
     SCC iter.                  ...        0 min,  0.355 sec
     gradient                   ...        0 min,  0.051 sec
 * total energy  :  -192.4289990 Eh     change       -0.8605099E-03 Eh
   gradient norm :     0.0090726 Eh/α   predicted    -0.7858198E-03 (  -8.68%)
   displ. norm   :     0.8297493 α      lambda       -0.9909924E-03
   maximum displ.:     0.6295819 α      in ANC's #6, #4, #10, ...

........................................................................
.............................. CYCLE  112 ..............................
........................................................................

 iter      E             dE          RMSdq      gap      omega  full diag
   1   -194.3624654 -0.194362E+03  0.175E-01    0.14       0.0  T
   2   -194.3621869  0.278495E-03  0.814E-02    0.13       1.0  T
   3   -194.3566417  0.554524E-02  0.200E-01    0.28       1.0  T
   4   -194.3624538 -0.581213E-02  0.395E-02    0.13       1.0  T
   5   -194.3624851 -0.312496E-04  0.256E-02    0.14       1.0  T
   6   -194.3623345  0.150515E-03  0.374E-02    0.13       1.0  T
   7   -194.3624977 -0.163181E-03  0.161E-02    0.14       1.0  T
   8   -194.3625157 -0.179723E-04  0.768E-03    0.14       1.4  T
   9   -194.3625174 -0.165567E-05  0.550E-03    0.14       1.9  T
  10   -194.3625161  0.130172E-05  0.543E-03    0.14       1.9  T
  11   -194.3625146  0.140885E-05  0.542E-03    0.14       1.9  T
  12   -194.3625181 -0.343577E-05  0.187E-03    0.14       5.6  T
  13   -194.3625181 -0.393872E-07  0.142E-03    0.14       7.3  T
  14   -194.3625181 -0.182374E-07  0.108E-03    0.14       9.7  T
  15   -194.3625181 -0.101672E-07  0.692E-04    0.14      15.1  T
  16   -194.3625182 -0.194035E-08  0.501E-04    0.14      20.8  T
     SCC iter.                  ...        0 min,  0.383 sec
     gradient                   ...        0 min,  0.052 sec
 * total energy  :  -192.4299155 Eh     change       -0.9165147E-03 Eh
   gradient norm :     0.0097929 Eh/α   predicted    -0.8366982E-03 (  -8.71%)
   displ. norm   :     0.7959701 α      lambda       -0.1094101E-02
   maximum displ.:     0.5893841 α      in ANC's #6, #4, #3, ...

........................................................................
.............................. CYCLE  113 ..............................
........................................................................

 iter      E             dE          RMSdq      gap      omega  full diag
   1   -194.3697462 -0.194370E+03  0.180E-01    0.14       0.0  T
   2   -194.3696588  0.873438E-04  0.772E-02    0.15       1.0  T
   3   -194.3425318  0.271270E-01  0.437E-01    0.06       1.0  T
   4   -194.3690392 -0.265074E-01  0.829E-02    0.16       1.0  T
   5   -194.3693548 -0.315585E-03  0.620E-02    0.12       1.0  T
   6   -194.3697964 -0.441691E-03  0.218E-02    0.14       1.0  T
   7   -194.3698088 -0.123300E-04  0.172E-02    0.14       1.0  T
   8   -194.3698208 -0.119981E-04  0.101E-02    0.13       1.0  T
   9   -194.3698216 -0.858771E-06  0.806E-03    0.13       1.3  T
  10   -194.3698232 -0.160567E-05  0.577E-03    0.14       1.8  T
  11   -194.3698240 -0.727572E-06  0.333E-03    0.14       3.1  T
  12   -194.3698241 -0.157969E-06  0.234E-03    0.14       4.5  T
  13   -194.3698241 -0.146883E-07  0.188E-03    0.14       5.5  T
  14   -194.3698241  0.166517E-07  0.154E-03    0.13       6.8  T
  15   -194.3698243 -0.136570E-06  0.831E-04    0.14      12.5  T
  16   -194.3698242  0.825625E-08  0.665E-04    0.14      15.7  T
     SCC iter.                  ...        0 min,  0.382 sec
     gradient                   ...        0 min,  0.053 sec
 * total energy  :  -192.4308539 Eh     change       -0.9384117E-03 Eh
   gradient norm :     0.0086616 Eh/α   predicted    -0.8937162E-03 (  -4.76%)
   displ. norm   :     0.8801390 α      lambda       -0.1112506E-02
   maximum displ.:     0.6530787 α      in ANC's #6, #4, #10, ...

........................................................................
.............................. CYCLE  114 ..............................
........................................................................

 iter      E             dE          RMSdq      gap      omega  full diag
   1   -194.3602949 -0.194360E+03  0.189E-01    0.12       0.0  T
   2   -194.3542817  0.601326E-02  0.211E-01    0.27       1.0  T
   3   -194.1331450  0.221137E+00  0.124E+00    0.04       1.0  T
   4   -194.3604056 -0.227261E+00  0.110E-01    0.14       1.0  T
   5   -194.3591750  0.123054E-02  0.113E-01    0.17       1.0  T
   6   -194.3596695 -0.494482E-03  0.987E-02    0.16       1.0  T
   7   -194.3599912 -0.321720E-03  0.788E-02    0.16       1.0  T
   8   -194.3602335 -0.242238E-03  0.622E-02    0.15       1.0  T
   9   -194.3604235 -0.189983E-03  0.468E-02    0.15       1.0  T
  10   -194.3606433 -0.219886E-03  0.212E-02    0.14       1.0  T
  11   -194.3606909 -0.475810E-04  0.702E-03    0.13       1.5  T
  12   -194.3606934 -0.244377E-05  0.478E-03    0.13       2.2  T
  13   -194.3606901  0.331605E-05  0.678E-03    0.13       1.5  T
  14   -194.3606922 -0.213845E-05  0.535E-03    0.13       2.0  T
  15   -194.3606949 -0.272743E-05  0.281E-03    0.13       3.7  T
  16   -194.3606954 -0.480251E-06  0.183E-03    0.13       5.7  T
  17   -194.3606956 -0.192756E-06  0.115E-03    0.13       9.0  T
  18   -194.3606957 -0.143915E-06  0.473E-04    0.13      22.1  T
  19   -194.3606957  0.375070E-08  0.384E-04    0.13      27.1  T
     SCC iter.                  ...        0 min,  0.445 sec
     gradient                   ...        0 min,  0.052 sec
 * total energy  :  -192.4317920 Eh     change       -0.9380605E-03 Eh
   gradient norm :     0.0095369 Eh/α   predicted    -0.9872247E-03 (   5.24%)
   displ. norm   :     0.7222806 α      lambda       -0.1107577E-02
   maximum displ.:     0.5018665 α      in ANC's #6, #3, #8, ...

........................................................................
.............................. CYCLE  115 ..............................
........................................................................

 iter      E             dE          RMSdq      gap      omega  full diag
   1   -194.3621624 -0.194362E+03  0.189E-01    0.11       0.0  T
   2   -194.3525284  0.963400E-02  0.270E-01    0.35       1.0  T
   3   -194.3052409  0.472875E-01  0.616E-01    0.03       1.0  T
   4   -194.3612461 -0.560052E-01  0.159E-01    0.18       1.0  T
   5   -194.3608353  0.410831E-03  0.137E-01    0.18       1.0  T
   6   -194.3614646 -0.629285E-03  0.122E-01    0.17       1.0  T
   7   -194.3620200 -0.555402E-03  0.951E-02    0.16       1.0  T
   8   -194.3627148 -0.694792E-03  0.546E-02    0.14       1.0  T
   9   -194.3629915 -0.276751E-03  0.255E-02    0.13       1.0  T
  10   -194.3630500 -0.584590E-04  0.129E-02    0.12       1.0  T
  11   -194.3630219  0.280356E-04  0.191E-02    0.12       1.0  T
  12   -194.3630380 -0.160385E-04  0.154E-02    0.12       1.0  T
  13   -194.3630562 -0.182177E-04  0.959E-03    0.12       1.1  T
  14   -194.3630671 -0.109160E-04  0.268E-03    0.13       3.9  T
  15   -194.3630676 -0.512346E-06  0.150E-03    0.13       6.9  T
  16   -194.3630673  0.346034E-06  0.207E-03    0.13       5.0  T
  17   -194.3630678 -0.492413E-06  0.821E-04    0.13      12.7  T
  18   -194.3630678 -0.475669E-08  0.636E-04    0.13      16.4  T
     SCC iter.                  ...        0 min,  0.432 sec
     gradient                   ...        0 min,  0.054 sec
 * total energy  :  -192.4326891 Eh     change       -0.8970923E-03 Eh
   gradient norm :     0.0118381 Eh/α   predicted    -0.8427474E-03 (  -6.06%)
   displ. norm   :     0.7794404 α      lambda       -0.1154748E-02
   maximum displ.:     0.5594356 α      in ANC's #6, #3, #8, ...

........................................................................
.............................. CYCLE  116 ..............................
........................................................................

 iter      E             dE          RMSdq      gap      omega  full diag
   1   -194.3654691 -0.194365E+03  0.179E-01    0.13       0.0  T
   2   -194.3547254  0.107437E-01  0.285E-01    0.07       1.0  T
   3   -194.3563031 -0.157769E-02  0.250E-01    0.31       1.0  T
   4   -194.3648731 -0.856998E-02  0.117E-01    0.15       1.0  T
   5   -194.3648297  0.434268E-04  0.834E-02    0.15       1.0  T
   6   -194.3653564 -0.526709E-03  0.535E-02    0.14       1.0  T
   7   -194.3655522 -0.195824E-03  0.214E-02    0.13       1.0  T
   8   -194.3655572 -0.504744E-05  0.179E-02    0.12       1.0  T
   9   -194.3655821 -0.248857E-04  0.860E-03    0.12       1.2  T
  10   -194.3655794  0.274880E-05  0.683E-03    0.12       1.5  T
  11   -194.3655806 -0.117784E-05  0.589E-03    0.13       1.8  T
  12   -194.3655820 -0.144594E-05  0.425E-03    0.13       2.5  T
  13   -194.3655836 -0.164468E-05  0.153E-03    0.12       6.8  T
  14   -194.3655838 -0.122865E-06  0.957E-04    0.13      10.9  T
  15   -194.3655838 -0.789197E-08  0.765E-04    0.13      13.6  T
     SCC iter.                  ...        0 min,  0.351 sec
     gradient                   ...        0 min,  0.053 sec
 * total energy  :  -192.4336441 Eh     change       -0.9549863E-03 Eh
   gradient norm :     0.0130318 Eh/α   predicted    -0.9282051E-03 (  -2.80%)
   displ. norm   :     0.7606892 α      lambda       -0.1142424E-02
   maximum displ.:     0.5304691 α      in ANC's #6, #3, #8, ...

........................................................................
.............................. CYCLE  117 ..............................
........................................................................

 iter      E             dE          RMSdq      gap      omega  full diag
   1   -194.3692860 -0.194369E+03  0.179E-01    0.12       0.0  T
   2   -194.3679242  0.136180E-02  0.111E-01    0.16       1.0  T
   3   -193.9505345  0.417390E+00  0.172E+00    0.11       1.0  T
   4   -194.3665376 -0.416003E+00  0.138E-01    0.09       1.0  T
   5   -194.3692831 -0.274550E-02  0.363E-02    0.13       1.0  T
   6   -194.3692558  0.272543E-04  0.320E-02    0.13       1.0  T
   7   -194.3693437 -0.878846E-04  0.139E-02    0.12       1.0  T
   8   -194.3693533 -0.962747E-05  0.966E-03    0.12       1.1  T
   9   -194.3693558 -0.245930E-05  0.566E-03    0.12       1.8  T
  10   -194.3693556  0.191490E-06  0.409E-03    0.12       2.5  T
  11   -194.3693557 -0.878238E-07  0.307E-03    0.12       3.4  T
  12   -194.3693561 -0.436346E-06  0.188E-03    0.12       5.5  T
  13   -194.3693563 -0.196058E-06  0.111E-03    0.12       9.4  T
  14   -194.3693563  0.112976E-08  0.888E-04    0.12      11.7  T
  15   -194.3693563  0.210591E-08  0.658E-04    0.12      15.8  T
     SCC iter.                  ...        0 min,  0.350 sec
     gradient                   ...        0 min,  0.052 sec
 * total energy  :  -192.4346802 Eh     change       -0.1036083E-02 Eh
   gradient norm :     0.0107782 Eh/α   predicted    -0.9018029E-03 ( -12.96%)
   displ. norm   :     0.8198992 α      lambda       -0.1274743E-02
   maximum displ.:     0.5549266 α      in ANC's #6, #3, #8, ...

........................................................................
.............................. CYCLE  118 ..............................
........................................................................

 iter      E             dE          RMSdq      gap      omega  full diag
   1   -194.3703291 -0.194370E+03  0.201E-01    0.12       0.0  T
   2   -194.3699524  0.376723E-03  0.925E-02    0.11       1.0  T
   3   -194.3617418  0.821055E-02  0.246E-01    0.27       1.0  T
   4   -194.3692710 -0.752921E-02  0.906E-02    0.10       1.0  T
   5   -194.3693802 -0.109151E-03  0.879E-02    0.15       1.0  T
   6   -194.3703818 -0.100160E-02  0.212E-02    0.12       1.0  T
   7   -194.3703638  0.180119E-04  0.181E-02    0.12       1.0  T
   8   -194.3703906 -0.268014E-04  0.907E-03    0.12       1.2  T
   9   -194.3703919 -0.127578E-05  0.747E-03    0.12       1.4  T
  10   -194.3703914  0.415037E-06  0.608E-03    0.12       1.7  T
  11   -194.3703940 -0.256963E-05  0.275E-03    0.12       3.8  T
  12   -194.3703942 -0.175512E-06  0.166E-03    0.12       6.3  T
  13   -194.3703942 -0.436292E-07  0.129E-03    0.12       8.1  T
  14   -194.3703942  0.477425E-07  0.118E-03    0.12       8.8  T
  15   -194.3703942 -0.210716E-07  0.892E-04    0.12      11.7  T
  16   -194.3703942 -0.238952E-07  0.673E-04    0.12      15.5  T
     SCC iter.                  ...        0 min,  0.423 sec
     gradient                   ...        0 min,  0.057 sec
 * total energy  :  -192.4358462 Eh     change       -0.1166053E-02 Eh
   gradient norm :     0.0080204 Eh/α   predicted    -0.1065909E-02 (  -8.59%)
   displ. norm   :     0.8077618 α      lambda       -0.1385740E-02
   maximum displ.:     0.4689924 α      in ANC's #6, #3, #8, ...

........................................................................
.............................. CYCLE  119 ..............................
........................................................................

 iter      E             dE          RMSdq      gap      omega  full diag
   1   -194.3757473 -0.194376E+03  0.245E-01    0.13       0.0  T
   2   -194.3242728  0.514745E-01  0.614E-01    0.03       1.0  T
   3   -194.3639249 -0.396521E-01  0.291E-01    0.33       1.0  T
   4   -194.3746517 -0.107268E-01  0.175E-01    0.15       1.0  T
   5   -194.3735284  0.112329E-02  0.148E-01    0.17       1.0  T
   6   -194.3744812 -0.952758E-03  0.120E-01    0.15       1.0  T
   7   -194.3755310 -0.104983E-02  0.683E-02    0.14       1.0  T
   8   -194.3759888 -0.457750E-03  0.195E-02    0.12       1.0  T
   9   -194.3760074 -0.186836E-04  0.111E-02    0.12       1.0  T
  10   -194.3759938  0.136111E-04  0.130E-02    0.11       1.0  T
  11   -194.3760117 -0.178289E-04  0.472E-03    0.12       2.2  T
  12   -194.3760116  0.108801E-06  0.412E-03    0.12       2.5  T
  13   -194.3760125 -0.998389E-06  0.220E-03    0.12       4.7  T
  14   -194.3760126 -0.984520E-07  0.137E-03    0.12       7.6  T
  15   -194.3760127 -0.285955E-07  0.995E-04    0.12      10.5  T
  16   -194.3760125  0.131201E-06  0.141E-03    0.12       7.4  T
  17   -194.3760126 -0.685137E-07  0.960E-04    0.12      10.9  T
     SCC iter.                  ...        0 min,  0.430 sec
     gradient                   ...        0 min,  0.054 sec
 * total energy  :  -192.4369669 Eh     change       -0.1120651E-02 Eh
   gradient norm :     0.0124068 Eh/α   predicted    -0.1145038E-02 (   2.18%)
   displ. norm   :     0.8411049 α      lambda       -0.1400621E-02
   maximum displ.:     0.5247803 α      in ANC's #6, #8, #3, ...

........................................................................
.............................. CYCLE  120 ..............................
........................................................................

 iter      E             dE          RMSdq      gap      omega  full diag
   1   -194.3718153 -0.194372E+03  0.237E-01    0.12       0.0  T
   2   -194.3581320  0.136833E-01  0.327E-01    0.06       1.0  T
   3   -194.3567035  0.142853E-02  0.334E-01    0.39       1.0  T
   4   -194.3687557 -0.120522E-01  0.196E-01    0.18       1.0  T
   5   -194.3705117 -0.175600E-02  0.119E-01    0.15       1.0  T
   6   -194.3715254 -0.101368E-02  0.768E-02    0.13       1.0  T
   7   -194.3719010 -0.375632E-03  0.320E-02    0.12       1.0  T
   8   -194.3718618  0.392113E-04  0.340E-02    0.11       1.0  T
   9   -194.3719830 -0.121187E-03  0.117E-02    0.11       1.0  T
  10   -194.3719690  0.140365E-04  0.125E-02    0.11       1.0  T
  11   -194.3719774 -0.846128E-05  0.959E-03    0.12       1.1  T
  12   -194.3719700  0.743850E-05  0.115E-02    0.12       1.0  T
  13   -194.3719851 -0.151538E-04  0.297E-03    0.12       3.5  T
  14   -194.3719853 -0.155257E-06  0.197E-03    0.12       5.3  T
  15   -194.3719854 -0.112558E-06  0.163E-03    0.12       6.4  T
  16   -194.3719853  0.133965E-06  0.184E-03    0.12       5.7  T
  17   -194.3719855 -0.221230E-06  0.798E-04    0.12      13.1  T
  18   -194.3719855 -0.398626E-07  0.429E-04    0.12      24.3  T
     SCC iter.                  ...        0 min,  0.448 sec
     gradient                   ...        0 min,  0.052 sec
 * total energy  :  -192.4381713 Eh     change       -0.1204447E-02 Eh
   gradient norm :     0.0120647 Eh/α   predicted    -0.1195833E-02 (  -0.72%)
   displ. norm   :     0.7842903 α      lambda       -0.1359681E-02
   maximum displ.:     0.3917955 α      in ANC's #6, #8, #3, ...
 * RMSD in coord.:     1.5001324 α      energy gain  -0.1827497E-01 Eh

generating ANC from exact Hessian ...
Using Lindh-Hessian (1995)
 Shifting diagonal of input Hessian by   1.994313517471795E-002
 Lowest  eigenvalues of input Hessian
    0.010000    0.019509    0.019650    0.000000    0.000000    0.000000
    0.000000    0.000000    0.000000    0.020063    0.020100    0.020177
    0.020267    0.020299    0.020448    0.020486    0.020570    0.020701
 Highest eigenvalues
    2.131165    2.172949    2.227261    2.252175    2.259207    2.291918
 

........................................................................
.............................. CYCLE  121 ..............................
........................................................................

 iter      E             dE          RMSdq      gap      omega  full diag
   1   -194.3727621 -0.194373E+03  0.273E-01    0.13       0.0  T
   2   -194.2806180  0.921441E-01  0.830E-01    0.01       1.0  T
   3   -194.3596412 -0.790233E-01  0.308E-01    0.34       1.0  T
   4   -194.3722721 -0.126308E-01  0.173E-01    0.13       1.0  T
   5   -194.3701403  0.213175E-02  0.166E-01    0.17       1.0  T
   6   -194.3711378 -0.997494E-03  0.140E-01    0.16       1.0  T
   7   -194.3724558 -0.131802E-02  0.839E-02    0.14       1.0  T
   8   -194.3730641 -0.608302E-03  0.308E-02    0.12       1.0  T
   9   -194.3731225 -0.583877E-04  0.171E-02    0.12       1.0  T
  10   -194.3731051  0.173762E-04  0.197E-02    0.11       1.0  T
  11   -194.3731444 -0.392910E-04  0.805E-03    0.11       1.3  T
  12   -194.3731485 -0.409252E-05  0.405E-03    0.11       2.6  T
  13   -194.3731488 -0.259684E-06  0.320E-03    0.11       3.3  T
  14   -194.3731490 -0.263736E-06  0.223E-03    0.11       4.7  T
  15   -194.3731489  0.101219E-06  0.185E-03    0.11       5.6  T
  16   -194.3731491 -0.175131E-06  0.162E-03    0.11       6.4  T
  17   -194.3731490  0.112928E-06  0.165E-03    0.11       6.3  T
  18   -194.3731492 -0.251871E-06  0.654E-04    0.11      15.9  T
  19   -194.3731493 -0.173718E-07  0.379E-04    0.11      27.5  T
     SCC iter.                  ...        0 min,  0.494 sec
     gradient                   ...        0 min,  0.056 sec
 * total energy  :  -192.4393805 Eh     change       -0.1209190E-02 Eh
   gradient norm :     0.0150967 Eh/α   predicted     0.0000000E+00 (-100.00%)
   displ. norm   :     0.1428235 α      lambda       -0.6798924E-03
   maximum displ.:     0.0797891 α      in ANC's #1, #13, #7, ...

........................................................................
.............................. CYCLE  122 ..............................
........................................................................

 iter      E             dE          RMSdq      gap      omega  full diag
   1   -194.3751955 -0.194375E+03  0.135E-01    0.13       0.0  T
   2   -194.2071467  0.168049E+00  0.111E+00    0.02       1.0  T
   3   -194.3747263 -0.167580E+00  0.985E-02    0.14       1.0  T
   4   -194.3749368 -0.210480E-03  0.744E-02    0.10       1.0  T
   5   -194.3752168 -0.279975E-03  0.556E-02    0.13       1.0  T
   6   -194.3756225 -0.405733E-03  0.205E-02    0.11       1.0  T
   7   -194.3756277 -0.511749E-05  0.126E-02    0.11       1.0  T
   8   -194.3756255  0.213010E-05  0.917E-03    0.12       1.1  T
   9   -194.3756270 -0.144650E-05  0.737E-03    0.12       1.4  T
  10   -194.3756326 -0.564137E-05  0.255E-03    0.11       4.1  T
  11   -194.3756320  0.640890E-06  0.275E-03    0.11       3.8  T
  12   -194.3756327 -0.749787E-06  0.127E-03    0.11       8.2  T
  13   -194.3756328 -0.370773E-07  0.745E-04    0.11      14.0  T
  14   -194.3756328 -0.271376E-07  0.458E-04    0.11      22.8  T
     SCC iter.                  ...        0 min,  0.358 sec
     gradient                   ...        0 min,  0.052 sec
 * total energy  :  -192.4395966 Eh     change       -0.2160785E-03 Eh
   gradient norm :     0.0131881 Eh/α   predicted    -0.3468834E-03 (  60.54%)
   displ. norm   :     0.4206303 α      lambda       -0.2358301E-02
   maximum displ.:     0.1757343 α      in ANC's #13, #7, #8, ...

........................................................................
.............................. CYCLE  123 ..............................
........................................................................

 iter      E             dE          RMSdq      gap      omega  full diag
   1   -194.3808881 -0.194381E+03  0.245E-01    0.12       0.0  T
   2   -194.3728944  0.799367E-02  0.269E-01    0.07       1.0  T
   3   -194.3659034  0.699097E-02  0.341E-01    0.40       1.0  T
   4   -194.3785042 -0.126007E-01  0.186E-01    0.17       1.0  T
   5   -194.3805384 -0.203425E-02  0.926E-02    0.14       1.0  T
   6   -194.3808228 -0.284359E-03  0.706E-02    0.13       1.0  T
   7   -194.3811109 -0.288166E-03  0.242E-02    0.11       1.0  T
   8   -194.3811257 -0.147531E-04  0.205E-02    0.11       1.0  T
   9   -194.3811471 -0.214093E-04  0.111E-02    0.12       1.0  T
  10   -194.3811276  0.194637E-04  0.154E-02    0.11       1.0  T
  11   -194.3811543 -0.266763E-04  0.404E-03    0.12       2.6  T
  12   -194.3811535  0.828691E-06  0.435E-03    0.12       2.4  T
  13   -194.3811549 -0.143161E-05  0.225E-03    0.12       4.6  T
  14   -194.3811551 -0.156267E-06  0.132E-03    0.12       7.9  T
  15   -194.3811551 -0.530895E-07  0.861E-04    0.12      12.1  T
  16   -194.3811551 -0.417080E-08  0.723E-04    0.12      14.4  T
     SCC iter.                  ...        0 min,  0.395 sec
     gradient                   ...        0 min,  0.052 sec
 * total energy  :  -192.4397577 Eh     change       -0.1610908E-03 Eh
   gradient norm :     0.0304226 Eh/α   predicted    -0.1387779E-02 ( 761.49%)
   displ. norm   :     0.1119880 α      lambda       -0.1599896E-02
   maximum displ.:     0.0365477 α      in ANC's #47, #17, #13, ...

........................................................................
.............................. CYCLE  124 ..............................
........................................................................

 iter      E             dE          RMSdq      gap      omega  full diag
   1   -194.3778824 -0.194378E+03  0.155E-01    0.13       0.0  T
   2   -194.2630309  0.114852E+00  0.913E-01    0.00       1.0  T
   3   -194.3754812 -0.112450E+00  0.144E-01    0.17       1.0  T
   4   -194.3779749 -0.249371E-02  0.592E-02    0.13       1.0  T
   5   -194.3774331  0.541843E-03  0.778E-02    0.14       1.0  T
   6   -194.3776980 -0.264934E-03  0.622E-02    0.13       1.0  T
   7   -194.3781279 -0.429819E-03  0.265E-02    0.12       1.0  T
   8   -194.3781149  0.129790E-04  0.233E-02    0.12       1.0  T
   9   -194.3781568 -0.419682E-04  0.147E-02    0.12       1.0  T
  10   -194.3781803 -0.234912E-04  0.496E-03    0.12       2.1  T
  11   -194.3781800  0.286626E-06  0.424E-03    0.12       2.5  T
  12   -194.3781818 -0.176654E-05  0.173E-03    0.12       6.0  T
  13   -194.3781821 -0.239218E-06  0.928E-04    0.12      11.2  T
  14   -194.3781821 -0.563138E-07  0.622E-04    0.12      16.8  T
     SCC iter.                  ...        0 min,  0.359 sec
     gradient                   ...        0 min,  0.053 sec
 * total energy  :  -192.4407476 Eh     change       -0.9899226E-03 Eh
   gradient norm :     0.0138475 Eh/α   predicted    -0.8099851E-03 ( -18.18%)
   displ. norm   :     0.2714401 α      lambda       -0.1472831E-02
   maximum displ.:     0.1206980 α      in ANC's #1, #13, #7, ...

........................................................................
.............................. CYCLE  125 ..............................
........................................................................

 iter      E             dE          RMSdq      gap      omega  full diag
   1   -194.3723600 -0.194372E+03  0.243E-01    0.12       0.0  T
   2   -194.3720071  0.352895E-03  0.108E-01    0.10       1.0  T
   3   -194.3622689  0.973818E-02  0.266E-01    0.28       1.0  T
   4   -194.3702226 -0.795364E-02  0.128E-01    0.09       1.0  T
   5   -194.3712661 -0.104355E-02  0.102E-01    0.14       1.0  T
   6   -194.3723220 -0.105588E-02  0.416E-02    0.12       1.0  T
   7   -194.3723405 -0.184622E-04  0.362E-02    0.11       1.0  T
   8   -194.3724140 -0.735116E-04  0.216E-02    0.11       1.0  T
   9   -194.3724603 -0.463392E-04  0.975E-03    0.11       1.1  T
  10   -194.3724619 -0.158562E-05  0.605E-03    0.11       1.7  T
  11   -194.3724618  0.154282E-06  0.522E-03    0.12       2.0  T
  12   -194.3724625 -0.747151E-06  0.382E-03    0.11       2.7  T
  13   -194.3724634 -0.876552E-06  0.224E-03    0.11       4.7  T
  14   -194.3724637 -0.363230E-06  0.108E-03    0.11       9.6  T
  15   -194.3724638 -0.343001E-07  0.656E-04    0.11      15.9  T
  16   -194.3724638  0.123372E-07  0.570E-04    0.11      18.3  T
     SCC iter.                  ...        0 min,  0.369 sec
     gradient                   ...        0 min,  0.052 sec
 * total energy  :  -192.4407953 Eh     change       -0.4768489E-04 Eh
   gradient norm :     0.0151792 Eh/α   predicted    -0.7906781E-03 (1558.13%)
   displ. norm   :     0.3228465 α      lambda       -0.1895984E-02
   maximum displ.:     0.1616889 α      in ANC's #13, #7, #8, ...

........................................................................
.............................. CYCLE  126 ..............................
........................................................................

 iter      E             dE          RMSdq      gap      omega  full diag
   1   -194.3719342 -0.194372E+03  0.267E-01    0.10       0.0  T
   2   -194.3636515  0.828263E-02  0.243E-01    0.24       1.0  T
   3   -193.8735563  0.490095E+00  0.190E+00    0.18       1.0  T
   4   -194.3696809 -0.496125E+00  0.150E-01    0.09       1.0  T
   5   -194.3706343 -0.953442E-03  0.123E-01    0.15       1.0  T
   6   -194.3712053 -0.571006E-03  0.103E-01    0.14       1.0  T
   7   -194.3718528 -0.647548E-03  0.658E-02    0.13       1.0  T
   8   -194.3721196 -0.266788E-03  0.426E-02    0.12       1.0  T
   9   -194.3721295 -0.991022E-05  0.358E-02    0.12       1.0  T
  10   -194.3722463 -0.116767E-03  0.172E-02    0.12       1.0  T
  11   -194.3722555 -0.913736E-05  0.126E-02    0.12       1.0  T
  12   -194.3722697 -0.142629E-04  0.624E-03    0.11       1.7  T
  13   -194.3722731 -0.342156E-05  0.208E-03    0.11       5.0  T
  14   -194.3722732 -0.877873E-07  0.119E-03    0.11       8.8  T
  15   -194.3722732 -0.227575E-08  0.102E-03    0.11      10.3  T
  16   -194.3722732 -0.199594E-08  0.912E-04    0.11      11.4  T
  17   -194.3722733 -0.516503E-07  0.513E-04    0.11      20.3  T
     SCC iter.                  ...        0 min,  0.397 sec
     gradient                   ...        0 min,  0.052 sec
 * total energy  :  -192.4420075 Eh     change       -0.1212212E-02 Eh
   gradient norm :     0.0130253 Eh/α   predicted    -0.1046806E-02 ( -13.65%)
   displ. norm   :     0.5106860 α      lambda       -0.1629564E-02
   maximum displ.:     0.2514669 α      in ANC's #13, #7, #8, ...

........................................................................
.............................. CYCLE  127 ..............................
........................................................................

 iter      E             dE          RMSdq      gap      omega  full diag
   1   -194.3716092 -0.194372E+03  0.286E-01    0.15       0.0  T
   2   -193.8942949  0.477314E+00  0.189E+00    0.17       1.0  T
   3   -194.3640494 -0.469754E+00  0.258E-01    0.25       1.0  T
   4   -194.3706789 -0.662953E-02  0.163E-01    0.09       1.0  T
   5   -194.3703674  0.311538E-03  0.156E-01    0.16       1.0  T
   6   -194.3716125 -0.124509E-02  0.128E-01    0.15       1.0  T
   7   -194.3726668 -0.105428E-02  0.809E-02    0.13       1.0  T
   8   -194.3729561 -0.289322E-03  0.508E-02    0.13       1.0  T
   9   -194.3731496 -0.193467E-03  0.292E-02    0.12       1.0  T
  10   -194.3732293 -0.797036E-04  0.113E-02    0.12       1.0  T
  11   -194.3732397 -0.104867E-04  0.433E-03    0.11       2.4  T
  12   -194.3732379  0.182927E-05  0.522E-03    0.11       2.0  T
  13   -194.3732369  0.102031E-05  0.549E-03    0.11       1.9  T
  14   -194.3732393 -0.244094E-05  0.311E-03    0.11       3.4  T
  15   -194.3732404 -0.107447E-05  0.730E-04    0.11      14.3  T
  16   -194.3732404 -0.337923E-08  0.537E-04    0.11      19.4  T
  17   -194.3732404 -0.102735E-07  0.386E-04    0.11      27.0  T
     SCC iter.                  ...        0 min,  0.403 sec
     gradient                   ...        0 min,  0.052 sec
 * total energy  :  -192.4431140 Eh     change       -0.1106526E-02 Eh
   gradient norm :     0.0127393 Eh/α   predicted    -0.1027278E-02 (  -7.16%)
   displ. norm   :     0.6855272 α      lambda       -0.1796492E-02
   maximum displ.:     0.3438556 α      in ANC's #13, #7, #8, ...

........................................................................
.............................. CYCLE  128 ..............................
........................................................................

 iter      E             dE          RMSdq      gap      omega  full diag
   1   -194.3704854 -0.194370E+03  0.281E-01    0.11       0.0  T
   2   -194.3700072  0.478267E-03  0.108E-01    0.13       1.0  T
   3   -194.0751349  0.294872E+00  0.147E+00    0.07       1.0  T
   4   -194.3654146 -0.290280E+00  0.192E-01    0.08       1.0  T
   5   -194.3705249 -0.511035E-02  0.483E-02    0.11       1.0  T
   6   -194.3704434  0.815327E-04  0.485E-02    0.10       1.0  T
   7   -194.3704087  0.347404E-04  0.424E-02    0.10       1.0  T
   8   -194.3705960 -0.187316E-03  0.169E-02    0.11       1.0  T
   9   -194.3705924  0.357120E-05  0.155E-02    0.11       1.0  T
  10   -194.3706043 -0.119237E-04  0.101E-02    0.11       1.0  T
  11   -194.3706146 -0.102247E-04  0.304E-03    0.11       3.4  T
  12   -194.3706137  0.855048E-06  0.324E-03    0.11       3.2  T
  13   -194.3706147 -0.104219E-05  0.146E-03    0.11       7.1  T
  14   -194.3706148 -0.665972E-07  0.965E-04    0.11      10.8  T
  15   -194.3706148  0.127784E-08  0.722E-04    0.11      14.4  T
     SCC iter.                  ...        0 min,  0.351 sec
     gradient                   ...        0 min,  0.053 sec
 * total energy  :  -192.4447929 Eh     change       -0.1678850E-02 Eh
   gradient norm :     0.0147470 Eh/α   predicted    -0.1320376E-02 ( -21.35%)
   displ. norm   :     0.7967567 α      lambda       -0.2593907E-02
   maximum displ.:     0.3966471 α      in ANC's #13, #7, #8, ...

........................................................................
.............................. CYCLE  129 ..............................
........................................................................

 iter      E             dE          RMSdq      gap      omega  full diag
   1   -194.3697799 -0.194370E+03  0.310E-01    0.08       0.0  T
   2   -194.3475947  0.221851E-01  0.435E-01    0.47       1.0  T
   3   -194.2434436  0.104151E+00  0.943E-01    0.02       1.0  T
   4   -194.3653823 -0.121939E+00  0.296E-01    0.21       1.0  T
   5   -194.3658473 -0.465032E-03  0.246E-01    0.19       1.0  T
   6   -194.3671226 -0.127527E-02  0.226E-01    0.18       1.0  T
   7   -194.3689769 -0.185433E-02  0.177E-01    0.16       1.0  T
   8   -194.3709045 -0.192760E-02  0.110E-01    0.13       1.0  T
   9   -194.3717150 -0.810500E-03  0.669E-02    0.12       1.0  T
  10   -194.3722368 -0.521793E-03  0.195E-02    0.11       1.0  T
  11   -194.3722606 -0.237838E-04  0.730E-03    0.11       1.4  T
  12   -194.3722448  0.157961E-04  0.124E-02    0.10       1.0  T
  13   -194.3722511 -0.628908E-05  0.977E-03    0.10       1.1  T
  14   -194.3722614 -0.102658E-04  0.356E-03    0.11       2.9  T
  15   -194.3722627 -0.132663E-05  0.120E-03    0.11       8.7  T
  16   -194.3722626  0.113152E-06  0.146E-03    0.11       7.1  T
  17   -194.3722626 -0.377548E-08  0.145E-03    0.11       7.2  T
  18   -194.3722628 -0.179447E-06  0.656E-04    0.11      15.9  T
  19   -194.3722628 -0.380831E-07  0.377E-04    0.11      27.6  T
     SCC iter.                  ...        0 min,  0.442 sec
     gradient                   ...        0 min,  0.052 sec
 * total energy  :  -192.4470370 Eh     change       -0.2244169E-02 Eh
   gradient norm :     0.0126548 Eh/α   predicted    -0.2120290E-02 (  -5.52%)
   displ. norm   :     0.8185903 α      lambda       -0.2345223E-02
   maximum displ.:     0.4072233 α      in ANC's #13, #7, #8, ...

........................................................................
.............................. CYCLE  130 ..............................
........................................................................

 iter      E             dE          RMSdq      gap      omega  full diag
   1   -194.3706360 -0.194371E+03  0.299E-01    0.09       0.0  T
   2   -194.3560196  0.146164E-01  0.323E-01    0.27       1.0  T
   3   -193.9078932  0.448126E+00  0.182E+00    0.19       1.0  T
   4   -194.3641663 -0.456273E+00  0.234E-01    0.07       1.0  T
   5   -194.3690931 -0.492679E-02  0.148E-01    0.14       1.0  T
   6   -194.3696117 -0.518609E-03  0.129E-01    0.13       1.0  T
   7   -194.3710524 -0.144072E-02  0.641E-02    0.11       1.0  T
   8   -194.3712716 -0.219250E-03  0.324E-02    0.11       1.0  T
   9   -194.3713097 -0.380352E-04  0.181E-02    0.10       1.0  T
  10   -194.3713313 -0.215846E-04  0.902E-03    0.10       1.2  T
  11   -194.3713313 -0.686435E-08  0.631E-03    0.10       1.7  T
  12   -194.3713318 -0.558361E-06  0.466E-03    0.10       2.2  T
  13   -194.3713321 -0.325941E-06  0.332E-03    0.10       3.1  T
  14   -194.3713329 -0.800138E-06  0.151E-03    0.10       6.9  T
  15   -194.3713330 -0.161460E-07  0.112E-03    0.10       9.3  T
  16   -194.3713329  0.160911E-07  0.105E-03    0.10       9.9  T
  17   -194.3713330 -0.868368E-07  0.602E-04    0.10      17.3  T
  18   -194.3713330 -0.589515E-08  0.477E-04    0.10      21.9  T
     SCC iter.                  ...        0 min,  0.437 sec
     gradient                   ...        0 min,  0.052 sec
 * total energy  :  -192.4491321 Eh     change       -0.2095100E-02 Eh
   gradient norm :     0.0130909 Eh/α   predicted    -0.1958380E-02 (  -6.53%)
   displ. norm   :     0.7180277 α      lambda       -0.2471349E-02
   maximum displ.:     0.3330464 α      in ANC's #13, #7, #8, ...

........................................................................
.............................. CYCLE  131 ..............................
........................................................................

 iter      E             dE          RMSdq      gap      omega  full diag
   1   -194.3845604 -0.194385E+03  0.281E-01    0.08       0.0  T
   2   -194.3611277  0.234327E-01  0.417E-01    0.39       1.0  T
   3   -194.1537613  0.207366E+00  0.129E+00    0.06       1.0  T
   4   -194.3854736 -0.231712E+00  0.180E-01    0.11       1.0  T
   5   -194.3808249  0.464870E-02  0.220E-01    0.16       1.0  T
   6   -194.3818832 -0.105832E-02  0.202E-01    0.15       1.0  T
   7   -194.3836431 -0.175988E-02  0.159E-01    0.14       1.0  T
   8   -194.3845916 -0.948444E-03  0.119E-01    0.13       1.0  T
   9   -194.3854175 -0.825950E-03  0.832E-02    0.12       1.0  T
  10   -194.3860095 -0.592006E-03  0.461E-02    0.11       1.0  T
  11   -194.3862015 -0.191980E-03  0.162E-02    0.10       1.0  T
  12   -194.3862231 -0.216197E-04  0.795E-03    0.10       1.3  T
  13   -194.3862107  0.124182E-04  0.125E-02    0.10       1.0  T
  14   -194.3862247 -0.140560E-04  0.673E-03    0.10       1.5  T
  15   -194.3862302 -0.547575E-05  0.108E-03    0.10       9.7  T
  16   -194.3862300  0.176605E-06  0.135E-03    0.10       7.7  T
  17   -194.3862301 -0.424733E-07  0.122E-03    0.10       8.5  T
  18   -194.3862302 -0.996730E-07  0.808E-04    0.10      12.9  T
  19   -194.3862303 -0.676211E-07  0.232E-04    0.10      44.9  T
     SCC iter.                  ...        0 min,  0.445 sec
     gradient                   ...        0 min,  0.052 sec
 * total energy  :  -192.4507616 Eh     change       -0.1629476E-02 Eh
   gradient norm :     0.0179151 Eh/α   predicted    -0.1872745E-02 (  14.93%)
   displ. norm   :     0.8033759 α      lambda       -0.2542243E-02
   maximum displ.:     0.4009991 α      in ANC's #13, #7, #8, ...

........................................................................
.............................. CYCLE  132 ..............................
........................................................................

 iter      E             dE          RMSdq      gap      omega  full diag
   1   -194.3692455 -0.194369E+03  0.327E-01    0.10       0.0  T
   2   -194.3524320  0.168135E-01  0.352E-01    0.26       1.0  T
   3   -193.9099818  0.442450E+00  0.180E+00    0.23       1.0  T
   4   -194.3625603 -0.452578E+00  0.239E-01    0.08       1.0  T
   5   -194.3665899 -0.402961E-02  0.176E-01    0.14       1.0  T
   6   -194.3674863 -0.896386E-03  0.144E-01    0.14       1.0  T
   7   -194.3695269 -0.204061E-02  0.752E-02    0.12       1.0  T
   8   -194.3700125 -0.485577E-03  0.279E-02    0.10       1.0  T
   9   -194.3700096  0.290833E-05  0.187E-02    0.10       1.0  T
  10   -194.3700123 -0.275253E-05  0.129E-02    0.10       1.0  T
  11   -194.3700221 -0.979829E-05  0.819E-03    0.10       1.3  T
  12   -194.3700244 -0.224828E-05  0.620E-03    0.10       1.7  T
  13   -194.3700249 -0.565926E-06  0.399E-03    0.10       2.6  T
  14   -194.3700256 -0.611926E-06  0.239E-03    0.10       4.4  T
  15   -194.3700254  0.125549E-06  0.207E-03    0.10       5.0  T
  16   -194.3700257 -0.228235E-06  0.148E-03    0.10       7.1  T
  17   -194.3700258 -0.167822E-06  0.896E-04    0.10      11.6  T
  18   -194.3700259 -0.313242E-07  0.537E-04    0.10      19.4  T
     SCC iter.                  ...        0 min,  0.439 sec
     gradient                   ...        0 min,  0.053 sec
 * total energy  :  -192.4524348 Eh     change       -0.1673195E-02 Eh
   gradient norm :     0.0149206 Eh/α   predicted    -0.2091521E-02 (  25.00%)
   displ. norm   :     0.6028816 α      lambda       -0.1324693E-02
   maximum displ.:     0.2845933 α      in ANC's #7, #13, #8, ...

........................................................................
.............................. CYCLE  133 ..............................
........................................................................

 iter      E             dE          RMSdq      gap      omega  full diag
   1   -194.3699428 -0.194370E+03  0.218E-01    0.09       0.0  T
   2   -194.3446800  0.252627E-01  0.417E-01    0.36       1.0  T
   3   -194.3069647  0.377154E-01  0.672E-01    0.05       1.0  T
   4   -194.3697268 -0.627621E-01  0.178E-01    0.13       1.0  T
   5   -194.3676180  0.210883E-02  0.181E-01    0.15       1.0  T
   6   -194.3691369 -0.151897E-02  0.145E-01    0.13       1.0  T
   7   -194.3700679 -0.930911E-03  0.106E-01    0.13       1.0  T
   8   -194.3706937 -0.625885E-03  0.653E-02    0.12       1.0  T
   9   -194.3711091 -0.415384E-03  0.279E-02    0.11       1.0  T
  10   -194.3711957 -0.865877E-04  0.855E-03    0.11       1.2  T
  11   -194.3711993 -0.359657E-05  0.366E-03    0.11       2.9  T
  12   -194.3711979  0.136272E-05  0.433E-03    0.11       2.4  T
  13   -194.3711981 -0.163621E-06  0.392E-03    0.11       2.7  T
  14   -194.3711998 -0.165087E-05  0.162E-03    0.11       6.4  T
  15   -194.3711999 -0.177314E-06  0.116E-03    0.11       9.0  T
  16   -194.3711999 -0.972693E-08  0.971E-04    0.11      10.7  T
  17   -194.3712001 -0.106960E-06  0.360E-04    0.11      28.9  T
     SCC iter.                  ...        0 min,  0.421 sec
     gradient                   ...        0 min,  0.053 sec
 * total energy  :  -192.4534669 Eh     change       -0.1032080E-02 Eh
   gradient norm :     0.0118240 Eh/α   predicted    -0.9030874E-03 ( -12.50%)
   displ. norm   :     0.4820870 α      lambda       -0.1638686E-02
   maximum displ.:     0.2357799 α      in ANC's #7, #8, #13, ...

........................................................................
.............................. CYCLE  134 ..............................
........................................................................

 iter      E             dE          RMSdq      gap      omega  full diag
   1   -194.3837288 -0.194384E+03  0.259E-01    0.11       0.0  T
   2   -194.3824466  0.128224E-02  0.147E-01    0.13       1.0  T
   3   -194.0409867  0.341460E+00  0.159E+00    0.12       1.0  T
   4   -194.3672104 -0.326224E+00  0.336E-01    0.07       1.0  T
   5   -194.3834442 -0.162337E-01  0.635E-02    0.12       1.0  T
   6   -194.3834446 -0.401309E-06  0.606E-02    0.11       1.0  T
   7   -194.3837846 -0.340085E-03  0.349E-02    0.12       1.0  T
   8   -194.3838874 -0.102776E-03  0.163E-02    0.11       1.0  T
   9   -194.3838930 -0.560785E-05  0.132E-02    0.11       1.0  T
  10   -194.3839005 -0.752497E-05  0.938E-03    0.11       1.1  T
  11   -194.3839067 -0.611562E-05  0.487E-03    0.11       2.1  T
  12   -194.3839057  0.960322E-06  0.476E-03    0.11       2.2  T
  13   -194.3839075 -0.176977E-05  0.210E-03    0.11       5.0  T
  14   -194.3839077 -0.214875E-06  0.116E-03    0.11       9.0  T
  15   -194.3839077 -0.307734E-07  0.753E-04    0.11      13.8  T
  16   -194.3839077 -0.714812E-08  0.569E-04    0.11      18.3  T
     SCC iter.                  ...        0 min,  0.389 sec
     gradient                   ...        0 min,  0.053 sec
 * total energy  :  -192.4541429 Eh     change       -0.6760171E-03 Eh
   gradient norm :     0.0178775 Eh/α   predicted    -0.1009771E-02 (  49.37%)
   displ. norm   :     0.4889414 α      lambda       -0.1241165E-02
   maximum displ.:     0.2379731 α      in ANC's #7, #8, #13, ...

........................................................................
.............................. CYCLE  135 ..............................
........................................................................

 iter      E             dE          RMSdq      gap      omega  full diag
   1   -194.3720624 -0.194372E+03  0.312E-01    0.08       0.0  T
   2   -194.3104731  0.615893E-01  0.775E-01    0.67       1.0  T
   3   -194.3613512 -0.508781E-01  0.389E-01    0.32       1.0  T
   4   -194.3823618 -0.210107E-01  0.714E-02    0.11       1.0  T
   5   -194.3813422  0.101965E-02  0.111E-01    0.13       1.0  T
   6   -194.3818416 -0.499412E-03  0.716E-02    0.13       1.0  T
   7   -194.3823276 -0.485984E-03  0.372E-02    0.11       1.0  T
   8   -194.3823245  0.311919E-05  0.320E-02    0.11       1.0  T
   9   -194.3824290 -0.104559E-03  0.124E-02    0.11       1.0  T
  10   -194.3824183  0.107187E-04  0.140E-02    0.12       1.0  T
  11   -194.3824395 -0.211561E-04  0.581E-03    0.11       1.8  T
  12   -194.3824425 -0.301763E-05  0.280E-03    0.11       3.7  T
  13   -194.3824419  0.612747E-06  0.323E-03    0.11       3.2  T
  14   -194.3824412  0.635605E-06  0.372E-03    0.11       2.8  T
  15   -194.3824427 -0.144736E-05  0.113E-03    0.11       9.2  T
  16   -194.3824423  0.357880E-06  0.202E-03    0.11       5.2  T
  17   -194.3824428 -0.436841E-06  0.630E-04    0.11      16.5  T
  18   -194.3824428 -0.133207E-08  0.456E-04    0.11      22.9  T
     SCC iter.                  ...        0 min,  0.482 sec
     gradient                   ...        0 min,  0.051 sec
 * total energy  :  -192.4547792 Eh     change       -0.6362738E-03 Eh
   gradient norm :     0.0142394 Eh/α   predicted    -0.7689435E-03 (  20.85%)
   displ. norm   :     0.4060739 α      lambda       -0.6479230E-03
   maximum displ.:     0.2061702 α      in ANC's #7, #8, #13, ...

........................................................................
.............................. CYCLE  136 ..............................
........................................................................

 iter      E             dE          RMSdq      gap      omega  full diag
   1   -194.3698686 -0.194370E+03  0.241E-01    0.09       0.0  T
   2   -194.3232761  0.465926E-01  0.609E-01    0.59       1.0  T
   3   -194.3669048 -0.436287E-01  0.257E-01    0.18       1.0  T
   4   -194.3632491  0.365571E-02  0.287E-01    0.08       1.0  T
   5   -194.3734310 -0.101819E-01  0.119E-01    0.14       1.0  T
   6   -194.3732523  0.178649E-03  0.112E-01    0.14       1.0  T
   7   -194.3737765 -0.524132E-03  0.818E-02    0.13       1.0  T
   8   -194.3744849 -0.708398E-03  0.282E-02    0.12       1.0  T
   9   -194.3745480 -0.631777E-04  0.854E-03    0.12       1.2  T
  10   -194.3745454  0.266051E-05  0.782E-03    0.12       1.3  T
  11   -194.3745390  0.633484E-05  0.998E-03    0.12       1.0  T
  12   -194.3745463 -0.728477E-05  0.567E-03    0.12       1.8  T
  13   -194.3745503 -0.397176E-05  0.193E-03    0.12       5.4  T
  14   -194.3745490  0.129157E-05  0.368E-03    0.12       2.8  T
  15   -194.3745500 -0.962842E-06  0.207E-03    0.12       5.0  T
  16   -194.3745503 -0.296787E-06  0.117E-03    0.12       8.9  T
  17   -194.3745504 -0.145429E-06  0.468E-04    0.12      22.3  T
  18   -194.3745504  0.520297E-07  0.807E-04    0.12      12.9  T
     SCC iter.                  ...        0 min,  0.437 sec
     gradient                   ...        0 min,  0.054 sec
 * total energy  :  -192.4551255 Eh     change       -0.3463436E-03 Eh
   gradient norm :     0.0083606 Eh/α   predicted    -0.3773828E-03 (   8.96%)
   displ. norm   :     0.2256709 α      lambda       -0.4890236E-03
   maximum displ.:     0.1077618 α      in ANC's #7, #8, #5, ...

........................................................................
.............................. CYCLE  137 ..............................
........................................................................

 iter      E             dE          RMSdq      gap      omega  full diag
   1   -194.3766390 -0.194377E+03  0.141E-01    0.10       0.0  T
   2   -194.3488453  0.277937E-01  0.438E-01    0.36       1.0  T
   3   -194.3756148 -0.267695E-01  0.130E-01    0.10       1.0  T
   4   -194.3753590  0.255753E-03  0.171E-01    0.14       1.0  T
   5   -194.3778002 -0.244114E-02  0.437E-02    0.12       1.0  T
   6   -194.3778525 -0.522650E-04  0.349E-02    0.12       1.0  T
   7   -194.3779142 -0.617085E-04  0.170E-02    0.12       1.0  T
   8   -194.3779166 -0.245778E-05  0.123E-02    0.12       1.0  T
   9   -194.3779293 -0.126843E-04  0.586E-03    0.12       1.8  T
  10   -194.3779282  0.105447E-05  0.540E-03    0.12       1.9  T
  11   -194.3779303 -0.209268E-05  0.307E-03    0.12       3.4  T
  12   -194.3779292  0.110284E-05  0.377E-03    0.12       2.8  T
  13   -194.3779306 -0.139478E-05  0.190E-03    0.12       5.5  T
  14   -194.3779306  0.418270E-07  0.158E-03    0.12       6.6  T
  15   -194.3779308 -0.168344E-06  0.732E-04    0.12      14.2  T
  16   -194.3779308 -0.106271E-07  0.555E-04    0.12      18.8  T
     SCC iter.                  ...        0 min,  0.395 sec
     gradient                   ...        0 min,  0.053 sec
 * total energy  :  -192.4555046 Eh     change       -0.3790486E-03 Eh
   gradient norm :     0.0082390 Eh/α   predicted    -0.2569681E-03 ( -32.21%)
   displ. norm   :     0.4417884 α      lambda       -0.7540802E-03
   maximum displ.:     0.2162800 α      in ANC's #7, #8, #5, ...

........................................................................
.............................. CYCLE  138 ..............................
........................................................................

 iter      E             dE          RMSdq      gap      omega  full diag
   1   -194.3773469 -0.194377E+03  0.249E-01    0.09       0.0  T
   2   -194.3314960  0.458509E-01  0.630E-01    0.56       1.0  T
   3   -194.3790607 -0.475646E-01  0.187E-01    0.15       1.0  T
   4   -194.3676061  0.114546E-01  0.320E-01    0.08       1.0  T
   5   -194.3766550 -0.904892E-02  0.252E-01    0.16       1.0  T
   6   -194.3802656 -0.361057E-02  0.131E-01    0.14       1.0  T
   7   -194.3806930 -0.427428E-03  0.105E-01    0.14       1.0  T
   8   -194.3815092 -0.816239E-03  0.616E-02    0.13       1.0  T
   9   -194.3818465 -0.337230E-03  0.290E-02    0.12       1.0  T
  10   -194.3819170 -0.705830E-04  0.939E-03    0.12       1.1  T
  11   -194.3819182 -0.112383E-05  0.910E-03    0.11       1.1  T
  12   -194.3818927  0.254212E-04  0.161E-02    0.11       1.0  T
  13   -194.3819162 -0.235007E-04  0.812E-03    0.11       1.3  T
  14   -194.3819241 -0.785265E-05  0.209E-03    0.12       5.0  T
  15   -194.3819241 -0.150635E-11  0.194E-03    0.12       5.4  T
  16   -194.3819234  0.716951E-06  0.286E-03    0.12       3.6  T
  17   -194.3819240 -0.611256E-06  0.165E-03    0.12       6.3  T
  18   -194.3819243 -0.321225E-06  0.603E-04    0.12      17.3  T
  19   -194.3819242  0.145835E-06  0.122E-03    0.12       8.5  T
  20   -194.3819243 -0.109518E-06  0.718E-04    0.12      14.5  T
     SCC iter.                  ...        0 min,  0.489 sec
     gradient                   ...        0 min,  0.054 sec
 * total energy  :  -192.4560658 Eh     change       -0.5612664E-03 Eh
   gradient norm :     0.0092361 Eh/α   predicted    -0.4506350E-03 ( -19.71%)
   displ. norm   :     0.5072546 α      lambda       -0.6491838E-03
   maximum displ.:     0.2485992 α      in ANC's #7, #8, #12, ...

........................................................................
.............................. CYCLE  139 ..............................
........................................................................

 iter      E             dE          RMSdq      gap      omega  full diag
   1   -194.3736050 -0.194374E+03  0.290E-01    0.09       0.0  T
   2   -194.3159082  0.576968E-01  0.767E-01    0.57       1.0  T
   3   -194.3681412 -0.522330E-01  0.322E-01    0.22       1.0  T
   4   -194.3656927  0.244855E-02  0.342E-01    0.08       1.0  T
   5   -194.3776464 -0.119537E-01  0.211E-01    0.15       1.0  T
   6   -194.3796213 -0.197490E-02  0.126E-01    0.13       1.0  T
   7   -194.3792008  0.420528E-03  0.120E-01    0.14       1.0  T
   8   -194.3802914 -0.109056E-02  0.721E-02    0.13       1.0  T
   9   -194.3807981 -0.506722E-03  0.311E-02    0.12       1.0  T
  10   -194.3809035 -0.105379E-03  0.123E-02    0.11       1.0  T
  11   -194.3808824  0.210745E-04  0.177E-02    0.11       1.0  T
  12   -194.3808865 -0.411109E-05  0.148E-02    0.11       1.0  T
  13   -194.3809132 -0.267192E-04  0.458E-03    0.12       2.3  T
  14   -194.3809132 -0.134006E-07  0.445E-03    0.12       2.3  T
  15   -194.3809147 -0.148410E-05  0.246E-03    0.12       4.2  T
  16   -194.3809148 -0.370576E-07  0.195E-03    0.12       5.3  T
  17   -194.3809152 -0.430971E-06  0.750E-04    0.12      13.9  T
  18   -194.3809151  0.125274E-06  0.121E-03    0.12       8.6  T
  19   -194.3809151 -0.267282E-07  0.101E-03    0.12      10.3  T
  20   -194.3809152 -0.114730E-06  0.199E-04    0.12      52.3  T
     SCC iter.                  ...        0 min,  0.476 sec
     gradient                   ...        0 min,  0.053 sec
 * total energy  :  -192.4566011 Eh     change       -0.5352342E-03 Eh
   gradient norm :     0.0097490 Eh/α   predicted    -0.4081169E-03 ( -23.75%)
   displ. norm   :     0.6032110 α      lambda       -0.8748943E-03
   maximum displ.:     0.2679017 α      in ANC's #7, #8, #12, ...

........................................................................
.............................. CYCLE  140 ..............................
........................................................................

 iter      E             dE          RMSdq      gap      omega  full diag
   1   -194.3677459 -0.194368E+03  0.378E-01    0.08       0.0  T
   2   -194.2920181  0.757278E-01  0.974E-01    0.55       1.0  T
   3   -194.3579767 -0.659586E-01  0.426E-01    0.28       1.0  T
   4   -194.3590638 -0.108713E-02  0.407E-01    0.08       1.0  T
   5   -194.3730844 -0.140207E-01  0.298E-01    0.16       1.0  T
   6   -194.3780935 -0.500902E-02  0.164E-01    0.13       1.0  T
   7   -194.3773836  0.709861E-03  0.159E-01    0.14       1.0  T
   8   -194.3782666 -0.882999E-03  0.120E-01    0.14       1.0  T
   9   -194.3793892 -0.112263E-02  0.668E-02    0.12       1.0  T
  10   -194.3799401 -0.550890E-03  0.169E-02    0.11       1.0  T
  11   -194.3798869  0.532745E-04  0.262E-02    0.11       1.0  T
  12   -194.3799077 -0.208151E-04  0.208E-02    0.11       1.0  T
  13   -194.3799574 -0.497346E-04  0.723E-03    0.11       1.4  T
  14   -194.3799611 -0.374205E-05  0.417E-03    0.11       2.5  T
  15   -194.3799616 -0.475210E-06  0.217E-03    0.11       4.8  T
  16   -194.3799617 -0.110322E-06  0.152E-03    0.11       6.9  T
  17   -194.3799617  0.676944E-07  0.131E-03    0.11       7.9  T
  18   -194.3799614  0.306703E-06  0.205E-03    0.11       5.1  T
  19   -194.3799617 -0.326465E-06  0.115E-03    0.11       9.1  T
  20   -194.3799618 -0.911882E-07  0.650E-04    0.11      16.0  T
  21   -194.3799618  0.101096E-07  0.661E-04    0.11      15.8  T
     SCC iter.                  ...        0 min,  0.593 sec
     gradient                   ...        0 min,  0.053 sec
 * total energy  :  -192.4573708 Eh     change       -0.7697711E-03 Eh
   gradient norm :     0.0115051 Eh/α   predicted    -0.5966191E-03 ( -22.49%)
   displ. norm   :     0.7102579 α      lambda       -0.1313584E-02
   maximum displ.:     0.2751785 α      in ANC's #7, #12, #8, ...

........................................................................
.............................. CYCLE  141 ..............................
........................................................................

 iter      E             dE          RMSdq      gap      omega  full diag
   1   -194.3477172 -0.194348E+03  0.568E-01    0.06       0.0  T
   2   -194.2203797  0.127338E+00  0.136E+00    0.53       1.0  T
   3   -194.3340151 -0.113635E+00  0.685E-01    0.38       1.0  T
   4   -194.3691289 -0.351138E-01  0.274E-01    0.17       1.0  T
   5   -194.2457388  0.123390E+00  0.116E+00    0.06       1.0  T
   6   -194.3675492 -0.121810E+00  0.389E-01    0.16       1.0  T
   7   -194.3741184 -0.656924E-02  0.232E-01    0.14       1.0  T
   8   -194.3735370  0.581443E-03  0.190E-01    0.14       1.0  T
   9   -194.3751623 -0.162533E-02  0.136E-01    0.13       1.0  T
  10   -194.3765257 -0.136340E-02  0.852E-02    0.12       1.0  T
  11   -194.3772841 -0.758423E-03  0.289E-02    0.11       1.0  T
  12   -194.3772503  0.338526E-04  0.384E-02    0.10       1.0  T
  13   -194.3771863  0.639479E-04  0.408E-02    0.10       1.0  T
  14   -194.3773596 -0.173266E-03  0.141E-02    0.11       1.0  T
  15   -194.3773825 -0.228974E-04  0.730E-03    0.11       1.4  T
  16   -194.3773742  0.826494E-05  0.106E-02    0.11       1.0  T
  17   -194.3773691  0.512957E-05  0.111E-02    0.11       1.0  T
  18   -194.3773816 -0.124884E-04  0.410E-03    0.11       2.5  T
  19   -194.3773833 -0.170057E-05  0.219E-03    0.11       4.8  T
  20   -194.3773829  0.413520E-06  0.284E-03    0.11       3.7  T
  21   -194.3773836 -0.787457E-06  0.605E-04    0.11      17.2  T
  22   -194.3773837 -0.223146E-07  0.320E-04    0.11      32.5  T
     SCC iter.                  ...        0 min,  0.533 sec
     gradient                   ...        0 min,  0.054 sec
 * total energy  :  -192.4586358 Eh     change       -0.1264938E-02 Eh
   gradient norm :     0.0158292 Eh/α   predicted    -0.9881258E-03 ( -21.88%)
   displ. norm   :     0.7766668 α      lambda       -0.2322902E-02
   maximum displ.:     0.3130204 α      in ANC's #12, #19, #6, ...

........................................................................
.............................. CYCLE  142 ..............................
........................................................................

 iter      E             dE          RMSdq      gap      omega  full diag
   1   -194.3090138 -0.194309E+03  0.880E-01    0.04       0.0  T
   2   -194.0724063  0.236608E+00  0.177E+00    0.39       1.0  T
   3   -194.3053759 -0.232970E+00  0.127E+00    0.31       1.0  T
   4   -194.3367050 -0.313291E-01  0.622E-01    0.25       1.0  T
   5   -194.1284740  0.208231E+00  0.172E+00    0.09       1.0  T
   6   -194.3541565 -0.225683E+00  0.747E-01    0.23       1.0  T
   7   -194.3606835 -0.652700E-02  0.560E-01    0.21       1.0  T
   8   -194.3595558  0.112768E-02  0.423E-01    0.21       1.0  T
   9   -194.3626420 -0.308616E-02  0.372E-01    0.19       1.0  T
  10   -194.3683450 -0.570305E-02  0.310E-01    0.16       1.0  T
  11   -194.3729581 -0.461308E-02  0.229E-01    0.13       1.0  T
  12   -194.3767133 -0.375524E-02  0.885E-02    0.11       1.0  T
  13   -194.3775214 -0.808031E-03  0.378E-02    0.09       1.0  T
  14   -194.3774464  0.749765E-04  0.325E-02    0.09       1.0  T
  15   -194.3775165 -0.700650E-04  0.187E-02    0.09       1.0  T
  16   -194.3775441 -0.276219E-04  0.114E-02    0.10       1.0  T
  17   -194.3775593 -0.151744E-04  0.243E-03    0.10       4.3  T
  18   -194.3775573  0.194128E-05  0.495E-03    0.10       2.1  T
  19   -194.3775576 -0.281180E-06  0.384E-03    0.10       2.7  T
  20   -194.3775593 -0.170482E-05  0.186E-03    0.10       5.6  T
  21   -194.3775585  0.815181E-06  0.319E-03    0.10       3.3  T
  22   -194.3775592 -0.763069E-06  0.112E-03    0.10       9.3  T
  23   -194.3775592  0.349939E-07  0.143E-03    0.10       7.3  T
  24   -194.3775594 -0.190182E-06  0.230E-04    0.10      45.2  T
  25   -194.3775594 -0.302586E-08  0.255E-04    0.10      40.8  T
     SCC iter.                  ...        0 min,  0.605 sec
     gradient                   ...        0 min,  0.053 sec
 * total energy  :  -192.4605836 Eh     change       -0.1947843E-02 Eh
   gradient norm :     0.0291194 Eh/α   predicted    -0.1862057E-02 (  -4.40%)
   displ. norm   :     0.7345936 α      lambda       -0.2149530E-02
   maximum displ.:     0.3279260 α      in ANC's #12, #7, #9, ...

........................................................................
.............................. CYCLE  143 ..............................
........................................................................

 iter      E             dE          RMSdq      gap      omega  full diag
   1   -194.3069295 -0.194307E+03  0.941E-01    0.05       0.0  T
   2   -194.0624239  0.244506E+00  0.198E+00    0.46       1.0  T
   3   -194.2969611 -0.234537E+00  0.126E+00    0.22       1.0  T
   4   -194.3308049 -0.338438E-01  0.530E-01    0.19       1.0  T
   5   -194.0948473  0.235958E+00  0.193E+00    0.10       1.0  T
   6   -194.3488627 -0.254015E+00  0.867E-01    0.17       1.0  T
   7   -194.3523232 -0.346052E-02  0.481E-01    0.17       1.0  T
   8   -194.3513504  0.972813E-03  0.371E-01    0.17       1.0  T
   9   -194.3592025 -0.785207E-02  0.272E-01    0.14       1.0  T
  10   -194.3642192 -0.501676E-02  0.202E-01    0.12       1.0  T
  11   -194.3665376 -0.231836E-02  0.129E-01    0.10       1.0  T
  12   -194.3676775 -0.113994E-02  0.187E-02    0.09       1.0  T
  13   -194.3676656  0.119720E-04  0.294E-02    0.09       1.0  T
  14   -194.3676305  0.351176E-04  0.287E-02    0.09       1.0  T
  15   -194.3676878 -0.573585E-04  0.130E-02    0.09       1.0  T
  16   -194.3677084 -0.205460E-04  0.494E-03    0.09       2.1  T
  17   -194.3677028  0.555528E-05  0.852E-03    0.09       1.2  T
  18   -194.3677055 -0.268478E-05  0.543E-03    0.09       1.9  T
  19   -194.3677094 -0.386753E-05  0.107E-03    0.09       9.7  T
  20   -194.3677094 -0.333920E-07  0.496E-04    0.09      21.0  T
  21   -194.3677092  0.221211E-06  0.150E-03    0.09       6.9  T
  22   -194.3677094 -0.193724E-06  0.526E-04    0.09      19.8  T
     SCC iter.                  ...        0 min,  0.545 sec
     gradient                   ...        0 min,  0.054 sec
 * total energy  :  -192.4617886 Eh     change       -0.1204924E-02 Eh
   gradient norm :     0.0383654 Eh/α   predicted    -0.1654739E-02 (  37.33%)
   displ. norm   :     0.2904949 α      lambda       -0.2154947E-02
   maximum displ.:     0.1009867 α      in ANC's #2, #7, #30, ...

........................................................................
.............................. CYCLE  144 ..............................
........................................................................

 iter      E             dE          RMSdq      gap      omega  full diag
   1   -194.3732758 -0.194373E+03  0.393E-01    0.08       0.0  T
   2   -194.2702947  0.102981E+00  0.171E+00    0.31       1.0  T
   3   -194.3622777 -0.919830E-01  0.368E-01    0.06       1.0  T
   4   -194.3520136  0.102641E-01  0.457E-01    0.20       1.0  T
   5   -194.3742263 -0.222127E-01  0.269E-01    0.09       1.0  T
   6   -194.3754226 -0.119634E-02  0.169E-01    0.11       1.0  T
   7   -194.3760096 -0.586939E-03  0.134E-01    0.10       1.0  T
   8   -194.3768559 -0.846297E-03  0.705E-02    0.09       1.0  T
   9   -194.3769530 -0.971178E-04  0.279E-02    0.09       1.0  T
  10   -194.3769217  0.313289E-04  0.332E-02    0.09       1.0  T
  11   -194.3769580 -0.363654E-04  0.112E-02    0.09       1.0  T
  12   -194.3769659 -0.782336E-05  0.115E-02    0.09       1.0  T
  13   -194.3769662 -0.309858E-06  0.881E-03    0.09       1.2  T
  14   -194.3769674 -0.119094E-05  0.352E-03    0.09       3.0  T
  15   -194.3769660  0.136555E-05  0.526E-03    0.09       2.0  T
  16   -194.3769677 -0.173284E-05  0.248E-03    0.09       4.2  T
  17   -194.3769678 -0.960957E-07  0.237E-03    0.09       4.4  T
  18   -194.3769679 -0.675511E-07  0.124E-03    0.09       8.4  T
  19   -194.3769679 -0.502869E-07  0.412E-04    0.09      25.3  T
  20   -194.3769679  0.153316E-07  0.482E-04    0.09      21.6  T
     SCC iter.                  ...        0 min,  0.497 sec
     gradient                   ...        0 min,  0.053 sec
 * total energy  :  -192.4631302 Eh     change       -0.1341690E-02 Eh
   gradient norm :     0.0322547 Eh/α   predicted    -0.1168400E-02 ( -12.92%)
   displ. norm   :     0.5468507 α      lambda       -0.4439125E-02
   maximum displ.:     0.2453455 α      in ANC's #7, #12, #8, ...

........................................................................
.............................. CYCLE  145 ..............................
........................................................................

 iter      E             dE          RMSdq      gap      omega  full diag
   1   -194.3756159 -0.194376E+03  0.356E-01    0.07       0.0  T
   2   -194.3011135  0.745024E-01  0.774E-01    0.24       1.0  T
   3   -194.3697935 -0.686801E-01  0.863E-01    0.09       1.0  T
   4   -194.3384204  0.313732E-01  0.592E-01    0.04       1.0  T
   5   -194.3565854 -0.181651E-01  0.500E-01    0.23       1.0  T
   6   -194.3681929 -0.116075E-01  0.566E-01    0.17       1.0  T
   7   -194.3711438 -0.295088E-02  0.489E-01    0.15       1.0  T
   8   -194.3730929 -0.194917E-02  0.362E-01    0.14       1.0  T
   9   -194.3800928 -0.699982E-02  0.133E-01    0.11       1.0  T
  10   -194.3813793 -0.128655E-02  0.214E-02    0.09       1.0  T
  11   -194.3813896 -0.102818E-04  0.155E-02    0.09       1.0  T
  12   -194.3812907  0.988944E-04  0.388E-02    0.09       1.0  T
  13   -194.3813556 -0.648538E-04  0.246E-02    0.09       1.0  T
  14   -194.3813810 -0.254842E-04  0.112E-02    0.09       1.0  T
  15   -194.3813944 -0.133509E-04  0.839E-03    0.09       1.2  T
  16   -194.3813962 -0.183067E-05  0.369E-03    0.09       2.8  T
  17   -194.3813964 -0.149795E-06  0.139E-03    0.09       7.5  T
  18   -194.3813963  0.640638E-07  0.115E-03    0.09       9.1  T
  19   -194.3813964 -0.991643E-07  0.133E-03    0.09       7.8  T
  20   -194.3813962  0.226860E-06  0.213E-03    0.09       4.9  T
  21   -194.3813964 -0.217339E-06  0.763E-04    0.09      13.7  T
  22   -194.3813964 -0.429175E-07  0.191E-04    0.09      54.7  T
     SCC iter.                  ...        0 min,  0.537 sec
     gradient                   ...        0 min,  0.054 sec
 * total energy  :  -192.4651950 Eh     change       -0.2064748E-02 Eh
   gradient norm :     0.0245351 Eh/α   predicted    -0.2883314E-02 (  39.64%)
   displ. norm   :     0.4609687 α      lambda       -0.2776382E-02
   maximum displ.:     0.1814937 α      in ANC's #12, #5, #7, ...

........................................................................
.............................. CYCLE  146 ..............................
........................................................................

 iter      E             dE          RMSdq      gap      omega  full diag
   1   -194.3545631 -0.194355E+03  0.630E-01    0.05       0.0  T
   2   -194.1100728  0.244490E+00  0.179E+00    0.32       1.0  T
   3   -194.3355761 -0.225503E+00  0.626E-01    0.20       1.0  T
   4   -194.3156120  0.199640E-01  0.959E-01    0.04       1.0  T
   5   -194.3787917 -0.631797E-01  0.897E-01    0.14       1.0  T
   6   -194.3669337  0.118580E-01  0.720E-01    0.20       1.0  T
   7   -194.3714759 -0.454222E-02  0.492E-01    0.18       1.0  T
   8   -194.3759409 -0.446500E-02  0.418E-01    0.16       1.0  T
   9   -194.3826406 -0.669967E-02  0.301E-01    0.13       1.0  T
  10   -194.3897454 -0.710477E-02  0.121E-01    0.09       1.0  T
  11   -194.3898568 -0.111476E-03  0.139E-01    0.08       1.0  T
  12   -194.3894397  0.417133E-03  0.108E-01    0.08       1.0  T
  13   -194.3899739 -0.534229E-03  0.354E-02    0.08       1.0  T
  14   -194.3900889 -0.114981E-03  0.127E-02    0.09       1.0  T
  15   -194.3901039 -0.149891E-04  0.144E-02    0.09       1.0  T
  16   -194.3901059 -0.202356E-05  0.929E-03    0.09       1.1  T
  17   -194.3901067 -0.747340E-06  0.229E-03    0.09       4.6  T
  18   -194.3901067 -0.511708E-07  0.404E-03    0.09       2.6  T
  19   -194.3901067  0.436862E-07  0.219E-03    0.09       4.8  T
  20   -194.3901068 -0.141218E-06  0.145E-03    0.09       7.2  T
  21   -194.3901069 -0.120504E-06  0.407E-04    0.09      25.6  T
  22   -194.3901069 -0.495629E-08  0.310E-04    0.09      33.6  T
     SCC iter.                  ...        0 min,  0.530 sec
     gradient                   ...        0 min,  0.054 sec
 * total energy  :  -192.4670340 Eh     change       -0.1839026E-02 Eh
   gradient norm :     0.0220245 Eh/α   predicted    -0.1683170E-02 (  -8.47%)
   displ. norm   :     0.5942875 α      lambda       -0.2148202E-02
   maximum displ.:     0.2550926 α      in ANC's #12, #7, #5, ...

........................................................................
.............................. CYCLE  147 ..............................
........................................................................

 iter      E             dE          RMSdq      gap      omega  full diag
   1   -194.3622509 -0.194362E+03  0.683E-01    0.06       0.0  T
   2   -194.1422273  0.220024E+00  0.220E+00    0.38       1.0  T
   3   -194.3454048 -0.203178E+00  0.567E-01    0.18       1.0  T
   4   -194.0955053  0.249899E+00  0.218E+00    0.11       1.0  T
   5   -194.3748121 -0.279307E+00  0.875E-01    0.12       1.0  T
   6   -194.3706779  0.413420E-02  0.556E-01    0.16       1.0  T
   7   -194.3729978 -0.231984E-02  0.436E-01    0.16       1.0  T
   8   -194.3777272 -0.472941E-02  0.324E-01    0.13       1.0  T
   9   -194.3860866 -0.835941E-02  0.588E-02    0.09       1.0  T
  10   -194.3863467 -0.260168E-03  0.327E-02    0.09       1.0  T
  11   -194.3863278  0.189177E-04  0.701E-02    0.09       1.0  T
  12   -194.3862859  0.419060E-04  0.472E-02    0.08       1.0  T
  13   -194.3863697 -0.837627E-04  0.198E-02    0.09       1.0  T
  14   -194.3864142 -0.444728E-04  0.933E-03    0.09       1.1  T
  15   -194.3864158 -0.167824E-05  0.778E-03    0.09       1.3  T
  16   -194.3864150  0.882533E-06  0.760E-03    0.09       1.4  T
  17   -194.3864158 -0.826837E-06  0.322E-03    0.09       3.2  T
  18   -194.3864167 -0.951140E-06  0.119E-03    0.09       8.7  T
  19   -194.3864166  0.989767E-07  0.194E-03    0.09       5.4  T
  20   -194.3864168 -0.214058E-06  0.644E-04    0.09      16.2  T
  21   -194.3864168  0.274695E-07  0.654E-04    0.09      15.9  T
     SCC iter.                  ...        0 min,  0.528 sec
     gradient                   ...        0 min,  0.056 sec
 * total energy  :  -192.4681648 Eh     change       -0.1130744E-02 Eh
   gradient norm :     0.0215879 Eh/α   predicted    -0.1453453E-02 (  28.54%)
   displ. norm   :     0.3729645 α      lambda       -0.2204504E-02
   maximum displ.:     0.1508464 α      in ANC's #14, #5, #12, ...

........................................................................
.............................. CYCLE  148 ..............................
........................................................................

 iter      E             dE          RMSdq      gap      omega  full diag
   1   -194.3901684 -0.194390E+03  0.277E-01    0.10       0.0  T
   2   -194.1024572  0.287711E+00  0.213E+00    0.11       1.0  T
   3   -194.3752844 -0.272827E+00  0.105E+00    0.15       1.0  T
   4   -194.3520998  0.231847E-01  0.507E-01    0.20       1.0  T
   5   -194.3902780 -0.381782E-01  0.316E-01    0.10       1.0  T
   6   -194.3824038  0.787416E-02  0.566E-01    0.15       1.0  T
   7   -194.3849941 -0.259032E-02  0.426E-01    0.14       1.0  T
   8   -194.3868575 -0.186341E-02  0.386E-01    0.13       1.0  T
   9   -194.3893950 -0.253748E-02  0.250E-01    0.11       1.0  T
  10   -194.3908461 -0.145113E-02  0.134E-01    0.10       1.0  T
  11   -194.3911230 -0.276864E-03  0.871E-02    0.10       1.0  T
  12   -194.3912864 -0.163357E-03  0.135E-02    0.09       1.0  T
  13   -194.3912738  0.125864E-04  0.236E-02    0.09       1.0  T
  14   -194.3912709  0.289138E-05  0.250E-02    0.09       1.0  T
  15   -194.3912858 -0.149078E-04  0.159E-02    0.09       1.0  T
  16   -194.3912860 -0.232632E-06  0.146E-02    0.09       1.0  T
  17   -194.3912903 -0.423033E-05  0.861E-03    0.09       1.2  T
  18   -194.3912918 -0.157201E-05  0.279E-03    0.09       3.7  T
  19   -194.3912920 -0.133987E-06  0.906E-04    0.09      11.5  T
  20   -194.3912920 -0.419740E-07  0.363E-04    0.09      28.7  T
     SCC iter.                  ...        0 min,  0.510 sec
     gradient                   ...        0 min,  0.052 sec
 * total energy  :  -192.4693604 Eh     change       -0.1195653E-02 Eh
   gradient norm :     0.0220381 Eh/α   predicted    -0.1255581E-02 (   5.01%)
   displ. norm   :     0.5790200 α      lambda       -0.2091228E-02
   maximum displ.:     0.2223133 α      in ANC's #12, #7, #5, ...

........................................................................
.............................. CYCLE  149 ..............................
........................................................................

 iter      E             dE          RMSdq      gap      omega  full diag
   1   -194.3836784 -0.194384E+03  0.660E-01    0.09       0.0  T
   2   -194.2341117  0.149567E+00  0.237E+00    0.34       1.0  T
   3   -194.3092286 -0.751169E-01  0.945E-01    0.05       1.0  T
   4   -194.3749804 -0.657518E-01  0.642E-01    0.19       1.0  T
   5   -194.3825825 -0.760215E-02  0.581E-01    0.13       1.0  T
   6   -194.3881617 -0.557915E-02  0.206E-01    0.12       1.0  T
   7   -194.3889658 -0.804143E-03  0.180E-01    0.12       1.0  T
   8   -194.3901011 -0.113530E-02  0.135E-01    0.11       1.0  T
   9   -194.3909645 -0.863410E-03  0.364E-02    0.09       1.0  T
  10   -194.3910578 -0.932320E-04  0.115E-02    0.10       1.0  T
  11   -194.3910586 -0.874206E-06  0.912E-03    0.10       1.1  T
  12   -194.3910572  0.144629E-05  0.113E-02    0.10       1.0  T
  13   -194.3910615 -0.432652E-05  0.390E-03    0.10       2.7  T
  14   -194.3910617 -0.172211E-06  0.259E-03    0.10       4.0  T
  15   -194.3910619 -0.189022E-06  0.331E-03    0.10       3.2  T
  16   -194.3910617  0.220359E-06  0.315E-03    0.10       3.3  T
  17   -194.3910621 -0.432521E-06  0.715E-04    0.10      14.6  T
  18   -194.3910620  0.932635E-07  0.139E-03    0.10       7.5  T
  19   -194.3910621 -0.110747E-06  0.518E-04    0.10      20.1  T
     SCC iter.                  ...        0 min,  0.457 sec
     gradient                   ...        0 min,  0.057 sec
 * total energy  :  -192.4707474 Eh     change       -0.1386956E-02 Eh
   gradient norm :     0.0159139 Eh/α   predicted    -0.1396175E-02 (   0.66%)
   displ. norm   :     0.5797167 α      lambda       -0.1897039E-02
   maximum displ.:     0.2461649 α      in ANC's #12, #14, #3, ...

........................................................................
.............................. CYCLE  150 ..............................
........................................................................

 iter      E             dE          RMSdq      gap      omega  full diag
   1   -194.3883503 -0.194388E+03  0.852E-01    0.11       0.0  T
   2   -194.2571169  0.131233E+00  0.268E+00    0.13       1.0  T
   3   -194.2556183  0.149853E-02  0.139E+00    0.06       1.0  T
   4   -194.3816359 -0.126018E+00  0.654E-01    0.19       1.0  T
   5   -194.3933620 -0.117262E-01  0.260E-01    0.10       1.0  T
   6   -194.3955497 -0.218768E-02  0.984E-02    0.11       1.0  T
   7   -194.3957327 -0.182970E-03  0.119E-01    0.11       1.0  T
   8   -194.3965963 -0.863606E-03  0.534E-02    0.10       1.0  T
   9   -194.3966940 -0.976697E-04  0.234E-02    0.10       1.0  T
  10   -194.3966908  0.316596E-05  0.219E-02    0.10       1.0  T
  11   -194.3967029 -0.120676E-04  0.116E-02    0.10       1.0  T
  12   -194.3967101 -0.724054E-05  0.606E-03    0.10       1.7  T
  13   -194.3967115 -0.145685E-05  0.407E-03    0.10       2.6  T
  14   -194.3967112  0.339065E-06  0.408E-03    0.10       2.6  T
  15   -194.3967119 -0.711545E-06  0.121E-03    0.10       8.6  T
  16   -194.3967119 -0.224310E-07  0.104E-03    0.10      10.1  T
  17   -194.3967119  0.456152E-07  0.134E-03    0.10       7.8  T
  18   -194.3967120 -0.582681E-07  0.691E-04    0.10      15.1  T
  19   -194.3967119  0.182846E-07  0.674E-04    0.10      15.5  T
     SCC iter.                  ...        0 min,  0.484 sec
     gradient                   ...        0 min,  0.052 sec
 * total energy  :  -192.4721027 Eh     change       -0.1355301E-02 Eh
   gradient norm :     0.0190083 Eh/α   predicted    -0.1267291E-02 (  -6.49%)
   displ. norm   :     0.6864660 α      lambda       -0.2220152E-02
   maximum displ.:     0.3076198 α      in ANC's #12, #14, #5, ...
 * RMSD in coord.:     1.2058737 α      energy gain  -0.3393135E-01 Eh

generating ANC from exact Hessian ...
Using Lindh-Hessian (1995)
 Shifting diagonal of input Hessian by   2.137422487990299E-002
 Lowest  eigenvalues of input Hessian
    0.010000    0.021065    0.021095    0.000000    0.000000    0.000000
    0.000000    0.000000    0.000000    0.021522    0.021571    0.021678
    0.021760    0.021903    0.022040    0.022166    0.022257    0.022403
 Highest eigenvalues
    2.084275    2.140393    2.162469    2.228840    2.251874    2.254496
 

........................................................................
.............................. CYCLE  151 ..............................
........................................................................

 iter      E             dE          RMSdq      gap      omega  full diag
   1   -194.3834859 -0.194383E+03  0.898E-01    0.12       0.0  T
   2   -194.2519799  0.131506E+00  0.275E+00    0.09       1.0  T
   3   -194.3884977 -0.136518E+00  0.487E-01    0.10       1.0  T
   4   -194.3751739  0.133238E-01  0.417E-01    0.22       1.0  T
   5   -194.3875115 -0.123376E-01  0.239E-01    0.08       1.0  T
   6   -194.3925159 -0.500445E-02  0.722E-02    0.11       1.0  T
   7   -194.3919210  0.594985E-03  0.149E-01    0.12       1.0  T
   8   -194.3928578 -0.936887E-03  0.418E-02    0.10       1.0  T
   9   -194.3928534  0.443719E-05  0.401E-02    0.10       1.0  T
  10   -194.3929170 -0.636268E-04  0.147E-02    0.11       1.0  T
  11   -194.3929207 -0.366756E-05  0.131E-02    0.11       1.0  T
  12   -194.3929101  0.105973E-04  0.197E-02    0.11       1.0  T
  13   -194.3929183 -0.823103E-05  0.110E-02    0.11       1.0  T
  14   -194.3929245 -0.612659E-05  0.267E-03    0.11       3.9  T
  15   -194.3929228  0.167874E-05  0.740E-03    0.10       1.4  T
  16   -194.3929249 -0.208936E-05  0.116E-03    0.11       9.0  T
  17   -194.3929249 -0.371683E-07  0.972E-04    0.11      10.7  T
  18   -194.3929249 -0.681234E-08  0.515E-04    0.11      20.3  T
     SCC iter.                  ...        0 min,  0.431 sec
     gradient                   ...        0 min,  0.053 sec
 * total energy  :  -192.4736216 Eh     change       -0.1518883E-02 Eh
   gradient norm :     0.0193272 Eh/α   predicted     0.0000000E+00 (-100.00%)
   displ. norm   :     0.1705105 α      lambda       -0.1355318E-02
   maximum displ.:     0.0637630 α      in ANC's #26, #20, #18, ...

........................................................................
.............................. CYCLE  152 ..............................
........................................................................

 iter      E             dE          RMSdq      gap      omega  full diag
   1   -194.3955849 -0.194396E+03  0.270E-01    0.13       0.0  T
   2   -193.9091384  0.486447E+00  0.314E+00    0.24       1.0  T
   3   -194.3946359 -0.485497E+00  0.498E-01    0.12       1.0  T
   4   -194.3759972  0.186387E-01  0.414E-01    0.25       1.0  T
   5   -194.3973935 -0.213964E-01  0.206E-01    0.12       1.0  T
   6   -194.3950377  0.235586E-02  0.297E-01    0.14       1.0  T
   7   -194.3965877 -0.155001E-02  0.212E-01    0.13       1.0  T
   8   -194.3972017 -0.614014E-03  0.173E-01    0.12       1.0  T
   9   -194.3978043 -0.602579E-03  0.707E-02    0.11       1.0  T
  10   -194.3979786 -0.174286E-03  0.240E-02    0.11       1.0  T
  11   -194.3979826 -0.407833E-05  0.144E-02    0.11       1.0  T
  12   -194.3979770  0.559874E-05  0.188E-02    0.11       1.0  T
  13   -194.3979860 -0.900569E-05  0.153E-02    0.11       1.0  T
  14   -194.3979922 -0.619181E-05  0.630E-03    0.11       1.7  T
  15   -194.3979935 -0.126920E-05  0.158E-03    0.11       6.6  T
  16   -194.3979935 -0.230434E-07  0.962E-04    0.11      10.8  T
  17   -194.3979935 -0.121632E-07  0.703E-04    0.11      14.8  T
     SCC iter.                  ...        0 min,  0.405 sec
     gradient                   ...        0 min,  0.053 sec
 * total energy  :  -192.4741477 Eh     change       -0.5261159E-03 Eh
   gradient norm :     0.0164206 Eh/α   predicted    -0.6973713E-03 (  32.55%)
   displ. norm   :     0.4303797 α      lambda       -0.3133467E-02
   maximum displ.:     0.1113023 α      in ANC's #20, #28, #1, ...

........................................................................
.............................. CYCLE  153 ..............................
........................................................................

 iter      E             dE          RMSdq      gap      omega  full diag
   1   -194.4015397 -0.194402E+03  0.456E-01    0.16       0.0  T
   2   -193.8503523  0.551187E+00  0.333E+00    0.30       1.0  T
   3   -194.4036354 -0.553283E+00  0.355E-01    0.14       1.0  T
   4   -194.3810649  0.225706E-01  0.426E-01    0.28       1.0  T
   5   -194.3977473 -0.166824E-01  0.253E-01    0.08       1.0  T
   6   -194.4036568 -0.590954E-02  0.209E-01    0.14       1.0  T
   7   -194.4054753 -0.181851E-02  0.152E-01    0.13       1.0  T
   8   -194.4058558 -0.380469E-03  0.940E-02    0.12       1.0  T
   9   -194.4061185 -0.262760E-03  0.487E-02    0.12       1.0  T
  10   -194.4061913 -0.727356E-04  0.184E-02    0.11       1.0  T
  11   -194.4061947 -0.341781E-05  0.150E-02    0.11       1.0  T
  12   -194.4061691  0.255648E-04  0.274E-02    0.11       1.0  T
  13   -194.4062042 -0.350799E-04  0.691E-03    0.11       1.5  T
  14   -194.4062063 -0.211993E-05  0.418E-03    0.11       2.5  T
  15   -194.4062062  0.159183E-06  0.413E-03    0.11       2.5  T
  16   -194.4062056  0.550835E-06  0.528E-03    0.11       2.0  T
  17   -194.4062067 -0.105768E-05  0.247E-03    0.11       4.2  T
  18   -194.4062068 -0.129448E-06  0.135E-03    0.11       7.7  T
  19   -194.4062067  0.139822E-06  0.211E-03    0.11       4.9  T
  20   -194.4062069 -0.198971E-06  0.941E-04    0.11      11.1  T
  21   -194.4062069 -0.485616E-07  0.340E-04    0.11      30.7  T
     SCC iter.                  ...        0 min,  0.525 sec
     gradient                   ...        0 min,  0.053 sec
 * total energy  :  -192.4732826 Eh     change        0.8650619E-03 Eh
   gradient norm :     0.0324951 Eh/α   predicted    -0.1856936E-02 (-314.66%)
   displ. norm   :     0.3621293 α      lambda       -0.4285437E-02
   maximum displ.:     0.2976508 α      in ANC's #1, #41, #7, ...

........................................................................
.............................. CYCLE  154 ..............................
........................................................................

 iter      E             dE          RMSdq      gap      omega  full diag
   1   -194.3956927 -0.194396E+03  0.506E-01    0.08       0.0  T
   2   -194.2984677  0.972250E-01  0.943E-01    0.21       1.0  T
   3   -194.3939413 -0.954736E-01  0.941E-01    0.19       1.0  T
   4   -194.4032958 -0.935447E-02  0.276E-01    0.10       1.0  T
   5   -194.3968694  0.642636E-02  0.546E-01    0.18       1.0  T
   6   -194.4017294 -0.485996E-02  0.185E-01    0.09       1.0  T
   7   -194.4021111 -0.381728E-03  0.265E-01    0.16       1.0  T
   8   -194.4057248 -0.361369E-02  0.102E-01    0.13       1.0  T
   9   -194.4062065 -0.481694E-03  0.300E-02    0.12       1.0  T
  10   -194.4060957  0.110728E-03  0.615E-02    0.11       1.0  T
  11   -194.4062113 -0.115590E-03  0.293E-02    0.11       1.0  T
  12   -194.4062441 -0.328049E-04  0.181E-02    0.12       1.0  T
  13   -194.4062489 -0.472047E-05  0.142E-02    0.12       1.0  T
  14   -194.4062574 -0.849472E-05  0.468E-03    0.12       2.2  T
  15   -194.4062551  0.228201E-05  0.875E-03    0.12       1.2  T
  16   -194.4062565 -0.146985E-05  0.552E-03    0.12       1.9  T
  17   -194.4062577 -0.120666E-05  0.156E-03    0.12       6.7  T
  18   -194.4062578 -0.531448E-07  0.228E-03    0.12       4.6  T
  19   -194.4062578  0.744686E-08  0.144E-03    0.12       7.2  T
  20   -194.4062578 -0.327003E-07  0.108E-03    0.12       9.7  T
  21   -194.4062579 -0.779618E-07  0.230E-04    0.12      45.4  T
  22   -194.4062579 -0.311786E-09  0.176E-04    0.12      59.4  T
     SCC iter.                  ...        0 min,  0.538 sec
     gradient                   ...        0 min,  0.053 sec
 * total energy  :  -192.4743980 Eh     change       -0.1115398E-02 Eh
   gradient norm :     0.0314725 Eh/α   predicted    -0.2423714E-02 ( 117.30%)
   displ. norm   :     0.2750969 α      lambda       -0.3976762E-02
   maximum displ.:     0.1087715 α      in ANC's #28, #27, #1, ...

........................................................................
.............................. CYCLE  155 ..............................
........................................................................

 iter      E             dE          RMSdq      gap      omega  full diag
   1   -194.3931269 -0.194393E+03  0.572E-01    0.14       0.0  T
   2   -193.9739070  0.419220E+00  0.312E+00    0.17       1.0  T
   3   -194.3520304 -0.378123E+00  0.574E-01    0.31       1.0  T
   4   -194.2528653  0.991651E-01  0.134E+00    0.06       1.0  T
   5   -194.3879802 -0.135115E+00  0.565E-01    0.18       1.0  T
   6   -194.3853019  0.267831E-02  0.658E-01    0.20       1.0  T
   7   -194.3872496 -0.194767E-02  0.511E-01    0.20       1.0  T
   8   -194.3885027 -0.125310E-02  0.420E-01    0.19       1.0  T
   9   -194.3929822 -0.447954E-02  0.238E-01    0.15       1.0  T
  10   -194.3954225 -0.244029E-02  0.107E-01    0.13       1.0  T
  11   -194.3958788 -0.456222E-03  0.263E-02    0.11       1.0  T
  12   -194.3958834 -0.469639E-05  0.411E-02    0.11       1.0  T
  13   -194.3958210  0.624270E-04  0.440E-02    0.11       1.0  T
  14   -194.3959212 -0.100143E-03  0.803E-03    0.11       1.3  T
  15   -194.3959161  0.509745E-05  0.156E-02    0.12       1.0  T
  16   -194.3959243 -0.821965E-05  0.593E-03    0.12       1.8  T
  17   -194.3959224  0.186034E-05  0.815E-03    0.12       1.3  T
  18   -194.3959248 -0.239465E-05  0.257E-03    0.12       4.1  T
  19   -194.3959243  0.510135E-06  0.488E-03    0.11       2.1  T
  20   -194.3959244 -0.108270E-06  0.423E-03    0.12       2.5  T
  21   -194.3959249 -0.494121E-06  0.144E-03    0.12       7.2  T
  22   -194.3959250 -0.439478E-07  0.341E-04    0.12      30.6  T
  23   -194.3959249  0.328574E-07  0.750E-04    0.12      13.9  T
     SCC iter.                  ...        0 min,  0.563 sec
     gradient                   ...        0 min,  0.053 sec
 * total energy  :  -192.4760940 Eh     change       -0.1695988E-02 Eh
   gradient norm :     0.0175646 Eh/α   predicted    -0.2138861E-02 (  26.11%)
   displ. norm   :     0.2712447 α      lambda       -0.2118266E-02
   maximum displ.:     0.0835475 α      in ANC's #7, #5, #20, ...

........................................................................
.............................. CYCLE  156 ..............................
........................................................................

 iter      E             dE          RMSdq      gap      omega  full diag
   1   -194.3947094 -0.194395E+03  0.513E-01    0.16       0.0  T
   2   -193.9108718  0.483838E+00  0.326E+00    0.22       1.0  T
   3   -194.3617617 -0.450890E+00  0.499E-01    0.33       1.0  T
   4   -194.3963985 -0.346368E-01  0.382E-01    0.13       1.0  T
   5   -194.3910647  0.533378E-02  0.428E-01    0.19       1.0  T
   6   -194.3944718 -0.340704E-02  0.291E-01    0.17       1.0  T
   7   -194.3955588 -0.108707E-02  0.264E-01    0.16       1.0  T
   8   -194.3977579 -0.219901E-02  0.107E-01    0.14       1.0  T
   9   -194.3982496 -0.491789E-03  0.299E-02    0.12       1.0  T
  10   -194.3982685 -0.188431E-04  0.372E-02    0.12       1.0  T
  11   -194.3982290  0.395251E-04  0.369E-02    0.12       1.0  T
  12   -194.3983107 -0.817512E-04  0.114E-02    0.12       1.0  T
  13   -194.3983143 -0.361180E-05  0.105E-02    0.12       1.0  T
  14   -194.3983211 -0.675830E-05  0.305E-03    0.12       3.4  T
  15   -194.3983198  0.131975E-05  0.590E-03    0.12       1.8  T
  16   -194.3983214 -0.164910E-05  0.168E-03    0.12       6.2  T
  17   -194.3983215 -0.389643E-07  0.180E-03    0.12       5.8  T
  18   -194.3983216 -0.122875E-06  0.711E-04    0.12      14.7  T
  19   -194.3983215  0.360391E-07  0.929E-04    0.12      11.2  T
     SCC iter.                  ...        0 min,  0.452 sec
     gradient                   ...        0 min,  0.054 sec
 * total energy  :  -192.4777545 Eh     change       -0.1660499E-02 Eh
   gradient norm :     0.0166370 Eh/α   predicted    -0.1137056E-02 ( -31.52%)
   displ. norm   :     0.6806225 α      lambda       -0.3851599E-02
   maximum displ.:     0.2269344 α      in ANC's #7, #5, #20, ...

........................................................................
.............................. CYCLE  157 ..............................
........................................................................

 iter      E             dE          RMSdq      gap      omega  full diag
   1   -194.3853812 -0.194385E+03  0.124E+00    0.20       0.0  T
   2   -193.8493823  0.535999E+00  0.358E+00    0.20       1.0  T
   3   -194.3124181 -0.463036E+00  0.919E-01    0.41       1.0  T
   4   -194.3811093 -0.686913E-01  0.892E-01    0.39       1.0  T
   5   -194.3849060 -0.379665E-02  0.554E-01    0.33       1.0  T
   6   -194.3908983 -0.599238E-02  0.491E-01    0.24       1.0  T
   7   -194.3934373 -0.253898E-02  0.431E-01    0.20       1.0  T
   8   -194.3981003 -0.466299E-02  0.133E-01    0.15       1.0  T
   9   -194.3986648 -0.564537E-03  0.992E-02    0.12       1.0  T
  10   -194.3983140  0.350833E-03  0.149E-01    0.11       1.0  T
  11   -194.3989231 -0.609136E-03  0.330E-02    0.13       1.0  T
  12   -194.3989603 -0.371604E-04  0.237E-02    0.13       1.0  T
  13   -194.3989903 -0.299954E-04  0.283E-02    0.13       1.0  T
  14   -194.3989465  0.438167E-04  0.355E-02    0.13       1.0  T
  15   -194.3989971 -0.506427E-04  0.900E-03    0.13       1.2  T
  16   -194.3990003 -0.317503E-05  0.954E-03    0.13       1.1  T
  17   -194.3989963  0.403012E-05  0.127E-02    0.13       1.0  T
  18   -194.3990037 -0.739945E-05  0.464E-03    0.13       2.2  T
  19   -194.3990046 -0.971523E-06  0.256E-03    0.13       4.1  T
  20   -194.3990047 -0.596833E-07  0.238E-03    0.13       4.4  T
  21   -194.3990050 -0.283713E-06  0.859E-04    0.13      12.1  T
  22   -194.3990049  0.983830E-07  0.139E-03    0.13       7.5  T
  23   -194.3990049 -0.638781E-07  0.900E-04    0.13      11.6  T
     SCC iter.                  ...        0 min,  0.574 sec
     gradient                   ...        0 min,  0.054 sec
 * total energy  :  -192.4807869 Eh     change       -0.3032412E-02 Eh
   gradient norm :     0.0330623 Eh/α   predicted    -0.2817925E-02 (  -7.07%)
   displ. norm   :     0.7290355 α      lambda       -0.4395008E-02
   maximum displ.:     0.2561441 α      in ANC's #7, #5, #20, ...

........................................................................
.............................. CYCLE  158 ..............................
........................................................................

 iter      E             dE          RMSdq      gap      omega  full diag
   1   -194.3860321 -0.194386E+03  0.114E+00    0.20       0.0  T
   2   -193.9002630  0.485769E+00  0.320E+00    0.13       1.0  T
   3   -194.3237796 -0.423517E+00  0.930E-01    0.56       1.0  T
   4   -194.3802466 -0.564670E-01  0.773E-01    0.51       1.0  T
   5   -194.3827480 -0.250134E-02  0.617E-01    0.40       1.0  T
   6   -194.3891360 -0.638801E-02  0.491E-01    0.32       1.0  T
   7   -194.3933807 -0.424474E-02  0.413E-01    0.25       1.0  T
   8   -194.3965792 -0.319854E-02  0.276E-01    0.19       1.0  T
   9   -194.3989085 -0.232925E-02  0.864E-02    0.16       1.0  T
  10   -194.3983534  0.555128E-03  0.153E-01    0.12       1.0  T
  11   -194.3989010 -0.547628E-03  0.757E-02    0.13       1.0  T
  12   -194.3992331 -0.332109E-03  0.308E-02    0.15       1.0  T
  13   -194.3992381 -0.498632E-05  0.281E-02    0.14       1.0  T
  14   -194.3992968 -0.587565E-04  0.924E-03    0.14       1.1  T
  15   -194.3992971 -0.231462E-06  0.538E-03    0.14       1.9  T
  16   -194.3992965  0.526747E-06  0.668E-03    0.14       1.6  T
  17   -194.3992980 -0.143823E-05  0.275E-03    0.14       3.8  T
  18   -194.3992982 -0.236245E-06  0.169E-03    0.14       6.2  T
  19   -194.3992981  0.729968E-07  0.169E-03    0.14       6.2  T
  20   -194.3992982 -0.841784E-07  0.112E-03    0.14       9.3  T
  21   -194.3992983 -0.522080E-07  0.975E-04    0.14      10.7  T
  22   -194.3992983  0.120464E-07  0.883E-04    0.14      11.8  T
     SCC iter.                  ...        0 min,  0.534 sec
     gradient                   ...        0 min,  0.055 sec
 * total energy  :  -192.4848716 Eh     change       -0.4084668E-02 Eh
   gradient norm :     0.0493946 Eh/α   predicted    -0.3365467E-02 ( -17.61%)
   displ. norm   :     0.6878031 α      lambda       -0.8136318E-02
   maximum displ.:     0.2341361 α      in ANC's #7, #5, #20, ...

........................................................................
.............................. CYCLE  159 ..............................
........................................................................

 iter      E             dE          RMSdq      gap      omega  full diag
   1   -194.3972447 -0.194397E+03  0.750E-01    0.15       0.0  T
   2   -194.3651896  0.320551E-01  0.589E-01    0.09       1.0  T
   3   -194.3733614 -0.817181E-02  0.682E-01    0.42       1.0  T
   4   -194.3716190  0.174240E-02  0.859E-01    0.08       1.0  T
   5   -194.3969815 -0.253625E-01  0.474E-01    0.33       1.0  T
   6   -194.4040902 -0.710875E-02  0.269E-01    0.20       1.0  T
   7   -194.4052901 -0.119990E-02  0.147E-01    0.17       1.0  T
   8   -194.4050107  0.279466E-03  0.159E-01    0.13       1.0  T
   9   -194.4043307  0.679980E-03  0.206E-01    0.12       1.0  T
  10   -194.4062251 -0.189440E-02  0.530E-02    0.15       1.0  T
  11   -194.4060838  0.141244E-03  0.517E-02    0.14       1.0  T
  12   -194.4062250 -0.141202E-03  0.292E-02    0.16       1.0  T
  13   -194.4062551 -0.300707E-04  0.169E-02    0.15       1.0  T
  14   -194.4062841 -0.289954E-04  0.774E-03    0.15       1.3  T
  15   -194.4062725  0.115851E-04  0.175E-02    0.15       1.0  T
  16   -194.4062845 -0.119419E-04  0.726E-03    0.15       1.4  T
  17   -194.4062863 -0.179697E-05  0.201E-03    0.15       5.2  T
  18   -194.4062863  0.127888E-07  0.172E-03    0.15       6.1  T
  19   -194.4062863 -0.372182E-07  0.123E-03    0.15       8.5  T
  20   -194.4062863  0.317615E-08  0.113E-03    0.15       9.3  T
  21   -194.4062863 -0.455724E-07  0.627E-04    0.15      16.6  T
  22   -194.4062863  0.148583E-07  0.677E-04    0.15      15.4  T
     SCC iter.                  ...        0 min,  0.560 sec
     gradient                   ...        0 min,  0.055 sec
 * total energy  :  -192.4908527 Eh     change       -0.5981140E-02 Eh
   gradient norm :     0.0491394 Eh/α   predicted    -0.5992707E-02 (   0.19%)
   displ. norm   :     0.3772774 α      lambda       -0.9247252E-02
   maximum displ.:     0.1056374 α      in ANC's #29, #44, #1, ...

........................................................................
.............................. CYCLE  160 ..............................
........................................................................

 iter      E             dE          RMSdq      gap      omega  full diag
   1   -194.3864313 -0.194386E+03  0.107E+00    0.08       0.0  T
   2   -194.3103298  0.761014E-01  0.138E+00    0.55       1.0  T
   3   -194.4120465 -0.101717E+00  0.765E-01    0.21       1.0  T
   4   -194.4109973  0.104924E-02  0.473E-01    0.26       1.0  T
   5   -194.4159405 -0.494324E-02  0.257E-01    0.11       1.0  T
   6   -194.4116995  0.424099E-02  0.330E-01    0.26       1.0  T
   7   -194.4204140 -0.871447E-02  0.191E-01    0.14       1.0  T
   8   -194.4211928 -0.778810E-03  0.111E-01    0.14       1.0  T
   9   -194.4214163 -0.223527E-03  0.879E-02    0.16       1.0  T
  10   -194.4216861 -0.269782E-03  0.398E-02    0.15       1.0  T
  11   -194.4214412  0.244930E-03  0.774E-02    0.13       1.0  T
  12   -194.4217439 -0.302728E-03  0.444E-02    0.15       1.0  T
  13   -194.4217728 -0.289173E-04  0.279E-02    0.14       1.0  T
  14   -194.4217634  0.936611E-05  0.297E-02    0.14       1.0  T
  15   -194.4217971 -0.336402E-04  0.500E-03    0.15       2.1  T
  16   -194.4217936  0.344025E-05  0.110E-02    0.15       1.0  T
  17   -194.4217967 -0.301416E-05  0.387E-03    0.15       2.7  T
  18   -194.4217966  0.290462E-07  0.625E-03    0.15       1.7  T
  19   -194.4217979 -0.126796E-05  0.114E-03    0.15       9.2  T
  20   -194.4217978  0.596569E-07  0.134E-03    0.15       7.8  T
  21   -194.4217979 -0.972193E-07  0.374E-04    0.15      27.9  T
  22   -194.4217979 -0.553922E-08  0.223E-04    0.15      46.7  T
     SCC iter.                  ...        0 min,  0.519 sec
     gradient                   ...        0 min,  0.053 sec
 * total energy  :  -192.4933742 Eh     change       -0.2521461E-02 Eh
   gradient norm :     0.0524834 Eh/α   predicted    -0.5281750E-02 ( 109.47%)
   displ. norm   :     0.5194836 α      lambda       -0.7953503E-02
   maximum displ.:     0.1960349 α      in ANC's #7, #41, #5, ...

........................................................................
.............................. CYCLE  161 ..............................
........................................................................

 iter      E             dE          RMSdq      gap      omega  full diag
   1   -194.4075081 -0.194408E+03  0.371E-01    0.15       0.0  T
   2   -194.4009366  0.657155E-02  0.318E-01    0.11       1.0  T
   3   -194.3879173  0.130193E-01  0.533E-01    0.45       1.0  T
   4   -194.4042087 -0.162914E-01  0.265E-01    0.20       1.0  T
   5   -194.4064646 -0.225591E-02  0.152E-01    0.18       1.0  T
   6   -194.4076432 -0.117867E-02  0.638E-02    0.15       1.0  T
   7   -194.4064007  0.124254E-02  0.967E-02    0.12       1.0  T
   8   -194.4074331 -0.103241E-02  0.603E-02    0.16       1.0  T
   9   -194.4077472 -0.314110E-03  0.454E-02    0.14       1.0  T
  10   -194.4078326 -0.854165E-04  0.131E-02    0.15       1.0  T
  11   -194.4078333 -0.714441E-06  0.151E-02    0.15       1.0  T
  12   -194.4078401 -0.675974E-05  0.562E-03    0.15       1.9  T
  13   -194.4078390  0.112253E-05  0.895E-03    0.15       1.2  T
  14   -194.4078410 -0.201308E-05  0.270E-03    0.15       3.9  T
  15   -194.4078412 -0.220012E-06  0.193E-03    0.15       5.4  T
  16   -194.4078406  0.572417E-06  0.415E-03    0.15       2.5  T
  17   -194.4078413 -0.664940E-06  0.185E-03    0.15       5.6  T
  18   -194.4078413  0.229123E-07  0.143E-03    0.15       7.3  T
  19   -194.4078412  0.470516E-07  0.161E-03    0.15       6.5  T
  20   -194.4078414 -0.182730E-06  0.516E-04    0.15      20.2  T
  21   -194.4078414 -0.113231E-07  0.283E-04    0.15      36.8  T
     SCC iter.                  ...        0 min,  0.477 sec
     gradient                   ...        0 min,  0.053 sec
 * total energy  :  -192.4975884 Eh     change       -0.4214254E-02 Eh
   gradient norm :     0.0365206 Eh/α   predicted    -0.5049927E-02 (  19.83%)
   displ. norm   :     0.3220954 α      lambda       -0.3317243E-02
   maximum displ.:     0.1508778 α      in ANC's #7, #5, #20, ...

........................................................................
.............................. CYCLE  162 ..............................
........................................................................

 iter      E             dE          RMSdq      gap      omega  full diag
   1   -194.4071755 -0.194407E+03  0.206E-01    0.14       0.0  T
   2   -194.4012506  0.592494E-02  0.475E-01    0.11       1.0  T
   3   -194.4038909 -0.264035E-02  0.248E-01    0.19       1.0  T
   4   -194.2423734  0.161518E+00  0.104E+00    0.05       1.0  T
   5   -194.4073962 -0.165023E+00  0.755E-02    0.15       1.0  T
   6   -194.4070269  0.369343E-03  0.912E-02    0.16       1.0  T
   7   -194.4073499 -0.323040E-03  0.520E-02    0.16       1.0  T
   8   -194.4074233 -0.734249E-04  0.391E-02    0.16       1.0  T
   9   -194.4075087 -0.853837E-04  0.245E-02    0.15       1.0  T
  10   -194.4075421 -0.334148E-04  0.192E-02    0.15       1.0  T
  11   -194.4075714 -0.292759E-04  0.111E-02    0.15       1.0  T
  12   -194.4075765 -0.511818E-05  0.925E-03    0.15       1.1  T
  13   -194.4075832 -0.663666E-05  0.423E-03    0.15       2.5  T
  14   -194.4075843 -0.112245E-05  0.157E-03    0.15       6.6  T
  15   -194.4075840  0.289533E-06  0.202E-03    0.15       5.2  T
  16   -194.4075838  0.210245E-06  0.242E-03    0.14       4.3  T
  17   -194.4075839 -0.145637E-06  0.206E-03    0.15       5.1  T
  18   -194.4075843 -0.400612E-06  0.935E-04    0.15      11.1  T
  19   -194.4075844 -0.826121E-07  0.412E-04    0.15      25.3  T
     SCC iter.                  ...        0 min,  0.459 sec
     gradient                   ...        0 min,  0.051 sec
 * total energy  :  -192.5001052 Eh     change       -0.2516797E-02 Eh
   gradient norm :     0.0226160 Eh/α   predicted    -0.1830698E-02 ( -27.26%)
   displ. norm   :     0.6003967 α      lambda       -0.4044379E-02
   maximum displ.:     0.3096145 α      in ANC's #7, #5, #12, ...

........................................................................
.............................. CYCLE  163 ..............................
........................................................................

 iter      E             dE          RMSdq      gap      omega  full diag
   1   -194.4094547 -0.194409E+03  0.388E-01    0.11       0.0  T
   2   -194.3979518  0.115030E-01  0.327E-01    0.24       1.0  T
   3   -193.9563568  0.441595E+00  0.214E+00    0.04       1.0  T
   4   -194.3885646 -0.432208E+00  0.387E-01    0.08       1.0  T
   5   -194.4080555 -0.194909E-01  0.161E-01    0.17       1.0  T
   6   -194.4095044 -0.144889E-02  0.123E-01    0.17       1.0  T
   7   -194.4107749 -0.127054E-02  0.689E-02    0.15       1.0  T
   8   -194.4112301 -0.455160E-03  0.333E-02    0.13       1.0  T
   9   -194.4112675 -0.374572E-04  0.304E-02    0.14       1.0  T
  10   -194.4112280  0.395109E-04  0.276E-02    0.15       1.0  T
  11   -194.4112930 -0.649765E-04  0.172E-02    0.14       1.0  T
  12   -194.4112960 -0.303563E-05  0.135E-02    0.14       1.0  T
  13   -194.4113012 -0.520084E-05  0.887E-03    0.14       1.2  T
  14   -194.4113038 -0.253716E-05  0.512E-03    0.14       2.0  T
  15   -194.4113052 -0.143428E-05  0.258E-03    0.14       4.0  T
  16   -194.4113053 -0.914991E-07  0.352E-03    0.14       3.0  T
  17   -194.4113050  0.313661E-06  0.310E-03    0.14       3.4  T
  18   -194.4113056 -0.570974E-06  0.199E-03    0.14       5.2  T
  19   -194.4113056 -0.734485E-07  0.110E-03    0.14       9.4  T
  20   -194.4113057 -0.104645E-06  0.652E-04    0.14      16.0  T
  21   -194.4113057 -0.246931E-08  0.606E-04    0.14      17.2  T
     SCC iter.                  ...        0 min,  0.487 sec
     gradient                   ...        0 min,  0.052 sec
 * total energy  :  -192.5031861 Eh     change       -0.3080919E-02 Eh
   gradient norm :     0.0185900 Eh/α   predicted    -0.2751141E-02 ( -10.70%)
   displ. norm   :     0.5924804 α      lambda       -0.3179638E-02
   maximum displ.:     0.3277364 α      in ANC's #7, #5, #12, ...

........................................................................
.............................. CYCLE  164 ..............................
........................................................................

 iter      E             dE          RMSdq      gap      omega  full diag
   1   -194.4158288 -0.194416E+03  0.373E-01    0.10       0.0  T
   2   -194.4016461  0.141827E-01  0.351E-01    0.28       1.0  T
   3   -193.9766248  0.425021E+00  0.194E+00    0.06       1.0  T
   4   -194.4060134 -0.429389E+00  0.301E-01    0.09       1.0  T
   5   -194.4134967 -0.748330E-02  0.186E-01    0.20       1.0  T
   6   -194.4163405 -0.284383E-02  0.128E-01    0.17       1.0  T
   7   -194.4173481 -0.100761E-02  0.873E-02    0.15       1.0  T
   8   -194.4176721 -0.324005E-03  0.652E-02    0.15       1.0  T
   9   -194.4179638 -0.291662E-03  0.539E-02    0.13       1.0  T
  10   -194.4179756 -0.118343E-04  0.395E-02    0.14       1.0  T
  11   -194.4180535 -0.779167E-04  0.237E-02    0.13       1.0  T
  12   -194.4180690 -0.154116E-04  0.134E-02    0.13       1.0  T
  13   -194.4180810 -0.119975E-04  0.643E-03    0.13       1.6  T
  14   -194.4180783  0.266409E-05  0.659E-03    0.13       1.6  T
  15   -194.4180796 -0.135542E-05  0.605E-03    0.13       1.7  T
  16   -194.4180814 -0.172574E-05  0.441E-03    0.13       2.4  T
  17   -194.4180826 -0.121845E-05  0.252E-03    0.13       4.1  T
  18   -194.4180829 -0.293915E-06  0.155E-03    0.13       6.7  T
  19   -194.4180830 -0.695307E-07  0.104E-03    0.13      10.0  T
  20   -194.4180831 -0.108821E-06  0.314E-04    0.13      33.2  T
  21   -194.4180831 -0.211475E-08  0.277E-04    0.13      37.6  T
     SCC iter.                  ...        0 min,  0.486 sec
     gradient                   ...        0 min,  0.052 sec
 * total energy  :  -192.5054400 Eh     change       -0.2253866E-02 Eh
   gradient norm :     0.0240834 Eh/α   predicted    -0.2147899E-02 (  -4.70%)
   displ. norm   :     0.6378040 α      lambda       -0.2888902E-02
   maximum displ.:     0.3575812 α      in ANC's #7, #5, #12, ...

........................................................................
.............................. CYCLE  165 ..............................
........................................................................

 iter      E             dE          RMSdq      gap      omega  full diag
   1   -194.4161495 -0.194416E+03  0.420E-01    0.09       0.0  T
   2   -194.3959063  0.202432E-01  0.446E-01    0.32       1.0  T
   3   -194.0284561  0.367450E+00  0.161E+00    0.10       1.0  T
   4   -194.4140235 -0.385567E+00  0.300E-01    0.22       1.0  T
   5   -194.4129982  0.102528E-02  0.236E-01    0.22       1.0  T
   6   -194.4152182 -0.221995E-02  0.202E-01    0.20       1.0  T
   7   -194.4164206 -0.120240E-02  0.164E-01    0.18       1.0  T
   8   -194.4181367 -0.171614E-02  0.117E-01    0.15       1.0  T
   9   -194.4185630 -0.426341E-03  0.957E-02    0.15       1.0  T
  10   -194.4195502 -0.987193E-03  0.434E-02    0.13       1.0  T
  11   -194.4196895 -0.139216E-03  0.233E-02    0.13       1.0  T
  12   -194.4197531 -0.636891E-04  0.546E-03    0.12       1.9  T
  13   -194.4197361  0.170373E-04  0.119E-02    0.12       1.0  T
  14   -194.4197493 -0.131483E-04  0.746E-03    0.12       1.4  T
  15   -194.4197492  0.116513E-07  0.657E-03    0.12       1.6  T
  16   -194.4197533 -0.405539E-05  0.313E-03    0.12       3.3  T
  17   -194.4197539 -0.571282E-06  0.215E-03    0.12       4.8  T
  18   -194.4197543 -0.402789E-06  0.905E-04    0.12      11.5  T
  19   -194.4197543  0.206007E-07  0.940E-04    0.12      11.1  T
     SCC iter.                  ...        0 min,  0.443 sec
     gradient                   ...        0 min,  0.052 sec
 * total energy  :  -192.5076108 Eh     change       -0.2170755E-02 Eh
   gradient norm :     0.0278838 Eh/α   predicted    -0.2032050E-02 (  -6.39%)
   displ. norm   :     0.5332694 α      lambda       -0.2963212E-02
   maximum displ.:     0.3028272 α      in ANC's #7, #5, #4, ...

........................................................................
.............................. CYCLE  166 ..............................
........................................................................

 iter      E             dE          RMSdq      gap      omega  full diag
   1   -194.4238957 -0.194424E+03  0.295E-01    0.11       0.0  T
   2   -194.4132093  0.106864E-01  0.307E-01    0.26       1.0  T
   3   -193.9723291  0.440880E+00  0.170E+00    0.16       1.0  T
   4   -194.4224382 -0.450109E+00  0.179E-01    0.16       1.0  T
   5   -194.4221433  0.294893E-03  0.150E-01    0.16       1.0  T
   6   -194.4221282  0.150659E-04  0.141E-01    0.16       1.0  T
   7   -194.4241908 -0.206262E-02  0.832E-02    0.14       1.0  T
   8   -194.4244092 -0.218327E-03  0.641E-02    0.14       1.0  T
   9   -194.4248753 -0.466172E-03  0.308E-02    0.13       1.0  T
  10   -194.4249873 -0.111948E-03  0.892E-03    0.12       1.2  T
  11   -194.4249908 -0.355145E-05  0.611E-03    0.12       1.7  T
  12   -194.4249830  0.787924E-05  0.879E-03    0.12       1.2  T
  13   -194.4249852 -0.227475E-05  0.768E-03    0.12       1.4  T
  14   -194.4249903 -0.506941E-05  0.465E-03    0.12       2.2  T
  15   -194.4249925 -0.219007E-05  0.214E-03    0.12       4.9  T
  16   -194.4249929 -0.436920E-06  0.793E-04    0.12      13.2  T
  17   -194.4249929 -0.179985E-07  0.481E-04    0.12      21.7  T
     SCC iter.                  ...        0 min,  0.393 sec
     gradient                   ...        0 min,  0.051 sec
 * total energy  :  -192.5099658 Eh     change       -0.2355025E-02 Eh
   gradient norm :     0.0256637 Eh/α   predicted    -0.1902940E-02 ( -19.20%)
   displ. norm   :     0.5846212 α      lambda       -0.3395979E-02
   maximum displ.:     0.3282885 α      in ANC's #7, #5, #12, ...

........................................................................
.............................. CYCLE  167 ..............................
........................................................................

 iter      E             dE          RMSdq      gap      omega  full diag
   1   -194.4220569 -0.194422E+03  0.281E-01    0.14       0.0  T
   2   -193.9976356  0.424421E+00  0.165E+00    0.14       1.0  T
   3   -194.4165863 -0.418951E+00  0.234E-01    0.21       1.0  T
   4   -194.4209176 -0.433129E-02  0.164E-01    0.15       1.0  T
   5   -194.4215911 -0.673453E-03  0.129E-01    0.15       1.0  T
   6   -194.4210107  0.580363E-03  0.129E-01    0.16       1.0  T
   7   -194.4230928 -0.208208E-02  0.583E-02    0.13       1.0  T
   8   -194.4231481 -0.553125E-04  0.461E-02    0.13       1.0  T
   9   -194.4234109 -0.262756E-03  0.175E-02    0.12       1.0  T
  10   -194.4234381 -0.271920E-04  0.691E-03    0.12       1.5  T
  11   -194.4234361  0.201284E-05  0.667E-03    0.12       1.6  T
  12   -194.4234341  0.198672E-05  0.707E-03    0.12       1.5  T
  13   -194.4234373 -0.326918E-05  0.510E-03    0.12       2.0  T
  14   -194.4234401 -0.273590E-05  0.216E-03    0.12       4.8  T
  15   -194.4234405 -0.427659E-06  0.682E-04    0.12      15.3  T
  16   -194.4234405  0.111369E-07  0.657E-04    0.12      15.9  T
     SCC iter.                  ...        0 min,  0.403 sec
     gradient                   ...        0 min,  0.053 sec
 * total energy  :  -192.5122772 Eh     change       -0.2311374E-02 Eh
   gradient norm :     0.0191253 Eh/α   predicted    -0.2278331E-02 (  -1.43%)
   displ. norm   :     0.5011964 α      lambda       -0.2544652E-02
   maximum displ.:     0.2551478 α      in ANC's #7, #5, #12, ...

........................................................................
.............................. CYCLE  168 ..............................
........................................................................

 iter      E             dE          RMSdq      gap      omega  full diag
   1   -194.4258813 -0.194426E+03  0.312E-01    0.12       0.0  T
   2   -194.4256764  0.204870E-03  0.116E-01    0.13       1.0  T
   3   -194.3988704  0.268061E-01  0.436E-01    0.06       1.0  T
   4   -194.4180024 -0.191321E-01  0.234E-01    0.22       1.0  T
   5   -194.4261028 -0.810038E-02  0.576E-02    0.12       1.0  T
   6   -194.4257621  0.340685E-03  0.601E-02    0.14       1.0  T
   7   -194.4261625 -0.400349E-03  0.240E-02    0.12       1.0  T
   8   -194.4261981 -0.356035E-04  0.141E-02    0.12       1.0  T
   9   -194.4262016 -0.351344E-05  0.970E-03    0.12       1.1  T
  10   -194.4262031 -0.149955E-05  0.686E-03    0.12       1.5  T
  11   -194.4262038 -0.701279E-06  0.504E-03    0.12       2.1  T
  12   -194.4262041 -0.323825E-06  0.358E-03    0.12       2.9  T
  13   -194.4262048 -0.681942E-06  0.188E-03    0.12       5.6  T
  14   -194.4262049 -0.900527E-07  0.127E-03    0.12       8.2  T
  15   -194.4262049  0.553325E-08  0.976E-04    0.12      10.7  T
  16   -194.4262049 -0.463685E-07  0.563E-04    0.12      18.5  T
     SCC iter.                  ...        0 min,  0.380 sec
     gradient                   ...        0 min,  0.051 sec
 * total energy  :  -192.5136493 Eh     change       -0.1372120E-02 Eh
   gradient norm :     0.0188666 Eh/α   predicted    -0.1591934E-02 (  16.02%)
   displ. norm   :     0.5086440 α      lambda       -0.1722070E-02
   maximum displ.:     0.2855259 α      in ANC's #7, #5, #12, ...

........................................................................
.............................. CYCLE  169 ..............................
........................................................................

 iter      E             dE          RMSdq      gap      omega  full diag
   1   -194.4198031 -0.194420E+03  0.281E-01    0.14       0.0  T
   2   -194.1722835  0.247520E+00  0.126E+00    0.07       1.0  T
   3   -194.4096963 -0.237413E+00  0.265E-01    0.27       1.0  T
   4   -194.4195521 -0.985587E-02  0.164E-01    0.14       1.0  T
   5   -194.4168154  0.273677E-02  0.162E-01    0.18       1.0  T
   6   -194.4180228 -0.120737E-02  0.137E-01    0.16       1.0  T
   7   -194.4192224 -0.119964E-02  0.957E-02    0.15       1.0  T
   8   -194.4198715 -0.649150E-03  0.633E-02    0.14       1.0  T
   9   -194.4202534 -0.381879E-03  0.357E-02    0.13       1.0  T
  10   -194.4204088 -0.155372E-03  0.121E-02    0.12       1.0  T
  11   -194.4204254 -0.166081E-04  0.419E-03    0.12       2.5  T
  12   -194.4204215  0.385618E-05  0.613E-03    0.12       1.7  T
  13   -194.4204214  0.193583E-06  0.593E-03    0.12       1.8  T
  14   -194.4204251 -0.373077E-05  0.307E-03    0.12       3.4  T
  15   -194.4204262 -0.110738E-05  0.961E-04    0.12      10.9  T
  16   -194.4204262 -0.329973E-07  0.555E-04    0.12      18.8  T
  17   -194.4204262  0.229126E-07  0.604E-04    0.12      17.3  T
     SCC iter.                  ...        0 min,  0.417 sec
     gradient                   ...        0 min,  0.052 sec
 * total energy  :  -192.5148191 Eh     change       -0.1169855E-02 Eh
   gradient norm :     0.0152178 Eh/α   predicted    -0.1083804E-02 (  -7.36%)
   displ. norm   :     0.3539112 α      lambda       -0.1330395E-02
   maximum displ.:     0.1441049 α      in ANC's #7, #12, #16, ...

........................................................................
.............................. CYCLE  170 ..............................
........................................................................

 iter      E             dE          RMSdq      gap      omega  full diag
   1   -194.4249419 -0.194425E+03  0.282E-01    0.15       0.0  T
   2   -194.0485423  0.376400E+00  0.156E+00    0.11       1.0  T
   3   -194.4163115 -0.367769E+00  0.257E-01    0.27       1.0  T
   4   -194.4249899 -0.867839E-02  0.167E-01    0.15       1.0  T
   5   -194.4224674  0.252242E-02  0.161E-01    0.19       1.0  T
   6   -194.4235580 -0.109052E-02  0.139E-01    0.17       1.0  T
   7   -194.4248233 -0.126537E-02  0.996E-02    0.16       1.0  T
   8   -194.4254031 -0.579780E-03  0.713E-02    0.15       1.0  T
   9   -194.4258107 -0.407641E-03  0.455E-02    0.14       1.0  T
  10   -194.4260591 -0.248402E-03  0.155E-02    0.13       1.0  T
  11   -194.4260866 -0.274623E-04  0.518E-03    0.12       2.0  T
  12   -194.4260801  0.648491E-05  0.796E-03    0.12       1.3  T
  13   -194.4260824 -0.232633E-05  0.663E-03    0.12       1.6  T
  14   -194.4260865 -0.404751E-05  0.387E-03    0.12       2.7  T
  15   -194.4260878 -0.134872E-05  0.206E-03    0.12       5.1  T
  16   -194.4260883 -0.442332E-06  0.708E-04    0.12      14.7  T
  17   -194.4260883  0.169109E-08  0.539E-04    0.13      19.3  T
     SCC iter.                  ...        0 min,  0.438 sec
     gradient                   ...        0 min,  0.051 sec
 * total energy  :  -192.5156398 Eh     change       -0.8206902E-03 Eh
   gradient norm :     0.0140892 Eh/α   predicted    -0.7485180E-03 (  -8.79%)
   displ. norm   :     0.4072504 α      lambda       -0.8887303E-03
   maximum displ.:     0.2191767 α      in ANC's #7, #5, #12, ...

........................................................................
.............................. CYCLE  171 ..............................
........................................................................

 iter      E             dE          RMSdq      gap      omega  full diag
   1   -194.4257128 -0.194426E+03  0.260E-01    0.15       0.0  T
   2   -194.1273350  0.298378E+00  0.138E+00    0.08       1.0  T
   3   -194.4184782 -0.291143E+00  0.231E-01    0.25       1.0  T
   4   -194.4253570 -0.687884E-02  0.162E-01    0.15       1.0  T
   5   -194.4235228  0.183421E-02  0.148E-01    0.18       1.0  T
   6   -194.4243143 -0.791474E-03  0.131E-01    0.17       1.0  T
   7   -194.4254321 -0.111786E-02  0.931E-02    0.16       1.0  T
   8   -194.4258747 -0.442516E-03  0.692E-02    0.15       1.0  T
   9   -194.4263079 -0.433223E-03  0.406E-02    0.14       1.0  T
  10   -194.4264962 -0.188276E-03  0.158E-02    0.13       1.0  T
  11   -194.4265259 -0.297055E-04  0.453E-03    0.13       2.3  T
  12   -194.4265236  0.230503E-05  0.543E-03    0.13       1.9  T
  13   -194.4265223  0.130193E-05  0.589E-03    0.13       1.8  T
  14   -194.4265249 -0.262074E-05  0.402E-03    0.13       2.6  T
  15   -194.4265266 -0.168016E-05  0.189E-03    0.13       5.5  T
  16   -194.4265269 -0.329453E-06  0.739E-04    0.13      14.1  T
  17   -194.4265269 -0.880132E-08  0.502E-04    0.13      20.8  T
     SCC iter.                  ...        0 min,  0.417 sec
     gradient                   ...        0 min,  0.055 sec
 * total energy  :  -192.5162753 Eh     change       -0.6355101E-03 Eh
   gradient norm :     0.0114933 Eh/α   predicted    -0.5180637E-03 ( -18.48%)
   displ. norm   :     0.4228357 α      lambda       -0.8675649E-03
   maximum displ.:     0.2048785 α      in ANC's #7, #9, #2, ...

........................................................................
.............................. CYCLE  172 ..............................
........................................................................

 iter      E             dE          RMSdq      gap      omega  full diag
   1   -194.4283479 -0.194428E+03  0.299E-01    0.15       0.0  T
   2   -194.1897485  0.238599E+00  0.124E+00    0.06       1.0  T
   3   -194.4186015 -0.228853E+00  0.264E-01    0.30       1.0  T
   4   -194.4271718 -0.857032E-02  0.205E-01    0.17       1.0  T
   5   -194.4254037  0.176812E-02  0.165E-01    0.20       1.0  T
   6   -194.4263374 -0.933708E-03  0.147E-01    0.18       1.0  T
   7   -194.4276878 -0.135043E-02  0.104E-01    0.16       1.0  T
   8   -194.4283353 -0.647504E-03  0.726E-02    0.15       1.0  T
   9   -194.4288627 -0.527380E-03  0.373E-02    0.14       1.0  T
  10   -194.4290368 -0.174068E-03  0.102E-02    0.13       1.0  T
  11   -194.4290336  0.320293E-05  0.102E-02    0.13       1.0  T
  12   -194.4290313  0.223628E-05  0.104E-02    0.13       1.0  T
  13   -194.4290370 -0.570263E-05  0.771E-03    0.13       1.4  T
  14   -194.4290437 -0.662239E-05  0.342E-03    0.13       3.0  T
  15   -194.4290449 -0.127299E-05  0.127E-03    0.13       8.2  T
  16   -194.4290449  0.851924E-08  0.996E-04    0.13      10.5  T
  17   -194.4290449  0.348907E-07  0.998E-04    0.13      10.4  T
     SCC iter.                  ...        0 min,  0.409 sec
     gradient                   ...        0 min,  0.053 sec
 * total energy  :  -192.5169248 Eh     change       -0.6494549E-03 Eh
   gradient norm :     0.0117989 Eh/α   predicted    -0.5113400E-03 ( -21.27%)
   displ. norm   :     0.4611333 α      lambda       -0.8658502E-03
   maximum displ.:     0.2145115 α      in ANC's #7, #9, #2, ...

........................................................................
.............................. CYCLE  173 ..............................
........................................................................

 iter      E             dE          RMSdq      gap      omega  full diag
   1   -194.4313619 -0.194431E+03  0.331E-01    0.15       0.0  T
   2   -194.1653078  0.266054E+00  0.131E+00    0.07       1.0  T
   3   -194.4204390 -0.255131E+00  0.290E-01    0.33       1.0  T
   4   -194.4291791 -0.874019E-02  0.242E-01    0.19       1.0  T
   5   -194.4275793  0.159986E-02  0.186E-01    0.22       1.0  T
   6   -194.4288522 -0.127289E-02  0.166E-01    0.20       1.0  T
   7   -194.4304044 -0.155218E-02  0.123E-01    0.17       1.0  T
   8   -194.4311931 -0.788788E-03  0.899E-02    0.16       1.0  T
   9   -194.4320122 -0.819037E-03  0.446E-02    0.14       1.0  T
  10   -194.4322561 -0.243945E-03  0.129E-02    0.13       1.0  T
  11   -194.4322503  0.577995E-05  0.131E-02    0.13       1.0  T
  12   -194.4322483  0.206503E-05  0.129E-02    0.13       1.0  T
  13   -194.4322572 -0.889786E-05  0.947E-03    0.13       1.1  T
  14   -194.4322671 -0.996877E-05  0.415E-03    0.13       2.5  T
  15   -194.4322690 -0.181085E-05  0.153E-03    0.13       6.8  T
  16   -194.4322688  0.133086E-06  0.146E-03    0.13       7.1  T
  17   -194.4322689 -0.516906E-07  0.119E-03    0.13       8.7  T
  18   -194.4322690 -0.905087E-07  0.842E-04    0.13      12.4  T
  19   -194.4322690 -0.657170E-07  0.336E-04    0.13      31.0  T
     SCC iter.                  ...        0 min,  0.463 sec
     gradient                   ...        0 min,  0.052 sec
 * total energy  :  -192.5175738 Eh     change       -0.6490315E-03 Eh
   gradient norm :     0.0138169 Eh/α   predicted    -0.5249860E-03 ( -19.11%)
   displ. norm   :     0.4868453 α      lambda       -0.8537591E-03
   maximum displ.:     0.2284121 α      in ANC's #7, #9, #2, ...

........................................................................
.............................. CYCLE  174 ..............................
........................................................................

 iter      E             dE          RMSdq      gap      omega  full diag
   1   -194.4329895 -0.194433E+03  0.332E-01    0.14       0.0  T
   2   -194.3564741  0.765154E-01  0.700E-01    0.04       1.0  T
   3   -194.4161685 -0.596944E-01  0.361E-01    0.40       1.0  T
   4   -194.4278270 -0.116585E-01  0.263E-01    0.25       1.0  T
   5   -194.4277511  0.758735E-04  0.203E-01    0.23       1.0  T
   6   -194.4302511 -0.249993E-02  0.167E-01    0.19       1.0  T
   7   -194.4321894 -0.193830E-02  0.103E-01    0.16       1.0  T
   8   -194.4332500 -0.106067E-02  0.467E-02    0.14       1.0  T
   9   -194.4334689 -0.218881E-03  0.212E-02    0.12       1.0  T
  10   -194.4334695 -0.528087E-06  0.186E-02    0.12       1.0  T
  11   -194.4334262  0.432342E-04  0.239E-02    0.12       1.0  T
  12   -194.4334923 -0.661112E-04  0.831E-03    0.13       1.3  T
  13   -194.4334979 -0.561778E-05  0.387E-03    0.13       2.7  T
  14   -194.4334973  0.617659E-06  0.341E-03    0.13       3.1  T
  15   -194.4334981 -0.767245E-06  0.190E-03    0.13       5.5  T
  16   -194.4334982 -0.628128E-07  0.150E-03    0.13       7.0  T
  17   -194.4334979  0.256510E-06  0.171E-03    0.13       6.1  T
  18   -194.4334982 -0.281637E-06  0.823E-04    0.13      12.7  T
  19   -194.4334982  0.125398E-07  0.706E-04    0.13      14.8  T
     SCC iter.                  ...        0 min,  0.450 sec
     gradient                   ...        0 min,  0.057 sec
 * total energy  :  -192.5182338 Eh     change       -0.6599277E-03 Eh
   gradient norm :     0.0169568 Eh/α   predicted    -0.5280600E-03 ( -19.98%)
   displ. norm   :     0.4855677 α      lambda       -0.9437494E-03
   maximum displ.:     0.2213495 α      in ANC's #7, #2, #9, ...

........................................................................
.............................. CYCLE  175 ..............................
........................................................................

 iter      E             dE          RMSdq      gap      omega  full diag
   1   -194.4341794 -0.194434E+03  0.315E-01    0.14       0.0  T
   2   -194.2730418  0.161138E+00  0.101E+00    0.05       1.0  T
   3   -194.4223967 -0.149355E+00  0.299E-01    0.34       1.0  T
   4   -194.4310673 -0.867060E-02  0.225E-01    0.21       1.0  T
   5   -194.4296875  0.137982E-02  0.190E-01    0.21       1.0  T
   6   -194.4315973 -0.190979E-02  0.164E-01    0.19       1.0  T
   7   -194.4330347 -0.143740E-02  0.119E-01    0.17       1.0  T
   8   -194.4339302 -0.895458E-03  0.819E-02    0.15       1.0  T
   9   -194.4347309 -0.800701E-03  0.283E-02    0.13       1.0  T
  10   -194.4348115 -0.806244E-04  0.128E-02    0.13       1.0  T
  11   -194.4347762  0.352351E-04  0.194E-02    0.12       1.0  T
  12   -194.4348033 -0.270484E-04  0.128E-02    0.13       1.0  T
  13   -194.4348113 -0.798248E-05  0.928E-03    0.13       1.1  T
  14   -194.4348225 -0.111716E-04  0.269E-03    0.13       3.9  T
  15   -194.4348226 -0.179012E-06  0.176E-03    0.13       5.9  T
  16   -194.4348227 -0.555350E-07  0.147E-03    0.13       7.1  T
  17   -194.4348226  0.559503E-07  0.143E-03    0.13       7.3  T
  18   -194.4348228 -0.197541E-06  0.559E-04    0.13      18.7  T
  19   -194.4348228  0.503766E-08  0.438E-04    0.13      23.8  T
     SCC iter.                  ...        0 min,  0.453 sec
     gradient                   ...        0 min,  0.053 sec
 * total energy  :  -192.5189722 Eh     change       -0.7384652E-03 Eh
   gradient norm :     0.0161673 Eh/α   predicted    -0.5831339E-03 ( -21.03%)
   displ. norm   :     0.5785502 α      lambda       -0.1137089E-02
   maximum displ.:     0.2672514 α      in ANC's #7, #2, #9, ...

........................................................................
.............................. CYCLE  176 ..............................
........................................................................

 iter      E             dE          RMSdq      gap      omega  full diag
   1   -194.4311852 -0.194431E+03  0.380E-01    0.12       0.0  T
   2   -194.4311426  0.425737E-04  0.154E-01    0.14       1.0  T
   3   -194.4287644  0.237824E-02  0.191E-01    0.09       1.0  T
   4   -194.4259524  0.281200E-02  0.198E-01    0.23       1.0  T
   5   -194.4297379 -0.378553E-02  0.125E-01    0.11       1.0  T
   6   -194.4309134 -0.117553E-02  0.821E-02    0.15       1.0  T
   7   -194.4316715 -0.758067E-03  0.376E-02    0.13       1.0  T
   8   -194.4316844 -0.128517E-04  0.330E-02    0.12       1.0  T
   9   -194.4316632  0.212022E-04  0.307E-02    0.12       1.0  T
  10   -194.4317674 -0.104245E-03  0.135E-02    0.13       1.0  T
  11   -194.4317507  0.166850E-04  0.156E-02    0.13       1.0  T
  12   -194.4317641 -0.133851E-04  0.107E-02    0.13       1.0  T
  13   -194.4317731 -0.903661E-05  0.492E-03    0.13       2.1  T
  14   -194.4317740 -0.892188E-06  0.328E-03    0.13       3.2  T
  15   -194.4317741 -0.831153E-07  0.232E-03    0.13       4.5  T
  16   -194.4317743 -0.224466E-06  0.153E-03    0.13       6.8  T
  17   -194.4317743  0.388587E-07  0.130E-03    0.13       8.0  T
  18   -194.4317744 -0.993907E-07  0.629E-04    0.13      16.6  T
  19   -194.4317744  0.705163E-08  0.502E-04    0.13      20.8  T
     SCC iter.                  ...        0 min,  0.468 sec
     gradient                   ...        0 min,  0.053 sec
 * total energy  :  -192.5198549 Eh     change       -0.8826516E-03 Eh
   gradient norm :     0.0263106 Eh/α   predicted    -0.7588528E-03 ( -14.03%)
   displ. norm   :     0.5515007 α      lambda       -0.2205252E-02
   maximum displ.:     0.2821119 α      in ANC's #2, #7, #9, ...

........................................................................
.............................. CYCLE  177 ..............................
........................................................................

 iter      E             dE          RMSdq      gap      omega  full diag
   1   -194.4378464 -0.194438E+03  0.347E-01    0.11       0.0  T
   2   -194.4292728  0.857360E-02  0.284E-01    0.29       1.0  T
   3   -193.9473948  0.481878E+00  0.177E+00    0.18       1.0  T
   4   -194.4331689 -0.485774E+00  0.223E-01    0.19       1.0  T
   5   -194.4370082 -0.383924E-02  0.147E-01    0.16       1.0  T
   6   -194.4362693  0.738847E-03  0.135E-01    0.17       1.0  T
   7   -194.4378628 -0.159350E-02  0.919E-02    0.15       1.0  T
   8   -194.4381009 -0.238103E-03  0.744E-02    0.15       1.0  T
   9   -194.4385984 -0.497503E-03  0.437E-02    0.14       1.0  T
  10   -194.4388022 -0.203721E-03  0.192E-02    0.13       1.0  T
  11   -194.4388331 -0.309042E-04  0.912E-03    0.13       1.1  T
  12   -194.4388330  0.888932E-07  0.808E-03    0.12       1.3  T
  13   -194.4388243  0.866467E-05  0.110E-02    0.12       1.0  T
  14   -194.4388332 -0.886967E-05  0.748E-03    0.12       1.4  T
  15   -194.4388392 -0.599446E-05  0.326E-03    0.13       3.2  T
  16   -194.4388400 -0.837166E-06  0.147E-03    0.13       7.1  T
  17   -194.4388401 -0.948516E-07  0.875E-04    0.13      11.9  T
  18   -194.4388400  0.563547E-07  0.926E-04    0.13      11.3  T
     SCC iter.                  ...        0 min,  0.419 sec
     gradient                   ...        0 min,  0.053 sec
 * total energy  :  -192.5206813 Eh     change       -0.8264776E-03 Eh
   gradient norm :     0.0241896 Eh/α   predicted    -0.1437994E-02 (  73.99%)
   displ. norm   :     0.5102815 α      lambda       -0.2191595E-02
   maximum displ.:     0.2299655 α      in ANC's #7, #2, #9, ...

........................................................................
.............................. CYCLE  178 ..............................
........................................................................

 iter      E             dE          RMSdq      gap      omega  full diag
   1   -194.4290652 -0.194429E+03  0.383E-01    0.12       0.0  T
   2   -194.4210394  0.802585E-02  0.273E-01    0.09       1.0  T
   3   -194.4068253  0.142140E-01  0.451E-01    0.34       1.0  T
   4   -194.4248843 -0.180590E-01  0.196E-01    0.20       1.0  T
   5   -194.4285914 -0.370709E-02  0.109E-01    0.10       1.0  T
   6   -194.4278201  0.771315E-03  0.130E-01    0.18       1.0  T
   7   -194.4297225 -0.190238E-02  0.531E-02    0.14       1.0  T
   8   -194.4298801 -0.157595E-03  0.299E-02    0.13       1.0  T
   9   -194.4299443 -0.641877E-04  0.174E-02    0.13       1.0  T
  10   -194.4297944  0.149816E-03  0.340E-02    0.12       1.0  T
  11   -194.4299477 -0.153236E-03  0.100E-02    0.13       1.0  T
  12   -194.4299497 -0.202512E-05  0.780E-03    0.13       1.3  T
  13   -194.4299509 -0.122225E-05  0.578E-03    0.13       1.8  T
  14   -194.4299489  0.201863E-05  0.565E-03    0.13       1.8  T
  15   -194.4299522 -0.333153E-05  0.267E-03    0.13       3.9  T
  16   -194.4299525 -0.257220E-06  0.195E-03    0.13       5.3  T
  17   -194.4299526 -0.598895E-07  0.150E-03    0.13       7.0  T
  18   -194.4299523  0.244050E-06  0.175E-03    0.13       6.0  T
  19   -194.4299526 -0.273716E-06  0.855E-04    0.13      12.2  T
  20   -194.4299527 -0.815864E-07  0.315E-04    0.13      33.1  T
     SCC iter.                  ...        0 min,  0.512 sec
     gradient                   ...        0 min,  0.053 sec
 * total energy  :  -192.5222624 Eh     change       -0.1581066E-02 Eh
   gradient norm :     0.0326336 Eh/α   predicted    -0.1381133E-02 ( -12.65%)
   displ. norm   :     0.4106672 α      lambda       -0.2191655E-02
   maximum displ.:     0.1954486 α      in ANC's #7, #12, #2, ...

........................................................................
.............................. CYCLE  179 ..............................
........................................................................

 iter      E             dE          RMSdq      gap      omega  full diag
   1   -194.4258148 -0.194426E+03  0.339E-01    0.12       0.0  T
   2   -194.4218195  0.399537E-02  0.221E-01    0.21       1.0  T
   3   -194.0010326  0.420787E+00  0.166E+00    0.13       1.0  T
   4   -194.4217815 -0.420749E+00  0.213E-01    0.15       1.0  T
   5   -194.4259928 -0.421130E-02  0.912E-02    0.15       1.0  T
   6   -194.4253598  0.632917E-03  0.898E-02    0.16       1.0  T
   7   -194.4262476 -0.887788E-03  0.495E-02    0.14       1.0  T
   8   -194.4262831 -0.354576E-04  0.398E-02    0.14       1.0  T
   9   -194.4263559 -0.727910E-04  0.310E-02    0.14       1.0  T
  10   -194.4264390 -0.830814E-04  0.190E-02    0.13       1.0  T
  11   -194.4264539 -0.149565E-04  0.128E-02    0.13       1.0  T
  12   -194.4264704 -0.164794E-04  0.600E-03    0.13       1.7  T
  13   -194.4264716 -0.124156E-05  0.391E-03    0.13       2.7  T
  14   -194.4264715  0.113106E-06  0.344E-03    0.13       3.0  T
  15   -194.4264711  0.419826E-06  0.349E-03    0.13       3.0  T
  16   -194.4264714 -0.329792E-06  0.280E-03    0.13       3.7  T
  17   -194.4264720 -0.571825E-06  0.183E-03    0.13       5.7  T
  18   -194.4264722 -0.201884E-06  0.122E-03    0.13       8.5  T
  19   -194.4264723 -0.121027E-06  0.667E-04    0.13      15.6  T
  20   -194.4264724 -0.457680E-07  0.226E-04    0.13      46.1  T
     SCC iter.                  ...        0 min,  0.474 sec
     gradient                   ...        0 min,  0.052 sec
 * total energy  :  -192.5240116 Eh     change       -0.1749138E-02 Eh
   gradient norm :     0.0393868 Eh/α   predicted    -0.1280639E-02 ( -26.78%)
   displ. norm   :     0.4645862 α      lambda       -0.3347828E-02
   maximum displ.:     0.1778484 α      in ANC's #7, #12, #2, ...

........................................................................
.............................. CYCLE  180 ..............................
........................................................................

 iter      E             dE          RMSdq      gap      omega  full diag
   1   -194.4283260 -0.194428E+03  0.453E-01    0.11       0.0  T
   2   -194.4182642  0.100618E-01  0.308E-01    0.30       1.0  T
   3   -193.8974222  0.520842E+00  0.184E+00    0.23       1.0  T
   4   -194.4247829 -0.527361E+00  0.240E-01    0.17       1.0  T
   5   -194.4281798 -0.339686E-02  0.140E-01    0.17       1.0  T
   6   -194.4272987  0.881150E-03  0.136E-01    0.18       1.0  T
   7   -194.4288763 -0.157768E-02  0.914E-02    0.16       1.0  T
   8   -194.4291633 -0.286931E-03  0.679E-02    0.15       1.0  T
   9   -194.4294970 -0.333717E-03  0.442E-02    0.14       1.0  T
  10   -194.4296908 -0.193787E-03  0.209E-02    0.13       1.0  T
  11   -194.4297152 -0.244731E-04  0.117E-02    0.13       1.0  T
  12   -194.4297183 -0.303322E-05  0.888E-03    0.13       1.2  T
  13   -194.4297129  0.539989E-05  0.103E-02    0.13       1.0  T
  14   -194.4297198 -0.690728E-05  0.724E-03    0.13       1.4  T
  15   -194.4297235 -0.369661E-05  0.418E-03    0.13       2.5  T
  16   -194.4297243 -0.859229E-06  0.244E-03    0.13       4.3  T
  17   -194.4297248 -0.482405E-06  0.115E-03    0.13       9.1  T
  18   -194.4297248 -0.318911E-07  0.796E-04    0.13      13.1  T
  19   -194.4297249 -0.441503E-08  0.603E-04    0.13      17.3  T
     SCC iter.                  ...        0 min,  0.439 sec
     gradient                   ...        0 min,  0.053 sec
 * total energy  :  -192.5266718 Eh     change       -0.2660237E-02 Eh
   gradient norm :     0.0416457 Eh/α   predicted    -0.2035213E-02 ( -23.50%)
   displ. norm   :     0.6506964 α      lambda       -0.4347519E-02
   maximum displ.:     0.2565392 α      in ANC's #7, #2, #18, ...

........................................................................
.............................. CYCLE  181 ..............................
........................................................................

 iter      E             dE          RMSdq      gap      omega  full diag
   1   -194.4262030 -0.194426E+03  0.649E-01    0.09       0.0  T
   2   -194.4026646  0.235383E-01  0.515E-01    0.51       1.0  T
   3   -193.9194229  0.483242E+00  0.177E+00    0.20       1.0  T
   4   -194.4207880 -0.501365E+00  0.360E-01    0.35       1.0  T
   5   -194.4235829 -0.279492E-02  0.290E-01    0.29       1.0  T
   6   -194.4240271 -0.444197E-03  0.265E-01    0.27       1.0  T
   7   -194.4268673 -0.284017E-02  0.227E-01    0.23       1.0  T
   8   -194.4285524 -0.168509E-02  0.179E-01    0.20       1.0  T
   9   -194.4308617 -0.230931E-02  0.119E-01    0.17       1.0  T
  10   -194.4325344 -0.167273E-02  0.363E-02    0.14       1.0  T
  11   -194.4326462 -0.111828E-03  0.142E-02    0.13       1.0  T
  12   -194.4324730  0.173224E-03  0.363E-02    0.12       1.0  T
  13   -194.4325677 -0.946698E-04  0.258E-02    0.12       1.0  T
  14   -194.4325951 -0.274391E-04  0.210E-02    0.13       1.0  T
  15   -194.4326470 -0.519275E-04  0.746E-03    0.13       1.4  T
  16   -194.4326482 -0.117010E-05  0.566E-03    0.13       1.8  T
  17   -194.4326434  0.476725E-05  0.773E-03    0.13       1.3  T
  18   -194.4326496 -0.610827E-05  0.375E-03    0.13       2.8  T
  19   -194.4326508 -0.121863E-05  0.209E-03    0.13       5.0  T
  20   -194.4326512 -0.407895E-06  0.937E-04    0.13      11.1  T
  21   -194.4326512 -0.345766E-07  0.659E-04    0.13      15.8  T
     SCC iter.                  ...        0 min,  0.512 sec
     gradient                   ...        0 min,  0.053 sec
 * total energy  :  -192.5308257 Eh     change       -0.4153913E-02 Eh
   gradient norm :     0.0462449 Eh/α   predicted    -0.3094146E-02 ( -25.51%)
   displ. norm   :     0.7363662 α      lambda       -0.9140139E-02
   maximum displ.:     0.2877546 α      in ANC's #18, #248, #6, ...

........................................................................
.............................. CYCLE  182 ..............................
........................................................................

 iter      E             dE          RMSdq      gap      omega  full diag
   1   -194.4172080 -0.194417E+03  0.100E+00    0.06       0.0  T
   2   -194.3491883  0.680196E-01  0.111E+00    0.62       1.0  T
   3   -194.4475042 -0.983159E-01  0.588E-01    0.31       1.0  T
   4   -194.1079323  0.339572E+00  0.146E+00    0.11       1.0  T
   5   -194.4368044 -0.328872E+00  0.410E-01    0.48       1.0  T
   6   -194.4420677 -0.526326E-02  0.377E-01    0.44       1.0  T
   7   -194.4432789 -0.121122E-02  0.350E-01    0.39       1.0  T
   8   -194.4445010 -0.122214E-02  0.316E-01    0.35       1.0  T
   9   -194.4471488 -0.264779E-02  0.276E-01    0.28       1.0  T
  10   -194.4520341 -0.488530E-02  0.192E-01    0.20       1.0  T
  11   -194.4568756 -0.484149E-02  0.223E-02    0.13       1.0  T
  12   -194.4567819  0.936841E-04  0.294E-02    0.12       1.0  T
  13   -194.4568347 -0.528060E-04  0.213E-02    0.12       1.0  T
  14   -194.4564411  0.393621E-03  0.564E-02    0.12       1.0  T
  15   -194.4568765 -0.435404E-03  0.997E-03    0.13       1.0  T
  16   -194.4568590  0.175348E-04  0.145E-02    0.12       1.0  T
  17   -194.4568742 -0.152708E-04  0.979E-03    0.13       1.1  T
  18   -194.4568825 -0.826418E-05  0.555E-03    0.13       1.9  T
  19   -194.4568842 -0.167064E-05  0.398E-03    0.13       2.6  T
  20   -194.4568861 -0.188589E-05  0.133E-03    0.13       7.8  T
  21   -194.4568855  0.532366E-06  0.226E-03    0.13       4.6  T
  22   -194.4568858 -0.311803E-06  0.164E-03    0.13       6.4  T
  23   -194.4568862 -0.319572E-06  0.489E-04    0.13      21.3  T
  24   -194.4568862 -0.281211E-07  0.148E-04    0.13      70.3  T
     SCC iter.                  ...        0 min,  0.563 sec
     gradient                   ...        0 min,  0.053 sec
 * total energy  :  -192.5378418 Eh     change       -0.7016142E-02 Eh
   gradient norm :     0.0455170 Eh/α   predicted    -0.7048125E-02 (   0.46%)
   displ. norm   :     0.8155428 α      lambda       -0.1090758E-01
   maximum displ.:     0.3486074 α      in ANC's #18, #248, #2, ...

........................................................................
.............................. CYCLE  183 ..............................
........................................................................

 iter      E             dE          RMSdq      gap      omega  full diag
   1   -194.3440635 -0.194344E+03  0.138E+00    0.06       0.0  T
   2   -194.2255157  0.118548E+00  0.176E+00    0.41       1.0  T
   3   -194.4280535 -0.202538E+00  0.682E-01    0.71       1.0  T
   4   -194.4587461 -0.306927E-01  0.496E-01    0.13       1.0  T
   5   -194.4484724  0.102737E-01  0.398E-01    0.29       1.0  T
   6   -194.4168334  0.316390E-01  0.535E-01    0.06       1.0  T
   7   -194.4452975 -0.284641E-01  0.366E-01    0.33       1.0  T
   8   -194.4507285 -0.543107E-02  0.302E-01    0.25       1.0  T
   9   -194.4604635 -0.973495E-02  0.125E-01    0.15       1.0  T
  10   -194.4619226 -0.145916E-02  0.623E-02    0.11       1.0  T
  11   -194.4623620 -0.439365E-03  0.243E-02    0.12       1.0  T
  12   -194.4620157  0.346307E-03  0.526E-02    0.11       1.0  T
  13   -194.4623636 -0.347848E-03  0.166E-02    0.12       1.0  T
  14   -194.4623402  0.233025E-04  0.195E-02    0.12       1.0  T
  15   -194.4623302  0.100206E-04  0.209E-02    0.12       1.0  T
  16   -194.4623863 -0.560346E-04  0.656E-03    0.12       1.6  T
  17   -194.4623903 -0.402760E-05  0.356E-03    0.12       2.9  T
  18   -194.4623905 -0.188985E-06  0.277E-03    0.12       3.8  T
  19   -194.4623912 -0.683357E-06  0.137E-03    0.12       7.6  T
  20   -194.4623903  0.873849E-06  0.261E-03    0.12       4.0  T
  21   -194.4623911 -0.862019E-06  0.822E-04    0.12      12.7  T
  22   -194.4623910  0.114035E-06  0.111E-03    0.12       9.4  T
  23   -194.4623912 -0.148888E-06  0.466E-04    0.12      22.4  T
     SCC iter.                  ...        0 min,  0.541 sec
     gradient                   ...        0 min,  0.053 sec
 * total energy  :  -192.5481879 Eh     change       -0.1034604E-01 Eh
   gradient norm :     0.0619167 Eh/α   predicted    -0.9081181E-02 ( -12.23%)
   displ. norm   :     0.8142036 α      lambda       -0.1978263E-01
   maximum displ.:     0.3704994 α      in ANC's #248, #16, #18, ...
 * RMSD in coord.:     1.1612391 α      energy gain  -0.7608521E-01 Eh

generating ANC from exact Hessian ...
Using Lindh-Hessian (1995)
 Shifting diagonal of input Hessian by   1.489927440530808E-002
 Lowest  eigenvalues of input Hessian
    0.010000    0.014497    0.014631    0.000000    0.000000    0.000000
    0.000000    0.000000    0.000000    0.015069    0.015157    0.015176
    0.015418    0.015603    0.015680    0.015832    0.016125    0.016207
 Highest eigenvalues
    2.068336    2.115963    2.157541    2.207956    2.243084    2.244598
 

........................................................................
.............................. CYCLE  184 ..............................
........................................................................

 iter      E             dE          RMSdq      gap      omega  full diag
   1   -194.1431705 -0.194143E+03  0.184E+00    0.13       0.0  T
   2   -193.8492538  0.293917E+00  0.284E+00    0.12       1.0  T
   3   -194.3347218 -0.485468E+00  0.114E+00    0.45       1.0  T
   4   -194.2341613  0.100560E+00  0.183E+00    0.02       1.0  T
   5   -194.4337699 -0.199609E+00  0.826E-01    0.53       1.0  T
   6   -194.4430222 -0.925229E-02  0.622E-01    0.27       1.0  T
   7   -194.4476868 -0.466465E-02  0.427E-01    0.07       1.0  T
   8   -194.4424979  0.518891E-02  0.465E-01    0.23       1.0  T
   9   -194.3646298  0.778682E-01  0.813E-01    0.06       1.0  T
  10   -194.4455207 -0.808909E-01  0.433E-01    0.24       1.0  T
  11   -194.4544886 -0.896788E-02  0.335E-01    0.17       1.0  T
  12   -194.4617711 -0.728247E-02  0.198E-01    0.08       1.0  T
  13   -194.4631241 -0.135303E-02  0.162E-01    0.09       1.0  T
  14   -194.4633160 -0.191921E-03  0.151E-01    0.09       1.0  T
  15   -194.4638010 -0.485030E-03  0.136E-01    0.09       1.0  T
  16   -194.4663475 -0.254649E-02  0.375E-02    0.11       1.0  T
  17   -194.4663366  0.109226E-04  0.378E-02    0.11       1.0  T
  18   -194.4661920  0.144576E-03  0.423E-02    0.11       1.0  T
  19   -194.4663726 -0.180592E-03  0.215E-02    0.11       1.0  T
  20   -194.4662505  0.122137E-03  0.370E-02    0.11       1.0  T
  21   -194.4663199 -0.694419E-04  0.285E-02    0.11       1.0  T
  22   -194.4664305 -0.110549E-03  0.371E-03    0.11       2.8  T
  23   -194.4664287  0.176979E-05  0.423E-03    0.11       2.5  T
  24   -194.4664209  0.785939E-05  0.865E-03    0.10       1.2  T
  25   -194.4664303 -0.945281E-05  0.240E-03    0.11       4.4  T
  26   -194.4664308 -0.450798E-06  0.114E-03    0.11       9.1  T
  27   -194.4664309 -0.931365E-07  0.815E-04    0.11      12.8  T
  28   -194.4664307  0.111817E-06  0.109E-03    0.11       9.5  T
  29   -194.4664309 -0.123242E-06  0.625E-04    0.11      16.7  T
     SCC iter.                  ...        0 min,  0.669 sec
     gradient                   ...        0 min,  0.052 sec
 * total energy  :  -192.5588660 Eh     change       -0.1067808E-01 Eh
   gradient norm :     0.0822616 Eh/α   predicted     0.0000000E+00 (-100.00%)
   displ. norm   :     0.4646866 α      lambda       -0.1676519E-01
   maximum displ.:     0.2030957 α      in ANC's #1, #2, #49, ...

........................................................................
.............................. CYCLE  185 ..............................
........................................................................

 iter      E             dE          RMSdq      gap      omega  full diag
   1   -194.4571666 -0.194457E+03  0.641E-01    0.12       0.0  T
   2   -194.1144827  0.342684E+00  0.163E+00    0.10       1.0  T
   3   -194.4053143 -0.290832E+00  0.678E-01    0.36       1.0  T
   4   -194.4474120 -0.420977E-01  0.471E-01    0.19       1.0  T
   5   -194.4415377  0.587429E-02  0.399E-01    0.21       1.0  T
   6   -194.4541767 -0.126389E-01  0.253E-01    0.14       1.0  T
   7   -194.4509001  0.327657E-02  0.243E-01    0.15       1.0  T
   8   -194.4586476 -0.774753E-02  0.110E-01    0.10       1.0  T
   9   -194.4591093 -0.461700E-03  0.715E-02    0.10       1.0  T
  10   -194.4591851 -0.757398E-04  0.515E-02    0.10       1.0  T
  11   -194.4594591 -0.274001E-03  0.252E-02    0.10       1.0  T
  12   -194.4594260  0.330948E-04  0.280E-02    0.10       1.0  T
  13   -194.4594892 -0.631943E-04  0.973E-03    0.10       1.1  T
  14   -194.4594815  0.768832E-05  0.119E-02    0.10       1.0  T
  15   -194.4594920 -0.105562E-04  0.536E-03    0.10       1.9  T
  16   -194.4594868  0.527053E-05  0.976E-03    0.10       1.1  T
  17   -194.4594932 -0.641036E-05  0.245E-03    0.10       4.2  T
  18   -194.4594925  0.727761E-06  0.395E-03    0.10       2.6  T
  19   -194.4594933 -0.816091E-06  0.186E-03    0.10       5.6  T
  20   -194.4594927  0.542424E-06  0.252E-03    0.10       4.1  T
  21   -194.4594934 -0.699530E-06  0.793E-04    0.10      13.1  T
  22   -194.4594935 -0.249186E-07  0.404E-04    0.10      25.8  T
     SCC iter.                  ...        0 min,  0.522 sec
     gradient                   ...        0 min,  0.053 sec
 * total energy  :  -192.5672572 Eh     change       -0.8391224E-02 Eh
   gradient norm :     0.0590386 Eh/α   predicted    -0.1019549E-01 (  21.50%)
   displ. norm   :     0.5583489 α      lambda       -0.1963270E-01
   maximum displ.:     0.2120664 α      in ANC's #1, #77, #81, ...

........................................................................
.............................. CYCLE  186 ..............................
........................................................................

 iter      E             dE          RMSdq      gap      omega  full diag
   1   -194.4417977 -0.194442E+03  0.704E-01    0.19       0.0  T
   2   -192.3913053  0.205049E+01  0.464E+00    0.01       1.0  T
   3   -193.9117042 -0.152040E+01  0.184E+00    0.18       1.0  T
   4   -193.4492795  0.462425E+00  0.499E+00    0.02       1.0  T
   5   -193.4499896 -0.710110E-03  0.501E+00    0.02       1.0  T
   6   -193.7314947 -0.281505E+00  0.442E+00    0.01       1.0  T
   7   -194.4531558 -0.721661E+00  0.381E-01    0.08       1.0  T
   8   -194.4572741 -0.411833E-02  0.315E-01    0.11       1.0  T
   9   -194.4496494  0.762470E-02  0.439E-01    0.09       1.0  T
  10   -194.4583632 -0.871381E-02  0.276E-01    0.10       1.0  T
  11   -194.4558186  0.254460E-02  0.313E-01    0.11       1.0  T
  12   -194.4559072 -0.886260E-04  0.302E-01    0.13       1.0  T
  13   -194.4560807 -0.173410E-03  0.288E-01    0.13       1.0  T
  14   -194.4556810  0.399615E-03  0.274E-01    0.14       1.0  T
  15   -194.4555983  0.827469E-04  0.255E-01    0.14       1.0  T
  16   -194.4567857 -0.118744E-02  0.190E-01    0.13       1.0  T
  17   -194.4577100 -0.924291E-03  0.149E-01    0.12       1.0  T
  18   -194.4584941 -0.784094E-03  0.105E-01    0.11       1.0  T
  19   -194.4588433 -0.349154E-03  0.766E-02    0.10       1.0  T
  20   -194.4591960 -0.352709E-03  0.471E-02    0.11       1.0  T
  21   -194.4591565  0.395103E-04  0.533E-02    0.11       1.0  T
  22   -194.4592842 -0.127684E-03  0.331E-02    0.11       1.0  T
  23   -194.4593260 -0.418840E-04  0.221E-02    0.11       1.0  T
  24   -194.4593352 -0.913533E-05  0.177E-02    0.11       1.0  T
  25   -194.4593377 -0.249894E-05  0.130E-02    0.11       1.0  T
  26   -194.4593451 -0.738488E-05  0.114E-02    0.11       1.0  T
  27   -194.4593471 -0.199706E-05  0.945E-03    0.11       1.1  T
  28   -194.4593482 -0.111099E-05  0.618E-03    0.11       1.7  T
  29   -194.4593486 -0.432089E-06  0.416E-03    0.11       2.5  T
  30   -194.4593491 -0.539480E-06  0.106E-03    0.11       9.8  T
  31   -194.4593491  0.292125E-07  0.751E-04    0.11      13.9  T
  32   -194.4593491 -0.378885E-07  0.589E-04    0.11      17.7  T
     SCC iter.                  ...        0 min,  0.735 sec
     gradient                   ...        0 min,  0.052 sec
 * total energy  :  -192.5753175 Eh     change       -0.8060324E-02 Eh
   gradient norm :     0.0461758 Eh/α   predicted    -0.1287665E-01 (  59.75%)
   displ. norm   :     0.3572072 α      lambda       -0.7587240E-02
   maximum displ.:     0.1196462 α      in ANC's #49, #19, #41, ...

........................................................................
.............................. CYCLE  187 ..............................
........................................................................

 iter      E             dE          RMSdq      gap      omega  full diag
   1   -194.1004496 -0.194100E+03  0.237E+00    0.01       0.0  T
   2   -193.1660381  0.934411E+00  0.419E+00    0.36       1.0  T
   3   -194.3088211 -0.114278E+01  0.163E+00    0.97       1.0  T
   4   -194.3985844 -0.897632E-01  0.109E+00    0.06       1.0  T
   5   -194.3849984  0.135860E-01  0.106E+00    0.58       1.0  T
   6   -194.4261496 -0.411512E-01  0.797E-01    0.25       1.0  T
   7   -194.4492580 -0.231083E-01  0.623E-01    0.10       1.0  T
   8   -194.4566431 -0.738508E-02  0.504E-01    0.09       1.0  T
   9   -194.4601470 -0.350389E-02  0.411E-01    0.09       1.0  T
  10   -194.4521198  0.802714E-02  0.401E-01    0.07       1.0  T
  11   -194.4624822 -0.103624E-01  0.290E-01    0.08       1.0  T
  12   -194.4666421 -0.415983E-02  0.188E-01    0.13       1.0  T
  13   -194.4626200  0.402211E-02  0.247E-01    0.15       1.0  T
  14   -194.4632690 -0.649058E-03  0.286E-01    0.12       1.0  T
  15   -194.4658265 -0.255744E-02  0.225E-01    0.12       1.0  T
  16   -194.4664805 -0.654055E-03  0.223E-01    0.11       1.0  T
  17   -194.4670239 -0.543345E-03  0.207E-01    0.10       1.0  T
  18   -194.4679089 -0.885057E-03  0.159E-01    0.10       1.0  T
  19   -194.4685486 -0.639706E-03  0.113E-01    0.11       1.0  T
  20   -194.4692232 -0.674535E-03  0.524E-02    0.11       1.0  T
  21   -194.4693917 -0.168568E-03  0.147E-02    0.11       1.0  T
  22   -194.4694008 -0.906183E-05  0.112E-02    0.11       1.0  T
  23   -194.4693775  0.233135E-04  0.220E-02    0.11       1.0  T
  24   -194.4694034 -0.259090E-04  0.943E-03    0.11       1.1  T
  25   -194.4694039 -0.525696E-06  0.889E-03    0.11       1.2  T
  26   -194.4694081 -0.420877E-05  0.499E-03    0.11       2.1  T
  27   -194.4694094 -0.123336E-05  0.231E-03    0.11       4.5  T
  28   -194.4694094 -0.204727E-07  0.187E-03    0.11       5.6  T
  29   -194.4694096 -0.222522E-06  0.112E-03    0.11       9.3  T
  30   -194.4694097 -0.599765E-07  0.526E-04    0.11      19.8  T
  31   -194.4694097 -0.902574E-08  0.208E-04    0.11      50.2  T
     SCC iter.                  ...        0 min,  0.723 sec
     gradient                   ...        0 min,  0.052 sec
 * total energy  :  -192.5775642 Eh     change       -0.2246645E-02 Eh
   gradient norm :     0.0382397 Eh/α   predicted    -0.4277679E-02 (  90.40%)
   displ. norm   :     0.4612626 α      lambda       -0.8273113E-02
   maximum displ.:     0.2484925 α      in ANC's #1, #18, #19, ...

........................................................................
.............................. CYCLE  188 ..............................
........................................................................

 iter      E             dE          RMSdq      gap      omega  full diag
   1   -194.4836440 -0.194484E+03  0.566E-01    0.09       0.0  T
   2   -193.9757486  0.507895E+00  0.311E+00    0.00       1.0  T
   3   -194.4507672 -0.475019E+00  0.549E-01    0.32       1.0  T
   4   -193.9864810  0.464286E+00  0.175E+00    0.28       1.0  T
   5   -194.4759237 -0.489443E+00  0.342E-01    0.15       1.0  T
   6   -194.4732823  0.264138E-02  0.339E-01    0.20       1.0  T
   7   -194.4796672 -0.638487E-02  0.250E-01    0.16       1.0  T
   8   -194.4860777 -0.641049E-02  0.115E-01    0.12       1.0  T
   9   -194.4866638 -0.586140E-03  0.958E-02    0.11       1.0  T
  10   -194.4869846 -0.320772E-03  0.586E-02    0.11       1.0  T
  11   -194.4871563 -0.171680E-03  0.306E-02    0.10       1.0  T
  12   -194.4871933 -0.369713E-04  0.263E-02    0.10       1.0  T
  13   -194.4872201 -0.268812E-04  0.202E-02    0.11       1.0  T
  14   -194.4872475 -0.273959E-04  0.734E-03    0.11       1.4  T
  15   -194.4872455  0.205140E-05  0.774E-03    0.11       1.3  T
  16   -194.4872493 -0.378295E-05  0.450E-03    0.11       2.3  T
  17   -194.4872501 -0.849956E-06  0.404E-03    0.11       2.6  T
  18   -194.4872502 -0.578496E-07  0.337E-03    0.11       3.1  T
  19   -194.4872510 -0.819951E-06  0.962E-04    0.11      10.8  T
  20   -194.4872509  0.111231E-06  0.112E-03    0.11       9.3  T
  21   -194.4872510 -0.127142E-06  0.530E-04    0.11      19.7  T
     SCC iter.                  ...        0 min,  0.480 sec
     gradient                   ...        0 min,  0.053 sec
 * total energy  :  -192.5813664 Eh     change       -0.3802269E-02 Eh
   gradient norm :     0.0261780 Eh/α   predicted    -0.5016697E-02 (  31.94%)
   displ. norm   :     0.3532926 α      lambda       -0.4321964E-02
   maximum displ.:     0.1201496 α      in ANC's #18, #50, #20, ...

........................................................................
.............................. CYCLE  189 ..............................
........................................................................

 iter      E             dE          RMSdq      gap      omega  full diag
   1   -194.4826672 -0.194483E+03  0.425E-01    0.17       0.0  T
   2   -193.9087535  0.573914E+00  0.186E+00    0.12       1.0  T
   3   -194.4698574 -0.561104E+00  0.385E-01    0.24       1.0  T
   4   -194.4056740  0.641835E-01  0.116E+00    0.05       1.0  T
   5   -194.4869358 -0.812618E-01  0.198E-01    0.14       1.0  T
   6   -194.4876239 -0.688164E-03  0.140E-01    0.14       1.0  T
   7   -194.4893912 -0.176727E-02  0.108E-01    0.10       1.0  T
   8   -194.4879812  0.140996E-02  0.157E-01    0.10       1.0  T
   9   -194.4893930 -0.141171E-02  0.108E-01    0.10       1.0  T
  10   -194.4903636 -0.970629E-03  0.265E-02    0.11       1.0  T
  11   -194.4903883 -0.247595E-04  0.157E-02    0.11       1.0  T
  12   -194.4903916 -0.324375E-05  0.107E-02    0.11       1.0  T
  13   -194.4903894  0.217188E-05  0.104E-02    0.11       1.0  T
  14   -194.4903936 -0.414897E-05  0.615E-03    0.11       1.7  T
  15   -194.4903942 -0.617388E-06  0.438E-03    0.11       2.4  T
  16   -194.4903960 -0.180683E-05  0.193E-03    0.11       5.4  T
  17   -194.4903959  0.379022E-07  0.159E-03    0.11       6.6  T
  18   -194.4903960 -0.369467E-07  0.132E-03    0.11       7.9  T
  19   -194.4903962 -0.203240E-06  0.549E-04    0.11      19.0  T
  20   -194.4903961  0.505231E-07  0.842E-04    0.11      12.4  T
     SCC iter.                  ...        0 min,  0.480 sec
     gradient                   ...        0 min,  0.052 sec
 * total energy  :  -192.5835604 Eh     change       -0.2193932E-02 Eh
   gradient norm :     0.0246308 Eh/α   predicted    -0.2430705E-02 (  10.79%)
   displ. norm   :     0.3652883 α      lambda       -0.3379002E-02
   maximum displ.:     0.1075092 α      in ANC's #19, #50, #18, ...

........................................................................
.............................. CYCLE  190 ..............................
........................................................................

 iter      E             dE          RMSdq      gap      omega  full diag
   1   -194.4790586 -0.194479E+03  0.543E-01    0.10       0.0  T
   2   -194.3959678  0.830908E-01  0.893E-01    0.04       1.0  T
   3   -194.4392189 -0.432512E-01  0.703E-01    0.58       1.0  T
   4   -194.4330794  0.613948E-02  0.614E-01    0.07       1.0  T
   5   -194.4623129 -0.292334E-01  0.508E-01    0.33       1.0  T
   6   -194.4699927 -0.767989E-02  0.411E-01    0.25       1.0  T
   7   -194.4802104 -0.102177E-01  0.270E-01    0.18       1.0  T
   8   -194.4887420 -0.853156E-02  0.875E-02    0.12       1.0  T
   9   -194.4877761  0.965882E-03  0.120E-01    0.10       1.0  T
  10   -194.4887374 -0.961273E-03  0.905E-02    0.11       1.0  T
  11   -194.4891154 -0.378078E-03  0.600E-02    0.12       1.0  T
  12   -194.4883797  0.735764E-03  0.117E-01    0.11       1.0  T
  13   -194.4893236 -0.943885E-03  0.227E-02    0.11       1.0  T
  14   -194.4893675 -0.439373E-04  0.813E-03    0.11       1.3  T
  15   -194.4893267  0.407740E-04  0.255E-02    0.11       1.0  T
  16   -194.4893720 -0.453030E-04  0.370E-03    0.11       2.8  T
  17   -194.4893728 -0.724810E-06  0.276E-03    0.11       3.8  T
  18   -194.4893719  0.811515E-06  0.402E-03    0.11       2.6  T
  19   -194.4893721 -0.119984E-06  0.403E-03    0.11       2.6  T
  20   -194.4893731 -0.103263E-05  0.743E-04    0.11      14.0  T
  21   -194.4893730  0.119239E-06  0.133E-03    0.11       7.8  T
  22   -194.4893730  0.179739E-09  0.124E-03    0.11       8.4  T
  23   -194.4893731 -0.113506E-06  0.575E-04    0.11      18.1  T
  24   -194.4893731 -0.227148E-07  0.305E-04    0.11      34.2  T
     SCC iter.                  ...        0 min,  0.551 sec
     gradient                   ...        0 min,  0.052 sec
 * total energy  :  -192.5856881 Eh     change       -0.2127719E-02 Eh
   gradient norm :     0.0185211 Eh/α   predicted    -0.1914944E-02 ( -10.00%)
   displ. norm   :     0.4857411 α      lambda       -0.2814078E-02
   maximum displ.:     0.1629803 α      in ANC's #19, #18, #11, ...

........................................................................
.............................. CYCLE  191 ..............................
........................................................................

 iter      E             dE          RMSdq      gap      omega  full diag
   1   -194.4848739 -0.194485E+03  0.568E-01    0.12       0.0  T
   2   -194.0503102  0.434564E+00  0.170E+00    0.20       1.0  T
   3   -194.4366437 -0.386333E+00  0.729E-01    0.46       1.0  T
   4   -194.4464593 -0.981553E-02  0.794E-01    0.07       1.0  T
   5   -194.4680817 -0.216225E-01  0.560E-01    0.26       1.0  T
   6   -194.4687600 -0.678300E-03  0.505E-01    0.25       1.0  T
   7   -194.4741975 -0.543744E-02  0.448E-01    0.21       1.0  T
   8   -194.4800116 -0.581418E-02  0.350E-01    0.18       1.0  T
   9   -194.4872896 -0.727798E-02  0.179E-01    0.16       1.0  T
  10   -194.4898749 -0.258528E-02  0.125E-01    0.13       1.0  T
  11   -194.4908600 -0.985126E-03  0.417E-02    0.13       1.0  T
  12   -194.4909588 -0.987984E-04  0.349E-02    0.12       1.0  T
  13   -194.4907923  0.166551E-03  0.542E-02    0.11       1.0  T
  14   -194.4909181 -0.125862E-03  0.366E-02    0.11       1.0  T
  15   -194.4910342 -0.116056E-03  0.686E-03    0.12       1.5  T
  16   -194.4910326  0.159052E-05  0.648E-03    0.12       1.6  T
  17   -194.4910302  0.243031E-05  0.106E-02    0.12       1.0  T
  18   -194.4910344 -0.426141E-05  0.597E-03    0.12       1.7  T
  19   -194.4910353 -0.835675E-06  0.577E-03    0.12       1.8  T
  20   -194.4910370 -0.171539E-05  0.202E-03    0.12       5.2  T
  21   -194.4910372 -0.248085E-06  0.853E-04    0.12      12.2  T
  22   -194.4910372 -0.132172E-07  0.657E-04    0.12      15.9  T
     SCC iter.                  ...        0 min,  0.520 sec
     gradient                   ...        0 min,  0.052 sec
 * total energy  :  -192.5876617 Eh     change       -0.1973581E-02 Eh
   gradient norm :     0.0237202 Eh/α   predicted    -0.1739033E-02 ( -11.88%)
   displ. norm   :     0.5616065 α      lambda       -0.3086764E-02
   maximum displ.:     0.1784267 α      in ANC's #19, #18, #11, ...

........................................................................
.............................. CYCLE  192 ..............................
........................................................................

 iter      E             dE          RMSdq      gap      omega  full diag
   1   -194.4350466 -0.194435E+03  0.112E+00    0.06       0.0  T
   2   -193.8905238  0.544523E+00  0.325E+00    0.12       1.0  T
   3   -194.4066163 -0.516093E+00  0.119E+00    0.67       1.0  T
   4   -194.0813536  0.325263E+00  0.166E+00    0.16       1.0  T
   5   -194.4550285 -0.373675E+00  0.781E-01    0.48       1.0  T
   6   -194.4720296 -0.170011E-01  0.593E-01    0.31       1.0  T
   7   -194.4826430 -0.106134E-01  0.387E-01    0.21       1.0  T
   8   -194.4527976  0.298453E-01  0.836E-01    0.06       1.0  T
   9   -194.4846004 -0.318027E-01  0.394E-01    0.18       1.0  T
  10   -194.4963438 -0.117434E-01  0.421E-02    0.13       1.0  T
  11   -194.4960079  0.335936E-03  0.820E-02    0.12       1.0  T
  12   -194.4956412  0.366699E-03  0.104E-01    0.13       1.0  T
  13   -194.4963030 -0.661865E-03  0.273E-02    0.12       1.0  T
  14   -194.4960629  0.240091E-03  0.694E-02    0.12       1.0  T
  15   -194.4963726 -0.309621E-03  0.179E-02    0.13       1.0  T
  16   -194.4963692  0.337571E-05  0.177E-02    0.13       1.0  T
  17   -194.4963305  0.387134E-04  0.296E-02    0.13       1.0  T
  18   -194.4963714 -0.409771E-04  0.161E-02    0.12       1.0  T
  19   -194.4963874 -0.159290E-04  0.363E-03    0.12       2.9  T
  20   -194.4963873  0.108198E-06  0.368E-03    0.12       2.8  T
  21   -194.4963873 -0.848701E-09  0.333E-03    0.12       3.1  T
  22   -194.4963878 -0.553530E-06  0.198E-03    0.12       5.3  T
  23   -194.4963881 -0.267757E-06  0.603E-04    0.12      17.3  T
  24   -194.4963880  0.109179E-06  0.150E-03    0.12       6.9  T
  25   -194.4963881 -0.138707E-06  0.181E-04    0.12      57.7  T
     SCC iter.                  ...        0 min,  0.572 sec
     gradient                   ...        0 min,  0.051 sec
 * total energy  :  -192.5898631 Eh     change       -0.2201454E-02 Eh
   gradient norm :     0.0234263 Eh/α   predicted    -0.2030172E-02 (  -7.78%)
   displ. norm   :     0.5099557 α      lambda       -0.3438824E-02
   maximum displ.:     0.1379655 α      in ANC's #20, #11, #1, ...

........................................................................
.............................. CYCLE  193 ..............................
........................................................................

 iter      E             dE          RMSdq      gap      omega  full diag
   1   -194.5039730 -0.194504E+03  0.567E-01    0.15       0.0  T
   2   -193.7106128  0.793360E+00  0.346E+00    0.03       1.0  T
   3   -194.4357716 -0.725159E+00  0.716E-01    0.06       1.0  T
   4   -194.4575408 -0.217692E-01  0.657E-01    0.34       1.0  T
   5   -194.4876787 -0.301379E-01  0.444E-01    0.26       1.0  T
   6   -194.4916838 -0.400506E-02  0.387E-01    0.25       1.0  T
   7   -194.4969067 -0.522294E-02  0.334E-01    0.21       1.0  T
   8   -194.5037959 -0.688923E-02  0.233E-01    0.12       1.0  T
   9   -194.5036124  0.183565E-03  0.226E-01    0.14       1.0  T
  10   -194.5056279 -0.201550E-02  0.156E-01    0.12       1.0  T
  11   -194.5067660 -0.113812E-02  0.777E-02    0.12       1.0  T
  12   -194.5071475 -0.381477E-03  0.346E-02    0.13       1.0  T
  13   -194.5068360  0.311434E-03  0.728E-02    0.12       1.0  T
  14   -194.5071859 -0.349910E-03  0.228E-02    0.13       1.0  T
  15   -194.5071807  0.527571E-05  0.202E-02    0.13       1.0  T
  16   -194.5072191 -0.384000E-04  0.114E-02    0.13       1.0  T
  17   -194.5072312 -0.121787E-04  0.388E-03    0.13       2.7  T
  18   -194.5072317 -0.413744E-06  0.226E-03    0.13       4.6  T
  19   -194.5072299  0.174093E-05  0.405E-03    0.13       2.6  T
  20   -194.5072315 -0.162494E-05  0.211E-03    0.13       4.9  T
  21   -194.5072320 -0.463807E-06  0.925E-04    0.13      11.3  T
  22   -194.5072319  0.118378E-06  0.122E-03    0.13       8.6  T
  23   -194.5072320 -0.164460E-06  0.281E-04    0.13      37.1  T
     SCC iter.                  ...        0 min,  0.538 sec
     gradient                   ...        0 min,  0.052 sec
 * total energy  :  -192.5922689 Eh     change       -0.2405802E-02 Eh
   gradient norm :     0.0218744 Eh/α   predicted    -0.2166570E-02 (  -9.94%)
   displ. norm   :     0.4473385 α      lambda       -0.2786735E-02
   maximum displ.:     0.1257296 α      in ANC's #11, #6, #20, ...

........................................................................
.............................. CYCLE  194 ..............................
........................................................................

 iter      E             dE          RMSdq      gap      omega  full diag
   1   -194.5099830 -0.194510E+03  0.526E-01    0.17       0.0  T
   2   -193.5770700  0.932913E+00  0.382E+00    0.04       1.0  T
   3   -194.3295515 -0.752481E+00  0.110E+00    0.08       1.0  T
   4   -194.4805338 -0.150982E+00  0.534E-01    0.37       1.0  T
   5   -194.5052583 -0.247245E-01  0.348E-01    0.20       1.0  T
   6   -194.5030929  0.216544E-02  0.324E-01    0.23       1.0  T
   7   -194.5061313 -0.303847E-02  0.280E-01    0.21       1.0  T
   8   -194.5103900 -0.425863E-02  0.213E-01    0.19       1.0  T
   9   -194.5127670 -0.237707E-02  0.163E-01    0.16       1.0  T
  10   -194.5141390 -0.137199E-02  0.112E-01    0.13       1.0  T
  11   -194.5144315 -0.292453E-03  0.772E-02    0.13       1.0  T
  12   -194.5144886 -0.570683E-04  0.571E-02    0.12       1.0  T
  13   -194.5146792 -0.190639E-03  0.449E-02    0.13       1.0  T
  14   -194.5147771 -0.979366E-04  0.440E-02    0.14       1.0  T
  15   -194.5148778 -0.100712E-03  0.225E-02    0.14       1.0  T
  16   -194.5148925 -0.146489E-04  0.145E-02    0.14       1.0  T
  17   -194.5149050 -0.125460E-04  0.728E-03    0.14       1.4  T
  18   -194.5149085 -0.348481E-05  0.294E-03    0.14       3.6  T
  19   -194.5149088 -0.290948E-06  0.251E-03    0.14       4.2  T
  20   -194.5149091 -0.321950E-06  0.983E-04    0.14      10.6  T
  21   -194.5149092 -0.221222E-07  0.842E-04    0.14      12.4  T
     SCC iter.                  ...        0 min,  0.499 sec
     gradient                   ...        0 min,  0.053 sec
 * total energy  :  -192.5937953 Eh     change       -0.1526424E-02 Eh
   gradient norm :     0.0207362 Eh/α   predicted    -0.1672197E-02 (   9.55%)
   displ. norm   :     0.2997953 α      lambda       -0.1929494E-02
   maximum displ.:     0.1042059 α      in ANC's #20, #6, #14, ...

........................................................................
.............................. CYCLE  195 ..............................
........................................................................

 iter      E             dE          RMSdq      gap      omega  full diag
   1   -194.5008392 -0.194501E+03  0.438E-01    0.09       0.0  T
   2   -194.4489208  0.519184E-01  0.851E-01    0.24       1.0  T
   3   -194.5028255 -0.539047E-01  0.361E-01    0.12       1.0  T
   4   -194.5015948  0.123070E-02  0.374E-01    0.23       1.0  T
   5   -194.4693720  0.322228E-01  0.544E-01    0.08       1.0  T
   6   -194.5067518 -0.373798E-01  0.271E-01    0.22       1.0  T
   7   -194.5083445 -0.159278E-02  0.229E-01    0.19       1.0  T
   8   -194.5112792 -0.293461E-02  0.168E-01    0.18       1.0  T
   9   -194.5142809 -0.300170E-02  0.756E-02    0.15       1.0  T
  10   -194.5149325 -0.651624E-03  0.188E-02    0.13       1.0  T
  11   -194.5149142  0.183038E-04  0.228E-02    0.13       1.0  T
  12   -194.5148798  0.343577E-04  0.227E-02    0.13       1.0  T
  13   -194.5149333 -0.534922E-04  0.116E-02    0.13       1.0  T
  14   -194.5149483 -0.149808E-04  0.319E-03    0.13       3.3  T
  15   -194.5149449  0.337420E-05  0.625E-03    0.13       1.7  T
  16   -194.5149487 -0.382590E-05  0.143E-03    0.13       7.3  T
  17   -194.5149481  0.672733E-06  0.264E-03    0.13       3.9  T
  18   -194.5149488 -0.690535E-06  0.117E-03    0.13       8.9  T
  19   -194.5149488 -0.223713E-07  0.780E-04    0.13      13.4  T
  20   -194.5149488 -0.800512E-08  0.719E-04    0.13      14.5  T
     SCC iter.                  ...        0 min,  0.524 sec
     gradient                   ...        0 min,  0.054 sec
 * total energy  :  -192.5948107 Eh     change       -0.1015375E-02 Eh
   gradient norm :     0.0162874 Eh/α   predicted    -0.1051453E-02 (   3.55%)
   displ. norm   :     0.2679358 α      lambda       -0.1622051E-02
   maximum displ.:     0.1142585 α      in ANC's #18, #10, #5, ...

........................................................................
.............................. CYCLE  196 ..............................
........................................................................

 iter      E             dE          RMSdq      gap      omega  full diag
   1   -194.5160565 -0.194516E+03  0.225E-01    0.15       0.0  T
   2   -193.9828992  0.533157E+00  0.276E+00    0.02       1.0  T
   3   -194.4905217 -0.507622E+00  0.417E-01    0.08       1.0  T
   4   -194.5034229 -0.129013E-01  0.303E-01    0.19       1.0  T
   5   -194.5107586 -0.733570E-02  0.298E-01    0.12       1.0  T
   6   -194.5142847 -0.352609E-02  0.165E-01    0.14       1.0  T
   7   -194.5164448 -0.216013E-02  0.725E-02    0.15       1.0  T
   8   -194.5170085 -0.563660E-03  0.190E-02    0.14       1.0  T
   9   -194.5169939  0.145964E-04  0.231E-02    0.13       1.0  T
  10   -194.5169789  0.149593E-04  0.227E-02    0.13       1.0  T
  11   -194.5170064 -0.275079E-04  0.167E-02    0.13       1.0  T
  12   -194.5170117 -0.524588E-05  0.135E-02    0.13       1.0  T
  13   -194.5170190 -0.733837E-05  0.758E-03    0.13       1.4  T
  14   -194.5170213 -0.229739E-05  0.502E-03    0.13       2.1  T
  15   -194.5170219 -0.581171E-06  0.380E-03    0.13       2.7  T
  16   -194.5170225 -0.570238E-06  0.231E-03    0.13       4.5  T
  17   -194.5170227 -0.204469E-06  0.133E-03    0.13       7.8  T
  18   -194.5170228 -0.913414E-07  0.475E-04    0.13      22.0  T
  19   -194.5170228 -0.522647E-09  0.368E-04    0.13      28.3  T
     SCC iter.                  ...        0 min,  0.516 sec
     gradient                   ...        0 min,  0.055 sec
 * total energy  :  -192.5956821 Eh     change       -0.8713474E-03 Eh
   gradient norm :     0.0164145 Eh/α   predicted    -0.8692600E-03 (  -0.24%)
   displ. norm   :     0.3353678 α      lambda       -0.1199013E-02
   maximum displ.:     0.1110728 α      in ANC's #11, #10, #6, ...

........................................................................
.............................. CYCLE  197 ..............................
........................................................................

 iter      E             dE          RMSdq      gap      omega  full diag
   1   -194.4968182 -0.194497E+03  0.488E-01    0.10       0.0  T
   2   -194.4460374  0.507808E-01  0.862E-01    0.34       1.0  T
   3   -194.4315247  0.145127E-01  0.728E-01    0.07       1.0  T
   4   -194.4858653 -0.543406E-01  0.453E-01    0.36       1.0  T
   5   -194.5031996 -0.173343E-01  0.236E-01    0.19       1.0  T
   6   -194.5068880 -0.368834E-02  0.122E-01    0.15       1.0  T
   7   -194.5073798 -0.491779E-03  0.123E-01    0.14       1.0  T
   8   -194.5068157  0.564010E-03  0.125E-01    0.12       1.0  T
   9   -194.5082871 -0.147137E-02  0.267E-02    0.14       1.0  T
  10   -194.5083040 -0.168706E-04  0.286E-02    0.14       1.0  T
  11   -194.5083452 -0.411862E-04  0.964E-03    0.14       1.1  T
  12   -194.5083478 -0.263238E-05  0.616E-03    0.14       1.7  T
  13   -194.5083486 -0.831035E-06  0.578E-03    0.14       1.8  T
  14   -194.5083390  0.964869E-05  0.128E-02    0.14       1.0  T
  15   -194.5083476 -0.859421E-05  0.630E-03    0.14       1.7  T
  16   -194.5083492 -0.166435E-05  0.389E-03    0.14       2.7  T
  17   -194.5083495 -0.212885E-06  0.345E-03    0.14       3.0  T
  18   -194.5083501 -0.645249E-06  0.111E-03    0.14       9.4  T
  19   -194.5083502 -0.588282E-07  0.703E-04    0.14      14.8  T
  20   -194.5083502 -0.217092E-07  0.270E-04    0.14      38.6  T
     SCC iter.                  ...        0 min,  0.525 sec
     gradient                   ...        0 min,  0.052 sec
 * total energy  :  -192.5962217 Eh     change       -0.5395992E-03 Eh
   gradient norm :     0.0229189 Eh/α   predicted    -0.6669479E-03 (  23.60%)
   displ. norm   :     0.2866303 α      lambda       -0.1029364E-02
   maximum displ.:     0.1004191 α      in ANC's #5, #10, #11, ...

........................................................................
.............................. CYCLE  198 ..............................
........................................................................

 iter      E             dE          RMSdq      gap      omega  full diag
   1   -194.5117328 -0.194512E+03  0.316E-01    0.11       0.0  T
   2   -194.4664203  0.453125E-01  0.694E-01    0.51       1.0  T
   3   -194.5146987 -0.482784E-01  0.239E-01    0.16       1.0  T
   4   -194.5070026  0.769604E-02  0.399E-01    0.10       1.0  T
   5   -194.4423770  0.646256E-01  0.693E-01    0.08       1.0  T
   6   -194.5112019 -0.688249E-01  0.260E-01    0.18       1.0  T
   7   -194.5141685 -0.296665E-02  0.200E-01    0.16       1.0  T
   8   -194.5157389 -0.157035E-02  0.142E-01    0.16       1.0  T
   9   -194.5167990 -0.106014E-02  0.834E-02    0.15       1.0  T
  10   -194.5173775 -0.578522E-03  0.312E-02    0.14       1.0  T
  11   -194.5174377 -0.601829E-04  0.225E-02    0.14       1.0  T
  12   -194.5174948 -0.570448E-04  0.106E-02    0.14       1.0  T
  13   -194.5175038 -0.902486E-05  0.507E-03    0.14       2.1  T
  14   -194.5175046 -0.843698E-06  0.283E-03    0.14       3.7  T
  15   -194.5175043  0.347895E-06  0.296E-03    0.13       3.5  T
  16   -194.5175050 -0.716336E-06  0.161E-03    0.14       6.5  T
  17   -194.5175052 -0.163094E-06  0.935E-04    0.14      11.2  T
  18   -194.5175051  0.359170E-07  0.134E-03    0.14       7.8  T
  19   -194.5175052 -0.999786E-07  0.676E-04    0.14      15.4  T
     SCC iter.                  ...        0 min,  0.488 sec
     gradient                   ...        0 min,  0.053 sec
 * total energy  :  -192.5967213 Eh     change       -0.4996486E-03 Eh
   gradient norm :     0.0133590 Eh/α   predicted    -0.5569611E-03 (  11.47%)
   displ. norm   :     0.2516119 α      lambda       -0.7288107E-03
   maximum displ.:     0.0994018 α      in ANC's #5, #10, #6, ...

........................................................................
.............................. CYCLE  199 ..............................
........................................................................

 iter      E             dE          RMSdq      gap      omega  full diag
   1   -194.5152576 -0.194515E+03  0.287E-01    0.12       0.0  T
   2   -194.4804061  0.348515E-01  0.653E-01    0.32       1.0  T
   3   -194.3737862  0.106620E+00  0.971E-01    0.08       1.0  T
   4   -194.5145984 -0.140812E+00  0.272E-01    0.16       1.0  T
   5   -194.5188768 -0.427849E-02  0.107E-01    0.14       1.0  T
   6   -194.5162631  0.261373E-02  0.214E-01    0.12       1.0  T
   7   -194.5186004 -0.233731E-02  0.114E-01    0.14       1.0  T
   8   -194.5194095 -0.809048E-03  0.308E-02    0.14       1.0  T
   9   -194.5193953  0.141706E-04  0.403E-02    0.14       1.0  T
  10   -194.5194887 -0.934452E-04  0.947E-03    0.14       1.1  T
  11   -194.5194940 -0.526335E-05  0.609E-03    0.14       1.7  T
  12   -194.5194937  0.264152E-06  0.682E-03    0.14       1.5  T
  13   -194.5194955 -0.175834E-05  0.536E-03    0.14       1.9  T
  14   -194.5194961 -0.550400E-06  0.394E-03    0.14       2.6  T
  15   -194.5194965 -0.399301E-06  0.312E-03    0.14       3.3  T
  16   -194.5194969 -0.411769E-06  0.163E-03    0.14       6.4  T
  17   -194.5194970 -0.169942E-06  0.812E-04    0.14      12.8  T
  18   -194.5194971 -0.645577E-07  0.327E-04    0.14      31.9  T
     SCC iter.                  ...        0 min,  0.429 sec
     gradient                   ...        0 min,  0.053 sec
 * total energy  :  -192.5972071 Eh     change       -0.4857649E-03 Eh
   gradient norm :     0.0104871 Eh/α   predicted    -0.3874730E-03 ( -20.23%)
   displ. norm   :     0.3720229 α      lambda       -0.7347093E-03
   maximum displ.:     0.1556872 α      in ANC's #5, #10, #6, ...

........................................................................
.............................. CYCLE  200 ..............................
........................................................................

 iter      E             dE          RMSdq      gap      omega  full diag
   1   -194.5031894 -0.194503E+03  0.474E-01    0.10       0.0  T
   2   -194.4271572  0.760323E-01  0.103E+00    0.50       1.0  T
   3   -194.4994083 -0.722512E-01  0.498E-01    0.26       1.0  T
   4   -194.5167637 -0.173554E-01  0.227E-01    0.12       1.0  T
   5   -194.5092193  0.754438E-02  0.310E-01    0.21       1.0  T
   6   -194.5191314 -0.991207E-02  0.134E-01    0.16       1.0  T
   7   -194.5199355 -0.804060E-03  0.761E-02    0.15       1.0  T
   8   -194.5202729 -0.337417E-03  0.730E-02    0.14       1.0  T
   9   -194.5205538 -0.280959E-03  0.359E-02    0.13       1.0  T
  10   -194.5206295 -0.756859E-04  0.129E-02    0.13       1.0  T
  11   -194.5206378 -0.822947E-05  0.793E-03    0.13       1.3  T
  12   -194.5206399 -0.218212E-05  0.524E-03    0.13       2.0  T
  13   -194.5206391  0.814778E-06  0.549E-03    0.13       1.9  T
  14   -194.5206374  0.170395E-05  0.679E-03    0.13       1.5  T
  15   -194.5206392 -0.181352E-05  0.500E-03    0.13       2.1  T
  16   -194.5206408 -0.151713E-05  0.172E-03    0.13       6.1  T
  17   -194.5206404  0.360223E-06  0.283E-03    0.13       3.7  T
  18   -194.5206409 -0.460248E-06  0.828E-04    0.13      12.6  T
  19   -194.5206408  0.995442E-07  0.137E-03    0.13       7.6  T
  20   -194.5206409 -0.148628E-06  0.310E-04    0.13      33.6  T
     SCC iter.                  ...        0 min,  0.488 sec
     gradient                   ...        0 min,  0.054 sec
 * total energy  :  -192.5977052 Eh     change       -0.4980868E-03 Eh
   gradient norm :     0.0104046 Eh/α   predicted    -0.4181987E-03 ( -16.04%)
   displ. norm   :     0.5065225 α      lambda       -0.7960065E-03
   maximum displ.:     0.2039506 α      in ANC's #5, #6, #10, ...

........................................................................
.............................. CYCLE  201 ..............................
........................................................................

 iter      E             dE          RMSdq      gap      omega  full diag
   1   -194.5087608 -0.194509E+03  0.447E-01    0.10       0.0  T
   2   -194.4516702  0.570905E-01  0.857E-01    0.38       1.0  T
   3   -194.3645231  0.871472E-01  0.996E-01    0.09       1.0  T
   4   -194.4987148 -0.134192E+00  0.433E-01    0.26       1.0  T
   5   -194.5155293 -0.168145E-01  0.162E-01    0.16       1.0  T
   6   -194.5151915  0.337791E-03  0.161E-01    0.16       1.0  T
   7   -194.5169094 -0.171792E-02  0.104E-01    0.15       1.0  T
   8   -194.5164697  0.439660E-03  0.149E-01    0.13       1.0  T
   9   -194.5178188 -0.134906E-02  0.471E-02    0.14       1.0  T
  10   -194.5179398 -0.120993E-03  0.243E-02    0.13       1.0  T
  11   -194.5179588 -0.189998E-04  0.164E-02    0.13       1.0  T
  12   -194.5179736 -0.148022E-04  0.454E-03    0.13       2.3  T
  13   -194.5179692  0.439813E-05  0.945E-03    0.13       1.1  T
  14   -194.5179707 -0.152527E-05  0.757E-03    0.13       1.4  T
  15   -194.5179735 -0.278377E-05  0.374E-03    0.13       2.8  T
  16   -194.5179733  0.218918E-06  0.397E-03    0.13       2.6  T
  17   -194.5179742 -0.904940E-06  0.131E-03    0.13       8.0  T
  18   -194.5179743 -0.117850E-06  0.709E-04    0.13      14.7  T
  19   -194.5179743  0.420766E-07  0.110E-03    0.13       9.5  T
  20   -194.5179743 -0.611802E-07  0.375E-04    0.13      27.8  T
     SCC iter.                  ...        0 min,  0.502 sec
     gradient                   ...        0 min,  0.052 sec
 * total energy  :  -192.5982662 Eh     change       -0.5610692E-03 Eh
   gradient norm :     0.0116185 Eh/α   predicted    -0.5001120E-03 ( -10.86%)
   displ. norm   :     0.4788795 α      lambda       -0.7259187E-03
   maximum displ.:     0.1976160 α      in ANC's #5, #6, #10, ...

........................................................................
.............................. CYCLE  202 ..............................
........................................................................

 iter      E             dE          RMSdq      gap      omega  full diag
   1   -194.5080921 -0.194508E+03  0.357E-01    0.11       0.0  T
   2   -194.4400251  0.680670E-01  0.834E-01    0.62       1.0  T
   3   -194.5021539 -0.621287E-01  0.372E-01    0.24       1.0  T
   4   -194.4809701  0.211837E-01  0.510E-01    0.09       1.0  T
   5   -194.5045280 -0.235578E-01  0.317E-01    0.21       1.0  T
   6   -194.5107769 -0.624899E-02  0.254E-01    0.18       1.0  T
   7   -194.5114148 -0.637807E-03  0.217E-01    0.18       1.0  T
   8   -194.5144981 -0.308330E-02  0.163E-01    0.16       1.0  T
   9   -194.5163428 -0.184470E-02  0.942E-02    0.15       1.0  T
  10   -194.5173776 -0.103489E-02  0.179E-02    0.14       1.0  T
  11   -194.5173351  0.424963E-04  0.293E-02    0.13       1.0  T
  12   -194.5173664 -0.312845E-04  0.171E-02    0.13       1.0  T
  13   -194.5174019 -0.354959E-04  0.537E-03    0.13       1.9  T
  14   -194.5173951  0.686166E-05  0.980E-03    0.13       1.1  T
  15   -194.5174002 -0.516575E-05  0.594E-03    0.13       1.8  T
  16   -194.5174035 -0.324245E-05  0.156E-03    0.13       6.7  T
  17   -194.5174035 -0.775187E-07  0.137E-03    0.13       7.6  T
  18   -194.5174037 -0.156930E-06  0.476E-04    0.13      21.9  T
  19   -194.5174036  0.607246E-07  0.950E-04    0.13      11.0  T
     SCC iter.                  ...        0 min,  0.456 sec
     gradient                   ...        0 min,  0.052 sec
 * total energy  :  -192.5988272 Eh     change       -0.5610160E-03 Eh
   gradient norm :     0.0115544 Eh/α   predicted    -0.4461997E-03 ( -20.47%)
   displ. norm   :     0.4811474 α      lambda       -0.7268933E-03
   maximum displ.:     0.1939025 α      in ANC's #5, #6, #7, ...

........................................................................
.............................. CYCLE  203 ..............................
........................................................................

 iter      E             dE          RMSdq      gap      omega  full diag
   1   -194.5157573 -0.194516E+03  0.267E-01    0.11       0.0  T
   2   -194.4736504  0.421070E-01  0.571E-01    0.28       1.0  T
   3   -194.2537178  0.219933E+00  0.199E+00    0.01       1.0  T
   4   -194.5152529 -0.261535E+00  0.202E-01    0.12       1.0  T
   5   -194.5184923 -0.323938E-02  0.627E-02    0.13       1.0  T
   6   -194.5180216  0.470631E-03  0.820E-02    0.15       1.0  T
   7   -194.5184089 -0.387261E-03  0.592E-02    0.12       1.0  T
   8   -194.5186599 -0.251033E-03  0.433E-02    0.14       1.0  T
   9   -194.5187872 -0.127217E-03  0.318E-02    0.13       1.0  T
  10   -194.5188060 -0.187949E-04  0.287E-02    0.13       1.0  T
  11   -194.5188571 -0.511557E-04  0.169E-02    0.13       1.0  T
  12   -194.5188564  0.727985E-06  0.154E-02    0.13       1.0  T
  13   -194.5188636 -0.720883E-05  0.106E-02    0.13       1.0  T
  14   -194.5188681 -0.446795E-05  0.730E-03    0.13       1.4  T
  15   -194.5188724 -0.436955E-05  0.399E-03    0.13       2.6  T
  16   -194.5188726 -0.166537E-06  0.330E-03    0.13       3.2  T
  17   -194.5188732 -0.644269E-06  0.184E-03    0.13       5.7  T
  18   -194.5188736 -0.321724E-06  0.474E-04    0.13      22.0  T
  19   -194.5188736 -0.103347E-08  0.364E-04    0.13      28.6  T
     SCC iter.                  ...        0 min,  0.472 sec
     gradient                   ...        0 min,  0.053 sec
 * total energy  :  -192.5993770 Eh     change       -0.5497700E-03 Eh
   gradient norm :     0.0115610 Eh/α   predicted    -0.4475944E-03 ( -18.59%)
   displ. norm   :     0.5179165 α      lambda       -0.7249526E-03
   maximum displ.:     0.2069531 α      in ANC's #6, #5, #7, ...

........................................................................
.............................. CYCLE  204 ..............................
........................................................................

 iter      E             dE          RMSdq      gap      omega  full diag
   1   -194.5169993 -0.194517E+03  0.292E-01    0.12       0.0  T
   2   -194.4767329  0.402664E-01  0.568E-01    0.38       1.0  T
   3   -194.3080587  0.168674E+00  0.119E+00    0.10       1.0  T
   4   -194.5087229 -0.200664E+00  0.295E-01    0.15       1.0  T
   5   -194.5136855 -0.496253E-02  0.288E-01    0.15       1.0  T
   6   -194.5089549  0.473054E-02  0.289E-01    0.19       1.0  T
   7   -194.5114263 -0.247142E-02  0.237E-01    0.18       1.0  T
   8   -194.5157124 -0.428603E-02  0.149E-01    0.16       1.0  T
   9   -194.5168568 -0.114441E-02  0.121E-01    0.15       1.0  T
  10   -194.5178714 -0.101463E-02  0.757E-02    0.14       1.0  T
  11   -194.5185614 -0.689962E-03  0.321E-02    0.13       1.0  T
  12   -194.5186333 -0.719386E-04  0.652E-03    0.13       1.6  T
  13   -194.5186059  0.274471E-04  0.161E-02    0.13       1.0  T
  14   -194.5186255 -0.196633E-04  0.921E-03    0.13       1.1  T
  15   -194.5186358 -0.102442E-04  0.347E-03    0.13       3.0  T
  16   -194.5186362 -0.400482E-06  0.308E-03    0.13       3.4  T
  17   -194.5186362  0.222608E-07  0.309E-03    0.13       3.4  T
  18   -194.5186365 -0.371859E-06  0.158E-03    0.13       6.6  T
  19   -194.5186366 -0.111571E-06  0.114E-03    0.13       9.2  T
  20   -194.5186368 -0.155987E-06  0.540E-04    0.13      19.3  T
  21   -194.5186368  0.241397E-07  0.561E-04    0.13      18.6  T
     SCC iter.                  ...        0 min,  0.513 sec
     gradient                   ...        0 min,  0.052 sec
 * total energy  :  -192.5998901 Eh     change       -0.5131062E-03 Eh
   gradient norm :     0.0132791 Eh/α   predicted    -0.4597098E-03 ( -10.41%)
   displ. norm   :     0.4931991 α      lambda       -0.8268550E-03
   maximum displ.:     0.1945585 α      in ANC's #6, #7, #5, ...

........................................................................
.............................. CYCLE  205 ..............................
........................................................................

 iter      E             dE          RMSdq      gap      omega  full diag
   1   -194.5197585 -0.194520E+03  0.263E-01    0.13       0.0  T
   2   -193.8561030  0.663655E+00  0.325E+00    0.04       1.0  T
   3   -194.5199329 -0.663830E+00  0.124E-01    0.13       1.0  T
   4   -194.3507200  0.169213E+00  0.104E+00    0.10       1.0  T
   5   -194.5172490 -0.166529E+00  0.159E-01    0.15       1.0  T
   6   -194.5201687 -0.291971E-02  0.760E-02    0.13       1.0  T
   7   -194.5203933 -0.224564E-03  0.428E-02    0.13       1.0  T
   8   -194.5206016 -0.208293E-03  0.161E-02    0.13       1.0  T
   9   -194.5205818  0.197973E-04  0.216E-02    0.13       1.0  T
  10   -194.5205823 -0.481674E-06  0.208E-02    0.13       1.0  T
  11   -194.5205938 -0.115342E-04  0.160E-02    0.13       1.0  T
  12   -194.5205966 -0.282743E-05  0.140E-02    0.13       1.0  T
  13   -194.5206060 -0.935420E-05  0.778E-03    0.13       1.3  T
  14   -194.5206073 -0.134357E-05  0.569E-03    0.13       1.8  T
  15   -194.5206084 -0.105505E-05  0.434E-03    0.13       2.4  T
  16   -194.5206096 -0.122183E-05  0.206E-03    0.13       5.1  T
  17   -194.5206098 -0.168869E-06  0.110E-03    0.13       9.5  T
  18   -194.5206099 -0.134195E-06  0.293E-04    0.13      35.6  T
  19   -194.5206099 -0.611522E-09  0.217E-04    0.13      48.1  T
     SCC iter.                  ...        0 min,  0.471 sec
     gradient                   ...        0 min,  0.053 sec
 * total energy  :  -192.6004064 Eh     change       -0.5163081E-03 Eh
   gradient norm :     0.0111351 Eh/α   predicted    -0.5139975E-03 (  -0.45%)
   displ. norm   :     0.4346661 α      lambda       -0.5530429E-03
   maximum displ.:     0.1947270 α      in ANC's #6, #5, #7, ...

........................................................................
.............................. CYCLE  206 ..............................
........................................................................

 iter      E             dE          RMSdq      gap      omega  full diag
   1   -194.5185074 -0.194519E+03  0.241E-01    0.13       0.0  T
   2   -194.4857625  0.327449E-01  0.470E-01    0.09       1.0  T
   3   -194.4807622  0.500024E-02  0.509E-01    0.29       1.0  T
   4   -194.2755911  0.205171E+00  0.195E+00    0.01       1.0  T
   5   -194.5111521 -0.235561E+00  0.248E-01    0.16       1.0  T
   6   -194.5142476 -0.309558E-02  0.193E-01    0.16       1.0  T
   7   -194.5172394 -0.299181E-02  0.133E-01    0.14       1.0  T
   8   -194.5181561 -0.916667E-03  0.997E-02    0.13       1.0  T
   9   -194.5181327  0.233638E-04  0.958E-02    0.13       1.0  T
  10   -194.5184421 -0.309311E-03  0.705E-02    0.13       1.0  T
  11   -194.5185497 -0.107690E-03  0.574E-02    0.13       1.0  T
  12   -194.5186715 -0.121704E-03  0.386E-02    0.13       1.0  T
  13   -194.5187455 -0.740165E-04  0.225E-02    0.13       1.0  T
  14   -194.5187774 -0.319337E-04  0.656E-03    0.13       1.6  T
  15   -194.5187805 -0.305363E-05  0.404E-03    0.13       2.6  T
  16   -194.5187789  0.154968E-05  0.461E-03    0.13       2.3  T
  17   -194.5187810 -0.206296E-05  0.215E-03    0.13       4.9  T
  18   -194.5187814 -0.458516E-06  0.925E-04    0.13      11.3  T
  19   -194.5187814 -0.162954E-07  0.677E-04    0.13      15.4  T
     SCC iter.                  ...        0 min,  0.486 sec
     gradient                   ...        0 min,  0.052 sec
 * total energy  :  -192.6008176 Eh     change       -0.4111355E-03 Eh
   gradient norm :     0.0099051 Eh/α   predicted    -0.3287672E-03 ( -20.03%)
   displ. norm   :     0.3572313 α      lambda       -0.6028147E-03
   maximum displ.:     0.1508782 α      in ANC's #6, #7, #2, ...

........................................................................
.............................. CYCLE  207 ..............................
........................................................................

 iter      E             dE          RMSdq      gap      omega  full diag
   1   -194.5244160 -0.194524E+03  0.234E-01    0.15       0.0  T
   2   -194.1185760  0.405840E+00  0.160E+00    0.24       1.0  T
   3   -194.5076288 -0.389053E+00  0.379E-01    0.22       1.0  T
   4   -194.3463762  0.161253E+00  0.166E+00    0.02       1.0  T
   5   -194.5256530 -0.179277E+00  0.126E-01    0.13       1.0  T
   6   -194.5234020  0.225100E-02  0.179E-01    0.14       1.0  T
   7   -194.5243938 -0.991798E-03  0.153E-01    0.14       1.0  T
   8   -194.5255418 -0.114803E-02  0.111E-01    0.13       1.0  T
   9   -194.5257860 -0.244214E-03  0.900E-02    0.13       1.0  T
  10   -194.5261269 -0.340856E-03  0.559E-02    0.13       1.0  T
  11   -194.5262194 -0.924580E-04  0.405E-02    0.13       1.0  T
  12   -194.5262839 -0.645387E-04  0.268E-02    0.13       1.0  T
  13   -194.5263393 -0.553776E-04  0.453E-03    0.13       2.3  T
  14   -194.5263382  0.102382E-05  0.597E-03    0.13       1.7  T
  15   -194.5263370  0.122637E-05  0.690E-03    0.13       1.5  T
  16   -194.5263378 -0.743959E-06  0.567E-03    0.13       1.8  T
  17   -194.5263389 -0.114999E-05  0.365E-03    0.13       2.9  T
  18   -194.5263403 -0.134701E-05  0.901E-04    0.13      11.6  T
  19   -194.5263403 -0.590941E-07  0.361E-04    0.13      28.9  T
  20   -194.5263403  0.873521E-08  0.465E-04    0.13      22.4  T
     SCC iter.                  ...        0 min,  0.497 sec
     gradient                   ...        0 min,  0.051 sec
 * total energy  :  -192.6011460 Eh     change       -0.3284882E-03 Eh
   gradient norm :     0.0109560 Eh/α   predicted    -0.3398766E-03 (   3.47%)
   displ. norm   :     0.5008464 α      lambda       -0.5284883E-03
   maximum displ.:     0.2312042 α      in ANC's #6, #5, #7, ...

........................................................................
.............................. CYCLE  208 ..............................
........................................................................

 iter      E             dE          RMSdq      gap      omega  full diag
   1   -194.5163908 -0.194516E+03  0.360E-01    0.12       0.0  T
   2   -194.4853153  0.310754E-01  0.565E-01    0.24       1.0  T
   3   -194.1089736  0.376342E+00  0.158E+00    0.23       1.0  T
   4   -194.5089596 -0.399986E+00  0.378E-01    0.10       1.0  T
   5   -194.5147087 -0.574910E-02  0.270E-01    0.13       1.0  T
   6   -194.5146721  0.365816E-04  0.241E-01    0.14       1.0  T
   7   -194.5155268 -0.854631E-03  0.217E-01    0.14       1.0  T
   8   -194.5172236 -0.169684E-02  0.142E-01    0.14       1.0  T
   9   -194.5179587 -0.735155E-03  0.755E-02    0.14       1.0  T
  10   -194.5184987 -0.539946E-03  0.512E-02    0.13       1.0  T
  11   -194.5186011 -0.102389E-03  0.407E-02    0.13       1.0  T
  12   -194.5186207 -0.195749E-04  0.391E-02    0.12       1.0  T
  13   -194.5186674 -0.467751E-04  0.273E-02    0.12       1.0  T
  14   -194.5187135 -0.460676E-04  0.634E-03    0.12       1.6  T
  15   -194.5187070  0.652438E-05  0.114E-02    0.12       1.0  T
  16   -194.5187160 -0.903894E-05  0.381E-03    0.12       2.7  T
  17   -194.5187166 -0.599571E-06  0.244E-03    0.12       4.3  T
  18   -194.5187167 -0.106917E-06  0.149E-03    0.12       7.0  T
  19   -194.5187169 -0.165039E-06  0.102E-03    0.12      10.2  T
  20   -194.5187169 -0.211031E-07  0.111E-03    0.12       9.4  T
  21   -194.5187169 -0.246363E-07  0.925E-04    0.12      11.3  T
  22   -194.5187170 -0.572729E-07  0.157E-04    0.12      66.5  T
     SCC iter.                  ...        0 min,  0.574 sec
     gradient                   ...        0 min,  0.054 sec
 * total energy  :  -192.6014490 Eh     change       -0.3029648E-03 Eh
   gradient norm :     0.0097453 Eh/α   predicted    -0.3305257E-03 (   9.10%)
   displ. norm   :     0.2344789 α      lambda       -0.3745770E-03
   maximum displ.:     0.1112511 α      in ANC's #6, #2, #7, ...

........................................................................
.............................. CYCLE  209 ..............................
........................................................................

 iter      E             dE          RMSdq      gap      omega  full diag
   1   -194.5212526 -0.194521E+03  0.169E-01    0.13       0.0  T
   2   -194.3435000  0.177753E+00  0.105E+00    0.10       1.0  T
   3   -194.5043387 -0.160839E+00  0.352E-01    0.21       1.0  T
   4   -194.3538844  0.150454E+00  0.160E+00    0.02       1.0  T
   5   -194.5208590 -0.166975E+00  0.107E-01    0.14       1.0  T
   6   -194.5189277  0.193129E-02  0.152E-01    0.15       1.0  T
   7   -194.5204353 -0.150764E-02  0.108E-01    0.14       1.0  T
   8   -194.5210733 -0.638023E-03  0.810E-02    0.13       1.0  T
   9   -194.5213541 -0.280725E-03  0.633E-02    0.13       1.0  T
  10   -194.5216108 -0.256743E-03  0.330E-02    0.13       1.0  T
  11   -194.5216468 -0.359931E-04  0.234E-02    0.13       1.0  T
  12   -194.5216691 -0.223332E-04  0.150E-02    0.12       1.0  T
  13   -194.5216847 -0.155618E-04  0.429E-03    0.12       2.4  T
  14   -194.5216853 -0.547432E-06  0.306E-03    0.12       3.4  T
  15   -194.5216847  0.591961E-06  0.419E-03    0.12       2.5  T
  16   -194.5216852 -0.523307E-06  0.290E-03    0.12       3.6  T
  17   -194.5216855 -0.274420E-06  0.191E-03    0.12       5.5  T
  18   -194.5216857 -0.270928E-06  0.761E-04    0.12      13.7  T
  19   -194.5216858 -0.423737E-07  0.381E-04    0.12      27.3  T
     SCC iter.                  ...        0 min,  0.480 sec
     gradient                   ...        0 min,  0.052 sec
 * total energy  :  -192.6017358 Eh     change       -0.2867891E-03 Eh
   gradient norm :     0.0083294 Eh/α   predicted    -0.1975904E-03 ( -31.10%)
   displ. norm   :     0.3794213 α      lambda       -0.5253883E-03
   maximum displ.:     0.1760366 α      in ANC's #6, #7, #2, ...

........................................................................
.............................. CYCLE  210 ..............................
........................................................................

 iter      E             dE          RMSdq      gap      omega  full diag
   1   -194.5268424 -0.194527E+03  0.263E-01    0.12       0.0  T
   2   -194.5082663  0.185761E-01  0.426E-01    0.09       1.0  T
   3   -194.4895773  0.186890E-01  0.516E-01    0.31       1.0  T
   4   -194.4599504  0.296269E-01  0.999E-01    0.05       1.0  T
   5   -194.5237075 -0.637571E-01  0.246E-01    0.15       1.0  T
   6   -194.5244734 -0.765924E-03  0.225E-01    0.13       1.0  T
   7   -194.5251366 -0.663177E-03  0.204E-01    0.13       1.0  T
   8   -194.5255978 -0.461179E-03  0.185E-01    0.13       1.0  T
   9   -194.5256541 -0.562912E-04  0.176E-01    0.13       1.0  T
  10   -194.5268216 -0.116758E-02  0.128E-01    0.13       1.0  T
  11   -194.5270877 -0.266106E-03  0.104E-01    0.13       1.0  T
  12   -194.5275888 -0.501107E-03  0.684E-02    0.12       1.0  T
  13   -194.5278522 -0.263402E-03  0.288E-02    0.12       1.0  T
  14   -194.5279050 -0.527234E-04  0.438E-03    0.12       2.4  T
  15   -194.5278972  0.773764E-05  0.105E-02    0.12       1.0  T
  16   -194.5279004 -0.313675E-05  0.930E-03    0.12       1.1  T
  17   -194.5279044 -0.399166E-05  0.429E-03    0.12       2.4  T
  18   -194.5279060 -0.166753E-05  0.165E-03    0.12       6.3  T
  19   -194.5279061 -0.757022E-07  0.900E-04    0.12      11.6  T
  20   -194.5279061 -0.161138E-07  0.954E-04    0.12      10.9  T
     SCC iter.                  ...        0 min,  0.491 sec
     gradient                   ...        0 min,  0.052 sec
 * total energy  :  -192.6020782 Eh     change       -0.3424220E-03 Eh
   gradient norm :     0.0069635 Eh/α   predicted    -0.3005139E-03 ( -12.24%)
   displ. norm   :     0.4269314 α      lambda       -0.2979631E-03
   maximum displ.:     0.2130879 α      in ANC's #6, #7, #2, ...

........................................................................
.............................. CYCLE  211 ..............................
........................................................................

 iter      E             dE          RMSdq      gap      omega  full diag
   1   -194.5264778 -0.194526E+03  0.279E-01    0.13       0.0  T
   2   -194.4625974  0.638804E-01  0.669E-01    0.08       1.0  T
   3   -194.4823604 -0.197630E-01  0.570E-01    0.42       1.0  T
   4   -194.4551928  0.271676E-01  0.104E+00    0.05       1.0  T
   5   -194.5164152 -0.612224E-01  0.331E-01    0.19       1.0  T
   6   -194.5191514 -0.273611E-02  0.291E-01    0.16       1.0  T
   7   -194.5239415 -0.479019E-02  0.218E-01    0.13       1.0  T
   8   -194.5248770 -0.935480E-03  0.193E-01    0.13       1.0  T
   9   -194.5248464  0.306024E-04  0.187E-01    0.13       1.0  T
  10   -194.5260184 -0.117198E-02  0.140E-01    0.13       1.0  T
  11   -194.5265229 -0.504539E-03  0.107E-01    0.13       1.0  T
  12   -194.5271986 -0.675676E-03  0.513E-02    0.13       1.0  T
  13   -194.5273813 -0.182716E-03  0.215E-02    0.12       1.0  T
  14   -194.5274120 -0.306877E-04  0.535E-03    0.12       1.9  T
  15   -194.5274043  0.776522E-05  0.112E-02    0.12       1.0  T
  16   -194.5274012  0.307015E-05  0.110E-02    0.12       1.0  T
  17   -194.5274116 -0.103868E-04  0.533E-03    0.12       2.0  T
  18   -194.5274134 -0.183169E-05  0.136E-03    0.12       7.7  T
  19   -194.5274133  0.523074E-07  0.117E-03    0.12       8.9  T
  20   -194.5274134 -0.763044E-07  0.114E-03    0.12       9.2  T
  21   -194.5274135 -0.416634E-07  0.753E-04    0.12      13.8  T
  22   -194.5274134  0.854845E-07  0.138E-03    0.12       7.6  T
  23   -194.5274135 -0.969268E-07  0.510E-04    0.12      20.4  T
     SCC iter.                  ...        0 min,  0.574 sec
     gradient                   ...        0 min,  0.053 sec
 * total energy  :  -192.6022986 Eh     change       -0.2203988E-03 Eh
   gradient norm :     0.0076010 Eh/α   predicted    -0.1761399E-03 ( -20.08%)
   displ. norm   :     0.3934593 α      lambda       -0.3408769E-03
   maximum displ.:     0.1983520 α      in ANC's #6, #7, #2, ...

........................................................................
.............................. CYCLE  212 ..............................
........................................................................

 iter      E             dE          RMSdq      gap      omega  full diag
   1   -194.5300148 -0.194530E+03  0.233E-01    0.13       0.0  T
   2   -194.2531474  0.276867E+00  0.131E+00    0.13       1.0  T
   3   -194.5068085 -0.253661E+00  0.413E-01    0.24       1.0  T
   4   -194.1351881  0.371620E+00  0.246E+00    0.02       1.0  T
   5   -194.5295369 -0.394349E+00  0.142E-01    0.13       1.0  T
   6   -194.5257291  0.380777E-02  0.207E-01    0.16       1.0  T
   7   -194.5285847 -0.285554E-02  0.148E-01    0.14       1.0  T
   8   -194.5295697 -0.985057E-03  0.117E-01    0.13       1.0  T
   9   -194.5299274 -0.357701E-03  0.102E-01    0.13       1.0  T
  10   -194.5304874 -0.559964E-03  0.636E-02    0.13       1.0  T
  11   -194.5306087 -0.121328E-03  0.481E-02    0.13       1.0  T
  12   -194.5307064 -0.976663E-04  0.323E-02    0.12       1.0  T
  13   -194.5307616 -0.552550E-04  0.178E-02    0.12       1.0  T
  14   -194.5307822 -0.205477E-04  0.558E-03    0.12       1.9  T
  15   -194.5307837 -0.152580E-05  0.563E-03    0.12       1.9  T
  16   -194.5307837 -0.286226E-07  0.517E-03    0.12       2.0  T
  17   -194.5307848 -0.104839E-05  0.323E-03    0.12       3.2  T
  18   -194.5307856 -0.777889E-06  0.152E-03    0.12       6.8  T
  19   -194.5307857 -0.833235E-07  0.122E-03    0.12       8.6  T
  20   -194.5307857 -0.491807E-07  0.112E-03    0.12       9.3  T
  21   -194.5307858 -0.593129E-07  0.792E-04    0.12      13.2  T
  22   -194.5307858 -0.115266E-07  0.687E-04    0.12      15.2  T
     SCC iter.                  ...        0 min,  0.539 sec
     gradient                   ...        0 min,  0.053 sec
 * total energy  :  -192.6025205 Eh     change       -0.2218824E-03 Eh
   gradient norm :     0.0068095 Eh/α   predicted    -0.1968282E-03 ( -11.29%)
   displ. norm   :     0.4071198 α      lambda       -0.2670999E-03
   maximum displ.:     0.2107136 α      in ANC's #6, #7, #5, ...

........................................................................
.............................. CYCLE  213 ..............................
........................................................................

 iter      E             dE          RMSdq      gap      omega  full diag
   1   -194.5275931 -0.194528E+03  0.214E-01    0.12       0.0  T
   2   -194.5127576  0.148355E-01  0.373E-01    0.18       1.0  T
   3   -194.2412145  0.271543E+00  0.138E+00    0.09       1.0  T
   4   -194.5086158 -0.267401E+00  0.525E-01    0.09       1.0  T
   5   -194.5242652 -0.156494E-01  0.208E-01    0.11       1.0  T
   6   -194.5250667 -0.801449E-03  0.198E-01    0.13       1.0  T
   7   -194.5261534 -0.108672E-02  0.157E-01    0.13       1.0  T
   8   -194.5271377 -0.984269E-03  0.989E-02    0.13       1.0  T
   9   -194.5275979 -0.460230E-03  0.585E-02    0.13       1.0  T
  10   -194.5279558 -0.357869E-03  0.247E-02    0.13       1.0  T
  11   -194.5279996 -0.438191E-04  0.221E-02    0.12       1.0  T
  12   -194.5280292 -0.296476E-04  0.618E-03    0.12       1.7  T
  13   -194.5280214  0.785444E-05  0.952E-03    0.12       1.1  T
  14   -194.5280249 -0.354676E-05  0.799E-03    0.12       1.3  T
  15   -194.5280317 -0.673379E-05  0.443E-03    0.12       2.4  T
  16   -194.5280329 -0.122700E-05  0.133E-03    0.12       7.8  T
  17   -194.5280328  0.431222E-07  0.150E-03    0.12       7.0  T
  18   -194.5280328  0.144978E-07  0.111E-03    0.12       9.4  T
  19   -194.5280329 -0.774457E-07  0.762E-04    0.12      13.7  T
  20   -194.5280330 -0.551092E-07  0.530E-04    0.12      19.7  T
     SCC iter.                  ...        0 min,  0.523 sec
     gradient                   ...        0 min,  0.052 sec
 * total energy  :  -192.6026869 Eh     change       -0.1664209E-03 Eh
   gradient norm :     0.0068839 Eh/α   predicted    -0.1556888E-03 (  -6.45%)
   displ. norm   :     0.2208064 α      lambda       -0.2130553E-03
   maximum displ.:     0.1103742 α      in ANC's #6, #7, #3, ...

........................................................................
.............................. CYCLE  214 ..............................
........................................................................

 iter      E             dE          RMSdq      gap      omega  full diag
   1   -194.5283391 -0.194528E+03  0.119E-01    0.13       0.0  T
   2   -194.3030504  0.225289E+00  0.158E+00    0.03       1.0  T
   3   -194.5100900 -0.207040E+00  0.365E-01    0.09       1.0  T
   4   -194.5141211 -0.403108E-02  0.393E-01    0.11       1.0  T
   5   -194.5238060 -0.968490E-02  0.254E-01    0.11       1.0  T
   6   -194.5277674 -0.396141E-02  0.104E-01    0.13       1.0  T
   7   -194.5285338 -0.766418E-03  0.468E-02    0.12       1.0  T
   8   -194.5286341 -0.100279E-03  0.259E-02    0.12       1.0  T
   9   -194.5286716 -0.375238E-04  0.131E-02    0.12       1.0  T
  10   -194.5286693  0.229225E-05  0.127E-02    0.12       1.0  T
  11   -194.5286791 -0.974412E-05  0.551E-03    0.12       1.9  T
  12   -194.5286804 -0.134794E-05  0.314E-03    0.12       3.3  T
  13   -194.5286806 -0.162257E-06  0.258E-03    0.12       4.0  T
  14   -194.5286808 -0.272677E-06  0.152E-03    0.12       6.9  T
  15   -194.5286810 -0.141241E-06  0.596E-04    0.12      17.5  T
  16   -194.5286810 -0.131676E-07  0.332E-04    0.12      31.4  T
     SCC iter.                  ...        0 min,  0.396 sec
     gradient                   ...        0 min,  0.052 sec
 * total energy  :  -192.6028394 Eh     change       -0.1525204E-03 Eh
   gradient norm :     0.0060073 Eh/α   predicted    -0.1117240E-03 ( -26.75%)
   displ. norm   :     0.2769853 α      lambda       -0.2341217E-03
   maximum displ.:     0.1345371 α      in ANC's #6, #7, #3, ...

........................................................................
.............................. CYCLE  215 ..............................
........................................................................

 iter      E             dE          RMSdq      gap      omega  full diag
   1   -194.5291155 -0.194529E+03  0.148E-01    0.13       0.0  T
   2   -193.9281300  0.600985E+00  0.303E+00    0.03       1.0  T
   3   -194.5234807 -0.595351E+00  0.284E-01    0.11       1.0  T
   4   -194.5137157  0.976496E-02  0.317E-01    0.16       1.0  T
   5   -194.5276367 -0.139210E-01  0.171E-01    0.12       1.0  T
   6   -194.5291805 -0.154377E-02  0.909E-02    0.12       1.0  T
   7   -194.5293847 -0.204232E-03  0.672E-02    0.12       1.0  T
   8   -194.5295341 -0.149397E-03  0.526E-02    0.12       1.0  T
   9   -194.5296713 -0.137259E-03  0.273E-02    0.12       1.0  T
  10   -194.5296944 -0.230151E-04  0.192E-02    0.12       1.0  T
  11   -194.5297004 -0.607464E-05  0.161E-02    0.12       1.0  T
  12   -194.5297149 -0.144216E-04  0.805E-03    0.12       1.3  T
  13   -194.5297178 -0.298460E-05  0.422E-03    0.12       2.5  T
  14   -194.5297188 -0.977947E-06  0.177E-03    0.12       5.9  T
  15   -194.5297190 -0.169779E-06  0.708E-04    0.12      14.7  T
  16   -194.5297190 -0.166209E-07  0.527E-04    0.12      19.8  T
     SCC iter.                  ...        0 min,  0.392 sec
     gradient                   ...        0 min,  0.054 sec
 * total energy  :  -192.6030005 Eh     change       -0.1610442E-03 Eh
   gradient norm :     0.0058969 Eh/α   predicted    -0.1260448E-03 ( -21.73%)
   displ. norm   :     0.2493966 α      lambda       -0.1844901E-03
   maximum displ.:     0.1106226 α      in ANC's #7, #6, #3, ...

........................................................................
.............................. CYCLE  216 ..............................
........................................................................

 iter      E             dE          RMSdq      gap      omega  full diag
   1   -194.5296434 -0.194530E+03  0.138E-01    0.13       0.0  T
   2   -194.1548183  0.374825E+00  0.211E+00    0.01       1.0  T
   3   -194.4862530 -0.331435E+00  0.532E-01    0.09       1.0  T
   4   -194.5188899 -0.326369E-01  0.347E-01    0.11       1.0  T
   5   -194.5247897 -0.589983E-02  0.274E-01    0.11       1.0  T
   6   -194.5284864 -0.369670E-02  0.138E-01    0.13       1.0  T
   7   -194.5297330 -0.124665E-02  0.810E-02    0.13       1.0  T
   8   -194.5301556 -0.422606E-03  0.388E-02    0.13       1.0  T
   9   -194.5302990 -0.143359E-03  0.137E-02    0.13       1.0  T
  10   -194.5303212 -0.222389E-04  0.424E-03    0.12       2.5  T
  11   -194.5303207  0.569704E-06  0.417E-03    0.12       2.5  T
  12   -194.5303207  0.175769E-07  0.438E-03    0.12       2.4  T
  13   -194.5303220 -0.139919E-05  0.140E-03    0.12       7.5  T
  14   -194.5303220  0.586572E-07  0.160E-03    0.12       6.5  T
  15   -194.5303221 -0.137753E-06  0.907E-04    0.12      11.5  T
  16   -194.5303221 -0.173754E-07  0.700E-04    0.12      14.9  T
     SCC iter.                  ...        0 min,  0.404 sec
     gradient                   ...        0 min,  0.052 sec
 * total energy  :  -192.6031221 Eh     change       -0.1216568E-03 Eh
   gradient norm :     0.0051869 Eh/α   predicted    -0.9798685E-04 ( -19.46%)
   displ. norm   :     0.2423389 α      lambda       -0.1254093E-03
   maximum displ.:     0.1216440 α      in ANC's #7, #6, #3, ...

........................................................................
.............................. CYCLE  217 ..............................
........................................................................

 iter      E             dE          RMSdq      gap      omega  full diag
   1   -194.5303905 -0.194530E+03  0.136E-01    0.13       0.0  T
   2   -194.2499798  0.280411E+00  0.149E+00    0.06       1.0  T
   3   -194.5294374 -0.279458E+00  0.108E-01    0.11       1.0  T
   4   -194.5101053  0.193320E-01  0.527E-01    0.09       1.0  T
   5   -194.5309910 -0.208857E-01  0.309E-02    0.13       1.0  T
   6   -194.5309269  0.641543E-04  0.348E-02    0.13       1.0  T
   7   -194.5310460 -0.119111E-03  0.145E-02    0.13       1.0  T
   8   -194.5310572 -0.112144E-04  0.898E-03    0.13       1.2  T
   9   -194.5310597 -0.252674E-05  0.723E-03    0.13       1.4  T
  10   -194.5310631 -0.339513E-05  0.265E-03    0.12       3.9  T
  11   -194.5310628  0.351900E-06  0.278E-03    0.12       3.7  T
  12   -194.5310632 -0.426535E-06  0.159E-03    0.12       6.5  T
  13   -194.5310632  0.408428E-07  0.174E-03    0.12       6.0  T
  14   -194.5310633 -0.121759E-06  0.125E-03    0.12       8.4  T
  15   -194.5310634 -0.958135E-07  0.656E-04    0.12      15.9  T
  16   -194.5310634 -0.826822E-08  0.388E-04    0.12      26.9  T
     SCC iter.                  ...        0 min,  0.387 sec
     gradient                   ...        0 min,  0.053 sec
 * total energy  :  -192.6032111 Eh     change       -0.8892707E-04 Eh
   gradient norm :     0.0051878 Eh/α   predicted    -0.6639220E-04 ( -25.34%)
   displ. norm   :     0.1883692 α      lambda       -0.1314038E-03
   maximum displ.:     0.0784009 α      in ANC's #7, #4, #3, ...

........................................................................
.............................. CYCLE  218 ..............................
........................................................................

 iter      E             dE          RMSdq      gap      omega  full diag
   1   -194.5331209 -0.194533E+03  0.119E-01    0.14       0.0  T
   2   -194.2344759  0.298645E+00  0.142E+00    0.10       1.0  T
   3   -194.5336331 -0.299157E+00  0.595E-02    0.13       1.0  T
   4   -194.5254670  0.816618E-02  0.338E-01    0.10       1.0  T
   5   -194.5337520 -0.828506E-02  0.423E-02    0.12       1.0  T
   6   -194.5338726 -0.120540E-03  0.213E-02    0.13       1.0  T
   7   -194.5339032 -0.305920E-04  0.103E-02    0.13       1.0  T
   8   -194.5339062 -0.303805E-05  0.802E-03    0.13       1.3  T
   9   -194.5339106 -0.442645E-05  0.371E-03    0.13       2.8  T
  10   -194.5339112 -0.605407E-06  0.207E-03    0.12       5.0  T
  11   -194.5339112  0.245414E-07  0.177E-03    0.12       5.9  T
  12   -194.5339109  0.302409E-06  0.201E-03    0.12       5.2  T
  13   -194.5339112 -0.314176E-06  0.127E-03    0.12       8.2  T
  14   -194.5339113 -0.460863E-07  0.927E-04    0.12      11.2  T
  15   -194.5339113 -0.635490E-07  0.600E-04    0.12      17.4  T
     SCC iter.                  ...        0 min,  0.374 sec
     gradient                   ...        0 min,  0.053 sec
 * total energy  :  -192.6032930 Eh     change       -0.8194757E-04 Eh
   gradient norm :     0.0053185 Eh/α   predicted    -0.6803603E-04 ( -16.98%)
   displ. norm   :     0.3076488 α      lambda       -0.1255174E-03
   maximum displ.:     0.1567950 α      in ANC's #7, #6, #3, ...

........................................................................
.............................. CYCLE  219 ..............................
........................................................................

 iter      E             dE          RMSdq      gap      omega  full diag
   1   -194.5301173 -0.194530E+03  0.198E-01    0.14       0.0  T
   2   -194.1558704  0.374247E+00  0.152E+00    0.19       1.0  T
   3   -194.5191269 -0.363257E+00  0.310E-01    0.18       1.0  T
   4   -194.2722577  0.246869E+00  0.197E+00    0.01       1.0  T
   5   -194.5312246 -0.258967E+00  0.761E-02    0.12       1.0  T
   6   -194.5295616  0.166299E-02  0.146E-01    0.14       1.0  T
   7   -194.5305541 -0.992489E-03  0.110E-01    0.13       1.0  T
   8   -194.5309289 -0.374811E-03  0.883E-02    0.13       1.0  T
   9   -194.5311452 -0.216292E-03  0.679E-02    0.13       1.0  T
  10   -194.5313696 -0.224397E-03  0.387E-02    0.13       1.0  T
  11   -194.5314130 -0.434287E-04  0.287E-02    0.13       1.0  T
  12   -194.5314500 -0.369943E-04  0.174E-02    0.13       1.0  T
  13   -194.5314762 -0.262523E-04  0.273E-03    0.12       3.8  T
  14   -194.5314756  0.604822E-06  0.399E-03    0.12       2.6  T
  15   -194.5314752  0.450471E-06  0.473E-03    0.12       2.2  T
  16   -194.5314759 -0.718643E-06  0.314E-03    0.12       3.3  T
  17   -194.5314763 -0.416272E-06  0.188E-03    0.12       5.6  T
  18   -194.5314767 -0.364837E-06  0.489E-04    0.12      21.3  T
  19   -194.5314767 -0.122827E-07  0.335E-04    0.12      31.1  T
     SCC iter.                  ...        0 min,  0.483 sec
     gradient                   ...        0 min,  0.053 sec
 * total energy  :  -192.6033575 Eh     change       -0.6443283E-04 Eh
   gradient norm :     0.0054980 Eh/α   predicted    -0.6870069E-04 (   6.62%)
   displ. norm   :     0.1139352 α      lambda       -0.9446556E-04
   maximum displ.:     0.0370831 α      in ANC's #11, #4, #23, ...
 * RMSD in coord.:     0.8959751 α      energy gain  -0.5516957E-01 Eh

generating ANC from exact Hessian ...
Using Lindh-Hessian (1995)
 Shifting diagonal of input Hessian by   1.279995013758726E-002
 Lowest  eigenvalues of input Hessian
    0.010000    0.010992    0.011958    0.012542    0.000000    0.000000
    0.000000    0.000000    0.000000    0.000000    0.012920    0.012969
    0.013134    0.013190    0.013261    0.013487    0.013614    0.013778
 Highest eigenvalues
    2.040476    2.078542    2.146726    2.192045    2.237096    2.261433
 

........................................................................
.............................. CYCLE  220 ..............................
........................................................................

 iter      E             dE          RMSdq      gap      omega  full diag
   1   -194.5334468 -0.194533E+03  0.671E-02    0.13       0.0  T
   2   -194.4113951  0.122052E+00  0.880E-01    0.09       1.0  T
   3   -194.5333764 -0.121981E+00  0.621E-02    0.13       1.0  T
   4   -194.5243129  0.906347E-02  0.366E-01    0.10       1.0  T
   5   -194.5336462 -0.933333E-02  0.251E-02    0.12       1.0  T
   6   -194.5336769 -0.306729E-04  0.175E-02    0.12       1.0  T
   7   -194.5336956 -0.186707E-04  0.756E-03    0.12       1.4  T
   8   -194.5336975 -0.196608E-05  0.445E-03    0.12       2.3  T
   9   -194.5336983 -0.783689E-06  0.276E-03    0.12       3.8  T
  10   -194.5336987 -0.341238E-06  0.197E-03    0.12       5.3  T
  11   -194.5336988 -0.103833E-06  0.116E-03    0.12       9.0  T
  12   -194.5336987  0.189923E-07  0.979E-04    0.12      10.7  T
  13   -194.5336988 -0.548847E-07  0.616E-04    0.12      16.9  T
     SCC iter.                  ...        0 min,  0.325 sec
     gradient                   ...        0 min,  0.052 sec
 * total energy  :  -192.6034217 Eh     change       -0.6424104E-04 Eh
   gradient norm :     0.0041053 Eh/α   predicted     0.0000000E+00 (-100.00%)
   displ. norm   :     0.0472043 α      lambda       -0.6864542E-04
   maximum displ.:     0.0170882 α      in ANC's #9, #5, #3, ...

........................................................................
.............................. CYCLE  221 ..............................
........................................................................

 iter      E             dE          RMSdq      gap      omega  full diag
   1   -194.5326685 -0.194533E+03  0.501E-02    0.12       0.0  T
   2   -194.5232054  0.946314E-02  0.308E-01    0.12       1.0  T
   3   -194.5325123 -0.930688E-02  0.513E-02    0.13       1.0  T
   4   -194.5246846  0.782766E-02  0.249E-01    0.10       1.0  T
   5   -194.5327344 -0.804981E-02  0.244E-02    0.12       1.0  T
   6   -194.5327928 -0.584353E-04  0.116E-02    0.12       1.0  T
   7   -194.5328077 -0.148819E-04  0.337E-03    0.12       3.1  T
   8   -194.5328072  0.530771E-06  0.325E-03    0.12       3.2  T
   9   -194.5328076 -0.385754E-06  0.240E-03    0.12       4.3  T
  10   -194.5328080 -0.432430E-06  0.101E-03    0.12      10.4  T
  11   -194.5328080 -0.436907E-08  0.900E-04    0.12      11.6  T
  12   -194.5328081 -0.569327E-07  0.380E-04    0.12      27.5  T
     SCC iter.                  ...        0 min,  0.304 sec
     gradient                   ...        0 min,  0.053 sec
 * total energy  :  -192.6034620 Eh     change       -0.4026101E-04 Eh
   gradient norm :     0.0030294 Eh/α   predicted    -0.3475775E-04 ( -13.67%)
   displ. norm   :     0.2086033 α      lambda       -0.2600408E-03
   maximum displ.:     0.0663387 α      in ANC's #5, #9, #3, ...

   *** GEOMETRY OPTIMIZATION CONVERGED AFTER 221 ITERATIONS ***

------------------------------------------------------------------------
 total energy gain   :        -0.3145084 Eh     -197.3570 kcal/mol
 total RMSD          :         5.0348509 a0        2.6643 Å
 total power (kW/mol):        -3.7363881 (step)   -7.6444 (real)
------------------------------------------------------------------------

 ANCopt (total)                0 d,  0 h,  1 min, 48.019 sec
 optimizer setup                ...        0 min,  0.001 sec (  0.001%)
 model hessian                  ...        0 min,  0.368 sec (  0.341%)
 ANC generation                 ...        0 min,  0.102 sec (  0.094%)
 coordinate transformation      ...        0 min,  0.018 sec (  0.017%)
 single point calculation       ...        1 min, 47.115 sec ( 99.163%)
 optimization log               ...        0 min,  0.292 sec (  0.270%)
 hessian update                 ...        0 min,  0.014 sec (  0.013%)
 rational function              ...        0 min,  0.086 sec (  0.080%)

================
 final structure:
================
92
 xtb: 6.7.1pre (5071a88)
C           -6.42330373929273       -1.13473892495956        7.79986931185781
N           -5.25171912095828       -1.86308234301480        8.23626655566150
C           -5.61037516491606       -3.15869847105298        8.77088522833285
C           -4.25429930913748       -1.95534264192712        7.16904683470404
C           -2.87333102404957       -2.41821827615771        7.65353086641225
C           -2.44431388397323       -1.60722205775775        8.85746082993052
C           -1.11001758399938       -1.46243736988713        8.99982866284573
O           -0.31065817781560       -2.07522812806604        8.10795942080712
N           -0.48921079863857       -0.63008838618813        9.96120927436318
C            0.59101172953630        0.15326412973725        9.56313603723268
C            1.66959277588279       -0.38946196354575        8.88202816892388
C            2.65501677418856        0.44435253607750        8.32096319051998
C            3.65109237293062        0.00412849107917        7.39583549525398
N            3.95348850810881       -1.34184287133771        7.33930176536858
C            4.26287473807798       -2.15521636797961        6.26831591012181
C            4.19477509986564       -3.54401074272430        6.46797908307584
C            4.38847771014841       -4.41900010775877        5.41763306023389
C            4.55836160427742       -3.90692231464656        4.14520041571432
F            4.65975905493036       -4.75810544740028        3.07582043778288
C            4.62879848897416       -2.53159507047966        3.92294909995317
Cl           4.52521635826237       -1.95712776510592        2.29804410592450
C            4.58938932079140       -1.65765764327922        4.99816094509411
N            4.26811860281056        0.89514436321336        6.60736535202949
C            4.18741047056044        2.19659468867511        6.98403932949337
N            3.49572455039258        2.69048169073609        7.96832086729284
C            2.60070960908060        1.84639092690333        8.55711312333810
C            1.58330128117277        2.37097766254321        9.37040383472844
C            0.56795719697857        1.55256386652929        9.83324460565101
O           -0.53638385498703        1.98101722328948       10.51195169708375
C           -0.85122533949898        3.36129153598369       10.54392428940407
C           -1.15594870136835        3.95999175749634        9.15380687078726
C           -2.64264263714994        4.35257272612759        9.24971042322638
O           -3.18694376635748        3.56251889088367       10.28201685867160
C           -2.20299587043041        3.48609932273259       11.27944707609116
H           -7.09950727130253       -1.01238360850512        8.64523200649510
H           -6.96750143343314       -1.64466231974507        6.98869112127155
H           -6.12405554305687       -0.14851145777817        7.44922488626080
H           -6.04856927817791       -3.82562973556606        8.01076916765946
H           -6.33755773084481       -3.02053419293864        9.56994611395698
H           -4.72545162915110       -3.63142271190915        9.18900376131502
H           -4.15250462183709       -0.94332274852674        6.74165402113231
H           -4.60033368016025       -2.63446603847722        6.36065080297513
H           -2.89516936277072       -3.49774133618031        7.90046545097728
H           -3.17724805568321       -1.13465802593860        9.50124091286158
H           -1.17378173864374       -0.08707549079193       10.47869953738108
H            1.66444268168992       -1.45567072306818        8.70780674302264
H            3.57194942375428       -1.85344566716625        8.12595867722431
H            3.97790280513723       -3.93493155289346        7.45038841276616
H            4.35649045232600       -5.48730193671916        5.56067409171911
H            4.75997844596018       -0.59725547074863        4.84388738256737
H            4.83989312966328        2.88004037566900        6.43414312603200
H            1.59193289537153        3.43460184225788        9.54486209577836
H           -0.06022355870305        3.90543291039072       11.07360485423240
H           -1.00432932929077        3.18703314492195        8.36543467946753
H           -0.52706835433185        4.81839212069457        8.92641070724241
H           -3.20203845435385        4.14439657690081        8.33797798884596
H           -2.73956683269543        5.41845046624263        9.50664784387819
H           -2.20808637031756        4.39481376788014       11.89874709183732
H           -2.40849217175627        2.61421876701756       11.89872698177078
Ti          -1.25177772615872       -1.55694192386442        6.61466761678183
Ti           0.92549464772595       -1.48463870293676        4.36553273250364
Ti           1.94197238921403       -3.59880849594875        2.04079660035986
Ti          -1.77755092763240        0.24335975353697        4.20246239652697
Ti           2.70468949815631        1.23884786441003        4.77140996567370
Ti           0.09872353617491        1.31751468965725        6.26660176906860
Ti          -1.50829875990123       -3.04422526999837        3.26271002085425
Ti           0.02022467451407       -0.87090620369830        1.22125925749407
Ti           1.62653274969612       -2.28015859288274       -0.63417732077261
Ti          -1.61194479713909        1.81712598960684        1.32619178580139
Ti           2.78385935050077        0.68644629465933        1.69783313944724
Ti           0.81616131268574        1.65413774670351       -0.40356828973469
C           -3.23236028538315        1.39179986898040        3.32404911904528
C            4.60260263740337        1.13885421857472        2.45131608964975
C            0.71687692688486        2.45677334803176        2.75706271448698
C           -3.41754583346270        2.05074032088261        2.28800942485301
C            4.45916405659813        1.40884510695360        3.65748726271612
C           -0.47374232566146        2.88573637031221        2.54114965336687
C            1.93717457609769        2.03567970249603        3.02016164177199
O           -2.35073185372923       -1.12413006202038        5.01518643053988
O           -0.09038250491658       -2.32059144627218        5.50247339473491
O            1.58336743765194       -2.86899921281432        3.58048091619956
O           -0.15697296886129       -0.20320829492121        3.84588096038330
O            2.21167592092052       -0.45729099683914        4.87213229249054
O           -1.07488524023569        0.24732780791115        6.81300993842918
O            1.59495984759429        2.04127955576099        5.89059566047810
O           -0.62491001037339       -2.38201507793548        1.92011154441562
O            0.26559114228649       -1.11061405632103       -0.45746003228889
O            2.45719862781163       -3.41389583768856        0.36595426223252
O           -1.36374020308640        0.08402467355822        1.55634119961866
O            1.62310172863084       -0.65175153082753        1.86887612724637
O           -0.85209763117683        2.07572253670689       -0.23106396907107
O            2.41875431538452        1.11419998235063        0.05457820767640
 
 Bond Distances (Angstroems)
 ---------------------------
C1-N2=1.4469         C1-H35=1.0894        C1-H36=1.1019        C1-H37=1.0886        N2-C1=1.4469         N2-C3=1.4467         
N2-C4=1.4637         C3-N2=1.4467         C3-H38=1.1021        C3-H39=1.0892        C3-H40=1.0869        C4-N2=1.4637         
C4-C5=1.5349         C4-H41=1.1033        C4-H42=1.1111        C5-C4=1.5349         C5-C6=1.5137         C5-H43=1.1076        
C5-Ti60=2.1096       C6-C5=1.5137         C6-C7=1.3497         C6-H44=1.0840        C6-Ti60=2.5406       C7-C6=1.3497         
C7-O8=1.3453         C7-N9=1.4151         C7-Ti60=2.3912       O8-C7=1.3453         O8-Ti60=1.8396       N9-C7=1.4151         
N9-C10=1.3925        N9-H45=1.0155        C10-N9=1.3925        C10-C11=1.3863       C10-C28=1.4253       C11-C10=1.3863       
C11-C12=1.4075       C11-H46=1.0804       C12-C11=1.4075       C12-C13=1.4289       C12-C26=1.4228       C13-C12=1.4289       
C13-N14=1.3807       C13-N23=1.3403       N14-C13=1.3807       N14-C15=1.3800       N14-H47=1.0130       C15-N14=1.3800       
C15-C16=1.4047       C15-C22=1.4027       C16-C15=1.4047       C16-C17=1.3807       C16-H48=1.0793       C17-C16=1.3807       
C17-C18=1.3821       C17-H49=1.0783       C18-C17=1.3821       C18-F19=1.3705       C18-C20=1.3949       F19-C18=1.3705       
C20-C18=1.3949       C20-Cl21=1.7266      C20-C22=1.3861       Cl21-C20=1.7266      Cl21-Ti62=3.0716     Cl21-Ti70=3.2220     
C22-C15=1.4027       C22-C20=1.3861       C22-H50=1.0851       N23-C13=1.3403       N23-C24=1.3573       N23-Ti64=2.4358      
C24-N23=1.3573       C24-N25=1.3004       C24-H51=1.0933       C24-Ti64=2.8305      N25-C24=1.3004       N25-C26=1.3639       
C26-C12=1.4228       C26-N25=1.3639       C26-C27=1.4042       C27-C26=1.4042       C27-C28=1.3838       C27-H52=1.0779       
C28-C10=1.4253       C28-C27=1.3838       C28-O29=1.3652       O29-C28=1.3652       O29-C30=1.4161       C30-O29=1.4161       
C30-C31=1.5439       C30-C34=1.5440       C30-H53=1.0965       C31-C30=1.5439       C31-C32=1.5406       C31-H54=1.1144       
C31-H55=1.0881       C32-C31=1.5406       C32-O33=1.4093       C32-H56=1.0897       C32-H57=1.1007       O33-C32=1.4093       
O33-C34=1.4032       C34-C30=1.5440       C34-O33=1.4032       C34-H58=1.0997       C34-H59=1.0890       H35-C1=1.0894        
H36-C1=1.1019        H37-C1=1.0886        H38-C3=1.1021        H39-C3=1.0892        H40-C3=1.0869        H41-C4=1.1033        
H42-C4=1.1111        H43-C5=1.1076        H44-C6=1.0840        H45-N9=1.0155        H46-C11=1.0804       H47-N14=1.0130       
H48-C16=1.0793       H49-C17=1.0783       H50-C22=1.0851       H51-C24=1.0933       H52-C27=1.0779       H53-C30=1.0965       
H54-C31=1.1144       H55-C31=1.0881       H56-C32=1.0897       H57-C32=1.1007       H58-C34=1.0997       H59-C34=1.0890       
Ti60-C5=2.1096       Ti60-C6=2.5406       Ti60-C7=2.3912       Ti60-O8=1.8396       Ti60-Ti61=3.1312     Ti60-Ti63=3.0555     
Ti60-Ti65=3.1949     Ti60-Ti66=3.6761     Ti60-O79=1.9883      Ti60-O80=1.7802      Ti60-O84=1.8237      Ti61-Ti60=3.1312     
Ti61-Ti62=3.3026     Ti61-Ti63=3.2123     Ti61-Ti64=3.2784     Ti61-Ti65=3.4856     Ti61-Ti66=3.0938     Ti61-Ti67=3.3291     
Ti61-O80=1.7388      Ti61-O81=1.7221      Ti61-O82=1.7561      Ti61-O83=1.7223      Ti61-O90=2.7228      Ti62-Cl21=3.0716     
Ti62-Ti61=3.3026     Ti62-Ti66=3.7020     Ti62-Ti67=3.4360     Ti62-Ti68=2.9990     Ti62-O81=1.7412      Ti62-O88=1.7620      
Ti63-Ti60=3.0555     Ti63-Ti61=3.2123     Ti63-Ti65=2.9891     Ti63-Ti66=3.4298     Ti63-Ti67=3.6553     Ti63-Ti69=3.2828     
Ti63-C72=2.0511      Ti63-O79=1.6909      Ti63-O82=1.7184      Ti63-O84=2.7035      Ti63-O89=2.6830      Ti64-N23=2.4358      
Ti64-C24=2.8305      Ti64-Ti61=3.2784     Ti64-Ti65=3.0055     Ti64-Ti70=3.1238     Ti64-C76=2.0852      Ti64-C78=2.0714      
Ti64-O83=1.7692      Ti64-O85=1.7686      Ti65-Ti60=3.1949     Ti65-Ti61=3.4856     Ti65-Ti63=2.9891     Ti65-Ti64=3.0055     
Ti65-O84=1.6796      Ti65-O85=1.7041      Ti66-Ti60=3.6761     Ti66-Ti61=3.0938     Ti66-Ti62=3.7020     Ti66-Ti63=3.4298     
Ti66-Ti67=3.3507     Ti66-O79=2.7327      Ti66-O80=2.7478      Ti66-O86=1.7382      Ti67-Ti61=3.3291     Ti67-Ti62=3.4360     
Ti67-Ti63=3.6553     Ti67-Ti66=3.3507     Ti67-Ti68=2.8300     Ti67-Ti69=3.1465     Ti67-Ti70=3.2078     Ti67-Ti71=3.1064     
Ti67-O82=2.7140      Ti67-O86=1.7855      Ti67-O87=1.7134      Ti67-O89=1.7145      Ti67-O90=1.7426      Ti68-Ti62=2.9990     
Ti68-Ti67=2.8300     Ti68-O87=1.8031      Ti68-O88=1.7250      Ti69-Ti63=3.2828     Ti69-Ti67=3.1465     Ti69-Ti71=2.9857     
Ti69-C72=2.6073      Ti69-C74=2.8071      Ti69-C75=2.0591      Ti69-C77=1.9783      Ti69-O89=1.7658      Ti69-O91=1.7519      
Ti70-Cl21=3.2220     Ti70-Ti64=3.1238     Ti70-Ti67=3.2078     Ti70-Ti71=3.0371     Ti70-C73=2.0200      Ti70-C76=2.6775      
Ti70-C78=2.0702      Ti70-O90=1.7797      Ti70-O92=1.7368      Ti71-Ti67=3.1064     Ti71-Ti69=2.9857     Ti71-Ti70=3.0371     
Ti71-O91=1.7293      Ti71-O92=1.7521      C72-Ti63=2.0511      C72-Ti69=2.6073      C72-C75=1.2417       C73-Ti70=2.0200      
C73-C76=1.2443       C74-Ti69=2.8071      C74-C77=1.2838       C74-C78=1.3174       C75-Ti69=2.0591      C75-C72=1.2417       
C76-Ti64=2.0852      C76-Ti70=2.6775      C76-C73=1.2443       C77-Ti69=1.9783      C77-C74=1.2838       C78-Ti64=2.0714      
C78-Ti70=2.0702      C78-C74=1.3174       O79-Ti60=1.9883      O79-Ti63=1.6909      O79-Ti66=2.7327      O80-Ti60=1.7802      
O80-Ti61=1.7388      O80-Ti66=2.7478      O81-Ti61=1.7221      O81-Ti62=1.7412      O82-Ti61=1.7561      O82-Ti63=1.7184      
O82-Ti67=2.7140      O83-Ti61=1.7223      O83-Ti64=1.7692      O84-Ti60=1.8237      O84-Ti63=2.7035      O84-Ti65=1.6796      
O85-Ti64=1.7686      O85-Ti65=1.7041      O86-Ti66=1.7382      O86-Ti67=1.7855      O87-Ti67=1.7134      O87-Ti68=1.8031      
O88-Ti62=1.7620      O88-Ti68=1.7250      O89-Ti63=2.6830      O89-Ti67=1.7145      O89-Ti69=1.7658      O90-Ti61=2.7228      
O90-Ti67=1.7426      O90-Ti70=1.7797      O91-Ti69=1.7519      O91-Ti71=1.7293      O92-Ti70=1.7368      O92-Ti71=1.7521      
 C  H  Rav=1.0929 sigma=0.0103  Rmin=1.0779  Rmax=1.1144    23
 C  C  Rav=1.4054 sigma=0.0853  Rmin=1.2417  Rmax=1.5440    23
 N  H  Rav=1.0143 sigma=0.0013  Rmin=1.0130  Rmax=1.0155     2
 N  C  Rav=1.3898 sigma=0.0476  Rmin=1.3004  Rmax=1.4637    11
 O  C  Rav=1.3878 sigma=0.0276  Rmin=1.3453  Rmax=1.4161     5
 F  C  Rav=1.3705 sigma=0.0000  Rmin=1.3705  Rmax=1.3705     1
 Cl C  Rav=1.7266 sigma=0.0000  Rmin=1.7266  Rmax=1.7266     1
 Ti C  Rav=2.3071 sigma=0.3083  Rmin=1.9783  Rmax=2.8305    14
 Ti N  Rav=2.4358 sigma=0.0000  Rmin=2.4358  Rmax=2.4358     1
 Ti O  Rav=1.9213 sigma=0.3658  Rmin=1.6796  Rmax=2.7478    35
 Ti Cl Rav=3.1468 sigma=0.0752  Rmin=3.0716  Rmax=3.2220     2
 Ti Ti Rav=3.2326 sigma=0.2234  Rmin=2.8300  Rmax=3.7020    26
 
 selected bond angles (degree)
 --------------------
H35-C1-N2=108.97               H36-C1-N2=112.89               H36-C1-H35=108.46              H37-C1-N2=109.30               
H37-C1-H35=108.59              H37-C1-H36=108.53              C3-N2-C1=111.19                C4-N2-C1=111.32                
C4-N2-C3=112.45                H38-C3-N2=112.68               H39-C3-N2=108.84               H39-C3-H38=108.50              
H40-C3-N2=109.26               H40-C3-H38=109.02              H40-C3-H39=108.45              C5-C4-N2=113.70                
H41-C4-N2=106.71               H41-C4-C5=108.41               H42-C4-N2=110.90               H42-C4-C5=109.00               
H42-C4-H41=107.91              C6-C5-C4=110.15                H43-C5-C4=110.28               H43-C5-C6=110.52               
Ti60-C5-C4=114.39              Ti60-C5-C6= 87.43              Ti60-C5-H43=121.52             C7-C6-C5=114.93                
H44-C6-C5=120.95               H44-C6-C7=123.99               Ti60-C6-C5= 56.05              Ti60-C6-C7= 68.10              
Ti60-C6-H44=146.41             O8-C7-C6=117.94                N9-C7-C6=124.64                N9-C7-O8=117.23                
Ti60-C7-C6= 80.32              Ti60-C7-O8= 49.91              Ti60-C7-N9=136.63              Ti60-O8-C7= 96.08              
C10-N9-C7=118.49               H45-N9-C7=111.41               H45-N9-C10=111.58              C11-C10-N9=121.59              
C28-C10-N9=119.05              C28-C10-C11=119.34             
 
 selected dihedral angles (degree)
 ---------------------------------
C3-N2-C1-H35= 58.74           C3-N2-C1-H36=298.17           C3-N2-C1-H37=177.27           C4-N2-C1-H35=184.97           
C4-N2-C1-H36= 64.40           C4-N2-C1-H37=303.50           H38-C3-N2-C1= 64.91           H38-C3-N2-C4=299.31           
H39-C3-N2-C1=304.51           H39-C3-N2-C4=178.91           H40-C3-N2-C1=186.25           H40-C3-N2-C4= 60.65           
C5-C4-N2-C1=166.48            C5-C4-N2-C3=292.01            H41-C4-N2-C1= 47.01           H41-C4-N2-C3=172.54           
H42-C4-N2-C1=289.72           H42-C4-N2-C3= 55.26           C6-C5-C4-N2=310.57            C6-C5-C4-H41= 69.06           
C6-C5-C4-H42=186.28           H43-C5-C4-N2= 72.81           H43-C5-C4-H41=191.31          H43-C5-C4-H42=308.53          
Ti60-C5-C4-N2=214.03          Ti60-C5-C4-H41=332.52         Ti60-C5-C4-H42= 89.75         C7-C6-C5-C4=208.92            
C7-C6-C5-H43= 86.81           C7-C6-C5-Ti60=323.99          H44-C6-C5-C4= 25.03           H44-C6-C5-H43=262.93          
H44-C6-C5-Ti60=140.11         Ti60-C6-C5-C4=244.92          Ti60-C6-C5-H43=122.82         O8-C7-C6-C5=357.81            
O8-C7-C6-H44=181.83           O8-C7-C6-Ti60=326.10          N9-C7-C6-C5=172.83            N9-C7-C6-H44=356.85           
N9-C7-C6-Ti60=141.12          Ti60-C7-C6-C5= 31.71          Ti60-C7-C6-H44=215.73         Ti60-O8-C7-C6= 45.95          
Ti60-O8-C7-N9=230.55          C10-N9-C7-C6=223.33           C10-N9-C7-O8= 38.39           C10-N9-C7-Ti60=339.05         
H45-N9-C7-C6=354.80           H45-N9-C7-O8=169.86           H45-N9-C7-Ti60=110.52         C11-C10-N9-C7=309.14          
C11-C10-N9-H45=177.75         C28-C10-N9-C7=127.48          C28-C10-N9-H45=356.08         
 
 CMA Distance (Angstroems)
 ---------------------------
R(CMA):  4.6465
           -------------------------------------------------
          |                Final Singlepoint                |
           -------------------------------------------------

          ...................................................
          :                      SETUP                      :
          :.................................................:
          :  # basis functions                 371          :
          :  # atomic orbitals                 358          :
          :  # shells                          172          :
          :  # electrons                       338          :
          :  max. iterations                   500          :
          :  Hamiltonian                  GFN2-xTB          :
          :  restarted?                      false          :
          :  GBSA solvation                  false          :
          :  PC potential                    false          :
          :  electronic temp.          300.0000000     K    :
          :  accuracy                    1.0000000          :
          :  -> integral cutoff          0.2500000E+02      :
          :  -> integral neglect         0.1000000E-07      :
          :  -> SCF convergence          0.1000000E-05 Eh   :
          :  -> wf. convergence          0.1000000E-03 e    :
          :  Broyden damping             0.4000000          :
          :  net charge                          0          :
          :  unpaired electrons                  0          :
          ...................................................

 iter      E             dE          RMSdq      gap      omega  full diag
   1   -194.5328081 -0.194533E+03  0.414E-04    0.12       0.0  T
   2   -194.5328055  0.256983E-05  0.491E-03    0.12       2.1  T
   3   -194.5328080 -0.252854E-05  0.611E-04    0.12      17.1  T
   4   -194.5328081 -0.386138E-07  0.390E-04    0.12      26.7  T
   5   -194.5328081 -0.111092E-07  0.228E-04    0.12      45.7  T

   *** convergence criteria satisfied after 5 iterations ***

         #    Occupation            Energy/Eh            Energy/eV
      -------------------------------------------------------------
         1        2.0000           -1.0699639             -29.1152
       ...           ...                  ...                  ...
       163        2.0000           -0.3354107              -9.1270
       164        2.0000           -0.3304594              -8.9923
       165        2.0000           -0.3266893              -8.8897
       166        2.0000           -0.3251942              -8.8490
       167        2.0000           -0.3134865              -8.5304
       168        2.0000           -0.3074643              -8.3665
       169        1.7864           -0.2943004              -8.0083 (HOMO)
       170        0.1303           -0.2897519              -7.8845 (LUMO)
       171        0.0560           -0.2889121              -7.8617
       172        0.0273           -0.2882168              -7.8428
       173                         -0.2753473              -7.4926
       174                         -0.2737693              -7.4496
       ...                                ...                  ...
       358                         14.1200998             384.2275
      -------------------------------------------------------------
                  HL-Gap            0.0045485 Eh            0.1238 eV
             Fermi-level           -0.2922826 Eh           -7.9534 eV

 SCC (total)                   0 d,  0 h,  0 min,  0.196 sec
 SCC setup                      ...        0 min,  0.001 sec (  0.510%)
 Dispersion                     ...        0 min,  0.001 sec (  0.510%)
 classical contributions        ...        0 min,  0.000 sec (  0.000%)
 integral evaluation            ...        0 min,  0.019 sec (  9.694%)
 iterations                     ...        0 min,  0.121 sec ( 61.735%)
 molecular gradient             ...        0 min,  0.052 sec ( 26.531%)
 printout                       ...        0 min,  0.002 sec (  1.020%)

         :::::::::::::::::::::::::::::::::::::::::::::::::::::
         ::                     SUMMARY                     ::
         :::::::::::::::::::::::::::::::::::::::::::::::::::::
         :: total energy            -192.603461954937 Eh    ::
         :: gradient norm              0.003043387220 Eh/a0 ::
         :: HOMO-LUMO gap              0.123771480952 eV    ::
         ::.................................................::
         :: SCC energy              -194.523682812723 Eh    ::
         :: -> isotropic ES            1.105293313908 Eh    ::
         :: -> anisotropic ES         -0.492731102169 Eh    ::
         :: -> anisotropic XC         -0.042427246616 Eh    ::
         :: -> dispersion             -0.198632304076 Eh    ::
         :: repulsion energy           1.920220857786 Eh    ::
         :: add. restraining           0.000000000000 Eh    ::
         :: total charge              -0.000000000000 e     ::
         :::::::::::::::::::::::::::::::::::::::::::::::::::::

           -------------------------------------------------
          |                Property Printout                |
           -------------------------------------------------

    * Orbital Energies and Occupations

         #    Occupation            Energy/Eh            Energy/eV
      -------------------------------------------------------------
         1        2.0000           -1.0699639             -29.1152
       ...           ...                  ...                  ...
       157        2.0000           -0.3713582             -10.1052
       158        2.0000           -0.3702359             -10.0746
       159        2.0000           -0.3588433              -9.7646
       160        2.0000           -0.3533849              -9.6161
       161        2.0000           -0.3449858              -9.3875
       162        2.0000           -0.3415268              -9.2934
       163        2.0000           -0.3354107              -9.1270
       164        2.0000           -0.3304594              -8.9923
       165        2.0000           -0.3266893              -8.8897
       166        2.0000           -0.3251942              -8.8490
       167        2.0000           -0.3134865              -8.5304
       168        2.0000           -0.3074643              -8.3665
       169        1.7864           -0.2943004              -8.0083 (HOMO)
       170        0.1303           -0.2897519              -7.8845 (LUMO)
       171        0.0560           -0.2889121              -7.8617
       172        0.0273           -0.2882168              -7.8428
       173                         -0.2753473              -7.4926
       174                         -0.2737693              -7.4496
       175                         -0.2682567              -7.2996
       176                         -0.2627855              -7.1508
       177                         -0.2595903              -7.0638
       178                         -0.2573728              -7.0035
       179                         -0.2570310              -6.9942
       180                         -0.2566354              -6.9834
       ...                                ...                  ...
       358                         14.1200998             384.2275
      -------------------------------------------------------------
                  HL-Gap            0.0045485 Eh            0.1238 eV
             Fermi-level           -0.2922826 Eh           -7.9534 eV

     #   Z          covCN         q      C6AA      α(0)
     1   6 C        3.715    -0.051    21.627     6.644
     2   7 N        2.723    -0.159    24.446     7.343
     3   6 C        3.712    -0.052    21.646     6.648
     4   6 C        3.786     0.000    20.593     6.464
     5   6 C        3.711    -0.208    24.763     7.111
     6   6 C        3.425    -0.137    26.498     7.867
     7   6 C        3.467     0.190    19.450     6.625
     8   8 O        1.582    -0.509    23.130     6.490
     9   7 N        2.689    -0.166    24.583     7.364
    10   6 C        2.907     0.067    26.504     8.442
    11   6 C        2.914    -0.078    29.954     8.975
    12   6 C        2.977    -0.033    28.819     8.806
    13   6 C        2.914     0.143    24.891     8.181
    14   7 N        2.699    -0.126    23.736     7.236
    15   6 C        2.901     0.086    26.091     8.375
    16   6 C        2.928    -0.067    29.679     8.934
    17   6 C        2.913    -0.045    29.117     8.848
    18   6 C        2.824     0.152    24.704     8.144
    19   9 F        0.787    -0.182    11.048     3.926
    20   6 C        2.881     0.063    26.588     8.453
    21  17 Cl       1.335     0.072    97.083    15.074
    22   6 C        2.947    -0.061    29.523     8.912
    23   7 N        2.388    -0.243    26.478     7.641
    24   6 C        3.056     0.135    24.995     8.199
    25   7 N        1.834    -0.231    26.894     7.685
    26   6 C        2.987     0.099    25.808     8.333
    27   6 C        2.913    -0.090    30.267     9.021
    28   6 C        2.857     0.123    25.303     8.245
    29   8 O        1.705    -0.263    18.364     5.786
    30   6 C        3.748     0.100    18.990     6.215
    31   6 C        3.807    -0.092    22.255     6.716
    32   6 C        3.774     0.063    19.550     6.300
    33   8 O        1.703    -0.293    18.870     5.865
    34   6 C        3.776     0.063    19.553     6.300
    35   1 H        0.925     0.050     2.316     2.380
    36   1 H        0.923     0.018     2.760     2.598
    37   1 H        0.925     0.044     2.398     2.422
    38   1 H        0.923     0.016     2.791     2.613
    39   1 H        0.925     0.048     2.351     2.398
    40   1 H        0.925     0.054     2.265     2.354
    41   1 H        0.923     0.070     2.087     2.259
    42   1 H        0.921     0.031     2.570     2.507
    43   1 H        0.922     0.082     1.958     2.188
    44   1 H        0.925     0.098     1.801     2.099
    45   1 H        0.860     0.212     1.049     1.604
    46   1 H        0.926     0.095     1.831     2.116
    47   1 H        0.860     0.209     1.060     1.612
    48   1 H        0.926     0.081     1.969     2.194
    49   1 H        0.926     0.106     1.735     2.060
    50   1 H        0.925     0.156     1.352     1.819
    51   1 H        0.924     0.108     1.712     2.046
    52   1 H        0.926     0.091     1.872     2.140
    53   1 H        0.924     0.046     2.370     2.408
    54   1 H        0.921     0.077     2.010     2.217
    55   1 H        0.925     0.064     2.151     2.293
    56   1 H        0.925     0.067     2.114     2.274
    57   1 H        0.923     0.044     2.397     2.421
    58   1 H        0.923     0.043     2.410     2.428
    59   1 H        0.925     0.079     1.990     2.206
    60  22 Ti       6.987     1.269    86.742    15.121
    61  22 Ti       6.398     1.596    83.641    14.848
    62  22 Ti       3.304     0.957   103.697    24.864
    63  22 Ti       5.431     1.224    87.183    15.159
    64  22 Ti       5.842     1.118    88.237    15.251
    65  22 Ti       3.838     0.997    96.731    22.580
    66  22 Ti       2.387     1.030   196.599    34.334
    67  22 Ti       6.880     1.559    83.984    14.879
    68  22 Ti       3.159     0.992   103.299    24.819
    69  22 Ti       5.631     1.119    88.227    15.250
    70  22 Ti       5.661     1.141    88.013    15.231
    71  22 Ti       3.720     0.994   101.168    24.164
    72   6 C        2.258    -0.278    38.214    10.019
    73   6 C        1.870    -0.268    39.246    10.119
    74   6 C        2.288    -0.041    30.794     9.004
    75   6 C        1.834    -0.223    37.757     9.927
    76   6 C        2.160    -0.268    38.688    10.057
    77   6 C        1.819    -0.353    42.428    10.525
    78   6 C        2.640    -0.401    39.792    10.319
    79   8 O        1.532    -0.852    32.181     7.652
    80   8 O        1.535    -0.910    34.041     7.870
    81   8 O        1.455    -0.925    34.694     7.939
    82   8 O        1.589    -1.018    37.806     8.298
    83   8 O        1.456    -0.925    34.691     7.938
    84   8 O        1.564    -0.880    33.039     7.756
    85   8 O        1.453    -0.819    31.312     7.541
    86   8 O        1.497    -0.898    33.725     7.831
    87   8 O        1.499    -0.887    33.339     7.786
    88   8 O        1.453    -0.779    30.100     7.394
    89   8 O        1.581    -0.931    34.693     7.948
    90   8 O        1.572    -1.004    37.320     8.243
    91   8 O        1.453    -0.783    30.232     7.410
    92   8 O        1.453    -0.811    31.068     7.512

 Mol. C6AA /au·bohr⁶  :     197428.854400
 Mol. C8AA /au·bohr⁸  :    8223319.396280
 Mol. α(0) /au        :        732.413223


Wiberg/Mayer (AO) data.
largest (>0.10) Wiberg bond orders for each atom

 ---------------------------------------------------------------------------
     #   Z sym  total        # sym  WBO       # sym  WBO       # sym  WBO
 ---------------------------------------------------------------------------
     1   6 C    3.983 --     2 N    1.016    35 H    0.981    37 H    0.980
                            36 H    0.973
     2   7 N    3.131 --     1 C    1.016     3 C    1.016     4 C    0.992
     3   6 C    3.984 --     2 N    1.016    39 H    0.982    40 H    0.977
                            38 H    0.972
     4   6 C    3.984 --     2 N    0.992     5 C    0.986    42 H    0.941
                            41 H    0.912
     5   6 C    3.881 --     6 C    0.989     4 C    0.986    43 H    0.886
                            60 Ti   0.797
     6   6 C    3.930 --     7 C    1.586     5 C    0.989    44 H    0.932
                            60 Ti   0.166     8 O    0.119
     7   6 C    3.932 --     6 C    1.586     8 O    1.083     9 N    1.023
                            60 Ti   0.130
     8   8 O    2.102 --     7 C    1.083    60 Ti   0.673     6 C    0.119
     9   7 N    3.346 --    10 C    1.107     7 C    1.023    45 H    0.916
    10   6 C    3.960 --    11 C    1.395    28 C    1.201     9 N    1.107
    11   6 C    3.926 --    10 C    1.395    12 C    1.275    46 H    0.926
    12   6 C    3.978 --    11 C    1.275    26 C    1.211    13 C    1.175
    13   6 C    3.856 --    23 N    1.299    12 C    1.175    14 N    1.128
    14   7 N    3.466 --    15 C    1.131    13 C    1.128    47 H    0.912
    15   6 C    3.952 --    16 C    1.317    22 C    1.314    14 N    1.131
    16   6 C    3.953 --    17 C    1.453    15 C    1.317    48 H    0.960
    17   6 C    3.974 --    16 C    1.453    18 C    1.377    49 H    0.954
    18   6 C    3.825 --    17 C    1.377    20 C    1.313    19 F    0.909
    19   9 F    1.176 --    18 C    0.909    62 Ti   0.145
    20   6 C    3.897 --    22 C    1.408    18 C    1.313    21 Cl   0.963
    21  17 Cl   1.543 --    20 C    0.963    62 Ti   0.193    70 Ti   0.166
    22   6 C    3.963 --    20 C    1.408    15 C    1.314    50 H    0.878
    23   7 N    3.140 --    13 C    1.299    24 C    1.242    64 Ti   0.252
    24   6 C    3.944 --    25 N    1.529    23 N    1.242    51 H    0.894
                            64 Ti   0.108
    25   7 N    3.017 --    24 C    1.529    26 C    1.206
    26   6 C    3.953 --    27 C    1.283    12 C    1.211    25 N    1.206
    27   6 C    3.943 --    28 C    1.409    26 C    1.283    52 H    0.948
    28   6 C    3.887 --    27 C    1.409    10 C    1.201    29 O    1.055
    29   8 O    2.228 --    28 C    1.055    30 C    0.954
    30   6 C    3.940 --    31 C    0.985    34 C    0.974    53 H    0.961
                            29 O    0.954
    31   6 C    3.970 --    32 C    0.993    30 C    0.985    55 H    0.974
                            54 H    0.886
    32   6 C    3.954 --    31 C    0.993    33 O    0.989    56 H    0.969
                            57 H    0.968
    33   8 O    2.086 --    34 C    0.998    32 C    0.989
    34   6 C    3.956 --    33 O    0.998    30 C    0.974    59 H    0.967
                            58 H    0.966
    35   1 H    0.997 --     1 C    0.981
    36   1 H    0.999 --     1 C    0.973
    37   1 H    0.997 --     1 C    0.980
    38   1 H    0.999 --     3 C    0.972
    39   1 H    0.997 --     3 C    0.982
    40   1 H    0.997 --     3 C    0.977
    41   1 H    0.995 --     4 C    0.912
    42   1 H    0.998 --     4 C    0.941
    43   1 H    0.990 --     5 C    0.886
    44   1 H    0.990 --     6 C    0.932
    45   1 H    0.955 --     9 N    0.916
    46   1 H    0.990 --    11 C    0.926
    47   1 H    0.955 --    14 N    0.912
    48   1 H    0.993 --    16 C    0.960
    49   1 H    0.988 --    17 C    0.954
    50   1 H    0.975 --    22 C    0.878
    51   1 H    0.987 --    24 C    0.894
    52   1 H    0.990 --    27 C    0.948
    53   1 H    0.995 --    30 C    0.961
    54   1 H    0.994 --    31 C    0.886
    55   1 H    0.996 --    31 C    0.974
    56   1 H    0.995 --    32 C    0.969
    57   1 H    0.997 --    32 C    0.968
    58   1 H    0.998 --    34 C    0.966
    59   1 H    0.994 --    34 C    0.967
    60  22 Ti   4.091 --     5 C    0.797     8 O    0.673    80 O    0.619
                            84 O    0.606    79 O    0.368     6 C    0.166
                             7 C    0.130    65 Ti   0.119    63 Ti   0.110
    61  22 Ti   3.776 --    81 O    0.802    80 O    0.756    83 O    0.751
                            82 O    0.513    62 Ti   0.128    66 Ti   0.123
                            90 O    0.101
    62  22 Ti   2.955 --    88 O    0.813    81 O    0.713    66 Ti   0.337
                            68 Ti   0.316    21 Cl   0.193    19 F    0.145
                            61 Ti   0.128
    63  22 Ti   4.045 --    79 O    1.068    72 C    0.704    82 O    0.640
                            65 Ti   0.501    69 Ti   0.190    66 Ti   0.156
                            89 O    0.141    84 O    0.137    60 Ti   0.110
    64  22 Ti   4.238 --    85 O    0.804    83 O    0.686    78 C    0.668
                            76 C    0.632    23 N    0.252    70 Ti   0.239
                            65 Ti   0.187    77 C    0.113    24 C    0.108
    65  22 Ti   3.453 --    85 O    0.903    84 O    0.881    63 Ti   0.501
                            64 Ti   0.187    60 Ti   0.119
    66  22 Ti   2.497 --    86 O    0.987    62 Ti   0.337    79 O    0.198
                            80 O    0.168    63 Ti   0.156    67 Ti   0.127
                            61 Ti   0.123
    67  22 Ti   3.832 --    87 O    0.863    89 O    0.666    90 O    0.623
                            86 O    0.552    68 Ti   0.253    71 Ti   0.187
                            66 Ti   0.127    69 Ti   0.115
    68  22 Ti   2.718 --    88 O    1.058    87 O    0.678    62 Ti   0.316
                            67 Ti   0.253    71 Ti   0.104
    69  22 Ti   4.128 --    77 C    0.903    91 O    0.883    75 C    0.701
                            89 O    0.632    71 Ti   0.217    63 Ti   0.190
                            72 C    0.141    78 C    0.130    67 Ti   0.115
    70  22 Ti   4.162 --    92 O    0.901    73 C    0.754    78 C    0.698
                            90 O    0.528    64 Ti   0.239    71 Ti   0.199
                            76 C    0.173    21 Cl   0.166    77 C    0.131
    71  22 Ti   2.799 --    91 O    0.897    92 O    0.787    69 Ti   0.217
                            70 Ti   0.199    67 Ti   0.187    87 O    0.143
                            68 Ti   0.104
    72   6 C    3.840 --    75 C    2.743    63 Ti   0.704    69 Ti   0.141
    73   6 C    3.743 --    76 C    2.711    70 Ti   0.754
    74   6 C    3.973 --    77 C    1.958    78 C    1.660
    75   6 C    3.664 --    72 C    2.743    69 Ti   0.701
    76   6 C    3.730 --    73 C    2.711    64 Ti   0.632    70 Ti   0.173
    77   6 C    3.483 --    74 C    1.958    69 Ti   0.903    70 Ti   0.131
                            64 Ti   0.113
    78   6 C    3.640 --    74 C    1.660    70 Ti   0.698    64 Ti   0.668
                            69 Ti   0.130
    79   8 O    1.927 --    63 Ti   1.068    60 Ti   0.368    66 Ti   0.198
    80   8 O    1.848 --    61 Ti   0.756    60 Ti   0.619    66 Ti   0.168
    81   8 O    1.831 --    61 Ti   0.802    62 Ti   0.713
    82   8 O    1.699 --    63 Ti   0.640    61 Ti   0.513
    83   8 O    1.822 --    61 Ti   0.751    64 Ti   0.686
    84   8 O    1.900 --    65 Ti   0.881    60 Ti   0.606    63 Ti   0.137
    85   8 O    1.975 --    65 Ti   0.903    64 Ti   0.804
    86   8 O    1.860 --    66 Ti   0.987    67 Ti   0.552
    87   8 O    1.887 --    67 Ti   0.863    68 Ti   0.678    71 Ti   0.143
    88   8 O    2.031 --    68 Ti   1.058    62 Ti   0.813
    89   8 O    1.831 --    67 Ti   0.666    69 Ti   0.632    63 Ti   0.141
    90   8 O    1.724 --    67 Ti   0.623    70 Ti   0.528    61 Ti   0.101
    91   8 O    2.029 --    71 Ti   0.897    69 Ti   0.883
    92   8 O    1.994 --    70 Ti   0.901    71 Ti   0.787
 ---------------------------------------------------------------------------

Topologies differ in total number of bonds
Writing topology from bond orders to xtbtopo.mol

molecular dipole:
                 x           y           z       tot (Debye)
 q only:        0.839      -2.641       3.100
   full:       -1.730      -2.074       2.284       8.992
molecular quadrupole (traceless):
                xx          xy          yy          xz          yz          zz
 q only:      -56.061      -5.462     -12.920       7.412       0.771      68.981
  q+dip:      -53.620       6.204      -3.225       6.974      -3.918      56.845
   full:      -55.169       5.533      -2.198       6.389      -5.126      57.366

           -------------------------------------------------
          |                Geometry Summary                 |
           -------------------------------------------------

      molecular mass/u    :     1368.4070116
   center of mass at/Å    :        0.5668169      -0.3300460       4.5361910
  moments of inertia/u·Å² :        0.1328751E+05   0.2127740E+05   0.2320762E+05
rotational constants/cm⁻¹ :        0.1268682E-02   0.7922787E-03   0.7263836E-03

 * 99 selected distances

     #   Z          #   Z                                           value/Å
     1   6 C        2   7 N                                       1.4469062
     2   7 N        3   6 C                                       1.4467456
     2   7 N        4   6 C                                       1.4636655
     4   6 C        5   6 C                                       1.5349438
     5   6 C        6   6 C                                       1.5136771
     6   6 C        7   6 C                                       1.3496585
     7   6 C        8   8 O                                       1.3453323
     7   6 C        9   7 N                                       1.4150827
     9   7 N       10   6 C                                       1.3924742
    10   6 C       11   6 C                                       1.3862889
    11   6 C       12   6 C                                       1.4075160
    12   6 C       13   6 C                                       1.4289246
    13   6 C       14   7 N                                       1.3806805
    14   7 N       15   6 C                                       1.3799664
    15   6 C       16   6 C                                       1.4047253
    16   6 C       17   6 C                                       1.3807079
    17   6 C       18   6 C                                       1.3820888
    18   6 C       20   6 C                                       1.3949489
    20   6 C       21  17 Cl                                      1.7265743
    15   6 C       22   6 C                                       1.4026655
    20   6 C       22   6 C                                       1.3861459
    13   6 C       23   7 N                                       1.3402672
    23   7 N       24   6 C                                       1.3572658
    24   6 C       25   7 N                                       1.3004477
    12   6 C       26   6 C                                       1.4228240
    25   7 N       26   6 C                                       1.3638980
    26   6 C       27   6 C                                       1.4041913
    10   6 C       28   6 C                                       1.4253176
    27   6 C       28   6 C                                       1.3838160
    28   6 C       29   8 O                                       1.3652051
    29   8 O       30   6 C                                       1.4160879
    31   6 C       32   6 C                                       1.5406416
    32   6 C       33   8 O                                       1.4092926
    30   6 C       34   6 C                                       1.5439737
    33   8 O       34   6 C                                       1.4031610
     1   6 C       35   1 H                                       1.0894312
     1   6 C       36   1 H                                       1.1018999
     1   6 C       37   1 H                                       1.0886440
     3   6 C       38   1 H                                       1.1020835
     3   6 C       39   1 H                                       1.0892118
     3   6 C       40   1 H                                       1.0869136
     4   6 C       41   1 H                                       1.1032730
     4   6 C       42   1 H                                       1.1110593
     5   6 C       43   1 H                                       1.1076208
     6   6 C       44   1 H                                       1.0839568
     9   7 N       45   1 H                                       1.0155278
    11   6 C       46   1 H                                       1.0803615
    14   7 N       47   1 H                                       1.0129851 (min)
    16   6 C       48   1 H                                       1.0793428
    17   6 C       49   1 H                                       1.0783102
    22   6 C       50   1 H                                       1.0850594
    24   6 C       51   1 H                                       1.0932601
    27   6 C       52   1 H                                       1.0778714
    30   6 C       53   1 H                                       1.0965105
    31   6 C       54   1 H                                       1.1144435
    31   6 C       55   1 H                                       1.0881410
    32   6 C       56   1 H                                       1.0897326
    32   6 C       57   1 H                                       1.1006847
    34   6 C       58   1 H                                       1.0996911
    34   6 C       59   1 H                                       1.0889960
     5   6 C       60  22 Ti                                      2.1096136
     8   8 O       60  22 Ti                                      1.8396325
    67  22 Ti      68  22 Ti                                      2.8299937 (max)
    63  22 Ti      72   6 C                                       2.0510962
    70  22 Ti      73   6 C                                       2.0199597
    72   6 C       75   6 C                                       1.2417225
    73   6 C       76   6 C                                       1.2443146
    69  22 Ti      77   6 C                                       1.9782711
    74   6 C       77   6 C                                       1.2838233
    64  22 Ti      78   6 C                                       2.0714467
    70  22 Ti      78   6 C                                       2.0702317
    74   6 C       78   6 C                                       1.3174474
    63  22 Ti      79   8 O                                       1.6908831
    60  22 Ti      80   8 O                                       1.7801618
    61  22 Ti      80   8 O                                       1.7388094
    61  22 Ti      81   8 O                                       1.7220794
    62  22 Ti      81   8 O                                       1.7412201
    61  22 Ti      82   8 O                                       1.7560862
    63  22 Ti      82   8 O                                       1.7183849
    61  22 Ti      83   8 O                                       1.7223093
    64  22 Ti      83   8 O                                       1.7692074
    60  22 Ti      84   8 O                                       1.8237381
    65  22 Ti      84   8 O                                       1.6796488
    64  22 Ti      85   8 O                                       1.7686078
    65  22 Ti      85   8 O                                       1.7040950
    66  22 Ti      86   8 O                                       1.7382374
    67  22 Ti      86   8 O                                       1.7855094
    67  22 Ti      87   8 O                                       1.7134070
    68  22 Ti      87   8 O                                       1.8031157
    62  22 Ti      88   8 O                                       1.7620296
    68  22 Ti      88   8 O                                       1.7250014
    67  22 Ti      89   8 O                                       1.7145064
    69  22 Ti      89   8 O                                       1.7658468
    67  22 Ti      90   8 O                                       1.7425991
    70  22 Ti      90   8 O                                       1.7797157
    69  22 Ti      91   8 O                                       1.7519378
    71  22 Ti      91   8 O                                       1.7293293
    70  22 Ti      92   8 O                                       1.7368253
    71  22 Ti      92   8 O                                       1.7520662

 * 9 distinct bonds (by element types)

   Z      Z             #   av. dist./Å        max./Å        min./Å
   1 H    6 C          23     1.0928913     1.1144435     1.0778714
   6 C    6 C          22     1.3991074     1.5439737     1.2417225
   1 H    7 N           2     1.0142564     1.0155278     1.0129851
   6 C    7 N          11     1.3897636     1.4636655     1.3004477
   6 C    8 O           5     1.3878158     1.4160879     1.3453323
   6 C   17 Cl          1     1.7265743     1.7265743     1.7265743
   6 C   22 Ti          6     2.0501032     2.1096136     1.9782711
   8 O   22 Ti         28     1.7483925     1.8396325     1.6796488
  22 Ti  22 Ti          1     2.8299937     2.8299937     2.8299937


optimized geometry written to: xtbopt.xyz


           -------------------------------------------------
          | TOTAL ENERGY             -192.603461954937 Eh   |
          | GRADIENT NORM               0.003043387220 Eh/α |
          | HOMO-LUMO GAP               0.123771480952 eV   |
           -------------------------------------------------

------------------------------------------------------------------------
 * finished run on 2026/09/02 at 16:49:24.543     
------------------------------------------------------------------------
 total:
 * wall-time:     0 d,  0 h,  1 min, 50.742 sec
 *  cpu-time:     0 d,  0 h,  6 min,  8.078 sec
 * ratio c/w:     3.324 speedup
 SCF:
 * wall-time:     0 d,  0 h,  0 min,  2.379 sec
 *  cpu-time:     0 d,  0 h,  0 min,  7.031 sec
 * ratio c/w:     2.956 speedup
 ANC optimizer:
 * wall-time:     0 d,  0 h,  1 min, 48.237 sec
 *  cpu-time:     0 d,  0 h,  6 min,  0.734 sec
 * ratio c/w:     3.333 speedup

