92
Afatinib orientation 180 deg
C      7.217504      1.587058      8.471123
N      5.901766      1.591531      9.116799
C      6.063789      1.884887     10.545821
C      5.025142      2.581668      8.472235
C      3.553125      2.356033      8.684672
C      2.976876      1.238856      9.159103
C      1.498003      1.148656      9.308807
O      0.770348      2.093221      9.029228
N      1.108573     -0.078264      9.796884
C     -0.203098     -0.532898     10.060403
C     -1.348354      0.202983      9.760912
C     -2.640645     -0.294991     10.065397
C     -3.852735      0.382028      9.813524
N     -3.808984      1.672712      9.220984
C     -4.861727      2.438711      8.674351
C     -4.700547      3.832054      8.572223
C     -5.686850      4.632416      7.989594
C     -6.836250      4.042030      7.480146
F     -7.771170      4.825815      6.922961
C     -7.001996      2.662152      7.537011
Cl     -8.412805      1.922130      6.881230
C     -6.013809      1.864147      8.119584
N     -5.044246     -0.165881     10.112402
C     -5.030638     -1.376577     10.674274
N     -3.944109     -2.098927     10.965984
C     -2.763854     -1.557436     10.658140
C     -1.615816     -2.288604     10.939832
C     -0.339038     -1.800952     10.649868
O      0.840230     -2.460221     10.901245
C      0.793204     -3.785741     11.415335
C      0.531352     -4.831805     10.352775
C      1.136952     -6.070847     10.973113
O      2.246811     -5.636717     11.771541
C      2.180291     -4.208140     11.885968
H      7.872096      0.840866      8.935491
H      7.710883      2.564215      8.528865
H      7.127452      1.306483      7.415693
H      6.533291      2.860545     10.717867
H      6.684399      1.117770     11.022827
H      5.102023      1.872078     11.068974
H      5.173492      2.559615      7.384148
H      5.285399      3.597701      8.796796
H      2.919181      3.193577      8.395874
H      3.577708      0.379598      9.430516
H      1.827682     -0.752736     10.037313
H     -1.262013      1.165596      9.268363
H     -3.136732      2.249960      9.717556
H     -3.799492      4.310444      8.950473
H     -5.561232      5.708569      7.924627
H     -6.147345      0.786325      8.128027
H     -5.992595     -1.814837     10.917530
H     -1.761881     -3.260248     11.400056
H      0.105895     -3.878798     12.265592
H      1.052900     -4.568846      9.424012
H     -0.525765     -4.960217     10.105579
H      1.480650     -6.790054     10.224475
H      0.423753     -6.571068     11.636927
H      2.369098     -3.914475     12.923195
H      2.973862     -3.773151     11.267427
Ti     -2.141866     -3.008818      2.119748
Ti      0.288991     -1.694759      1.432425
Ti      1.903098     -3.067749     -0.729322
Ti     -2.521502     -0.251928      1.303687
Ti      2.142050      0.499533      2.204434
Ti     -0.681448      0.189635      3.681230
Ti     -2.036770     -3.077740     -1.200512
Ti     -0.605340     -0.770900     -2.035132
Ti      1.945488     -1.587317     -3.412400
Ti     -1.878170      1.746573     -1.240030
Ti      2.412512      0.454231     -0.774247
Ti      0.817742      1.838452     -2.940004
C     -3.678414      1.281398      0.600737
C      4.128193      0.482847      0.387293
C      0.455479      2.267202      0.349695
C     -3.666709      2.118834     -0.313920
C      4.115962      0.632239      1.621354
C     -0.635167      2.741046     -0.118921
C      1.630072      1.780996      0.734224
O     -3.093456     -1.956907      1.037949
O     -0.487250     -2.605849      2.701203
O      0.314079     -2.888890      0.145001
O     -0.800785     -0.435934      0.971227
O      1.902865     -1.158331      1.469449
O     -2.322673     -0.113878      3.024800
O      1.013786      0.441598      3.568761
O     -1.772019     -4.587905     -1.652810
O      0.190605     -1.189189     -3.534030
O      2.831420     -2.170248     -1.918042
O     -2.054558     -0.224445     -1.337505
O      0.768511     -0.390574     -1.063664
O     -0.900039      1.649313     -2.818565
O      2.415313      1.357463     -2.264115
