92
 energy: -192.603461954937 gnorm: 0.003043387220 xtb: 6.7.1pre (5071a88)
C           -6.42330373929273       -1.13473892495956        7.79986931185781
N           -5.25171912095828       -1.86308234301480        8.23626655566150
C           -5.61037516491606       -3.15869847105298        8.77088522833285
C           -4.25429930913748       -1.95534264192712        7.16904683470404
C           -2.87333102404957       -2.41821827615771        7.65353086641225
C           -2.44431388397323       -1.60722205775775        8.85746082993052
C           -1.11001758399938       -1.46243736988713        8.99982866284573
O           -0.31065817781560       -2.07522812806604        8.10795942080712
N           -0.48921079863857       -0.63008838618813        9.96120927436318
C            0.59101172953630        0.15326412973725        9.56313603723268
C            1.66959277588279       -0.38946196354575        8.88202816892388
C            2.65501677418856        0.44435253607750        8.32096319051998
C            3.65109237293062        0.00412849107917        7.39583549525398
N            3.95348850810881       -1.34184287133771        7.33930176536858
C            4.26287473807798       -2.15521636797961        6.26831591012181
C            4.19477509986564       -3.54401074272430        6.46797908307584
C            4.38847771014841       -4.41900010775877        5.41763306023389
C            4.55836160427742       -3.90692231464656        4.14520041571432
F            4.65975905493036       -4.75810544740028        3.07582043778288
C            4.62879848897416       -2.53159507047966        3.92294909995317
Cl           4.52521635826237       -1.95712776510592        2.29804410592450
C            4.58938932079140       -1.65765764327922        4.99816094509411
N            4.26811860281056        0.89514436321336        6.60736535202949
C            4.18741047056044        2.19659468867511        6.98403932949337
N            3.49572455039258        2.69048169073609        7.96832086729284
C            2.60070960908060        1.84639092690333        8.55711312333810
C            1.58330128117277        2.37097766254321        9.37040383472844
C            0.56795719697857        1.55256386652929        9.83324460565101
O           -0.53638385498703        1.98101722328948       10.51195169708375
C           -0.85122533949898        3.36129153598369       10.54392428940407
C           -1.15594870136835        3.95999175749634        9.15380687078726
C           -2.64264263714994        4.35257272612759        9.24971042322638
O           -3.18694376635748        3.56251889088367       10.28201685867160
C           -2.20299587043041        3.48609932273259       11.27944707609116
H           -7.09950727130253       -1.01238360850512        8.64523200649510
H           -6.96750143343314       -1.64466231974507        6.98869112127155
H           -6.12405554305687       -0.14851145777817        7.44922488626080
H           -6.04856927817791       -3.82562973556606        8.01076916765946
H           -6.33755773084481       -3.02053419293864        9.56994611395698
H           -4.72545162915110       -3.63142271190915        9.18900376131502
H           -4.15250462183709       -0.94332274852674        6.74165402113231
H           -4.60033368016025       -2.63446603847722        6.36065080297513
H           -2.89516936277072       -3.49774133618031        7.90046545097728
H           -3.17724805568321       -1.13465802593860        9.50124091286158
H           -1.17378173864374       -0.08707549079193       10.47869953738108
H            1.66444268168992       -1.45567072306818        8.70780674302264
H            3.57194942375428       -1.85344566716625        8.12595867722431
H            3.97790280513723       -3.93493155289346        7.45038841276616
H            4.35649045232600       -5.48730193671916        5.56067409171911
H            4.75997844596018       -0.59725547074863        4.84388738256737
H            4.83989312966328        2.88004037566900        6.43414312603200
H            1.59193289537153        3.43460184225788        9.54486209577836
H           -0.06022355870305        3.90543291039072       11.07360485423240
H           -1.00432932929077        3.18703314492195        8.36543467946753
H           -0.52706835433185        4.81839212069457        8.92641070724241
H           -3.20203845435385        4.14439657690081        8.33797798884596
H           -2.73956683269543        5.41845046624263        9.50664784387819
H           -2.20808637031756        4.39481376788014       11.89874709183732
H           -2.40849217175627        2.61421876701756       11.89872698177078
Ti          -1.25177772615872       -1.55694192386442        6.61466761678183
Ti           0.92549464772595       -1.48463870293676        4.36553273250364
Ti           1.94197238921403       -3.59880849594875        2.04079660035986
Ti          -1.77755092763240        0.24335975353697        4.20246239652697
Ti           2.70468949815631        1.23884786441003        4.77140996567370
Ti           0.09872353617491        1.31751468965725        6.26660176906860
Ti          -1.50829875990123       -3.04422526999837        3.26271002085425
Ti           0.02022467451407       -0.87090620369830        1.22125925749407
Ti           1.62653274969612       -2.28015859288274       -0.63417732077261
Ti          -1.61194479713909        1.81712598960684        1.32619178580139
Ti           2.78385935050077        0.68644629465933        1.69783313944724
Ti           0.81616131268574        1.65413774670351       -0.40356828973469
C           -3.23236028538315        1.39179986898040        3.32404911904528
C            4.60260263740337        1.13885421857472        2.45131608964975
C            0.71687692688486        2.45677334803176        2.75706271448698
C           -3.41754583346270        2.05074032088261        2.28800942485301
C            4.45916405659813        1.40884510695360        3.65748726271612
C           -0.47374232566146        2.88573637031221        2.54114965336687
C            1.93717457609769        2.03567970249603        3.02016164177199
O           -2.35073185372923       -1.12413006202038        5.01518643053988
O           -0.09038250491658       -2.32059144627218        5.50247339473491
O            1.58336743765194       -2.86899921281432        3.58048091619956
O           -0.15697296886129       -0.20320829492121        3.84588096038330
O            2.21167592092052       -0.45729099683914        4.87213229249054
O           -1.07488524023569        0.24732780791115        6.81300993842918
O            1.59495984759429        2.04127955576099        5.89059566047810
O           -0.62491001037339       -2.38201507793548        1.92011154441562
O            0.26559114228649       -1.11061405632103       -0.45746003228889
O            2.45719862781163       -3.41389583768856        0.36595426223252
O           -1.36374020308640        0.08402467355822        1.55634119961866
O            1.62310172863084       -0.65175153082753        1.86887612724637
O           -0.85209763117683        2.07572253670689       -0.23106396907107
O            2.41875431538452        1.11419998235063        0.05457820767640
