92
 energy: -192.641068617333 gnorm: 0.003143011975 xtb: 6.7.1pre (5071a88)
C           -0.79638307051141        6.80443965777310        7.25700669589726
N           -1.34752901862203        5.57004118676885        7.76989886058159
C           -2.24090809473729        5.81886776249180        8.88203339869054
C           -1.99819257699347        4.77913601090656        6.73587906829332
C           -2.20544999984231        3.35643953408331        7.16382002889682
C           -1.38150494225316        2.73643759041746        8.04817645481491
C           -1.40172372160179        1.34739214566199        8.33775230335150
O           -2.35433593741554        0.51438651281923        7.80212230038087
N           -0.67957860786348        0.87269519452844        9.48131050502750
C           -0.05062385596429       -0.35771074197625        9.38727802824288
C           -0.77648126620860       -1.47654901519829        8.96705196370241
C           -0.10127470001146       -2.61431830550988        8.48672407772534
C           -0.71582922317321       -3.72284097061195        7.82096266145242
N           -2.10226716120437       -3.83812949260210        7.83479947708235
C           -2.87291193858051       -4.16707257792266        6.73476284860765
C           -4.15185450537607       -3.60304931785112        6.60507164108285
C           -4.88938845668216       -3.79098972560444        5.44591771743093
C           -4.32577908911725       -4.50908701991980        4.40292521005450
F           -4.93911856890756       -4.53085589421850        3.18752753057418
C           -3.10063595701959       -5.14855115891442        4.55109568916462
Cl          -2.35686825773625       -5.85080650579628        3.17981032100961
C           -2.39641384242919       -5.03005166153370        5.73943373977185
N            0.01044165210953       -4.64387289285539        7.20469102796601
C            1.34047739721237       -4.55459349168160        7.29716468479116
N            2.02596169088406       -3.62808096790990        7.92557185729064
C            1.32242576124934       -2.62109124100487        8.48571970090759
C            2.04041762451188       -1.54367476064617        9.07436271007282
C            1.36375341522743       -0.42547387803281        9.51875033885291
O            1.94256993065949        0.70433977012226       10.01438114059465
C            3.27097950471253        1.04673353092586        9.64454669742622
C            3.39429985785962        1.41841042348325        8.14761402201380
C            3.82714048004424        2.89848028452521        8.18490383302647
O            3.37362481862315        3.39662312002141        9.42420508170685
C            3.59663276775826        2.37513164374014       10.36253085821458
H           -0.26927674915504        7.31399740810523        8.06304300902907
H           -1.56508581752652        7.48700305105744        6.85914062025914
H           -0.08392032442737        6.58215341742596        6.46459669521415
H           -3.07832587578121        6.48137290326750        8.60869220223930
H           -1.68048747257217        6.28558299940264        9.69110711088141
H           -2.64394175412110        4.87103177416071        9.23040849523199
H           -1.35170408291918        4.78053699329500        5.84524265411985
H           -2.96615427700645        5.22416084286101        6.43622714445791
H           -2.97866201872969        2.78739723805632        6.65544471860792
H           -0.62608813926005        3.33759290836029        8.54414631258647
H           -0.05418425636871        1.58860065543371        9.84525851926062
H           -1.85912607349722       -1.39236684442924        8.96197084337209
H           -2.53976289847382       -3.14733691942877        8.43231664497822
H           -4.55830120049693       -2.99307118188222        7.40230580056330
H           -5.87197669396426       -3.35260115920269        5.31826750196490
H           -1.43968964926099       -5.52201658619825        5.86164522772578
H            1.90268939719131       -5.35610405135951        6.81544387059429
H            3.11916901591530       -1.63949972865483        9.11011803248991
H            3.96270644455327        0.25290337947609        9.94300282217337
H            2.40089854484572        1.33188132187457        7.67562219915170
H            4.11373051025093        0.78786880862600        7.60828812048910
H            3.37673577743361        3.50099010219688        7.39772700850842
H            4.92284768196768        2.97821988639337        8.12961295227737
H            4.64605626871216        2.37548231507668       10.68834374363441
H            2.94208019967821        2.54607011451712       11.21621674588946
Ti          -3.53680880408802       -0.68905541381239        4.43462231146652
Ti          -0.57374971107482       -2.14231738468910        4.77240776764687
Ti           0.89699597810178       -4.54620165091741        3.57091046478442
Ti          -0.81861288949293        0.91553449440514        3.65242609534199
Ti           1.96112865323575       -0.90543636519457        6.14829714433925
Ti          -1.04350590492635        0.14162465714532        6.63489463858419
Ti          -2.20442596878829       -2.77430977217802        2.10419486780055
Ti           0.55071561289091       -1.96582754580396        1.33075326311574
Ti           2.57989067938763       -3.91393390137384        0.99109019005719
Ti           0.75693522994186        1.10293469043643        1.14195600224937
Ti           3.06987219257551       -1.83386458949147        3.51610830657186
Ti           3.42912477535796       -0.29093239331435        0.97946384946068
C           -1.62093545780339        1.99095816947641        2.08991138000309
C            4.05776428438157       -2.32315486290066        5.23838557071186
C            1.89405468438044        0.81161921312908        3.84171293463402
C           -0.91857973777852        2.31022625490965        1.11524455416440
C            3.79761690031739       -1.78033482060837        6.32848116835078
C            1.08602454632251        1.56050467309740        3.12210987809934
C            2.73392324388268        0.10125907613099        4.53483912765891
O           -3.07325252596372       -2.14372902004252        3.53700175127986
O           -1.53291316371874       -1.50325706421762        6.07443336122921
O           -0.58178831860314       -3.72763275943566        4.13937846281940
O           -0.68478343621674       -0.79062052540356        3.66907308724249
O            1.01318572108619       -2.19724699503933        5.43579146818448
O           -1.32381682804850        1.22298914171380        5.26443791520792
O            0.71046263543308        0.09711887474537        6.78810548464231
O           -0.65975171350905       -3.21022302335194        1.41084971173586
O            1.73326770427292       -2.54893706609518        0.16733336621999
O            2.40364432525343       -4.52669182001042        2.65992414818501
O           -0.10979503132609       -0.41458310166510        0.99403064379660
O            1.49528432882708       -1.81915799100976        2.74872310664894
O            2.30505799854265        0.88484430652778        0.38701810539873
O            4.06387233131989       -1.48476688194584        2.13776840142739
