      -----------------------------------------------------------      
     |                   =====================                   |     
     |                           x T B                           |     
     |                   =====================                   |     
     |                         S. Grimme                         |     
     |          Mulliken Center for Theoretical Chemistry        |     
     |                    University of Bonn                     |     
      -----------------------------------------------------------      

   * xtb version 6.7.1pre (5071a88) compiled by 'Marcel@Raven' on 2024-07-23

   xtb is free software: you can redistribute it and/or modify it under
   the terms of the GNU Lesser General Public License as published by
   the Free Software Foundation, either version 3 of the License, or
   (at your option) any later version.
   
   xtb is distributed in the hope that it will be useful,
   but WITHOUT ANY WARRANTY; without even the implied warranty of
   MERCHANTABILITY or FITNESS FOR A PARTICULAR PURPOSE.  See the
   GNU Lesser General Public License for more details.
   
   Cite this work as:
   * C. Bannwarth, E. Caldeweyher, S. Ehlert, A. Hansen, P. Pracht,
     J. Seibert, S. Spicher, S. Grimme, WIREs Comput. Mol. Sci., 2020, 11,
     e01493. DOI: 10.1002/wcms.1493
   
   for GFN2-xTB:
   * C. Bannwarth, S. Ehlert and S. Grimme., J. Chem. Theory Comput., 2019,
     15, 1652-1671. DOI: 10.1021/acs.jctc.8b01176
   for GFN1-xTB:
   * S. Grimme, C. Bannwarth, P. Shushkov, J. Chem. Theory Comput., 2017,
     13, 1989-2009. DOI: 10.1021/acs.jctc.7b00118
   for GFN0-xTB:
   * P. Pracht, E. Caldeweyher, S. Ehlert, S. Grimme, ChemRxiv, 2019, preprint.
     DOI: 10.26434/chemrxiv.8326202.v1
   for GFN-FF:
   * S. Spicher and S. Grimme, Angew. Chem. Int. Ed., 2020, 59, 15665-15673.
     DOI: 10.1002/anie.202004239
   
   for ALPB and GBSA implicit solvation:
   * S. Ehlert, M. Stahn, S. Spicher, S. Grimme, J. Chem. Theory Comput.,
     2021, 17, 4250-4261. DOI: 10.1021/acs.jctc.1c00471
   
   for ddCOSMO and CPCM-X implicit solvation:
   * M. Stahn, S. Ehlert, S. Grimme, J. Phys. Chem. A,
     2023, XX, XXXX-XXXX. DOI: 10.1021/acs.jpca.3c04382
   
   for DFT-D4:
   * E. Caldeweyher, C. Bannwarth and S. Grimme, J. Chem. Phys., 2017,
     147, 034112. DOI: 10.1063/1.4993215
   * E. Caldeweyher, S. Ehlert, A. Hansen, H. Neugebauer, S. Spicher,
     C. Bannwarth and S. Grimme, J. Chem. Phys., 2019, 150, 154122.
     DOI: 10.1063/1.5090222
   * E. Caldeweyher, J.-M. Mewes, S. Ehlert and S. Grimme, Phys. Chem. Chem. Phys.
     2020, 22, 8499-8512. DOI: 10.1039/D0CP00502A
   
   for sTDA-xTB:
   * S. Grimme and C. Bannwarth, J. Chem. Phys., 2016, 145, 054103.
     DOI: 10.1063/1.4959605
   
   in the mass-spec context:
   * V. Asgeirsson, C. Bauer and S. Grimme, Chem. Sci., 2017, 8, 4879.
     DOI: 10.1039/c7sc00601b
   * J. Koopman and S. Grimme, ACS Omega 2019, 4, 12, 15120-15133.
     DOI: 10.1021/acsomega.9b02011
   
   for metadynamics refer to:
   * S. Grimme, J. Chem. Theory Comput., 2019, 155, 2847-2862
     DOI: 10.1021/acs.jctc.9b00143
   
   for SPH calculations refer to:
   * S. Spicher and S. Grimme, J. Chem. Theory Comput., 2021, 17, 1701-1714
     DOI: 10.1021/acs.jctc.0c01306
   
   for ONIOM refer to:
   * C. Plett, A. Katbashev, S. Ehlert, S. Grimme, M. Bursch,
     Phys. Chem. Chem. Phys., 2023, 25, 17860-17868. DOI: 10.1039/D3CP02178E
   
   for DIPRO refer to:
   * J. Kohn, N. Gildemeister, S. Grimme, D. Fazzi, A. Hansen,
     J. Chem. Phys., 2023, just accepted.
   
   for PTB refer to:
   * S. Grimme, M. Mueller, A. Hansen, J. Chem. Phys., 2023, 158, 124111.
     DOI: 10.1063/5.0137838
   
   with help from (in alphabetical order)
   P. Atkinson, C. Bannwarth, F. Bohle, G. Brandenburg, E. Caldeweyher
   M. Checinski, S. Dohm, S. Ehlert, S. Ehrlich, I. Gerasimov, C. Hölzer
   A. Katbashev, J. Kohn, J. Koopman, C. Lavigne, S. Lehtola, F. März, M. Müller,
   F. Musil, H. Neugebauer, J. Pisarek, C. Plett, P. Pracht, F. Pultar,
   J. Seibert, P. Shushkov, S. Spicher, M. Stahn, M. Steiner, T. Strunk,
   J. Stückrath, T. Rose, and J. Unsleber
   
 * started run on 2026/09/01 at 20:32:12.125     
   ID    Z sym.   atoms
    1    6 C      1, 3-7, 10-13, 15-18, 20, 22, 24, 26-28, 30-32, 34
    2    7 N      2, 9, 14, 23, 25
    3    8 O      8, 29, 33
    4    9 F      19
    5   17 Cl     21
    6    1 H      35-59

           -------------------------------------------------
          |                Calculation Setup                |
           -------------------------------------------------

          program call               : "c:\Users\Andre\Proyectos doctorado\nano-qsar-ai-papers\kras-pancreatic-gC3N4-ai\tools\xtb\xtb-6.7.1\bin\xtb.exe" "c:\Users\Andre\Proyectos doctorado\nano-qsar-ai-papers\mxene-glioblastoma-qsar-ai\calculations\gbm\Afatinib\Afatinib_drug_frozen_from_opt.xyz" --gfn 2 --sp --chrg 0 --uhf 0 --norestart
          coordinate file            : c:\Users\Andre\Proyectos doctorado\nano-qsar-ai-papers\mxene-glioblastoma-qsar-ai\calculations\gbm\Afatinib\Afatinib_drug_frozen_from_opt.xyz
          omp threads                :                    16


           -------------------------------------------------
          |                 G F N 2 - x T B                 |
           -------------------------------------------------

        Reference                      10.1021/acs.jctc.8b01176
      * Hamiltonian:
        H0-scaling (s, p, d)           1.850000    2.230000    2.230000
        zeta-weighting                 0.500000
      * Dispersion:
        s8                             2.700000
        a1                             0.520000
        a2                             5.000000
        s9                             5.000000
      * Repulsion:
        kExp                           1.500000    1.000000
        rExp                           1.000000
      * Coulomb:
        alpha                          2.000000
        third order                    shell-resolved
        anisotropic                    true
        a3                             3.000000
        a5                             4.000000
        cn-shift                       1.200000
        cn-exp                         4.000000
        max-rad                        5.000000


          ...................................................
          :                      SETUP                      :
          :.................................................:
          :  # basis functions                 167          :
          :  # atomic orbitals                 166          :
          :  # shells                           94          :
          :  # electrons                       178          :
          :  max. iterations                   250          :
          :  Hamiltonian                  GFN2-xTB          :
          :  restarted?                      false          :
          :  GBSA solvation                  false          :
          :  PC potential                    false          :
          :  electronic temp.          300.0000000     K    :
          :  accuracy                    1.0000000          :
          :  -> integral cutoff          0.2500000E+02      :
          :  -> integral neglect         0.1000000E-07      :
          :  -> SCF convergence          0.1000000E-05 Eh   :
          :  -> wf. convergence          0.1000000E-03 e    :
          :  Broyden damping             0.4000000          :
          :  net charge                          0          :
          :  unpaired electrons                  0          :
          ...................................................

 iter      E             dE          RMSdq      gap      omega  full diag
   1   -101.3629240 -0.101363E+03  0.413E+00    2.03       0.0  T
   2   -101.5188603 -0.155936E+00  0.251E+00    2.05       1.0  T
   3   -101.5147535  0.410683E-02  0.122E+00    2.32       1.0  T
   4   -101.5341366 -0.193831E-01  0.450E-01    2.12       1.0  T
   5   -101.5450248 -0.108882E-01  0.105E-01    2.13       1.0  T
   6   -101.5451916 -0.166734E-03  0.570E-02    2.16       1.0  T
   7   -101.5452451 -0.535530E-04  0.283E-02    2.17       1.0  T
   8   -101.5452527 -0.758007E-05  0.169E-02    2.17       1.0  T
   9   -101.5452585 -0.583949E-05  0.121E-02    2.17       1.1  T
  10   -101.5452613 -0.276654E-05  0.805E-03    2.17       1.6  T
  11   -101.5452624 -0.114547E-05  0.538E-03    2.17       2.4  T
  12   -101.5452633 -0.831058E-06  0.236E-03    2.17       5.5  T
  13   -101.5452634 -0.127169E-06  0.125E-03    2.17      10.4  T
  14   -101.5452634 -0.335099E-07  0.577E-04    2.17      22.5  T
  15   -101.5452634 -0.741011E-08  0.296E-04    2.17      43.9  T

   *** convergence criteria satisfied after 15 iterations ***

         #    Occupation            Energy/Eh            Energy/eV
      -------------------------------------------------------------
         1        2.0000           -1.0522758             -28.6339
       ...           ...                  ...                  ...
        83        2.0000           -0.4042703             -11.0008
        84        2.0000           -0.4033104             -10.9746
        85        2.0000           -0.3969972             -10.8028
        86        2.0000           -0.3951409             -10.7523
        87        2.0000           -0.3766355             -10.2488
        88        2.0000           -0.3639319              -9.9031
        89        2.0000           -0.3638044              -9.8996 (HOMO)
        90                         -0.2840058              -7.7282 (LUMO)
        91                         -0.2714145              -7.3856
        92                         -0.2470599              -6.7228
        93                         -0.2438431              -6.6353
        94                         -0.2330217              -6.3408
       ...                                ...                  ...
       166                          0.6899690              18.7750
      -------------------------------------------------------------
                  HL-Gap            0.0797986 Eh            2.1714 eV
             Fermi-level           -0.3239051 Eh           -8.8139 eV

 SCC (total)                   0 d,  0 h,  0 min,  0.126 sec
 SCC setup                      ...        0 min,  0.001 sec (  0.794%)
 Dispersion                     ...        0 min,  0.000 sec (  0.000%)
 classical contributions        ...        0 min,  0.000 sec (  0.000%)
 integral evaluation            ...        0 min,  0.003 sec (  2.381%)
 iterations                     ...        0 min,  0.116 sec ( 92.064%)
 molecular gradient             ...        0 min,  0.005 sec (  3.968%)
 printout                       ...        0 min,  0.001 sec (  0.794%)

         :::::::::::::::::::::::::::::::::::::::::::::::::::::
         ::                     SUMMARY                     ::
         :::::::::::::::::::::::::::::::::::::::::::::::::::::
         :: total energy            -100.273549989945 Eh    ::
         :: gradient norm              0.039183098323 Eh/a0 ::
         :: HOMO-LUMO gap              2.171429786709 eV    ::
         ::.................................................::
         :: SCC energy              -101.545775835443 Eh    ::
         :: -> isotropic ES            0.117202746706 Eh    ::
         :: -> anisotropic ES          0.005439698617 Eh    ::
         :: -> anisotropic XC          0.037696833256 Eh    ::
         :: -> dispersion             -0.064347421065 Eh    ::
         :: repulsion energy           1.272225845498 Eh    ::
         :: add. restraining           0.000000000000 Eh    ::
         :: total charge              -0.000000000000 e     ::
         :::::::::::::::::::::::::::::::::::::::::::::::::::::

           -------------------------------------------------
          |                Property Printout                |
           -------------------------------------------------

    * Orbital Energies and Occupations

         #    Occupation            Energy/Eh            Energy/eV
      -------------------------------------------------------------
         1        2.0000           -1.0522758             -28.6339
       ...           ...                  ...                  ...
        77        2.0000           -0.4454756             -12.1220
        78        2.0000           -0.4375955             -11.9076
        79        2.0000           -0.4225938             -11.4994
        80        2.0000           -0.4167140             -11.3394
        81        2.0000           -0.4106371             -11.1740
        82        2.0000           -0.4081881             -11.1074
        83        2.0000           -0.4042703             -11.0008
        84        2.0000           -0.4033104             -10.9746
        85        2.0000           -0.3969972             -10.8028
        86        2.0000           -0.3951409             -10.7523
        87        2.0000           -0.3766355             -10.2488
        88        2.0000           -0.3639319              -9.9031
        89        2.0000           -0.3638044              -9.8996 (HOMO)
        90                         -0.2840058              -7.7282 (LUMO)
        91                         -0.2714145              -7.3856
        92                         -0.2470599              -6.7228
        93                         -0.2438431              -6.6353
        94                         -0.2330217              -6.3408
        95                         -0.2034949              -5.5374
        96                         -0.1732173              -4.7135
        97                         -0.1504328              -4.0935
        98                         -0.1385718              -3.7707
        99                         -0.1118582              -3.0438
       100                         -0.0769286              -2.0933
       ...                                ...                  ...
       166                          0.6899690              18.7750
      -------------------------------------------------------------
                  HL-Gap            0.0797986 Eh            2.1714 eV
             Fermi-level           -0.3239051 Eh           -8.8139 eV

     #   Z          covCN         q      C6AA      α(0)
     1   6 C        3.712    -0.034    21.325     6.599
     2   7 N        2.724    -0.170    24.673     7.377
     3   6 C        3.713    -0.033    21.300     6.595
     4   6 C        3.761     0.005    20.541     6.461
     5   6 C        2.892    -0.012    28.320     8.725
     6   6 C        2.902    -0.078    29.953     8.974
     7   6 C        2.755     0.271    22.420     7.754
     8   8 O        0.857    -0.438    22.459     6.354
     9   7 N        2.703    -0.150    24.255     7.315
    10   6 C        2.902     0.059    26.666     8.467
    11   6 C        2.914    -0.062    29.536     8.912
    12   6 C        2.979    -0.040    28.996     8.833
    13   6 C        2.892     0.166    24.429     8.104
    14   7 N        2.704    -0.126    23.731     7.235
    15   6 C        2.904     0.075    26.326     8.413
    16   6 C        2.926    -0.060    29.499     8.907
    17   6 C        2.917    -0.048    29.194     8.860
    18   6 C        2.814     0.154    24.662     8.136
    19   9 F        0.786    -0.208    11.323     3.975
    20   6 C        2.883     0.083    26.142     8.382
    21  17 Cl       0.965    -0.140   103.538    15.567
    22   6 C        2.959    -0.065    29.627     8.928
    23   7 N        1.839    -0.284    28.212     7.871
    24   6 C        2.902     0.150    24.754     8.158
    25   7 N        1.838    -0.269    27.839     7.819
    26   6 C        2.996     0.096    25.861     8.342
    27   6 C        2.918    -0.082    30.046     8.989
    28   6 C        2.862     0.128    25.196     8.228
    29   8 O        1.705    -0.285    18.737     5.844
    30   6 C        3.764     0.112    18.786     6.178
    31   6 C        3.816    -0.075    21.915     6.663
    32   6 C        3.747     0.075    19.390     6.281
    33   8 O        1.701    -0.313    19.227     5.920
    34   6 C        3.737     0.071    19.469     6.296
    35   1 H        0.925     0.044     2.400     2.423
    36   1 H        0.923     0.015     2.817     2.625
    37   1 H        0.925     0.041     2.440     2.443
    38   1 H        0.923     0.014     2.824     2.628
    39   1 H        0.924     0.041     2.439     2.442
    40   1 H        0.925     0.040     2.455     2.450
    41   1 H        0.924     0.058     2.225     2.333
    42   1 H        0.922     0.036     2.498     2.472
    43   1 H        0.925     0.066     2.126     2.280
    44   1 H        0.925     0.058     2.221     2.331
    45   1 H        0.860     0.197     1.122     1.659
    46   1 H        0.925     0.073     2.058     2.243
    47   1 H        0.860     0.191     1.155     1.683
    48   1 H        0.925     0.052     2.299     2.371
    49   1 H        0.926     0.072     2.067     2.248
    50   1 H        0.926     0.108     1.715     2.048
    51   1 H        0.925     0.042     2.419     2.432
    52   1 H        0.926     0.060     2.198     2.319
    53   1 H        0.924     0.032     2.562     2.503
    54   1 H        0.924     0.059     2.212     2.326
    55   1 H        0.925     0.049     2.332     2.388
    56   1 H        0.924     0.058     2.228     2.334
    57   1 H        0.923     0.031     2.570     2.507
    58   1 H        0.924     0.040     2.443     2.444
    59   1 H        0.924     0.056     2.241     2.341

 Mol. C6AA /au·bohr⁶  :      43782.369805
 Mol. C8AA /au·bohr⁸  :    1066016.585970
 Mol. α(0) /au        :        323.736315


Wiberg/Mayer (AO) data.
largest (>0.10) Wiberg bond orders for each atom

 ---------------------------------------------------------------------------
     #   Z sym  total        # sym  WBO       # sym  WBO       # sym  WBO
 ---------------------------------------------------------------------------
     1   6 C    3.986 --     2 N    1.016    37 H    0.982    35 H    0.982
                            36 H    0.975
     2   7 N    3.126 --     3 C    1.017     1 C    1.016     4 C    1.005
     3   6 C    3.986 --     2 N    1.017    40 H    0.983    39 H    0.982
                            38 H    0.973
     4   6 C    3.989 --     5 C    1.032     2 N    1.005    41 H    0.948
                            42 H    0.943
     5   6 C    3.970 --     6 C    1.844     4 C    1.032    43 H    0.961
     6   6 C    3.986 --     5 C    1.844     7 C    1.047    44 H    0.957
     7   6 C    3.945 --     8 O    1.653     9 N    1.168     6 C    1.047
     8   8 O    1.984 --     7 C    1.653     9 N    0.153
     9   7 N    3.500 --     7 C    1.168    10 C    1.106    45 H    0.920
                             8 O    0.153
    10   6 C    3.961 --    11 C    1.465    28 C    1.196     9 N    1.106
    11   6 C    3.977 --    10 C    1.465    12 C    1.304    46 H    0.948
    12   6 C    3.983 --    11 C    1.304    26 C    1.252    13 C    1.178
    13   6 C    3.960 --    23 N    1.402    14 N    1.193    12 C    1.178
    14   7 N    3.513 --    13 C    1.193    15 C    1.111    47 H    0.921
    15   6 C    3.967 --    22 C    1.357    16 C    1.347    14 N    1.111
    16   6 C    3.977 --    17 C    1.458    15 C    1.347    48 H    0.966
    17   6 C    3.987 --    16 C    1.458    18 C    1.385    49 H    0.964
    18   6 C    3.880 --    17 C    1.385    20 C    1.348    19 F    0.968
    19   9 F    1.099 --    18 C    0.968
    20   6 C    3.927 --    22 C    1.416    18 C    1.348    21 Cl   0.994
    21  17 Cl   1.139 --    20 C    0.994
    22   6 C    3.973 --    20 C    1.416    15 C    1.357    50 H    0.946
    23   7 N    3.054 --    13 C    1.402    24 C    1.338
    24   6 C    3.957 --    25 N    1.523    23 N    1.338    51 H    0.956
    25   7 N    3.044 --    24 C    1.523    26 C    1.266
    26   6 C    3.973 --    27 C    1.269    25 N    1.266    12 C    1.252
    27   6 C    3.981 --    28 C    1.493    26 C    1.269    52 H    0.959
    28   6 C    3.928 --    27 C    1.493    10 C    1.196    29 O    1.050
    29   8 O    2.223 --    28 C    1.050    30 C    0.959
    30   6 C    3.942 --    31 C    0.983    34 C    0.978    53 H    0.961
                            29 O    0.959
    31   6 C    3.992 --    32 C    1.002    30 C    0.983    55 H    0.977
                            54 H    0.976
    32   6 C    3.955 --    31 C    1.002    33 O    0.979    56 H    0.971
                            57 H    0.970
    33   8 O    2.062 --    34 C    0.990    32 C    0.979
    34   6 C    3.958 --    33 O    0.990    30 C    0.978    58 H    0.972
                            59 H    0.969
    35   1 H    0.998 --     1 C    0.982
    36   1 H    1.000 --     1 C    0.975
    37   1 H    0.998 --     1 C    0.982
    38   1 H    1.000 --     3 C    0.973
    39   1 H    0.998 --     3 C    0.982
    40   1 H    0.998 --     3 C    0.983
    41   1 H    0.995 --     4 C    0.948
    42   1 H    0.997 --     4 C    0.943
    43   1 H    0.995 --     5 C    0.961
    44   1 H    0.997 --     6 C    0.957
    45   1 H    0.961 --     9 N    0.920
    46   1 H    0.994 --    11 C    0.948
    47   1 H    0.963 --    14 N    0.921
    48   1 H    0.997 --    16 C    0.966
    49   1 H    0.994 --    17 C    0.964
    50   1 H    0.988 --    22 C    0.946
    51   1 H    0.998 --    24 C    0.956
    52   1 H    0.995 --    27 C    0.959
    53   1 H    0.999 --    30 C    0.961
    54   1 H    0.997 --    31 C    0.976
    55   1 H    0.998 --    31 C    0.977
    56   1 H    0.996 --    32 C    0.971
    57   1 H    0.999 --    32 C    0.970
    58   1 H    0.998 --    34 C    0.972
    59   1 H    0.997 --    34 C    0.969
 ---------------------------------------------------------------------------

Topologies differ in total number of bonds
Writing topology from bond orders to xtbtopo.mol

molecular dipole:
                 x           y           z       tot (Debye)
 q only:        0.265       2.952       0.726
   full:       -0.005       3.393       0.883       8.911
molecular quadrupole (traceless):
                xx          xy          yy          xz          yz          zz
 q only:        7.047     -26.881     -44.086       3.069      67.729      37.039
  q+dip:        3.924     -36.696     -44.775      -2.600      78.130      40.851
   full:        3.058     -35.792     -46.689      -7.159      78.647      43.630


           -------------------------------------------------
          | TOTAL ENERGY             -100.273549989945 Eh   |
          | GRADIENT NORM               0.039183098323 Eh/α |
          | HOMO-LUMO GAP               2.171429786709 eV   |
           -------------------------------------------------

------------------------------------------------------------------------
 * finished run on 2026/09/01 at 20:32:12.287     
------------------------------------------------------------------------
 total:
 * wall-time:     0 d,  0 h,  0 min,  0.160 sec
 *  cpu-time:     0 d,  0 h,  0 min,  1.172 sec
 * ratio c/w:     7.324 speedup
 SCF:
 * wall-time:     0 d,  0 h,  0 min,  0.127 sec
 *  cpu-time:     0 d,  0 h,  0 min,  0.969 sec
 * ratio c/w:     7.628 speedup

