      -----------------------------------------------------------      
     |                   =====================                   |     
     |                           x T B                           |     
     |                   =====================                   |     
     |                         S. Grimme                         |     
     |          Mulliken Center for Theoretical Chemistry        |     
     |                    University of Bonn                     |     
      -----------------------------------------------------------      

   * xtb version 6.7.1pre (5071a88) compiled by 'Marcel@Raven' on 2024-07-23

   xtb is free software: you can redistribute it and/or modify it under
   the terms of the GNU Lesser General Public License as published by
   the Free Software Foundation, either version 3 of the License, or
   (at your option) any later version.
   
   xtb is distributed in the hope that it will be useful,
   but WITHOUT ANY WARRANTY; without even the implied warranty of
   MERCHANTABILITY or FITNESS FOR A PARTICULAR PURPOSE.  See the
   GNU Lesser General Public License for more details.
   
   Cite this work as:
   * C. Bannwarth, E. Caldeweyher, S. Ehlert, A. Hansen, P. Pracht,
     J. Seibert, S. Spicher, S. Grimme, WIREs Comput. Mol. Sci., 2020, 11,
     e01493. DOI: 10.1002/wcms.1493
   
   for GFN2-xTB:
   * C. Bannwarth, S. Ehlert and S. Grimme., J. Chem. Theory Comput., 2019,
     15, 1652-1671. DOI: 10.1021/acs.jctc.8b01176
   for GFN1-xTB:
   * S. Grimme, C. Bannwarth, P. Shushkov, J. Chem. Theory Comput., 2017,
     13, 1989-2009. DOI: 10.1021/acs.jctc.7b00118
   for GFN0-xTB:
   * P. Pracht, E. Caldeweyher, S. Ehlert, S. Grimme, ChemRxiv, 2019, preprint.
     DOI: 10.26434/chemrxiv.8326202.v1
   for GFN-FF:
   * S. Spicher and S. Grimme, Angew. Chem. Int. Ed., 2020, 59, 15665-15673.
     DOI: 10.1002/anie.202004239
   
   for ALPB and GBSA implicit solvation:
   * S. Ehlert, M. Stahn, S. Spicher, S. Grimme, J. Chem. Theory Comput.,
     2021, 17, 4250-4261. DOI: 10.1021/acs.jctc.1c00471
   
   for ddCOSMO and CPCM-X implicit solvation:
   * M. Stahn, S. Ehlert, S. Grimme, J. Phys. Chem. A,
     2023, XX, XXXX-XXXX. DOI: 10.1021/acs.jpca.3c04382
   
   for DFT-D4:
   * E. Caldeweyher, C. Bannwarth and S. Grimme, J. Chem. Phys., 2017,
     147, 034112. DOI: 10.1063/1.4993215
   * E. Caldeweyher, S. Ehlert, A. Hansen, H. Neugebauer, S. Spicher,
     C. Bannwarth and S. Grimme, J. Chem. Phys., 2019, 150, 154122.
     DOI: 10.1063/1.5090222
   * E. Caldeweyher, J.-M. Mewes, S. Ehlert and S. Grimme, Phys. Chem. Chem. Phys.
     2020, 22, 8499-8512. DOI: 10.1039/D0CP00502A
   
   for sTDA-xTB:
   * S. Grimme and C. Bannwarth, J. Chem. Phys., 2016, 145, 054103.
     DOI: 10.1063/1.4959605
   
   in the mass-spec context:
   * V. Asgeirsson, C. Bauer and S. Grimme, Chem. Sci., 2017, 8, 4879.
     DOI: 10.1039/c7sc00601b
   * J. Koopman and S. Grimme, ACS Omega 2019, 4, 12, 15120-15133.
     DOI: 10.1021/acsomega.9b02011
   
   for metadynamics refer to:
   * S. Grimme, J. Chem. Theory Comput., 2019, 155, 2847-2862
     DOI: 10.1021/acs.jctc.9b00143
   
   for SPH calculations refer to:
   * S. Spicher and S. Grimme, J. Chem. Theory Comput., 2021, 17, 1701-1714
     DOI: 10.1021/acs.jctc.0c01306
   
   for ONIOM refer to:
   * C. Plett, A. Katbashev, S. Ehlert, S. Grimme, M. Bursch,
     Phys. Chem. Chem. Phys., 2023, 25, 17860-17868. DOI: 10.1039/D3CP02178E
   
   for DIPRO refer to:
   * J. Kohn, N. Gildemeister, S. Grimme, D. Fazzi, A. Hansen,
     J. Chem. Phys., 2023, just accepted.
   
   for PTB refer to:
   * S. Grimme, M. Mueller, A. Hansen, J. Chem. Phys., 2023, 158, 124111.
     DOI: 10.1063/5.0137838
   
   with help from (in alphabetical order)
   P. Atkinson, C. Bannwarth, F. Bohle, G. Brandenburg, E. Caldeweyher
   M. Checinski, S. Dohm, S. Ehlert, S. Ehrlich, I. Gerasimov, C. Hölzer
   A. Katbashev, J. Kohn, J. Koopman, C. Lavigne, S. Lehtola, F. März, M. Müller,
   F. Musil, H. Neugebauer, J. Pisarek, C. Plett, P. Pracht, F. Pultar,
   J. Seibert, P. Shushkov, S. Spicher, M. Stahn, M. Steiner, T. Strunk,
   J. Stückrath, T. Rose, and J. Unsleber
   
 * started run on 2026/09/01 at 17:04:56.060     
   ID    Z sym.   atoms
    1    6 C      1, 3-7, 10-13, 15-18, 20, 22, 24, 26-28, 30-32, 34, 72-78
    2    7 N      2, 9, 14, 23, 25
    3    8 O      8, 29, 33, 79-92
    4    9 F      19
    5   17 Cl     21
    6    1 H      35-59
    7   22 Ti     60-71

           -------------------------------------------------
          |                Calculation Setup                |
           -------------------------------------------------

          program call               : "c:\Users\Andre\Proyectos doctorado\nano-qsar-ai-papers\kras-pancreatic-gC3N4-ai\tools\xtb\xtb-6.7.1\bin\xtb.exe" "c:\Users\Andre\Proyectos doctorado\nano-qsar-ai-papers\mxene-glioblastoma-qsar-ai\calculations\gbm\Afatinib\xtbopt.xyz" --gfn 2 --sp --chrg 0 --uhf 0 --norestart
          coordinate file            : c:\Users\Andre\Proyectos doctorado\nano-qsar-ai-papers\mxene-glioblastoma-qsar-ai\calculations\gbm\Afatinib\xtbopt.xyz
          omp threads                :                    16


molecular fragmentation (1/2 indicates fragments):
111111111111111111111111111111111111111111111111111111111112222222222222
22222222222222222222
# atoms in fragment 1/2:    59    33
 fragment masses (1/2) :      485.94      882.47
CMA distance (Bohr)    :  15.917
constraining FC (au)   :  0.0500

           -------------------------------------------------
          |                 G F N 2 - x T B                 |
           -------------------------------------------------

        Reference                      10.1021/acs.jctc.8b01176
      * Hamiltonian:
        H0-scaling (s, p, d)           1.850000    2.230000    2.230000
        zeta-weighting                 0.500000
      * Dispersion:
        s8                             2.700000
        a1                             0.520000
        a2                             5.000000
        s9                             5.000000
      * Repulsion:
        kExp                           1.500000    1.000000
        rExp                           1.000000
      * Coulomb:
        alpha                          2.000000
        third order                    shell-resolved
        anisotropic                    true
        a3                             3.000000
        a5                             4.000000
        cn-shift                       1.200000
        cn-exp                         4.000000
        max-rad                        5.000000


          ...................................................
          :                      SETUP                      :
          :.................................................:
          :  # basis functions                 371          :
          :  # atomic orbitals                 358          :
          :  # shells                          172          :
          :  # electrons                       338          :
          :  max. iterations                   250          :
          :  Hamiltonian                  GFN2-xTB          :
          :  restarted?                      false          :
          :  GBSA solvation                  false          :
          :  PC potential                    false          :
          :  electronic temp.          300.0000000     K    :
          :  accuracy                    1.0000000          :
          :  -> integral cutoff          0.2500000E+02      :
          :  -> integral neglect         0.1000000E-07      :
          :  -> SCF convergence          0.1000000E-05 Eh   :
          :  -> wf. convergence          0.1000000E-03 e    :
          :  Broyden damping             0.4000000          :
          :  net charge                          0          :
          :  unpaired electrons                  0          :
          ...................................................

 iter      E             dE          RMSdq      gap      omega  full diag
   1   -191.6159285 -0.191616E+03  0.124E+01    0.07       0.0  T
   2   -172.7506757  0.188653E+02  0.102E+01    0.03       1.0  T
   3    -89.1505800  0.836001E+02  0.225E+01    0.02       1.0  T
   4   -186.7626510 -0.976121E+02  0.934E+00    0.09       1.0  T
   5   -185.7132036  0.104945E+01  0.112E+01    0.10       1.0  T
   6   -193.6092418 -0.789604E+01  0.569E+00    0.16       1.0  T
   7   -194.0031240 -0.393882E+00  0.473E+00    0.61       1.0  T
   8   -193.9817456  0.213784E-01  0.412E+00    0.28       1.0  T
   9   -193.1461579  0.835588E+00  0.388E+00    0.23       1.0  T
  10   -193.2620062 -0.115848E+00  0.328E+00    0.34       1.0  T
  11   -193.1299569  0.132049E+00  0.325E+00    0.53       1.0  T
  12   -193.3128457 -0.182889E+00  0.272E+00    0.28       1.0  T
  13   -194.1284331 -0.815587E+00  0.215E+00    0.18       1.0  T
  14   -193.4027503  0.725683E+00  0.227E+00    0.21       1.0  T
  15   -194.2015500 -0.798800E+00  0.196E+00    0.66       1.0  T
  16   -194.2263912 -0.248412E-01  0.177E+00    0.63       1.0  T
  17   -194.2582489 -0.318577E-01  0.156E+00    0.41       1.0  T
  18   -194.2909481 -0.326992E-01  0.116E+00    0.24       1.0  T
  19   -194.2938885 -0.294043E-02  0.990E-01    0.09       1.0  T
  20   -194.3018550 -0.796651E-02  0.889E-01    0.39       1.0  T
  21   -194.3171633 -0.153083E-01  0.738E-01    0.21       1.0  T
  22   -194.3244608 -0.729745E-02  0.628E-01    0.15       1.0  T
  23   -194.2778966  0.465642E-01  0.106E+00    0.05       1.0  T
  24   -194.2594346  0.184619E-01  0.123E+00    0.04       1.0  T
  25   -193.8937312  0.365703E+00  0.275E+00    0.02       1.0  T
  26   -194.2301705 -0.336439E+00  0.144E+00    0.03       1.0  T
  27   -194.3180205 -0.878501E-01  0.740E-01    0.07       1.0  T
  28   -194.3406909 -0.226704E-01  0.249E-01    0.13       1.0  T
  29   -194.3361495  0.454138E-02  0.297E-01    0.17       1.0  T
  30   -194.3322818  0.386771E-02  0.383E-01    0.22       1.0  T
  31   -194.3334920 -0.121024E-02  0.371E-01    0.21       1.0  T
  32   -194.3359032 -0.241119E-02  0.328E-01    0.19       1.0  T
  33   -194.3397651 -0.386184E-02  0.226E-01    0.14       1.0  T
  34   -194.3406282 -0.863164E-03  0.207E-01    0.15       1.0  T
  35   -194.3427758 -0.214754E-02  0.116E-01    0.13       1.0  T
  36   -194.3435946 -0.818850E-03  0.713E-02    0.13       1.0  T
  37   -194.3438387 -0.244063E-03  0.530E-02    0.12       1.0  T
  38   -194.3439243 -0.855641E-04  0.473E-02    0.12       1.0  T
  39   -194.3439454 -0.211893E-04  0.579E-02    0.11       1.0  T
  40   -194.3440160 -0.705475E-04  0.447E-02    0.12       1.0  T
  41   -194.3440128  0.321454E-05  0.448E-02    0.11       1.0  T
  42   -194.3440513 -0.385147E-04  0.311E-02    0.12       1.0  T
  43   -194.3440647 -0.134393E-04  0.220E-02    0.12       1.0  T
  44   -194.3440800 -0.152367E-04  0.154E-02    0.12       1.0  T
  45   -194.3440951 -0.151263E-04  0.949E-03    0.12       1.1  T
  46   -194.3441023 -0.725336E-05  0.550E-03    0.12       1.9  T
  47   -194.3441026 -0.270525E-06  0.602E-03    0.12       1.7  T
  48   -194.3441040 -0.139620E-05  0.458E-03    0.12       2.3  T
  49   -194.3441048 -0.830671E-06  0.340E-03    0.12       3.1  T
  50   -194.3441054 -0.559535E-06  0.179E-03    0.12       5.8  T
  51   -194.3441055 -0.541268E-07  0.130E-03    0.12       8.0  T
  52   -194.3441055 -0.637078E-07  0.665E-04    0.12      15.7  T
  53   -194.3441055 -0.176131E-07  0.350E-04    0.12      29.8  T

   *** convergence criteria satisfied after 53 iterations ***

         #    Occupation            Energy/Eh            Energy/eV
      -------------------------------------------------------------
         1        2.0000           -1.0534413             -28.6656
       ...           ...                  ...                  ...
       163        2.0000           -0.3460400              -9.4162
       164        2.0000           -0.3387086              -9.2167
       165        2.0000           -0.3376774              -9.1887
       166        2.0000           -0.3238407              -8.8122
       167        2.0000           -0.3191972              -8.6858
       168        2.0000           -0.3106574              -8.4534
       169        1.7728           -0.2948325              -8.0228 (HOMO)
       170        0.1547           -0.2905260              -7.9056 (LUMO)
       171        0.0696           -0.2897235              -7.8838
       172        0.0030           -0.2866932              -7.8013
       173        0.0000           -0.2809684              -7.6455
       174        0.0000           -0.2777448              -7.5578
       ...           ...                  ...                  ...
       358                         12.8563611             349.8394
      -------------------------------------------------------------
                  HL-Gap            0.0043066 Eh            0.1172 eV
             Fermi-level           -0.2928809 Eh           -7.9697 eV

 SCC (total)                   0 d,  0 h,  0 min,  5.741 sec
 SCC setup                      ...        0 min,  0.002 sec (  0.035%)
 Dispersion                     ...        0 min,  0.010 sec (  0.174%)
 classical contributions        ...        0 min,  0.005 sec (  0.087%)
 integral evaluation            ...        0 min,  0.016 sec (  0.279%)
 iterations                     ...        0 min,  5.546 sec ( 96.603%)
 molecular gradient             ...        0 min,  0.150 sec (  2.613%)
 printout                       ...        0 min,  0.012 sec (  0.209%)

         :::::::::::::::::::::::::::::::::::::::::::::::::::::
         ::                     SUMMARY                     ::
         :::::::::::::::::::::::::::::::::::::::::::::::::::::
         :: total energy            -192.400093540216 Eh    ::
         :: gradient norm              0.016285072482 Eh/a0 ::
         :: HOMO-LUMO gap              0.117187290271 eV    ::
         ::.................................................::
         :: SCC energy              -194.341558349915 Eh    ::
         :: -> isotropic ES            1.025250975931 Eh    ::
         :: -> anisotropic ES         -0.426638472398 Eh    ::
         :: -> anisotropic XC         -0.028006514706 Eh    ::
         :: -> dispersion             -0.160929680882 Eh    ::
         :: repulsion energy           1.941464809699 Eh    ::
         :: add. restraining           0.000000000000 Eh    ::
         :: total charge              -0.000000000000 e     ::
         :::::::::::::::::::::::::::::::::::::::::::::::::::::

           -------------------------------------------------
          |                Property Printout                |
           -------------------------------------------------

    * Orbital Energies and Occupations

         #    Occupation            Energy/Eh            Energy/eV
      -------------------------------------------------------------
         1        2.0000           -1.0534413             -28.6656
       ...           ...                  ...                  ...
       157        2.0000           -0.3703850             -10.0787
       158        2.0000           -0.3668961              -9.9838
       159        2.0000           -0.3646625              -9.9230
       160        2.0000           -0.3604962              -9.8096
       161        2.0000           -0.3541397              -9.6366
       162        2.0000           -0.3521651              -9.5829
       163        2.0000           -0.3460400              -9.4162
       164        2.0000           -0.3387086              -9.2167
       165        2.0000           -0.3376774              -9.1887
       166        2.0000           -0.3238407              -8.8122
       167        2.0000           -0.3191972              -8.6858
       168        2.0000           -0.3106574              -8.4534
       169        1.7728           -0.2948325              -8.0228 (HOMO)
       170        0.1547           -0.2905260              -7.9056 (LUMO)
       171        0.0696           -0.2897235              -7.8838
       172        0.0030           -0.2866932              -7.8013
       173        0.0000           -0.2809684              -7.6455
       174        0.0000           -0.2777448              -7.5578
       175                         -0.2742743              -7.4634
       176                         -0.2731320              -7.4323
       177                         -0.2722262              -7.4077
       178                         -0.2603283              -7.0839
       179                         -0.2597865              -7.0691
       180                         -0.2587105              -7.0399
       ...                                ...                  ...
       358                         12.8563611             349.8394
      -------------------------------------------------------------
                  HL-Gap            0.0043066 Eh            0.1172 eV
             Fermi-level           -0.2928809 Eh           -7.9697 eV

     #   Z          covCN         q      C6AA      α(0)
     1   6 C        3.712    -0.042    21.462     6.620
     2   7 N        2.724    -0.166    24.585     7.364
     3   6 C        3.713    -0.041    21.442     6.617
     4   6 C        3.761    -0.003    20.676     6.482
     5   6 C        2.892    -0.021    28.526     8.757
     6   6 C        2.902    -0.087    30.188     9.009
     7   6 C        2.755     0.255    22.705     7.803
     8   8 O        0.866    -0.404    21.757     6.254
     9   7 N        2.703    -0.144    24.111     7.293
    10   6 C        2.902     0.057    26.731     8.477
    11   6 C        2.914    -0.069    29.716     8.939
    12   6 C        2.979    -0.040    28.995     8.833
    13   6 C        2.892     0.162    24.498     8.115
    14   7 N        2.704    -0.128    23.778     7.242
    15   6 C        2.904     0.073    26.366     8.419
    16   6 C        2.926    -0.069    29.732     8.942
    17   6 C        2.917    -0.054    29.348     8.884
    18   6 C        2.814     0.152    24.688     8.141
    19   9 F        0.786    -0.208    11.316     3.974
    20   6 C        2.883     0.080    26.215     8.394
    21  17 Cl       0.965    -0.130   103.203    15.542
    22   6 C        2.959    -0.069    29.712     8.941
    23   7 N        1.839    -0.282    28.154     7.863
    24   6 C        2.902     0.145    24.847     8.173
    25   7 N        1.838    -0.265    27.732     7.804
    26   6 C        2.996     0.096    25.869     8.343
    27   6 C        2.918    -0.083    30.089     8.995
    28   6 C        2.862     0.129    25.173     8.224
    29   8 O        1.705    -0.282    18.689     5.837
    30   6 C        3.764     0.109    18.830     6.185
    31   6 C        3.816    -0.079    21.995     6.675
    32   6 C        3.747     0.073    19.430     6.287
    33   8 O        1.701    -0.312    19.201     5.916
    34   6 C        3.737     0.068    19.520     6.305
    35   1 H        0.925     0.047     2.363     2.404
    36   1 H        0.923     0.018     2.771     2.603
    37   1 H        0.925     0.044     2.394     2.420
    38   1 H        0.923     0.017     2.779     2.607
    39   1 H        0.924     0.044     2.402     2.424
    40   1 H        0.925     0.042     2.424     2.435
    41   1 H        0.924     0.065     2.144     2.290
    42   1 H        0.922     0.044     2.403     2.424
    43   1 H        0.925     0.071     2.074     2.252
    44   1 H        0.925     0.074     2.042     2.234
    45   1 H        0.860     0.208     1.069     1.619
    46   1 H        0.925     0.074     2.037     2.232
    47   1 H        0.860     0.194     1.137     1.671
    48   1 H        0.925     0.059     2.206     2.323
    49   1 H        0.926     0.078     1.997     2.210
    50   1 H        0.926     0.115     1.656     2.012
    51   1 H        0.925     0.046     2.367     2.406
    52   1 H        0.926     0.066     2.127     2.281
    53   1 H        0.924     0.035     2.523     2.484
    54   1 H        0.924     0.062     2.175     2.306
    55   1 H        0.925     0.051     2.311     2.377
    56   1 H        0.924     0.060     2.195     2.317
    57   1 H        0.923     0.033     2.548     2.496
    58   1 H        0.924     0.043     2.416     2.431
    59   1 H        0.924     0.059     2.214     2.327
    60  22 Ti       3.500     0.999   103.050    24.760
    61  22 Ti       6.683     1.546    84.107    14.890
    62  22 Ti       3.236     1.051   102.601    24.734
    63  22 Ti       5.858     1.365    85.816    15.040
    64  22 Ti       5.632     1.116    88.261    15.253
    65  22 Ti       3.453     1.031   102.746    24.736
    66  22 Ti       2.020     0.995   202.585    34.849
    67  22 Ti       6.739     1.570    83.877    14.869
    68  22 Ti       3.363     1.017   102.973    24.774
    69  22 Ti       5.746     1.127    88.151    15.243
    70  22 Ti       5.635     1.185    87.574    15.193
    71  22 Ti       3.590     1.021   102.478    24.634
    72   6 C        2.327    -0.273    37.174     9.908
    73   6 C        2.087    -0.260    38.710    10.052
    74   6 C        2.219    -0.034    31.230     9.047
    75   6 C        1.834    -0.221    37.700     9.919
    76   6 C        1.914    -0.231    37.960     9.950
    77   6 C        1.819    -0.362    42.768    10.567
    78   6 C        2.627    -0.402    39.871    10.328
    79   8 O        1.505    -0.846    32.037     7.633
    80   8 O        1.460    -0.875    33.038     7.747
    81   8 O        1.529    -0.930    34.756     7.952
    82   8 O        1.500    -1.017    37.899     8.302
    83   8 O        1.484    -0.915    34.319     7.898
    84   8 O        1.469    -0.828    31.540     7.570
    85   8 O        1.453    -0.801    30.760     7.475
    86   8 O        1.501    -0.876    32.982     7.744
    87   8 O        1.497    -0.877    33.031     7.750
    88   8 O        1.453    -0.810    31.018     7.506
    89   8 O        1.551    -0.941    35.083     7.991
    90   8 O        1.518    -0.989    36.839     8.186
    91   8 O        1.502    -0.813    31.034     7.512
    92   8 O        1.453    -0.788    30.376     7.428

 Mol. C6AA /au·bohr⁶  :     199374.490112
 Mol. C8AA /au·bohr⁸  :    8295193.494217
 Mol. α(0) /au        :        750.674318


Wiberg/Mayer (AO) data.
largest (>0.10) Wiberg bond orders for each atom

 ---------------------------------------------------------------------------
     #   Z sym  total        # sym  WBO       # sym  WBO       # sym  WBO
 ---------------------------------------------------------------------------
     1   6 C    3.985 --     2 N    1.016    37 H    0.982    35 H    0.982
                            36 H    0.975
     2   7 N    3.127 --     3 C    1.017     1 C    1.016     4 C    1.006
     3   6 C    3.986 --     2 N    1.017    40 H    0.983    39 H    0.982
                            38 H    0.973
     4   6 C    3.988 --     5 C    1.032     2 N    1.006    41 H    0.946
                            42 H    0.942
     5   6 C    3.958 --     6 C    1.809     4 C    1.032    43 H    0.945
     6   6 C    3.979 --     5 C    1.809     7 C    1.062    44 H    0.955
     7   6 C    3.922 --     8 O    1.551     9 N    1.167     6 C    1.062
     8   8 O    2.132 --     7 C    1.551    65 Ti   0.247     9 N    0.138
     9   7 N    3.498 --     7 C    1.167    10 C    1.108    45 H    0.916
                             8 O    0.138
    10   6 C    3.954 --    11 C    1.459    28 C    1.194     9 N    1.108
    11   6 C    3.974 --    10 C    1.459    12 C    1.305    46 H    0.936
    12   6 C    3.982 --    11 C    1.305    26 C    1.250    13 C    1.179
    13   6 C    3.957 --    23 N    1.405    14 N    1.187    12 C    1.179
    14   7 N    3.509 --    13 C    1.187    15 C    1.114    47 H    0.917
    15   6 C    3.967 --    22 C    1.355    16 C    1.341    14 N    1.114
    16   6 C    3.975 --    17 C    1.454    15 C    1.341    48 H    0.955
    17   6 C    3.986 --    16 C    1.454    18 C    1.385    49 H    0.962
    18   6 C    3.880 --    17 C    1.385    20 C    1.347    19 F    0.968
    19   9 F    1.098 --    18 C    0.968
    20   6 C    3.930 --    22 C    1.416    18 C    1.347    21 Cl   0.999
    21  17 Cl   1.145 --    20 C    0.999
    22   6 C    3.970 --    20 C    1.416    15 C    1.355    50 H    0.944
    23   7 N    3.054 --    13 C    1.405    24 C    1.335
    24   6 C    3.953 --    25 N    1.523    23 N    1.335    51 H    0.956
    25   7 N    3.045 --    24 C    1.523    26 C    1.268
    26   6 C    3.970 --    25 N    1.268    27 C    1.267    12 C    1.250
    27   6 C    3.978 --    28 C    1.494    26 C    1.267    52 H    0.958
    28   6 C    3.928 --    27 C    1.494    10 C    1.194    29 O    1.054
    29   8 O    2.226 --    28 C    1.054    30 C    0.957
    30   6 C    3.940 --    31 C    0.983    34 C    0.978    53 H    0.961
                            29 O    0.957
    31   6 C    3.992 --    32 C    1.002    30 C    0.983    55 H    0.976
                            54 H    0.975
    32   6 C    3.954 --    31 C    1.002    33 O    0.979    56 H    0.971
                            57 H    0.970
    33   8 O    2.063 --    34 C    0.991    32 C    0.979
    34   6 C    3.958 --    33 O    0.991    30 C    0.978    58 H    0.971
                            59 H    0.968
    35   1 H    0.997 --     1 C    0.982
    36   1 H    1.000 --     1 C    0.975
    37   1 H    0.998 --     1 C    0.982
    38   1 H    1.000 --     3 C    0.973
    39   1 H    0.998 --     3 C    0.982
    40   1 H    0.998 --     3 C    0.983
    41   1 H    0.992 --     4 C    0.946
    42   1 H    0.994 --     4 C    0.942
    43   1 H    0.995 --     5 C    0.945
    44   1 H    0.993 --     6 C    0.955
    45   1 H    0.955 --     9 N    0.916
    46   1 H    0.994 --    11 C    0.936
    47   1 H    0.962 --    14 N    0.917
    48   1 H    0.996 --    16 C    0.955
    49   1 H    0.992 --    17 C    0.962
    50   1 H    0.987 --    22 C    0.944
    51   1 H    0.997 --    24 C    0.956
    52   1 H    0.994 --    27 C    0.958
    53   1 H    0.998 --    30 C    0.961
    54   1 H    0.996 --    31 C    0.975
    55   1 H    0.997 --    31 C    0.976
    56   1 H    0.996 --    32 C    0.971
    57   1 H    0.999 --    32 C    0.970
    58   1 H    0.998 --    34 C    0.971
    59   1 H    0.996 --    34 C    0.968
    60  22 Ti   2.869 --    80 O    0.869    79 O    0.792    66 Ti   0.363
                            61 Ti   0.199    63 Ti   0.191    65 Ti   0.142
                            84 O    0.112
    61  22 Ti   3.860 --    81 O    0.778    83 O    0.730    80 O    0.707
                            82 O    0.620    62 Ti   0.201    60 Ti   0.199
                            64 Ti   0.134    65 Ti   0.103
    62  22 Ti   2.663 --    88 O    0.910    81 O    0.614    68 Ti   0.292
                            61 Ti   0.201    66 Ti   0.180
    63  22 Ti   3.932 --    84 O    0.913    79 O    0.731    72 C    0.701
                            82 O    0.547    65 Ti   0.202    69 Ti   0.193
                            60 Ti   0.191    89 O    0.114
    64  22 Ti   4.093 --    78 C    0.845    85 O    0.829    76 C    0.725
                            83 O    0.639    70 Ti   0.271    65 Ti   0.211
                            77 C    0.149    73 C    0.135    61 Ti   0.134
    65  22 Ti   2.996 --    85 O    0.905    84 O    0.686     8 O    0.247
                            64 Ti   0.211    63 Ti   0.202    60 Ti   0.142
                            80 O    0.111    61 Ti   0.103
    66  22 Ti   2.379 --    86 O    0.899    60 Ti   0.363    67 Ti   0.199
                            79 O    0.190    62 Ti   0.180    81 O    0.151
                            89 O    0.113
    67  22 Ti   3.814 --    87 O    0.768    89 O    0.677    90 O    0.662
                            86 O    0.642    66 Ti   0.199    68 Ti   0.196
                            69 Ti   0.130    71 Ti   0.122
    68  22 Ti   2.696 --    88 O    0.847    87 O    0.783    62 Ti   0.292
                            67 Ti   0.196    71 Ti   0.148    70 Ti   0.147
    69  22 Ti   4.068 --    77 C    0.916    91 O    0.780    75 C    0.719
                            89 O    0.582    71 Ti   0.197    63 Ti   0.193
                            72 C    0.166    78 C    0.150    67 Ti   0.130
    70  22 Ti   4.090 --    92 O    0.965    73 C    0.685    78 C    0.635
                            90 O    0.516    64 Ti   0.271    71 Ti   0.215
                            68 Ti   0.147    77 C    0.128
    71  22 Ti   2.702 --    91 O    0.873    92 O    0.740    70 Ti   0.215
                            69 Ti   0.197    68 Ti   0.148    87 O    0.139
                            67 Ti   0.122
    72   6 C    3.832 --    75 C    2.732    63 Ti   0.701    69 Ti   0.166
    73   6 C    3.787 --    76 C    2.739    70 Ti   0.685    64 Ti   0.135
    74   6 C    3.974 --    77 C    2.031    78 C    1.583
    75   6 C    3.673 --    72 C    2.732    69 Ti   0.719
    76   6 C    3.739 --    73 C    2.739    64 Ti   0.725
    77   6 C    3.631 --    74 C    2.031    69 Ti   0.916    64 Ti   0.149
                            70 Ti   0.128
    78   6 C    3.648 --    74 C    1.583    64 Ti   0.845    70 Ti   0.635
                            69 Ti   0.150
    79   8 O    1.933 --    60 Ti   0.792    63 Ti   0.731    66 Ti   0.190
    80   8 O    1.898 --    60 Ti   0.869    61 Ti   0.707    65 Ti   0.111
    81   8 O    1.818 --    61 Ti   0.778    62 Ti   0.614    66 Ti   0.151
    82   8 O    1.698 --    61 Ti   0.620    63 Ti   0.547
    83   8 O    1.840 --    61 Ti   0.730    64 Ti   0.639
    84   8 O    1.964 --    63 Ti   0.913    65 Ti   0.686    60 Ti   0.112
    85   8 O    2.003 --    65 Ti   0.905    64 Ti   0.829
    86   8 O    1.892 --    66 Ti   0.899    67 Ti   0.642
    87   8 O    1.900 --    68 Ti   0.783    67 Ti   0.768    71 Ti   0.139
    88   8 O    1.996 --    62 Ti   0.910    68 Ti   0.847
    89   8 O    1.812 --    67 Ti   0.677    69 Ti   0.582    63 Ti   0.114
                            66 Ti   0.113
    90   8 O    1.747 --    67 Ti   0.662    70 Ti   0.516
    91   8 O    1.990 --    71 Ti   0.873    69 Ti   0.780
    92   8 O    2.023 --    70 Ti   0.965    71 Ti   0.740
 ---------------------------------------------------------------------------

Topologies differ in total number of bonds
Writing topology from bond orders to xtbtopo.mol

molecular dipole:
                 x           y           z       tot (Debye)
 q only:       -0.596      -0.501       0.835
   full:       -1.754       0.155       1.535       5.938
molecular quadrupole (traceless):
                xx          xy          yy          xz          yz          zz
 q only:      -38.723      -2.606     -16.929     -27.253      68.844      55.652
  q+dip:      -28.617     -20.534     -37.719      -1.075      71.361      66.336
   full:      -27.339     -18.910     -37.312      -6.786      72.769      64.652


           -------------------------------------------------
          | TOTAL ENERGY             -192.400093540216 Eh   |
          | GRADIENT NORM               0.016285072482 Eh/α |
          | HOMO-LUMO GAP               0.117187290271 eV   |
           -------------------------------------------------

------------------------------------------------------------------------
 * finished run on 2026/09/01 at 17:05:01.884     
------------------------------------------------------------------------
 total:
 * wall-time:     0 d,  0 h,  0 min,  5.822 sec
 *  cpu-time:     0 d,  0 h,  0 min, 37.766 sec
 * ratio c/w:     6.487 speedup
 SCF:
 * wall-time:     0 d,  0 h,  0 min,  5.742 sec
 *  cpu-time:     0 d,  0 h,  0 min, 37.391 sec
 * ratio c/w:     6.512 speedup

