92
Drug@Ti12C7O14 non-overlapping complex
C      6.381038      1.179936     11.191465
N      6.257250      0.462581     12.449499
C      6.164989      1.334279     13.609767
C      5.314924     -0.647047     12.438719
C      3.833683     -0.429653     12.265686
C      3.150699      0.718107     12.124823
C      1.668859      0.794079     12.001892
O      1.080996      1.716455     12.553197
N      1.123004     -0.190047     11.215138
C     -0.236836     -0.399424     10.896928
C     -1.268070      0.430618     11.332871
C     -2.618922      0.158061     10.998083
C     -3.728478      0.931675     11.400086
N     -3.511054      2.073956     12.216528
C     -4.405995      3.114497     12.548989
C     -4.159239      3.873450     13.706950
C     -4.980621      4.949519     14.053785
C     -6.045133      5.292757     13.230226
F     -6.821439      6.329624     13.578179
C     -6.287373      4.579640     12.060823
Cl     -7.589031      5.018929     11.021254
C     -5.464060      3.504446     11.716081
N     -4.981646      0.620028     11.023872
C     -5.133734     -0.465468     10.262189
N     -4.157027     -1.272205      9.834985
C     -2.913807     -0.954563     10.200560
C     -1.876387     -1.769663      9.762833
C     -0.544913     -1.514131     10.099080
O      0.534010     -2.271744      9.711382
C      0.306733     -3.459425      8.962837
C      1.623344     -3.960889      8.404311
C      1.323067     -5.420132      8.153008
O      0.397458     -5.829496      9.169154
C     -0.106873     -4.651028      9.816648
H      7.260603      1.833458     11.212583
H      6.534455      0.484246     10.358947
H      5.512149      1.802171     10.961429
H      6.169584      0.750971     14.537318
H      5.272402      1.965083     13.607404
H      7.038066      1.995060     13.657819
H      5.448642     -1.215525     13.369089
H      5.626829     -1.343833     11.648798
H      3.276873     -1.365716     12.293113
H      3.624554      1.690171     12.164460
H      1.750823     -0.856328     10.777880
H     -1.043613      1.312239     11.923721
H     -2.913483      1.822552     12.998178
H     -3.320131      3.630322     14.355434
H     -4.791557      5.523835     14.955206
H     -5.650766      2.978521     10.784314
H     -6.145609     -0.716483      9.962607
H     -2.154966     -2.615350      9.142452
H     -0.374830     -3.295827      8.118404
H      1.943712     -3.426908      7.504963
H      2.421669     -3.851847      9.149295
H      2.217902     -6.047227      8.194887
H      0.839132     -5.565022      7.181230
H      0.320589     -4.599777     10.824425
H     -1.192443     -4.736506      9.918158
Ti     -2.141866     -3.008818      2.119748
Ti      0.288991     -1.694759      1.432425
Ti      1.903098     -3.067749     -0.729322
Ti     -2.521502     -0.251928      1.303687
Ti      2.142050      0.499533      2.204434
Ti     -0.681448      0.189635      3.681230
Ti     -2.036770     -3.077740     -1.200512
Ti     -0.605340     -0.770900     -2.035132
Ti      1.945488     -1.587317     -3.412400
Ti     -1.878170      1.746573     -1.240030
Ti      2.412512      0.454231     -0.774247
Ti      0.817742      1.838452     -2.940004
C     -3.678414      1.281398      0.600737
C      4.128193      0.482847      0.387293
C      0.455479      2.267202      0.349695
C     -3.666709      2.118834     -0.313920
C      4.115962      0.632239      1.621354
C     -0.635167      2.741046     -0.118921
C      1.630072      1.780996      0.734224
O     -3.093456     -1.956907      1.037949
O     -0.487250     -2.605849      2.701203
O      0.314079     -2.888890      0.145001
O     -0.800785     -0.435934      0.971227
O      1.902865     -1.158331      1.469449
O     -2.322673     -0.113878      3.024800
O      1.013786      0.441598      3.568761
O     -1.772019     -4.587905     -1.652810
O      0.190605     -1.189189     -3.534030
O      2.831420     -2.170248     -1.918042
O     -2.054558     -0.224445     -1.337505
O      0.768511     -0.390574     -1.063664
O     -0.900039      1.649313     -2.818565
O      2.415313      1.357463     -2.264115
