62
Drug@Ti3C2O2 complex
C      3.821204      1.251915      3.243350
C      2.805054      0.425211      3.966258
N      1.616777      0.225955      3.366704
C      0.732439     -0.544396      4.028600
C      0.982123     -1.126157      5.254747
C     -0.024461     -1.982305      5.959163
N     -0.498880     -1.406697      7.216736
C     -1.354564     -0.302999      7.309725
O     -1.591209      0.343757      8.327163
N     -1.932879      0.072652      6.103923
C     -2.790502      1.251244      6.059892
C     -3.065241      1.710182      4.632578
Cl     -3.831569      0.406055      3.682252
N      0.137040     -2.002573      8.445167
O     -0.298147     -1.571276      9.514764
C      2.233182     -0.862815      5.773052
N      3.157395     -0.104583      5.151484
H      4.475419      1.766111      3.953994
H      4.431578      0.608487      2.603181
H      3.331259      2.006873      2.620931
H     -0.215680     -0.677598      3.513965
H      0.417566     -2.968438      6.153448
H     -0.887196     -2.172910      5.310893
H     -2.299535     -0.697577      5.561955
H     -2.306261      2.060648      6.617797
H     -3.723811      1.001909      6.578086
H     -2.135571      1.979006      4.121997
H     -3.736652      2.573280      4.623575
H      2.551123     -1.262961      6.732847
Ti     -3.000000     -2.600000      1.250000
Ti      0.000000     -2.600000      1.250000
Ti      3.000000     -2.600000      1.250000
Ti     -1.500000      0.000000      1.250000
Ti      1.500000      0.000000      1.250000
Ti      0.000000      2.600000      1.250000
Ti     -3.000000     -2.600000     -1.250000
Ti      0.000000     -2.600000     -1.250000
Ti      3.000000     -2.600000     -1.250000
Ti     -1.500000      0.000000     -1.250000
Ti      1.500000      0.000000     -1.250000
Ti      0.000000      2.600000     -1.250000
C     -1.500000     -1.300000      0.000000
C      1.500000     -1.300000      0.000000
C      0.000000      1.300000      0.000000
C     -3.000000      0.000000      0.000000
C      3.000000      0.000000      0.000000
C     -1.500000      2.600000      0.000000
C      1.500000      2.600000      0.000000
O     -3.000000     -2.600000      2.450000
O      0.000000     -2.600000      2.450000
O      3.000000     -2.600000      2.450000
O     -1.500000      0.000000      2.450000
O      1.500000      0.000000      2.450000
O     -1.500000      2.600000      2.450000
O      1.500000      2.600000      2.450000
O     -3.000000     -2.600000     -2.450000
O      0.000000     -2.600000     -2.450000
O      3.000000     -2.600000     -2.450000
O     -1.500000      0.000000     -2.450000
O      1.500000      0.000000     -2.450000
O     -1.500000      2.600000     -2.450000
O      1.500000      2.600000     -2.450000
