      -----------------------------------------------------------      
     |                   =====================                   |     
     |                           x T B                           |     
     |                   =====================                   |     
     |                         S. Grimme                         |     
     |          Mulliken Center for Theoretical Chemistry        |     
     |                    University of Bonn                     |     
      -----------------------------------------------------------      

   * xtb version 6.7.1pre (5071a88) compiled by 'Marcel@Raven' on 2024-07-23

   xtb is free software: you can redistribute it and/or modify it under
   the terms of the GNU Lesser General Public License as published by
   the Free Software Foundation, either version 3 of the License, or
   (at your option) any later version.
   
   xtb is distributed in the hope that it will be useful,
   but WITHOUT ANY WARRANTY; without even the implied warranty of
   MERCHANTABILITY or FITNESS FOR A PARTICULAR PURPOSE.  See the
   GNU Lesser General Public License for more details.
   
   Cite this work as:
   * C. Bannwarth, E. Caldeweyher, S. Ehlert, A. Hansen, P. Pracht,
     J. Seibert, S. Spicher, S. Grimme, WIREs Comput. Mol. Sci., 2020, 11,
     e01493. DOI: 10.1002/wcms.1493
   
   for GFN2-xTB:
   * C. Bannwarth, S. Ehlert and S. Grimme., J. Chem. Theory Comput., 2019,
     15, 1652-1671. DOI: 10.1021/acs.jctc.8b01176
   for GFN1-xTB:
   * S. Grimme, C. Bannwarth, P. Shushkov, J. Chem. Theory Comput., 2017,
     13, 1989-2009. DOI: 10.1021/acs.jctc.7b00118
   for GFN0-xTB:
   * P. Pracht, E. Caldeweyher, S. Ehlert, S. Grimme, ChemRxiv, 2019, preprint.
     DOI: 10.26434/chemrxiv.8326202.v1
   for GFN-FF:
   * S. Spicher and S. Grimme, Angew. Chem. Int. Ed., 2020, 59, 15665-15673.
     DOI: 10.1002/anie.202004239
   
   for ALPB and GBSA implicit solvation:
   * S. Ehlert, M. Stahn, S. Spicher, S. Grimme, J. Chem. Theory Comput.,
     2021, 17, 4250-4261. DOI: 10.1021/acs.jctc.1c00471
   
   for ddCOSMO and CPCM-X implicit solvation:
   * M. Stahn, S. Ehlert, S. Grimme, J. Phys. Chem. A,
     2023, XX, XXXX-XXXX. DOI: 10.1021/acs.jpca.3c04382
   
   for DFT-D4:
   * E. Caldeweyher, C. Bannwarth and S. Grimme, J. Chem. Phys., 2017,
     147, 034112. DOI: 10.1063/1.4993215
   * E. Caldeweyher, S. Ehlert, A. Hansen, H. Neugebauer, S. Spicher,
     C. Bannwarth and S. Grimme, J. Chem. Phys., 2019, 150, 154122.
     DOI: 10.1063/1.5090222
   * E. Caldeweyher, J.-M. Mewes, S. Ehlert and S. Grimme, Phys. Chem. Chem. Phys.
     2020, 22, 8499-8512. DOI: 10.1039/D0CP00502A
   
   for sTDA-xTB:
   * S. Grimme and C. Bannwarth, J. Chem. Phys., 2016, 145, 054103.
     DOI: 10.1063/1.4959605
   
   in the mass-spec context:
   * V. Asgeirsson, C. Bauer and S. Grimme, Chem. Sci., 2017, 8, 4879.
     DOI: 10.1039/c7sc00601b
   * J. Koopman and S. Grimme, ACS Omega 2019, 4, 12, 15120-15133.
     DOI: 10.1021/acsomega.9b02011
   
   for metadynamics refer to:
   * S. Grimme, J. Chem. Theory Comput., 2019, 155, 2847-2862
     DOI: 10.1021/acs.jctc.9b00143
   
   for SPH calculations refer to:
   * S. Spicher and S. Grimme, J. Chem. Theory Comput., 2021, 17, 1701-1714
     DOI: 10.1021/acs.jctc.0c01306
   
   for ONIOM refer to:
   * C. Plett, A. Katbashev, S. Ehlert, S. Grimme, M. Bursch,
     Phys. Chem. Chem. Phys., 2023, 25, 17860-17868. DOI: 10.1039/D3CP02178E
   
   for DIPRO refer to:
   * J. Kohn, N. Gildemeister, S. Grimme, D. Fazzi, A. Hansen,
     J. Chem. Phys., 2023, just accepted.
   
   for PTB refer to:
   * S. Grimme, M. Mueller, A. Hansen, J. Chem. Phys., 2023, 158, 124111.
     DOI: 10.1063/5.0137838
   
   with help from (in alphabetical order)
   P. Atkinson, C. Bannwarth, F. Bohle, G. Brandenburg, E. Caldeweyher
   M. Checinski, S. Dohm, S. Ehlert, S. Ehrlich, I. Gerasimov, C. Hölzer
   A. Katbashev, J. Kohn, J. Koopman, C. Lavigne, S. Lehtola, F. März, M. Müller,
   F. Musil, H. Neugebauer, J. Pisarek, C. Plett, P. Pracht, F. Pultar,
   J. Seibert, P. Shushkov, S. Spicher, M. Stahn, M. Steiner, T. Strunk,
   J. Stückrath, T. Rose, and J. Unsleber
   
 * started run on 2026/08/31 at 21:54:49.776     
   ID    Z sym.   atoms
    1    6 C      1, 2, 4-6, 8, 10, 12, 15, 16, 47-53
    2    7 N      3, 7, 9, 11, 14, 18
    3    8 O      13, 19, 54-67
    4   17 Cl     17
    5    1 H      20-34
    6   22 Ti     35-46

           -------------------------------------------------
          |                Calculation Setup                |
           -------------------------------------------------

          program call               : "c:\Users\Andre\Proyectos doctorado\kras-pancreatic-gC3N4-ai\tools\xtb\xtb-6.7.1\bin\xtb.exe" "c:\Users\Andre\Proyectos doctorado\mxene-glioblastoma-qsar-ai\calculations\gbm\Nimustine\Nimustine_Ti12C7O14_clean_complex.xyz" --gfn 2 --sp --chrg 0 --uhf 0 --etemp 500 --acc 1.0 --iterations 500 --norestart
          coordinate file            : c:\Users\Andre\Proyectos doctorado\mxene-glioblastoma-qsar-ai\calculations\gbm\Nimustine\Nimustine_Ti12C7O14_clean_complex.xyz
          omp threads                :                    16


molecular fragmentation (1/2 indicates fragments):
1111111111111111111111111111111111222222222222222222222222222222222
# atoms in fragment 1/2:    34    33
 fragment masses (1/2) :      286.72      882.47
CMA distance (Bohr)    :  16.388
constraining FC (au)   :  0.0500

           -------------------------------------------------
          |                 G F N 2 - x T B                 |
           -------------------------------------------------

        Reference                      10.1021/acs.jctc.8b01176
      * Hamiltonian:
        H0-scaling (s, p, d)           1.850000    2.230000    2.230000
        zeta-weighting                 0.500000
      * Dispersion:
        s8                             2.700000
        a1                             0.520000
        a2                             5.000000
        s9                             5.000000
      * Repulsion:
        kExp                           1.500000    1.000000
        rExp                           1.000000
      * Coulomb:
        alpha                          2.000000
        third order                    shell-resolved
        anisotropic                    true
        a3                             3.000000
        a5                             4.000000
        cn-shift                       1.200000
        cn-exp                         4.000000
        max-rad                        5.000000


          ...................................................
          :                      SETUP                      :
          :.................................................:
          :  # basis functions                 301          :
          :  # atomic orbitals                 288          :
          :  # shells                          132          :
          :  # electrons                       264          :
          :  max. iterations                   500          :
          :  Hamiltonian                  GFN2-xTB          :
          :  restarted?                      false          :
          :  GBSA solvation                  false          :
          :  PC potential                    false          :
          :  electronic temp.          500.0000000     K    :
          :  accuracy                    1.0000000          :
          :  -> integral cutoff          0.2500000E+02      :
          :  -> integral neglect         0.1000000E-07      :
          :  -> SCF convergence          0.1000000E-05 Eh   :
          :  -> wf. convergence          0.1000000E-03 e    :
          :  Broyden damping             0.4000000          :
          :  net charge                          0          :
          :  unpaired electrons                  0          :
          ...................................................

 iter      E             dE          RMSdq      gap      omega  full diag
   1   -149.0926355 -0.149093E+03  0.152E+01    0.11       0.0  T
   2   -107.7008301  0.413918E+02  0.176E+01    0.03       1.0  T
   3     -9.8559458  0.978449E+02  0.295E+01    0.10       1.0  T
   4   -140.6371671 -0.130781E+03  0.131E+01    0.34       1.0  T
   5   -150.0354885 -0.939832E+01  0.825E+00    0.04       1.0  T
   6   -151.3239831 -0.128849E+01  0.684E+00    0.06       1.0  T
   7   -152.0159588 -0.691976E+00  0.624E+00    0.56       1.0  T
   8   -150.0269669  0.198899E+01  0.821E+00    0.01       1.0  T
   9   -152.0297617 -0.200279E+01  0.548E+00    0.15       1.0  T
  10   -150.7884529  0.124131E+01  0.523E+00    0.04       1.0  T
  11   -151.2761901 -0.487737E+00  0.478E+00    0.30       1.0  T
  12   -149.6032784  0.167291E+01  0.512E+00    0.11       1.0  T
  13   -152.1190087 -0.251573E+01  0.313E+00    0.08       1.0  T
  14   -151.0437249  0.107528E+01  0.429E+00    0.04       1.0  T
  15   -151.2855214 -0.241797E+00  0.398E+00    0.10       1.0  T
  16   -149.0285852  0.225694E+01  0.466E+00    0.08       1.0  T
  17   -150.3261784 -0.129759E+01  0.396E+00    0.18       1.0  T
  18   -152.4212320 -0.209505E+01  0.182E+00    0.29       1.0  T
  19   -152.4365980 -0.153660E-01  0.175E+00    0.50       1.0  T
  20   -152.4450592 -0.846121E-02  0.159E+00    0.58       1.0  T
  21   -152.4663542 -0.212949E-01  0.126E+00    0.65       1.0  T
  22   -152.4885663 -0.222122E-01  0.989E-01    0.68       1.0  T
  23   -152.4968400 -0.827368E-02  0.852E-01    0.56       1.0  T
  24   -152.5048244 -0.798434E-02  0.690E-01    0.39       1.0  T
  25   -152.5163571 -0.115327E-01  0.494E-01    0.18       1.0  T
  26   -152.5140959  0.226118E-02  0.477E-01    0.32       1.0  T
  27   -152.5170254 -0.292945E-02  0.397E-01    0.29       1.0  T
  28   -152.5181924 -0.116705E-02  0.358E-01    0.29       1.0  T
  29   -152.5196306 -0.143819E-02  0.304E-01    0.28       1.0  T
  30   -152.5213684 -0.173780E-02  0.234E-01    0.25       1.0  T
  31   -152.5225393 -0.117092E-02  0.193E-01    0.22       1.0  T
  32   -152.5217868  0.752489E-03  0.199E-01    0.27       1.0  T
  33   -152.5230907 -0.130387E-02  0.156E-01    0.23       1.0  T
  34   -152.5229709  0.119771E-03  0.151E-01    0.25       1.0  T
  35   -152.5232446 -0.273701E-03  0.134E-01    0.25       1.0  T
  36   -152.5234061 -0.161502E-03  0.116E-01    0.25       1.0  T
  37   -152.5238264 -0.420281E-03  0.925E-02    0.23       1.0  T
  38   -152.5239704 -0.143923E-03  0.687E-02    0.23       1.0  T
  39   -152.5240231 -0.527159E-04  0.553E-02    0.23       1.0  T
  40   -152.5240724 -0.493540E-04  0.402E-02    0.23       1.0  T
  41   -152.5240957 -0.232887E-04  0.333E-02    0.23       1.0  T
  42   -152.5241093 -0.136091E-04  0.267E-02    0.23       1.0  T
  43   -152.5241269 -0.175931E-04  0.202E-02    0.23       1.0  T
  44   -152.5241338 -0.685448E-05  0.140E-02    0.23       1.0  T
  45   -152.5241377 -0.396976E-05  0.933E-03    0.23       1.3  T
  46   -152.5241394 -0.171154E-05  0.629E-03    0.22       1.9  T
  47   -152.5241376  0.182401E-05  0.650E-03    0.22       1.9  T
  48   -152.5241402 -0.253416E-05  0.355E-03    0.23       3.4  T
  49   -152.5241405 -0.306164E-06  0.210E-03    0.22       5.8  T
  50   -152.5241406 -0.127650E-06  0.139E-03    0.23       8.8  T
  51   -152.5241406  0.240985E-08  0.883E-04    0.23      13.8  T
  52   -152.5241406  0.769236E-08  0.842E-04    0.23      14.5  T

   *** convergence criteria satisfied after 52 iterations ***

         #    Occupation            Energy/Eh            Energy/eV
      -------------------------------------------------------------
         1        2.0000           -1.0382141             -28.2512
       ...           ...                  ...                  ...
       126        2.0000           -0.3703227             -10.0770
       127        2.0000           -0.3612361              -9.8297
       128        2.0000           -0.3605210              -9.8103
       129        2.0000           -0.3560778              -9.6894
       130        2.0000           -0.3481616              -9.4740
       131        2.0000           -0.3366551              -9.1609
       132        1.8634           -0.3230322              -8.7902 (HOMO)
       133        0.1366           -0.3147568              -8.5650 (LUMO)
       134        0.0000           -0.2966419              -8.0720
       135        0.0000           -0.2946234              -8.0171
       136        0.0000           -0.2944264              -8.0117
       137        0.0000           -0.2937599              -7.9936
       ...           ...                  ...                  ...
       288                         13.3538800             363.3776
      -------------------------------------------------------------
                  HL-Gap            0.0082754 Eh            0.2252 eV
             Fermi-level           -0.3188944 Eh           -8.6776 eV

 SCC (total)                   0 d,  0 h,  0 min,  1.801 sec
 SCC setup                      ...        0 min,  0.000 sec (  0.000%)
 Dispersion                     ...        0 min,  0.001 sec (  0.056%)
 classical contributions        ...        0 min,  0.001 sec (  0.056%)
 integral evaluation            ...        0 min,  0.008 sec (  0.444%)
 iterations                     ...        0 min,  1.770 sec ( 98.279%)
 molecular gradient             ...        0 min,  0.020 sec (  1.111%)
 printout                       ...        0 min,  0.001 sec (  0.056%)

         :::::::::::::::::::::::::::::::::::::::::::::::::::::
         ::                     SUMMARY                     ::
         :::::::::::::::::::::::::::::::::::::::::::::::::::::
         :: total energy            -151.249330576840 Eh    ::
         :: gradient norm              0.117759043774 Eh/a0 ::
         :: HOMO-LUMO gap              0.225185893504 eV    ::
         ::.................................................::
         :: SCC energy              -152.521546722507 Eh    ::
         :: -> isotropic ES            0.989786505712 Eh    ::
         :: -> anisotropic ES         -0.376195738459 Eh    ::
         :: -> anisotropic XC         -0.025742899758 Eh    ::
         :: -> dispersion             -0.123155841732 Eh    ::
         :: repulsion energy           1.272216145667 Eh    ::
         :: add. restraining           0.000000000000 Eh    ::
         :: total charge               0.000000000000 e     ::
         :::::::::::::::::::::::::::::::::::::::::::::::::::::

           -------------------------------------------------
          |                Property Printout                |
           -------------------------------------------------

    * Orbital Energies and Occupations

         #    Occupation            Energy/Eh            Energy/eV
      -------------------------------------------------------------
         1        2.0000           -1.0382141             -28.2512
       ...           ...                  ...                  ...
       120        2.0000           -0.3884068             -10.5691
       121        2.0000           -0.3881141             -10.5611
       122        2.0000           -0.3878058             -10.5527
       123        2.0000           -0.3806239             -10.3573
       124        2.0000           -0.3761219             -10.2348
       125        2.0000           -0.3724695             -10.1354
       126        2.0000           -0.3703227             -10.0770
       127        2.0000           -0.3612361              -9.8297
       128        2.0000           -0.3605210              -9.8103
       129        2.0000           -0.3560778              -9.6894
       130        2.0000           -0.3481616              -9.4740
       131        2.0000           -0.3366551              -9.1609
       132        1.8634           -0.3230322              -8.7902 (HOMO)
       133        0.1366           -0.3147568              -8.5650 (LUMO)
       134        0.0000           -0.2966419              -8.0720
       135        0.0000           -0.2946234              -8.0171
       136        0.0000           -0.2944264              -8.0117
       137        0.0000           -0.2937599              -7.9936
       138                         -0.2920441              -7.9469
       139                         -0.2855507              -7.7702
       140                         -0.2845348              -7.7426
       141                         -0.2828008              -7.6954
       142                         -0.2818102              -7.6684
       143                         -0.2816362              -7.6637
       ...                                ...                  ...
       288                         13.3538800             363.3776
      -------------------------------------------------------------
                  HL-Gap            0.0082754 Eh            0.2252 eV
             Fermi-level           -0.3188944 Eh           -8.6776 eV

     #   Z          covCN         q      C6AA      α(0)
     1   6 C        3.757    -0.132    23.089     6.851
     2   6 C        2.909     0.185    24.056     8.043
     3   7 N        1.832    -0.248    27.318     7.745
     4   6 C        2.920     0.060    26.651     8.466
     5   6 C        2.953    -0.021    28.540     8.762
     6   6 C        3.737     0.011    20.476     6.457
     7   7 N        2.629    -0.341    28.773     7.967
     8   6 C        2.953     0.101    25.758     8.324
     9   7 N        1.835    -0.260    27.619     7.788
    10   6 C        3.744    -0.013    20.872     6.517
    11   7 N        2.688    -0.188    25.086     7.439
    12   6 C        2.690     0.311    21.709     7.625
    13   8 O        0.858    -0.458    22.867     6.411
    14   7 N        2.794    -0.088    22.943     7.114
    15   6 C        3.767     0.008    20.483     6.450
    16   6 C        3.713     0.023    20.310     6.440
    17  17 Cl       0.918    -0.189   105.067    15.681
    18   7 N        1.892     0.063    20.796     6.761
    19   8 O        0.924    -0.283    19.442     5.913
    20   1 H        0.924     0.074     2.040     2.234
    21   1 H        0.924     0.073     2.056     2.242
    22   1 H        0.924     0.079     1.991     2.206
    23   1 H        0.925     0.051     2.308     2.376
    24   1 H        0.924     0.023     2.692     2.566
    25   1 H        0.924     0.047     2.358     2.401
    26   1 H        0.860     0.145     1.436     1.877
    27   1 H        0.860     0.147     1.419     1.866
    28   1 H        0.924     0.102     1.766     2.078
    29   1 H        0.924     0.089     1.885     2.147
    30   1 H        0.860     0.213     1.044     1.600
    31   1 H        0.924     0.085     1.929     2.172
    32   1 H        0.924     0.085     1.930     2.172
    33   1 H        0.924     0.073     2.049     2.239
    34   1 H        0.924     0.074     2.039     2.233
    35  22 Ti       3.637     1.055   101.744    24.482
    36  22 Ti       6.855     1.555    84.021    14.882
    37  22 Ti       3.227     1.055   102.556    24.729
    38  22 Ti       5.860     1.383    85.645    15.025
    39  22 Ti       5.627     1.139    88.025    15.232
    40  22 Ti       3.541     1.039   102.478    24.672
    41  22 Ti       2.352     0.886   202.549    34.847
    42  22 Ti       6.011     1.351    85.947    15.052
    43  22 Ti       3.414     1.015   102.970    24.769
    44  22 Ti       5.519     1.109    88.325    15.258
    45  22 Ti       5.687     1.198    87.446    15.182
    46  22 Ti       3.581     1.033   102.391    24.632
    47   6 C        2.246    -0.256    37.571     9.931
    48   6 C        2.142    -0.253    38.247     9.997
    49   6 C        2.248    -0.017    30.562     8.957
    50   6 C        1.838    -0.207    37.222     9.856
    51   6 C        1.894    -0.219    37.580     9.901
    52   6 C        1.821    -0.339    41.893    10.458
    53   6 C        2.631    -0.397    39.682    10.304
    54   8 O        1.554    -0.848    32.019     7.634
    55   8 O        1.464    -0.881    33.216     7.768
    56   8 O        1.557    -0.956    35.600     8.050
    57   8 O        1.523    -1.010    37.589     8.270
    58   8 O        1.523    -0.914    34.207     7.889
    59   8 O        1.458    -0.823    31.407     7.553
    60   8 O        1.455    -0.797    30.626     7.459
    61   8 O        0.727    -0.631    26.977     6.960
    62   8 O        1.453    -0.863    32.665     7.703
    63   8 O        1.476    -0.799    30.661     7.465
    64   8 O        1.603    -0.945    35.176     8.004
    65   8 O        1.547    -0.972    36.166     8.113
    66   8 O        1.700    -0.816    30.953     7.512
    67   8 O        1.453    -0.779    30.126     7.397

 Mol. C6AA /au·bohr⁶  :     126064.370203
 Mol. C8AA /au·bohr⁸  :    5883969.689087
 Mol. α(0) /au        :        605.109640


Wiberg/Mayer (AO) data.
largest (>0.10) Wiberg bond orders for each atom

 ---------------------------------------------------------------------------
     #   Z sym  total        # sym  WBO       # sym  WBO       # sym  WBO
 ---------------------------------------------------------------------------
     1   6 C    3.990 --     2 C    1.030    21 H    0.977    20 H    0.975
                            22 H    0.952
     2   6 C    3.958 --     9 N    1.391     3 N    1.391     1 C    1.030
     3   7 N    3.050 --     4 C    1.426     2 C    1.391     8 C    0.101
     4   6 C    3.975 --     3 N    1.426     5 C    1.414    23 H    0.960
                             9 N    0.101
     5   6 C    3.988 --     4 C    1.414     8 C    1.369     6 C    1.004
     6   6 C    3.982 --     7 N    1.016     5 C    1.004    24 H    0.968
                            25 H    0.945
     7   7 N    2.992 --     6 C    1.016    26 H    0.966    27 H    0.964
     8   6 C    3.976 --     9 N    1.391     5 C    1.369    10 C    1.010
                             3 N    0.101
     9   7 N    3.054 --     8 C    1.391     2 C    1.391     4 C    0.101
    10   6 C    3.968 --     8 C    1.010    11 N    0.999    29 H    0.939
                            28 H    0.933
    11   7 N    3.399 --    12 C    1.215    10 C    0.999    30 H    0.911
                            13 O    0.172
    12   6 C    3.955 --    13 O    1.606    11 N    1.215    14 N    1.079
    13   8 O    1.961 --    12 C    1.606    11 N    0.172
    14   7 N    3.522 --    12 C    1.079    18 N    1.070    15 C    0.984
                            19 O    0.222
    15   6 C    3.962 --    16 C    0.998    14 N    0.984    31 H    0.961
                            32 H    0.960
    16   6 C    3.937 --    15 C    0.998    33 H    0.976    34 H    0.976
                            17 Cl   0.956
    17  17 Cl   1.004 --    16 C    0.956
    18   7 N    2.892 --    19 O    1.721    14 N    1.070
    19   8 O    2.020 --    18 N    1.721    14 N    0.222
    20   1 H    0.994 --     1 C    0.975
    21   1 H    0.994 --     1 C    0.977
    22   1 H    0.993 --     1 C    0.952
    23   1 H    0.996 --     4 C    0.960
    24   1 H    0.998 --     6 C    0.968
    25   1 H    0.998 --     6 C    0.945
    26   1 H    0.979 --     7 N    0.966
    27   1 H    0.977 --     7 N    0.964
    28   1 H    0.988 --    10 C    0.933
    29   1 H    0.991 --    10 C    0.939
    30   1 H    0.953 --    11 N    0.911
    31   1 H    0.992 --    15 C    0.961
    32   1 H    0.992 --    15 C    0.960
    33   1 H    0.994 --    16 C    0.976
    34   1 H    0.994 --    16 C    0.976
    35  22 Ti   2.817 --    54 O    0.843    55 O    0.812    41 Ti   0.326
                            36 Ti   0.201    38 Ti   0.197    40 Ti   0.102
    36  22 Ti   3.847 --    55 O    0.752    58 O    0.737    56 O    0.693
                            57 O    0.606    35 Ti   0.201    37 Ti   0.188
                            39 Ti   0.139    40 Ti   0.137
    37  22 Ti   2.715 --    63 O    0.960    56 O    0.597    43 Ti   0.370
                            36 Ti   0.188    41 Ti   0.140    58 O    0.109
    38  22 Ti   3.916 --    59 O    0.937    47 C    0.719    54 O    0.706
                            57 O    0.563    40 Ti   0.210    35 Ti   0.197
                            44 Ti   0.179    64 O    0.124
    39  22 Ti   4.043 --    53 C    0.862    60 O    0.786    51 C    0.745
                            58 O    0.608    45 Ti   0.278    40 Ti   0.174
                            48 C    0.153    52 C    0.143    36 Ti   0.139
    40  22 Ti   2.677 --    60 O    0.959    59 O    0.707    38 Ti   0.210
                            39 Ti   0.174    36 Ti   0.137    55 O    0.123
                            35 Ti   0.102
    41  22 Ti   3.768 --    61 O    2.000    42 Ti   0.610    35 Ti   0.326
                            56 O    0.152    54 O    0.147    37 Ti   0.140
                            64 O    0.110
    42  22 Ti   4.009 --    64 O    0.797    62 O    0.757    65 O    0.709
                            41 Ti   0.610    66 O    0.194    43 Ti   0.167
                            46 Ti   0.147    44 Ti   0.141
    43  22 Ti   2.741 --    62 O    0.832    63 O    0.764    37 Ti   0.370
                            46 Ti   0.220    42 Ti   0.167    45 Ti   0.131
    44  22 Ti   3.974 --    52 C    1.028    50 C    0.730    66 O    0.622
                            64 O    0.448    53 C    0.207    46 Ti   0.200
                            38 Ti   0.179    47 C    0.157    42 Ti   0.141
    45  22 Ti   4.065 --    67 O    0.972    48 C    0.672    53 C    0.640
                            65 O    0.444    39 Ti   0.278    46 Ti   0.211
                            52 C    0.134    43 Ti   0.131    63 O    0.116
    46  22 Ti   2.781 --    66 O    0.896    67 O    0.732    43 Ti   0.220
                            45 Ti   0.211    44 Ti   0.200    42 Ti   0.147
    47   6 C    3.841 --    50 C    2.739    38 Ti   0.719    44 Ti   0.157
    48   6 C    3.784 --    51 C    2.731    45 Ti   0.672    39 Ti   0.153
    49   6 C    3.978 --    52 C    2.008    53 C    1.610
    50   6 C    3.709 --    47 C    2.739    44 Ti   0.730
    51   6 C    3.750 --    48 C    2.731    39 Ti   0.745
    52   6 C    3.698 --    49 C    2.008    44 Ti   1.028    39 Ti   0.143
                            45 Ti   0.134
    53   6 C    3.746 --    49 C    1.610    39 Ti   0.862    45 Ti   0.640
                            44 Ti   0.207
    54   8 O    1.933 --    35 Ti   0.843    38 Ti   0.706    41 Ti   0.147
    55   8 O    1.892 --    35 Ti   0.812    36 Ti   0.752    40 Ti   0.123
    56   8 O    1.783 --    36 Ti   0.693    37 Ti   0.597    41 Ti   0.152
    57   8 O    1.714 --    36 Ti   0.606    38 Ti   0.563
    58   8 O    1.845 --    36 Ti   0.737    39 Ti   0.608    37 Ti   0.109
    59   8 O    1.970 --    38 Ti   0.937    40 Ti   0.707
    60   8 O    2.014 --    40 Ti   0.959    39 Ti   0.786
    61   8 O    2.176 --    41 Ti   2.000
    62   8 O    1.912 --    43 Ti   0.832    42 Ti   0.757
    63   8 O    2.008 --    37 Ti   0.960    43 Ti   0.764    45 Ti   0.116
    64   8 O    1.799 --    42 Ti   0.797    44 Ti   0.448    38 Ti   0.124
                            41 Ti   0.110
    65   8 O    1.768 --    42 Ti   0.709    45 Ti   0.444
    66   8 O    1.987 --    46 Ti   0.896    44 Ti   0.622    42 Ti   0.194
    67   8 O    2.033 --    45 Ti   0.972    46 Ti   0.732
 ---------------------------------------------------------------------------

Topologies differ in total number of bonds
Writing topology from bond orders to xtbtopo.mol

molecular dipole:
                 x           y           z       tot (Debye)
 q only:       -1.877      -1.349      -2.807
   full:       -3.267      -1.779      -2.293      11.108
molecular quadrupole (traceless):
                xx          xy          yy          xz          yz          zz
 q only:      -37.546      -1.554      19.678     -96.307     -15.415      17.868
  q+dip:      -18.943       1.725       3.925     -68.356     -39.282      15.018
   full:      -17.440       3.317       3.726     -69.716     -37.163      13.714


           -------------------------------------------------
          | TOTAL ENERGY             -151.249330576840 Eh   |
          | GRADIENT NORM               0.117759043774 Eh/α |
          | HOMO-LUMO GAP               0.225185893504 eV   |
           -------------------------------------------------

------------------------------------------------------------------------
 * finished run on 2026/08/31 at 21:54:51.675     
------------------------------------------------------------------------
 total:
 * wall-time:     0 d,  0 h,  0 min,  1.897 sec
 *  cpu-time:     0 d,  0 h,  0 min,  7.812 sec
 * ratio c/w:     4.118 speedup
 SCF:
 * wall-time:     0 d,  0 h,  0 min,  1.802 sec
 *  cpu-time:     0 d,  0 h,  0 min,  7.656 sec
 * ratio c/w:     4.249 speedup

normal termination of xtb
