62
Drug@Ti12C7O14 non-overlapping complex
C      3.821204      1.251915      7.821399
C      2.805054      0.425211      8.544307
N      1.616777      0.225955      7.944753
C      0.732439     -0.544396      8.606649
C      0.982123     -1.126157      9.832796
C     -0.024461     -1.982305     10.537212
N     -0.498880     -1.406697     11.794785
C     -1.354564     -0.302999     11.887774
O     -1.591209      0.343757     12.905212
N     -1.932879      0.072652     10.681972
C     -2.790502      1.251244     10.637941
C     -3.065241      1.710182      9.210627
Cl     -3.831569      0.406055      8.260301
N      0.137040     -2.002573     13.023216
O     -0.298147     -1.571276     14.092813
C      2.233182     -0.862815     10.351101
N      3.157395     -0.104583      9.729533
H      4.475419      1.766111      8.532043
H      4.431578      0.608487      7.181230
H      3.331259      2.006873      7.198980
H     -0.215680     -0.677598      8.092014
H      0.417566     -2.968438     10.731497
H     -0.887196     -2.172910      9.888942
H     -2.299535     -0.697577     10.140004
H     -2.306261      2.060648     11.195846
H     -3.723811      1.001909     11.156135
H     -2.135571      1.979006      8.700046
H     -3.736652      2.573280      9.201624
H      2.551123     -1.262961     11.310896
Ti     -2.141866     -3.008818      2.119748
Ti      0.288991     -1.694759      1.432425
Ti      1.903098     -3.067749     -0.729322
Ti     -2.521502     -0.251928      1.303687
Ti      2.142050      0.499533      2.204434
Ti     -0.681448      0.189635      3.681230
Ti     -2.036770     -3.077740     -1.200512
Ti     -0.605340     -0.770900     -2.035132
Ti      1.945488     -1.587317     -3.412400
Ti     -1.878170      1.746573     -1.240030
Ti      2.412512      0.454231     -0.774247
Ti      0.817742      1.838452     -2.940004
C     -3.678414      1.281398      0.600737
C      4.128193      0.482847      0.387293
C      0.455479      2.267202      0.349695
C     -3.666709      2.118834     -0.313920
C      4.115962      0.632239      1.621354
C     -0.635167      2.741046     -0.118921
C      1.630072      1.780996      0.734224
O     -3.093456     -1.956907      1.037949
O     -0.487250     -2.605849      2.701203
O      0.314079     -2.888890      0.145001
O     -0.800785     -0.435934      0.971227
O      1.902865     -1.158331      1.469449
O     -2.322673     -0.113878      3.024800
O      1.013786      0.441598      3.568761
O     -1.772019     -4.587905     -1.652810
O      0.190605     -1.189189     -3.534030
O      2.831420     -2.170248     -1.918042
O     -2.054558     -0.224445     -1.337505
O      0.768511     -0.390574     -1.063664
O     -0.900039      1.649313     -2.818565
O      2.415313      1.357463     -2.264115
