      -----------------------------------------------------------      
     |                   =====================                   |     
     |                           x T B                           |     
     |                   =====================                   |     
     |                         S. Grimme                         |     
     |          Mulliken Center for Theoretical Chemistry        |     
     |                    University of Bonn                     |     
      -----------------------------------------------------------      

   * xtb version 6.7.1pre (5071a88) compiled by 'Marcel@Raven' on 2024-07-23

   xtb is free software: you can redistribute it and/or modify it under
   the terms of the GNU Lesser General Public License as published by
   the Free Software Foundation, either version 3 of the License, or
   (at your option) any later version.
   
   xtb is distributed in the hope that it will be useful,
   but WITHOUT ANY WARRANTY; without even the implied warranty of
   MERCHANTABILITY or FITNESS FOR A PARTICULAR PURPOSE.  See the
   GNU Lesser General Public License for more details.
   
   Cite this work as:
   * C. Bannwarth, E. Caldeweyher, S. Ehlert, A. Hansen, P. Pracht,
     J. Seibert, S. Spicher, S. Grimme, WIREs Comput. Mol. Sci., 2020, 11,
     e01493. DOI: 10.1002/wcms.1493
   
   for GFN2-xTB:
   * C. Bannwarth, S. Ehlert and S. Grimme., J. Chem. Theory Comput., 2019,
     15, 1652-1671. DOI: 10.1021/acs.jctc.8b01176
   for GFN1-xTB:
   * S. Grimme, C. Bannwarth, P. Shushkov, J. Chem. Theory Comput., 2017,
     13, 1989-2009. DOI: 10.1021/acs.jctc.7b00118
   for GFN0-xTB:
   * P. Pracht, E. Caldeweyher, S. Ehlert, S. Grimme, ChemRxiv, 2019, preprint.
     DOI: 10.26434/chemrxiv.8326202.v1
   for GFN-FF:
   * S. Spicher and S. Grimme, Angew. Chem. Int. Ed., 2020, 59, 15665-15673.
     DOI: 10.1002/anie.202004239
   
   for ALPB and GBSA implicit solvation:
   * S. Ehlert, M. Stahn, S. Spicher, S. Grimme, J. Chem. Theory Comput.,
     2021, 17, 4250-4261. DOI: 10.1021/acs.jctc.1c00471
   
   for ddCOSMO and CPCM-X implicit solvation:
   * M. Stahn, S. Ehlert, S. Grimme, J. Phys. Chem. A,
     2023, XX, XXXX-XXXX. DOI: 10.1021/acs.jpca.3c04382
   
   for DFT-D4:
   * E. Caldeweyher, C. Bannwarth and S. Grimme, J. Chem. Phys., 2017,
     147, 034112. DOI: 10.1063/1.4993215
   * E. Caldeweyher, S. Ehlert, A. Hansen, H. Neugebauer, S. Spicher,
     C. Bannwarth and S. Grimme, J. Chem. Phys., 2019, 150, 154122.
     DOI: 10.1063/1.5090222
   * E. Caldeweyher, J.-M. Mewes, S. Ehlert and S. Grimme, Phys. Chem. Chem. Phys.
     2020, 22, 8499-8512. DOI: 10.1039/D0CP00502A
   
   for sTDA-xTB:
   * S. Grimme and C. Bannwarth, J. Chem. Phys., 2016, 145, 054103.
     DOI: 10.1063/1.4959605
   
   in the mass-spec context:
   * V. Asgeirsson, C. Bauer and S. Grimme, Chem. Sci., 2017, 8, 4879.
     DOI: 10.1039/c7sc00601b
   * J. Koopman and S. Grimme, ACS Omega 2019, 4, 12, 15120-15133.
     DOI: 10.1021/acsomega.9b02011
   
   for metadynamics refer to:
   * S. Grimme, J. Chem. Theory Comput., 2019, 155, 2847-2862
     DOI: 10.1021/acs.jctc.9b00143
   
   for SPH calculations refer to:
   * S. Spicher and S. Grimme, J. Chem. Theory Comput., 2021, 17, 1701-1714
     DOI: 10.1021/acs.jctc.0c01306
   
   for ONIOM refer to:
   * C. Plett, A. Katbashev, S. Ehlert, S. Grimme, M. Bursch,
     Phys. Chem. Chem. Phys., 2023, 25, 17860-17868. DOI: 10.1039/D3CP02178E
   
   for DIPRO refer to:
   * J. Kohn, N. Gildemeister, S. Grimme, D. Fazzi, A. Hansen,
     J. Chem. Phys., 2023, just accepted.
   
   for PTB refer to:
   * S. Grimme, M. Mueller, A. Hansen, J. Chem. Phys., 2023, 158, 124111.
     DOI: 10.1063/5.0137838
   
   with help from (in alphabetical order)
   P. Atkinson, C. Bannwarth, F. Bohle, G. Brandenburg, E. Caldeweyher
   M. Checinski, S. Dohm, S. Ehlert, S. Ehrlich, I. Gerasimov, C. Hölzer
   A. Katbashev, J. Kohn, J. Koopman, C. Lavigne, S. Lehtola, F. März, M. Müller,
   F. Musil, H. Neugebauer, J. Pisarek, C. Plett, P. Pracht, F. Pultar,
   J. Seibert, P. Shushkov, S. Spicher, M. Stahn, M. Steiner, T. Strunk,
   J. Stückrath, T. Rose, and J. Unsleber
   
 * started run on 2026/08/31 at 20:30:06.078     
   ID    Z sym.   atoms
    1    6 C      1, 2, 4-6, 8, 11, 12, 16, 42-48
    2    7 N      3, 7, 10, 14, 17
    3    8 O      9, 15, 49-62
    4   17 Cl     13
    5    1 H      18-29
    6   22 Ti     30-41

           -------------------------------------------------
          |                Calculation Setup                |
           -------------------------------------------------

          program call               : "c:\Users\Andre\Proyectos doctorado\kras-pancreatic-gC3N4-ai\tools\xtb\xtb-6.7.1\bin\xtb.exe" "c:\Users\Andre\Proyectos doctorado\mxene-glioblastoma-qsar-ai\calculations\gbm\Nimustine\Nimustine_Ti3C2O2_complex.xyz" --gfn 2 --sp --chrg 0 --uhf 0 --iterations 500 --norestart
          coordinate file            : c:\Users\Andre\Proyectos doctorado\mxene-glioblastoma-qsar-ai\calculations\gbm\Nimustine\Nimustine_Ti3C2O2_complex.xyz
          omp threads                :                    16


molecular fragmentation (1/2 indicates fragments):
11111111111111111111111111111111111111111221221122221222222222
# atoms in fragment 1/2:    45    17
 fragment masses (1/2) :      884.11      256.04
CMA distance (Bohr)    :   3.485
constraining FC (au)   :  0.0500

           -------------------------------------------------
          |                 G F N 2 - x T B                 |
           -------------------------------------------------

        Reference                      10.1021/acs.jctc.8b01176
      * Hamiltonian:
        H0-scaling (s, p, d)           1.850000    2.230000    2.230000
        zeta-weighting                 0.500000
      * Dispersion:
        s8                             2.700000
        a1                             0.520000
        a2                             5.000000
        s9                             5.000000
      * Repulsion:
        kExp                           1.500000    1.000000
        rExp                           1.000000
      * Coulomb:
        alpha                          2.000000
        third order                    shell-resolved
        anisotropic                    true
        a3                             3.000000
        a5                             4.000000
        cn-shift                       1.200000
        cn-exp                         4.000000
        max-rad                        5.000000


          ...................................................
          :                      SETUP                      :
          :.................................................:
          :  # basis functions                 290          :
          :  # atomic orbitals                 277          :
          :  # shells                          125          :
          :  # electrons                       252          :
          :  max. iterations                   500          :
          :  Hamiltonian                  GFN2-xTB          :
          :  restarted?                      false          :
          :  GBSA solvation                  false          :
          :  PC potential                    false          :
          :  electronic temp.          300.0000000     K    :
          :  accuracy                    1.0000000          :
          :  -> integral cutoff          0.2500000E+02      :
          :  -> integral neglect         0.1000000E-07      :
          :  -> SCF convergence          0.1000000E-05 Eh   :
          :  -> wf. convergence          0.1000000E-03 e    :
          :  Broyden damping             0.4000000          :
          :  net charge                          0          :
          :  unpaired electrons                  0          :
          ...................................................

 iter      E             dE          RMSdq      gap      omega  full diag
   1   -140.1446226 -0.140145E+03  0.151E+01    0.05       0.0  T
   2    -78.9051719  0.612395E+02  0.227E+01    0.06       1.0  T
   3    -25.0982488  0.538069E+02  0.280E+01    0.17       1.0  T
   4   -136.8872391 -0.111789E+03  0.117E+01    0.09       1.0  T
   5   -139.9607876 -0.307355E+01  0.117E+01    0.05       1.0  T
   6   -132.4546388  0.750615E+01  0.108E+01    0.06       1.0  T
   7   -136.3876741 -0.393304E+01  0.109E+01    0.04       1.0  T
   8   -142.2234088 -0.583573E+01  0.849E+00    0.13       1.0  T
   9   -138.4822907  0.374112E+01  0.926E+00    0.03       1.0  T
  10   -139.2562623 -0.773972E+00  0.795E+00    0.01       1.0  T
  11   -140.2485925 -0.992330E+00  0.808E+00    0.12       1.0  T
  12   -142.1518914 -0.190330E+01  0.714E+00    0.08       1.0  T
  13   -142.6977752 -0.545884E+00  0.683E+00    0.05       1.0  T
  14   -142.8750804 -0.177305E+00  0.676E+00    0.03       1.0  T
  15   -142.6097781  0.265302E+00  0.673E+00    0.04       1.0  T
  16   -142.3654588  0.244319E+00  0.690E+00    0.01       1.0  T
  17   -142.2574809  0.107978E+00  0.633E+00    0.09       1.0  T
  18   -143.5443710 -0.128689E+01  0.528E+00    0.13       1.0  T
  19   -142.9323344  0.612037E+00  0.612E+00    0.15       1.0  T
  20   -142.9533796 -0.210452E-01  0.609E+00    0.15       1.0  T
  21   -142.9360081  0.173716E-01  0.611E+00    0.15       1.0  T
  22   -142.9394286 -0.342054E-02  0.598E+00    0.13       1.0  T
  23   -143.7680104 -0.828582E+00  0.538E+00    0.03       1.0  T
  24   -143.7648724  0.313800E-02  0.537E+00    0.03       1.0  T
  25   -143.8985018 -0.133629E+00  0.506E+00    0.02       1.0  T
  26   -143.8248925  0.736093E-01  0.545E+00    0.09       1.0  T
  27   -144.2294739 -0.404581E+00  0.637E+00    0.04       1.0  T
  28   -144.2329476 -0.347368E-02  0.668E+00    0.07       1.0  T
  29   -145.5543771 -0.132143E+01  0.706E+00    0.11       1.0  T
  30   -144.7429272  0.811450E+00  0.673E+00    0.00       1.0  T
  31   -144.9999964 -0.257069E+00  0.647E+00    0.08       1.0  T
  32   -144.3108599  0.689137E+00  0.588E+00    0.03       1.0  T
  33   -143.8087592  0.502101E+00  0.604E+00    0.14       1.0  T
  34   -143.9675655 -0.158806E+00  0.581E+00    0.13       1.0  T
  35   -143.7606417  0.206924E+00  0.514E+00    0.14       1.0  T
  36   -143.5953304  0.165311E+00  0.471E+00    0.08       1.0  T
  37   -143.5691307  0.261998E-01  0.467E+00    0.12       1.0  T
  38   -144.3958853 -0.826755E+00  0.528E+00    0.01       1.0  T
  39   -144.4015233 -0.563802E-02  0.550E+00    0.02       1.0  T
  40   -144.3897809  0.117424E-01  0.527E+00    0.04       1.0  T
  41   -144.4116775 -0.218966E-01  0.532E+00    0.03       1.0  T
  42   -144.4358779 -0.242004E-01  0.535E+00    0.02       1.0  T
  43   -144.5138467 -0.779688E-01  0.506E+00    0.02       1.0  T
  44   -144.5478498 -0.340031E-01  0.439E+00    0.04       1.0  T
  45   -144.5437784  0.407145E-02  0.394E+00    0.06       1.0  T
  46   -144.5448657 -0.108734E-02  0.397E+00    0.06       1.0  T
  47   -144.5733162 -0.284505E-01  0.391E+00    0.04       1.0  T
  48   -144.5965663 -0.232501E-01  0.387E+00    0.02       1.0  T
  49   -143.9719094  0.624657E+00  0.338E+00    0.08       1.0  T
  50   -143.9877650 -0.158556E-01  0.335E+00    0.08       1.0  T
  51   -143.9921359 -0.437090E-02  0.339E+00    0.08       1.0  T
  52   -143.9841278  0.800807E-02  0.322E+00    0.08       1.0  T
  53   -144.2228188 -0.238691E+00  0.309E+00    0.06       1.0  T
  54   -143.7510119  0.471807E+00  0.610E+00    0.11       1.0  T
  55   -143.8060502 -0.550383E-01  0.605E+00    0.08       1.0  T
  56   -143.6499758  0.156074E+00  0.734E+00    0.13       1.0  T
  57   -143.7085758 -0.586001E-01  0.113E+01    0.05       1.0  T
  58   -143.6553641  0.532117E-01  0.115E+01    0.05       1.0  T
  59   -143.6933075 -0.379433E-01  0.117E+01    0.04       1.0  T
  60   -143.5499545  0.143353E+00  0.115E+01    0.02       1.0  T
  61   -143.5458000  0.415450E-02  0.115E+01    0.02       1.0  T
  62   -143.7353635 -0.189563E+00  0.111E+01    0.05       1.0  T
  63   -143.7481723 -0.128088E-01  0.111E+01    0.05       1.0  T
  64   -143.7155971  0.325753E-01  0.102E+01    0.02       1.0  T
  65   -143.7186517 -0.305463E-02  0.926E+00    0.04       1.0  T
  66   -143.7207010 -0.204935E-02  0.925E+00    0.04       1.0  T
  67   -144.2578052 -0.537104E+00  0.556E+00    0.09       1.0  T
  68   -144.2424516  0.153536E-01  0.551E+00    0.03       1.0  T
  69   -144.5136427 -0.271191E+00  0.370E+00    0.12       1.0  T
  70   -144.5708370 -0.571943E-01  0.289E+00    0.11       1.0  T
  71   -144.5716589 -0.821914E-03  0.288E+00    0.11       1.0  T
  72   -144.6525657 -0.809068E-01  0.252E+00    0.10       1.0  T
  73   -144.6549986 -0.243288E-02  0.263E+00    0.11       1.0  T
  74   -144.7043606 -0.493620E-01  0.287E+00    0.09       1.0  T
  75   -144.7022171  0.214352E-02  0.282E+00    0.09       1.0  T
  76   -144.7291854 -0.269683E-01  0.285E+00    0.08       1.0  T
  77   -144.7859267 -0.567413E-01  0.255E+00    0.05       1.0  T
  78   -144.7844246  0.150207E-02  0.241E+00    0.05       1.0  T
  79   -144.7895734 -0.514874E-02  0.224E+00    0.05       1.0  T
  80   -144.7914644 -0.189099E-02  0.200E+00    0.06       1.0  T
  81   -144.7904583  0.100605E-02  0.159E+00    0.08       1.0  T
  82   -144.7909728 -0.514518E-03  0.155E+00    0.09       1.0  T
  83   -144.7297470  0.612258E-01  0.183E+00    0.06       1.0  T
  84   -144.8078002 -0.780532E-01  0.128E+00    0.10       1.0  T
  85   -144.8882014 -0.804012E-01  0.240E+00    0.18       1.0  T
  86   -144.9526188 -0.644173E-01  0.277E+00    0.18       1.0  T
  87   -144.9461635  0.645523E-02  0.274E+00    0.18       1.0  T
  88   -144.9133527  0.328108E-01  0.255E+00    0.17       1.0  T
  89   -144.8629924  0.503603E-01  0.210E+00    0.15       1.0  T
  90   -144.8328564  0.301360E-01  0.169E+00    0.12       1.0  T
  91   -144.8217825  0.110740E-01  0.154E+00    0.10       1.0  T
  92   -144.8183479  0.343455E-02  0.151E+00    0.10       1.0  T
  93   -144.8165866  0.176138E-02  0.148E+00    0.09       1.0  T
  94   -144.8131770  0.340959E-02  0.146E+00    0.08       1.0  T
  95   -144.8379325 -0.247555E-01  0.191E+00    0.12       1.0  T
  96   -144.8528461 -0.149137E-01  0.214E+00    0.13       1.0  T
  97   -144.8209240  0.319221E-01  0.158E+00    0.10       1.0  T
  98   -144.8124258  0.849818E-02  0.141E+00    0.09       1.0  T
  99   -144.8132429 -0.817105E-03  0.147E+00    0.09       1.0  T
 100   -144.8065397  0.670324E-02  0.115E+00    0.06       1.0  T
 101   -144.8071950 -0.655349E-03  0.112E+00    0.05       1.0  T
 102   -144.8071857  0.932745E-05  0.112E+00    0.05       1.0  T
 103   -144.8060858  0.109993E-02  0.115E+00    0.05       1.0  T
 104   -144.8096429 -0.355715E-02  0.983E-01    0.04       1.0  T
 105   -144.8158855 -0.624257E-02  0.587E-01    0.03       1.0  T
 106   -144.8174350 -0.154947E-02  0.487E-01    0.03       1.0  T
 107   -144.8179365 -0.501507E-03  0.412E-01    0.03       1.0  T
 108   -144.8183533 -0.416855E-03  0.400E-01    0.03       1.0  T
 109   -144.8175451  0.808191E-03  0.355E-01    0.03       1.0  T
 110   -144.8129143  0.463082E-02  0.320E-01    0.03       1.0  T
 111   -144.8098054  0.310890E-02  0.330E-01    0.03       1.0  T
 112   -144.8164911 -0.668564E-02  0.263E-01    0.03       1.0  T
 113   -144.8153309  0.116014E-02  0.268E-01    0.03       1.0  T
 114   -144.8183942 -0.306332E-02  0.238E-01    0.03       1.0  T
 115   -144.8188864 -0.492149E-03  0.224E-01    0.03       1.0  T
 116   -144.8191803 -0.293888E-03  0.218E-01    0.03       1.0  T
 117   -144.8193338 -0.153530E-03  0.206E-01    0.03       1.0  T
 118   -144.8195253 -0.191519E-03  0.194E-01    0.03       1.0  T
 119   -144.8197884 -0.263074E-03  0.183E-01    0.03       1.0  T
 120   -144.8199756 -0.187223E-03  0.182E-01    0.03       1.0  T
 121   -144.8200777 -0.102098E-03  0.194E-01    0.03       1.0  T
 122   -144.8201542 -0.764993E-04  0.200E-01    0.03       1.0  T
 123   -144.8203408 -0.186628E-03  0.179E-01    0.03       1.0  T
 124   -144.8203888 -0.479027E-04  0.183E-01    0.03       1.0  T
 125   -144.8204163 -0.275433E-04  0.200E-01    0.03       1.0  T
 126   -144.8204560 -0.397043E-04  0.205E-01    0.03       1.0  T
 127   -144.8204804 -0.243721E-04  0.203E-01    0.03       1.0  T
 128   -144.8205198 -0.394667E-04  0.201E-01    0.03       1.0  T
 129   -144.8205187  0.114670E-05  0.208E-01    0.03       1.0  T
 130   -144.8205350 -0.163512E-04  0.208E-01    0.03       1.0  T
 131   -144.8205255  0.952891E-05  0.207E-01    0.03       1.0  T
 132   -144.8205097  0.158520E-04  0.206E-01    0.03       1.0  T
 133   -144.8204632  0.464271E-04  0.207E-01    0.03       1.0  T
 134   -144.8204359  0.273814E-04  0.202E-01    0.03       1.0  T
 135   -144.8204234  0.124563E-04  0.198E-01    0.03       1.0  T
 136   -144.8204095  0.138993E-04  0.195E-01    0.03       1.0  T
 137   -144.8203861  0.233941E-04  0.186E-01    0.03       1.0  T
 138   -144.8203755  0.106365E-04  0.179E-01    0.03       1.0  T
 139   -144.8203692  0.631132E-05  0.172E-01    0.03       1.0  T
 140   -144.8203587  0.104834E-04  0.151E-01    0.04       1.0  T
 141   -144.8203559  0.272268E-05  0.129E-01    0.04       1.0  T
 142   -144.8203570 -0.104907E-05  0.107E-01    0.04       1.0  T
 143   -144.8203603 -0.332256E-05  0.656E-02    0.04       1.0  T
 144   -144.8203611 -0.822747E-06  0.434E-02    0.04       1.0  T
 145   -144.8203611  0.519863E-07  0.268E-02    0.04       1.0  T
 146   -144.8203602  0.845341E-06  0.135E-02    0.04       1.0  T
 147   -144.8203591  0.111550E-05  0.863E-03    0.04       1.5  T
 148   -144.8203582  0.881028E-06  0.138E-02    0.04       1.0  T
 149   -144.8203589 -0.618044E-06  0.114E-02    0.04       1.1  T
 150   -144.8203600 -0.112855E-05  0.678E-03    0.04       1.9  T
 151   -144.8203608 -0.807568E-06  0.573E-03    0.04       2.2  T
 152   -144.8203614 -0.600729E-06  0.603E-03    0.04       2.1  T
 153   -144.8203618 -0.388950E-06  0.408E-03    0.04       3.1  T
 154   -144.8203621 -0.282177E-06  0.337E-03    0.04       3.8  T
 155   -144.8203623 -0.231614E-06  0.333E-03    0.04       3.8  T
 156   -144.8203625 -0.210604E-06  0.249E-03    0.04       5.1  T
 157   -144.8203626 -0.878304E-07  0.218E-03    0.04       5.8  T
 158   -144.8203627 -0.102155E-06  0.272E-03    0.04       4.7  T
 159   -144.8203628 -0.945596E-07  0.246E-03    0.04       5.2  T
 160   -144.8203629 -0.623823E-07  0.132E-03    0.04       9.6  T
 161   -144.8203629 -0.289175E-07  0.849E-04    0.04      15.0  T
 162   -144.8203629 -0.578163E-08  0.104E-03    0.04      12.3  T
 163   -144.8203629 -0.658392E-08  0.101E-03    0.04      12.6  T
 164   -144.8203629 -0.507825E-08  0.744E-04    0.04      17.1  T

   *** convergence criteria satisfied after 164 iterations ***

         #    Occupation            Energy/Eh            Energy/eV
      -------------------------------------------------------------
         1        2.0000           -1.0688211             -29.0841
       ...           ...                  ...                  ...
       120        2.0000           -0.4092166             -11.1354
       121        2.0000           -0.4054032             -11.0316
       122        2.0000           -0.4039405             -10.9918
       123        2.0000           -0.4029534             -10.9649
       124        2.0000           -0.3950130             -10.7488
       125        1.9996           -0.3915774             -10.6554
       126        1.2713           -0.3841084             -10.4521 (HOMO)
       127        0.4942           -0.3825212             -10.4089 (LUMO)
       128        0.2038           -0.3815123             -10.3815
       129        0.0311           -0.3796376             -10.3305
       130        0.0000           -0.3732080             -10.1555
       131                         -0.3655285              -9.9465
       ...                                ...                  ...
       277                         18.3779284             500.0889
      -------------------------------------------------------------
                  HL-Gap            0.0015873 Eh            0.0432 eV
             Fermi-level           -0.3835797 Eh          -10.4377 eV

 SCC (total)                   0 d,  0 h,  0 min,  4.715 sec
 SCC setup                      ...        0 min,  0.001 sec (  0.021%)
 Dispersion                     ...        0 min,  0.001 sec (  0.021%)
 classical contributions        ...        0 min,  0.000 sec (  0.000%)
 integral evaluation            ...        0 min,  0.008 sec (  0.170%)
 iterations                     ...        0 min,  4.689 sec ( 99.449%)
 molecular gradient             ...        0 min,  0.014 sec (  0.297%)
 printout                       ...        0 min,  0.001 sec (  0.021%)

         :::::::::::::::::::::::::::::::::::::::::::::::::::::
         ::                     SUMMARY                     ::
         :::::::::::::::::::::::::::::::::::::::::::::::::::::
         :: total energy            -139.310906047877 Eh    ::
         :: gradient norm              5.384041961896 Eh/a0 ::
         :: HOMO-LUMO gap              0.043192351890 eV    ::
         ::.................................................::
         :: SCC energy              -144.815452367034 Eh    ::
         :: -> isotropic ES            0.800855761502 Eh    ::
         :: -> anisotropic ES         -0.046596292473 Eh    ::
         :: -> anisotropic XC         -0.099119549220 Eh    ::
         :: -> dispersion             -0.135976592800 Eh    ::
         :: repulsion energy           5.504546319156 Eh    ::
         :: add. restraining           0.000000000000 Eh    ::
         :: total charge              -0.000000000005 e     ::
         :::::::::::::::::::::::::::::::::::::::::::::::::::::

           -------------------------------------------------
          |                Property Printout                |
           -------------------------------------------------

    * Orbital Energies and Occupations

         #    Occupation            Energy/Eh            Energy/eV
      -------------------------------------------------------------
         1        2.0000           -1.0688211             -29.0841
       ...           ...                  ...                  ...
       114        2.0000           -0.4212481             -11.4627
       115        2.0000           -0.4206835             -11.4474
       116        2.0000           -0.4175539             -11.3622
       117        2.0000           -0.4147966             -11.2872
       118        2.0000           -0.4134057             -11.2493
       119        2.0000           -0.4106905             -11.1755
       120        2.0000           -0.4092166             -11.1354
       121        2.0000           -0.4054032             -11.0316
       122        2.0000           -0.4039405             -10.9918
       123        2.0000           -0.4029534             -10.9649
       124        2.0000           -0.3950130             -10.7488
       125        1.9996           -0.3915774             -10.6554
       126        1.2713           -0.3841084             -10.4521 (HOMO)
       127        0.4942           -0.3825212             -10.4089 (LUMO)
       128        0.2038           -0.3815123             -10.3815
       129        0.0311           -0.3796376             -10.3305
       130        0.0000           -0.3732080             -10.1555
       131                         -0.3655285              -9.9465
       132                         -0.3636123              -9.8944
       133                         -0.3627436              -9.8708
       134                         -0.3580291              -9.7425
       135                         -0.3573345              -9.7236
       136                         -0.3530408              -9.6067
       137                         -0.3526520              -9.5962
       ...                                ...                  ...
       277                         18.3779284             500.0889
      -------------------------------------------------------------
                  HL-Gap            0.0015873 Eh            0.0432 eV
             Fermi-level           -0.3835797 Eh          -10.4377 eV

     #   Z          covCN         q      C6AA      α(0)
     1   6 C        3.759    -0.160    23.648     6.933
     2   6 C        3.059     0.097    25.805     8.331
     3   7 N        3.505     0.416    15.010     5.754
     4   6 C        3.445    -0.058    24.349     7.480
     5   6 C        2.951     0.029    27.347     8.577
     6   6 C        3.740    -0.035    21.272     6.581
     7   7 N        2.791    -0.070    22.604     7.061
     8   6 C        2.685     0.316    21.637     7.612
     9   8 O        0.858    -0.396    21.593     6.230
    10   7 N        2.686    -0.214    25.659     7.523
    11   6 C        3.764    -0.016    20.900     6.516
    12   6 C        3.712    -0.012    20.919     6.536
    13  17 Cl       0.962    -0.058   100.980    15.374
    14   7 N        1.891     0.113    19.926     6.618
    15   8 O        0.924    -0.201    18.065     5.700
    16   6 C        2.920     0.045    26.995     8.520
    17   7 N        1.832    -0.160    25.250     7.446
    18   1 H        0.924     0.134     1.502     1.917
    19   1 H        0.924     0.139     1.470     1.896
    20   1 H        0.924     0.177     1.224     1.730
    21   1 H        0.925     0.179     1.209     1.720
    22   1 H        0.923     0.125     1.577     1.964
    23   1 H        0.924     0.106     1.730     2.057
    24   1 H        0.860     0.199     1.109     1.650
    25   1 H        0.924     0.103     1.762     2.076
    26   1 H        0.924     0.088     1.898     2.155
    27   1 H        0.924     0.147     1.409     1.856
    28   1 H        0.924     0.114     1.662     2.016
    29   1 H        0.925     0.117     1.634     1.999
    30  22 Ti       4.151     0.776    91.567    16.220
    31  22 Ti       6.350     0.649    93.155    15.670
    32  22 Ti       4.151     0.729    92.066    16.265
    33  22 Ti       7.491     0.991    89.524    15.362
    34  22 Ti       8.331    -0.034   101.130    16.327
    35  22 Ti       6.519     1.028    89.149    15.329
    36  22 Ti       4.151     0.799    91.319    16.199
    37  22 Ti       6.350     0.718    92.398    15.606
    38  22 Ti       4.151     0.771    91.614    16.225
    39  22 Ti       7.449     1.019    89.238    15.337
    40  22 Ti       7.449     1.042    89.003    15.317
    41  22 Ti       6.519     1.035    89.074    15.323
    42   6 C        5.128    -0.677    37.690     8.719
    43   6 C        5.128    -0.564    33.853     8.263
    44   6 C        5.649    -0.483    31.404     7.959
    45   6 C        2.445    -0.400    40.349    10.364
    46   6 C        2.445    -0.313    37.287     9.963
    47   6 C        2.445    -0.322    37.584    10.003
    48   6 C        2.445    -0.301    36.915     9.913
    49   8 O        0.728    -0.545    24.874     6.683
    50   8 O        0.729    -0.599    26.178     6.856
    51   8 O        0.728    -0.564    25.326     6.744
    52   8 O        0.735    -0.674    28.095     7.103
    53   8 O        2.185    -0.027    14.804     5.196
    54   8 O        0.753    -0.639    27.148     6.983
    55   8 O        0.753    -0.688    28.452     7.149
    56   8 O        0.728    -0.538    24.715     6.662
    57   8 O        0.729    -0.561    25.256     6.734
    58   8 O        0.728    -0.515    24.178     6.589
    59   8 O        0.729    -0.655    27.594     7.039
    60   8 O        0.729    -0.615    26.575     6.908
    61   8 O        0.753    -0.557    25.130     6.718
    62   8 O        0.753    -0.551    25.003     6.701

 Mol. C6AA /au·bohr⁶  :     106770.602208
 Mol. C8AA /au·bohr⁸  :    5230183.363688
 Mol. α(0) /au        :        500.255206


Wiberg/Mayer (AO) data.
largest (>0.10) Wiberg bond orders for each atom

 ---------------------------------------------------------------------------
     #   Z sym  total        # sym  WBO       # sym  WBO       # sym  WBO
 ---------------------------------------------------------------------------
     1   6 C    3.949 --     2 C    1.023    18 H    0.956    20 H    0.881
                            19 H    0.876
     2   6 C    3.901 --    17 N    1.445     3 N    1.030     1 C    1.023
                            34 Ti   0.158
     3   7 N    3.774 --    53 O    1.376     2 C    1.030     4 C    1.019
                            34 Ti   0.162
     4   6 C    3.879 --     5 C    1.468     3 N    1.019    21 H    0.828
                            34 Ti   0.154
     5   6 C    3.978 --     4 C    1.468    16 C    1.335     6 C    0.994
     6   6 C    3.953 --     5 C    0.994     7 N    0.992    22 H    0.942
                            23 H    0.939
     7   7 N    3.543 --    14 N    1.071     8 C    1.063     6 C    0.992
                            15 O    0.247
     8   6 C    3.960 --     9 O    1.677    10 N    1.158     7 N    1.063
     9   8 O    2.036 --     8 C    1.677    10 N    0.167
    10   7 N    3.341 --     8 C    1.158    11 C    0.993    24 H    0.910
                             9 O    0.167
    11   6 C    3.961 --    12 C    1.016    10 N    0.993    26 H    0.957
                            25 H    0.957
    12   6 C    3.885 --    11 C    1.016    28 H    0.966    13 Cl   0.920
                            27 H    0.904
    13  17 Cl   1.303 --    12 C    0.920    33 Ti   0.222
    14   7 N    3.007 --    15 O    1.842     7 N    1.071
    15   8 O    2.166 --    14 N    1.842     7 N    0.247
    16   6 C    3.864 --    17 N    1.398     5 C    1.335    29 H    0.951
    17   7 N    3.080 --     2 C    1.445    16 C    1.398
    18   1 H    0.979 --     1 C    0.956
    19   1 H    0.976 --     1 C    0.876
    20   1 H    0.967 --     1 C    0.881
    21   1 H    0.966 --     4 C    0.828
    22   1 H    0.983 --     6 C    0.942
    23   1 H    0.988 --     6 C    0.939
    24   1 H    0.960 --    10 N    0.910
    25   1 H    0.989 --    11 C    0.957
    26   1 H    0.989 --    11 C    0.957
    27   1 H    0.977 --    12 C    0.904
    28   1 H    0.985 --    12 C    0.966
    29   1 H    0.985 --    16 C    0.951
    30  22 Ti   3.988 --    49 O    2.030    36 Ti   0.600    31 Ti   0.306
                            42 C    0.284    33 Ti   0.185    45 C    0.160
                            37 Ti   0.118
    31  22 Ti   4.532 --    50 O    1.896    37 Ti   0.373    32 Ti   0.344
                            30 Ti   0.306    42 C    0.279    43 C    0.250
                            34 Ti   0.135    33 Ti   0.132    36 Ti   0.101
    32  22 Ti   4.074 --    51 O    2.006    38 Ti   0.571    31 Ti   0.344
                            43 C    0.288    34 Ti   0.254    46 C    0.175
                            37 Ti   0.101
    33  22 Ti   4.535 --    52 O    1.746    45 C    0.605    42 C    0.469
                            13 Cl   0.222    54 O    0.221    30 Ti   0.185
                            35 Ti   0.171    39 Ti   0.140    44 C    0.139
                            31 Ti   0.132
    34  22 Ti   5.540 --    46 C    1.139    43 C    0.947    53 O    0.904
                            40 Ti   0.283    32 Ti   0.254    44 C    0.199
                            55 O    0.174     3 N    0.162     2 C    0.158
                             4 C    0.154    38 Ti   0.154    48 C    0.138
                            31 Ti   0.135    35 Ti   0.121
    35  22 Ti   4.491 --    55 O    1.141    54 O    1.107    44 C    0.501
                            48 C    0.436    47 C    0.393    41 Ti   0.265
                            33 Ti   0.171    34 Ti   0.121
    36  22 Ti   4.055 --    56 O    2.015    30 Ti   0.600    37 Ti   0.367
                            42 C    0.301    39 Ti   0.218    45 C    0.195
                            31 Ti   0.101
    37  22 Ti   4.492 --    57 O    1.918    31 Ti   0.373    36 Ti   0.367
                            38 Ti   0.319    42 C    0.278    43 C    0.254
                            39 Ti   0.133    40 Ti   0.129    30 Ti   0.118
                            32 Ti   0.101
    38  22 Ti   3.971 --    58 O    2.064    32 Ti   0.571    37 Ti   0.319
                            43 C    0.228    40 Ti   0.166    34 Ti   0.154
                            46 C    0.154
    39  22 Ti   4.463 --    59 O    1.713    45 C    0.688    42 C    0.521
                            36 Ti   0.218    61 O    0.211    44 C    0.175
                            41 Ti   0.158    33 Ti   0.140    37 Ti   0.133
                            47 C    0.103
    40  22 Ti   4.461 --    60 O    1.800    46 C    0.520    43 C    0.480
                            34 Ti   0.283    62 O    0.237    44 C    0.178
                            38 Ti   0.166    41 Ti   0.164    37 Ti   0.129
    41  22 Ti   4.492 --    61 O    1.119    62 O    1.070    44 C    0.509
                            47 C    0.469    48 C    0.456    35 Ti   0.265
                            40 Ti   0.164    39 Ti   0.158
    42   6 C    3.636 --    45 C    0.871    39 Ti   0.521    33 Ti   0.469
                            36 Ti   0.301    30 Ti   0.284    31 Ti   0.279
                            37 Ti   0.278
    43   6 C    3.704 --    34 Ti   0.947    46 C    0.728    40 Ti   0.480
                            32 Ti   0.288    37 Ti   0.254    31 Ti   0.250
                            38 Ti   0.228
    44   6 C    3.830 --    48 C    0.802    47 C    0.795    41 Ti   0.509
                            35 Ti   0.501    34 Ti   0.199    40 Ti   0.178
                            39 Ti   0.175    33 Ti   0.139
    45   6 C    3.297 --    42 C    0.871    39 Ti   0.688    33 Ti   0.605
                            47 C    0.227    36 Ti   0.195    30 Ti   0.160
    46   6 C    3.306 --    34 Ti   1.139    43 C    0.728    40 Ti   0.520
                            32 Ti   0.175    38 Ti   0.154    48 C    0.128
    47   6 C    3.238 --    44 C    0.795    41 Ti   0.469    61 O    0.422
                            35 Ti   0.393    54 O    0.323    45 C    0.227
                            48 C    0.126    39 Ti   0.103
    48   6 C    3.198 --    44 C    0.802    41 Ti   0.456    62 O    0.451
                            35 Ti   0.436    55 O    0.290    34 Ti   0.138
                            46 C    0.128    47 C    0.126
    49   8 O    2.260 --    30 Ti   2.030
    50   8 O    2.201 --    31 Ti   1.896
    51   8 O    2.240 --    32 Ti   2.006
    52   8 O    2.111 --    33 Ti   1.746
    53   8 O    2.658 --     3 N    1.376    34 Ti   0.904
    54   8 O    2.087 --    35 Ti   1.107    47 C    0.323    33 Ti   0.221
                            61 O    0.117
    55   8 O    2.033 --    35 Ti   1.141    48 C    0.290    34 Ti   0.174
                            62 O    0.105
    56   8 O    2.266 --    36 Ti   2.015
    57   8 O    2.245 --    37 Ti   1.918
    58   8 O    2.296 --    38 Ti   2.064
    59   8 O    2.119 --    39 Ti   1.713
    60   8 O    2.172 --    40 Ti   1.800
    61   8 O    2.178 --    41 Ti   1.119    47 C    0.422    39 Ti   0.211
                            54 O    0.117
    62   8 O    2.173 --    41 Ti   1.070    48 C    0.451    40 Ti   0.237
                            55 O    0.105
 ---------------------------------------------------------------------------

Topologies differ in total number of bonds
Writing topology from bond orders to xtbtopo.mol

molecular dipole:
                 x           y           z       tot (Debye)
 q only:        1.736      -7.746       5.602
   full:        0.901      -3.701       2.395      11.437
molecular quadrupole (traceless):
                xx          xy          yy          xz          yz          zz
 q only:       55.383       1.078      48.684      18.982       1.013    -104.067
  q+dip:       54.413       8.283      77.612      28.218      -2.368    -132.026
   full:       51.040       8.644      85.060      27.718      -1.752    -136.100


           -------------------------------------------------
          | TOTAL ENERGY             -139.310906047877 Eh   |
          | GRADIENT NORM               5.384041961896 Eh/α |
          | HOMO-LUMO GAP               0.043192351890 eV   |
           -------------------------------------------------

------------------------------------------------------------------------
 * finished run on 2026/08/31 at 20:30:10.854     
------------------------------------------------------------------------
 total:
 * wall-time:     0 d,  0 h,  0 min,  4.774 sec
 *  cpu-time:     0 d,  0 h,  0 min, 19.828 sec
 * ratio c/w:     4.153 speedup
 SCF:
 * wall-time:     0 d,  0 h,  0 min,  4.716 sec
 *  cpu-time:     0 d,  0 h,  0 min, 19.594 sec
 * ratio c/w:     4.155 speedup

normal termination of xtb
