88
Drug@Ti12C7O14 non-overlapping complex
C      6.178104     -2.718497      8.123999
C      4.779840     -2.167498      8.155543
C      3.708617     -3.049632      7.959814
C      2.386762     -2.588965      7.949732
C      2.082169     -1.233488      8.127239
N      0.743361     -0.832269      8.075616
C      0.114656      0.413314      8.038980
N     -1.207143      0.378422      8.114184
C     -1.823190      1.550608      8.073896
N     -3.212431      1.652794      8.138441
C     -4.257389      0.731566      8.288131
C     -5.578607      1.210940      8.228014
C     -6.696074      0.373584      8.358662
C     -6.444216     -0.983646      8.553679
N     -7.281142     -2.054054      8.715543
N     -6.649635     -3.228398      8.883004
C     -5.351503     -2.903114      8.823538
C     -4.308353     -3.946875      8.967368
C     -5.162012     -1.509434      8.618848
C     -4.057403     -0.643275      8.483309
N     -1.189470      2.712152      7.964385
C      0.135732      2.671924      7.883616
N      0.837394      3.868727      7.723572
C      2.272990      3.782053      7.957651
C      0.158963      5.049640      8.230985
N      0.812173      1.532372      7.922401
C      3.150478     -0.351939      8.304972
C      4.481641     -0.804667      8.326026
S      5.756601      0.415922      8.575800
O      6.882775      0.109958      7.727892
O      5.154981      1.731374      8.602192
N      6.200176      0.121373     10.176919
H      6.173933     -3.811560      8.202066
H      6.667871     -2.457300      7.181230
H      6.769625     -2.351793      8.967206
H      3.891337     -4.111679      7.802170
H      1.589540     -3.311096      7.784720
H      0.042184     -1.558371      8.092423
H     -3.471025      2.625356      8.052344
H     -5.759058      2.273354      8.071695
H     -7.703971      0.771127      8.307612
H     -8.294179     -2.050196      8.722287
H     -3.690113     -3.747946      9.848590
H     -3.658971     -3.961296      8.086189
H     -4.747143     -4.943709      9.079690
H     -3.061982     -1.065445      8.539610
H      2.492821      3.496635      8.992852
H      2.747728      3.068405      7.274726
H      2.748738      4.751290      7.770188
H     -0.000109      4.983426      9.313501
H      0.756489      5.947318      8.035609
H     -0.805438      5.207665      7.734756
H      2.957472      0.707806      8.440052
H      5.982907      0.954604     10.727003
H      5.752502     -0.707567     10.566230
Ti     -2.141866     -3.008818      2.119748
Ti      0.288991     -1.694759      1.432425
Ti      1.903098     -3.067749     -0.729322
Ti     -2.521502     -0.251928      1.303687
Ti      2.142050      0.499533      2.204434
Ti     -0.681448      0.189635      3.681230
Ti     -2.036770     -3.077740     -1.200512
Ti     -0.605340     -0.770900     -2.035132
Ti      1.945488     -1.587317     -3.412400
Ti     -1.878170      1.746573     -1.240030
Ti      2.412512      0.454231     -0.774247
Ti      0.817742      1.838452     -2.940004
C     -3.678414      1.281398      0.600737
C      4.128193      0.482847      0.387293
C      0.455479      2.267202      0.349695
C     -3.666709      2.118834     -0.313920
C      4.115962      0.632239      1.621354
C     -0.635167      2.741046     -0.118921
C      1.630072      1.780996      0.734224
O     -3.093456     -1.956907      1.037949
O     -0.487250     -2.605849      2.701203
O      0.314079     -2.888890      0.145001
O     -0.800785     -0.435934      0.971227
O      1.902865     -1.158331      1.469449
O     -2.322673     -0.113878      3.024800
O      1.013786      0.441598      3.568761
O     -1.772019     -4.587905     -1.652810
O      0.190605     -1.189189     -3.534030
O      2.831420     -2.170248     -1.918042
O     -2.054558     -0.224445     -1.337505
O      0.768511     -0.390574     -1.063664
O     -0.900039      1.649313     -2.818565
O      2.415313      1.357463     -2.264115
