      -----------------------------------------------------------      
     |                   =====================                   |     
     |                           x T B                           |     
     |                   =====================                   |     
     |                         S. Grimme                         |     
     |          Mulliken Center for Theoretical Chemistry        |     
     |                    University of Bonn                     |     
      -----------------------------------------------------------      

   * xtb version 6.7.1pre (5071a88) compiled by 'Marcel@Raven' on 2024-07-23

   xtb is free software: you can redistribute it and/or modify it under
   the terms of the GNU Lesser General Public License as published by
   the Free Software Foundation, either version 3 of the License, or
   (at your option) any later version.
   
   xtb is distributed in the hope that it will be useful,
   but WITHOUT ANY WARRANTY; without even the implied warranty of
   MERCHANTABILITY or FITNESS FOR A PARTICULAR PURPOSE.  See the
   GNU Lesser General Public License for more details.
   
   Cite this work as:
   * C. Bannwarth, E. Caldeweyher, S. Ehlert, A. Hansen, P. Pracht,
     J. Seibert, S. Spicher, S. Grimme, WIREs Comput. Mol. Sci., 2020, 11,
     e01493. DOI: 10.1002/wcms.1493
   
   for GFN2-xTB:
   * C. Bannwarth, S. Ehlert and S. Grimme., J. Chem. Theory Comput., 2019,
     15, 1652-1671. DOI: 10.1021/acs.jctc.8b01176
   for GFN1-xTB:
   * S. Grimme, C. Bannwarth, P. Shushkov, J. Chem. Theory Comput., 2017,
     13, 1989-2009. DOI: 10.1021/acs.jctc.7b00118
   for GFN0-xTB:
   * P. Pracht, E. Caldeweyher, S. Ehlert, S. Grimme, ChemRxiv, 2019, preprint.
     DOI: 10.26434/chemrxiv.8326202.v1
   for GFN-FF:
   * S. Spicher and S. Grimme, Angew. Chem. Int. Ed., 2020, 59, 15665-15673.
     DOI: 10.1002/anie.202004239
   
   for ALPB and GBSA implicit solvation:
   * S. Ehlert, M. Stahn, S. Spicher, S. Grimme, J. Chem. Theory Comput.,
     2021, 17, 4250-4261. DOI: 10.1021/acs.jctc.1c00471
   
   for ddCOSMO and CPCM-X implicit solvation:
   * M. Stahn, S. Ehlert, S. Grimme, J. Phys. Chem. A,
     2023, XX, XXXX-XXXX. DOI: 10.1021/acs.jpca.3c04382
   
   for DFT-D4:
   * E. Caldeweyher, C. Bannwarth and S. Grimme, J. Chem. Phys., 2017,
     147, 034112. DOI: 10.1063/1.4993215
   * E. Caldeweyher, S. Ehlert, A. Hansen, H. Neugebauer, S. Spicher,
     C. Bannwarth and S. Grimme, J. Chem. Phys., 2019, 150, 154122.
     DOI: 10.1063/1.5090222
   * E. Caldeweyher, J.-M. Mewes, S. Ehlert and S. Grimme, Phys. Chem. Chem. Phys.
     2020, 22, 8499-8512. DOI: 10.1039/D0CP00502A
   
   for sTDA-xTB:
   * S. Grimme and C. Bannwarth, J. Chem. Phys., 2016, 145, 054103.
     DOI: 10.1063/1.4959605
   
   in the mass-spec context:
   * V. Asgeirsson, C. Bauer and S. Grimme, Chem. Sci., 2017, 8, 4879.
     DOI: 10.1039/c7sc00601b
   * J. Koopman and S. Grimme, ACS Omega 2019, 4, 12, 15120-15133.
     DOI: 10.1021/acsomega.9b02011
   
   for metadynamics refer to:
   * S. Grimme, J. Chem. Theory Comput., 2019, 155, 2847-2862
     DOI: 10.1021/acs.jctc.9b00143
   
   for SPH calculations refer to:
   * S. Spicher and S. Grimme, J. Chem. Theory Comput., 2021, 17, 1701-1714
     DOI: 10.1021/acs.jctc.0c01306
   
   for ONIOM refer to:
   * C. Plett, A. Katbashev, S. Ehlert, S. Grimme, M. Bursch,
     Phys. Chem. Chem. Phys., 2023, 25, 17860-17868. DOI: 10.1039/D3CP02178E
   
   for DIPRO refer to:
   * J. Kohn, N. Gildemeister, S. Grimme, D. Fazzi, A. Hansen,
     J. Chem. Phys., 2023, just accepted.
   
   for PTB refer to:
   * S. Grimme, M. Mueller, A. Hansen, J. Chem. Phys., 2023, 158, 124111.
     DOI: 10.1063/5.0137838
   
   with help from (in alphabetical order)
   P. Atkinson, C. Bannwarth, F. Bohle, G. Brandenburg, E. Caldeweyher
   M. Checinski, S. Dohm, S. Ehlert, S. Ehrlich, I. Gerasimov, C. Hölzer
   A. Katbashev, J. Kohn, J. Koopman, C. Lavigne, S. Lehtola, F. März, M. Müller,
   F. Musil, H. Neugebauer, J. Pisarek, C. Plett, P. Pracht, F. Pultar,
   J. Seibert, P. Shushkov, S. Spicher, M. Stahn, M. Steiner, T. Strunk,
   J. Stückrath, T. Rose, and J. Unsleber
   
 * started run on 2026/08/31 at 21:57:41.883     
   ID    Z sym.   atoms
    1    6 C      1-5, 7, 9-12, 14-19, 21, 23, 24, 26, 27, 67-73
    2    7 N      6, 8, 13, 20, 22, 25, 31
    3   16 S      28
    4    8 O      29, 30, 74-87
    5    1 H      32-54
    6   22 Ti     55-66

           -------------------------------------------------
          |                Calculation Setup                |
           -------------------------------------------------

          program call               : "c:\Users\Andre\Proyectos doctorado\kras-pancreatic-gC3N4-ai\tools\xtb\xtb-6.7.1\bin\xtb.exe" "c:\Users\Andre\Proyectos doctorado\mxene-glioblastoma-qsar-ai\calculations\gbm\Pazopanib\Pazopanib_Ti12C7O14_clean_complex.xyz" --gfn 2 --sp --chrg 0 --uhf 0 --etemp 500 --acc 1.0 --iterations 500 --norestart
          coordinate file            : c:\Users\Andre\Proyectos doctorado\mxene-glioblastoma-qsar-ai\calculations\gbm\Pazopanib\Pazopanib_Ti12C7O14_clean_complex.xyz
          omp threads                :                    16


molecular fragmentation (1/2 indicates fragments):
111111111111111111111111111111111111111111111111111111222222222222222222
222222222222222
# atoms in fragment 1/2:    54    33
 fragment masses (1/2) :      437.52      882.47
CMA distance (Bohr)    :  20.231
constraining FC (au)   :  0.0500

           -------------------------------------------------
          |                 G F N 2 - x T B                 |
           -------------------------------------------------

        Reference                      10.1021/acs.jctc.8b01176
      * Hamiltonian:
        H0-scaling (s, p, d)           1.850000    2.230000    2.230000
        zeta-weighting                 0.500000
      * Dispersion:
        s8                             2.700000
        a1                             0.520000
        a2                             5.000000
        s9                             5.000000
      * Repulsion:
        kExp                           1.500000    1.000000
        rExp                           1.000000
      * Coulomb:
        alpha                          2.000000
        third order                    shell-resolved
        anisotropic                    true
        a3                             3.000000
        a5                             4.000000
        cn-shift                       1.200000
        cn-exp                         4.000000
        max-rad                        5.000000


          ...................................................
          :                      SETUP                      :
          :.................................................:
          :  # basis functions                 357          :
          :  # atomic orbitals                 344          :
          :  # shells                          164          :
          :  # electrons                       320          :
          :  max. iterations                   500          :
          :  Hamiltonian                  GFN2-xTB          :
          :  restarted?                      false          :
          :  GBSA solvation                  false          :
          :  PC potential                    false          :
          :  electronic temp.          500.0000000     K    :
          :  accuracy                    1.0000000          :
          :  -> integral cutoff          0.2500000E+02      :
          :  -> integral neglect         0.1000000E-07      :
          :  -> SCF convergence          0.1000000E-05 Eh   :
          :  -> wf. convergence          0.1000000E-03 e    :
          :  Broyden damping             0.4000000          :
          :  net charge                          0          :
          :  unpaired electrons                  0          :
          ...................................................

 iter      E             dE          RMSdq      gap      omega  full diag
   1   -178.1126134 -0.178113E+03  0.140E+01    0.03       0.0  T
   2   -103.2598923  0.748527E+02  0.168E+01    0.08       1.0  T
   3    235.0008487  0.338261E+03  0.317E+01    0.15       1.0  T
   4   -114.4207719 -0.349422E+03  0.173E+01    0.02       1.0  T
   5     45.6521152  0.160073E+03  0.225E+01    0.06       1.0  T
   6   -166.6886217 -0.212341E+03  0.131E+01    0.05       1.0  T
   7   -176.8120663 -0.101234E+02  0.937E+00    0.06       1.0  T
   8   -178.3967599 -0.158469E+01  0.882E+00    0.09       1.0  T
   9   -179.8297121 -0.143295E+01  0.868E+00    0.12       1.0  T
  10   -179.5539547  0.275757E+00  0.873E+00    0.08       1.0  T
  11   -178.7234456  0.830509E+00  0.894E+00    0.47       1.0  T
  12   -178.7996681 -0.762226E-01  0.891E+00    0.42       1.0  T
  13   -178.8900391 -0.903710E-01  0.890E+00    0.50       1.0  T
  14   -178.6370822  0.252957E+00  0.836E+00    0.03       1.0  T
  15   -178.5716872  0.653950E-01  0.802E+00    0.07       1.0  T
  16   -172.9840177  0.558767E+01  0.112E+01    0.03       1.0  T
  17   -173.9180011 -0.933983E+00  0.990E+00    0.07       1.0  T
  18   -178.9829603 -0.506496E+01  0.932E+00    0.10       1.0  T
  19   -181.4917612 -0.250880E+01  0.647E+00    0.01       1.0  T
  20   -181.5187820 -0.270209E-01  0.629E+00    0.01       1.0  T
  21   -181.5119040  0.687801E-02  0.615E+00    0.02       1.0  T
  22   -181.7426478 -0.230744E+00  0.615E+00    0.16       1.0  T
  23   -181.4355953  0.307052E+00  0.632E+00    0.01       1.0  T
  24   -178.7625967  0.267300E+01  0.645E+00    0.08       1.0  T
  25   -177.9108241  0.851773E+00  0.672E+00    0.00       1.0  T
  26   -177.9394343 -0.286102E-01  0.671E+00    0.00       1.0  T
  27   -176.1039334  0.183550E+01  0.648E+00    0.23       1.0  T
  28   -178.7171936 -0.261326E+01  0.619E+00    0.41       1.0  T
  29   -171.8776218  0.683957E+01  0.643E+00    0.22       1.0  T
  30   -176.1444736 -0.426685E+01  0.614E+00    0.12       1.0  T
  31   -177.0422139 -0.897740E+00  0.585E+00    0.04       1.0  T
  32   -168.7713392  0.827087E+01  0.772E+00    0.04       1.0  T
  33   -169.9863322 -0.121499E+01  0.731E+00    0.14       1.0  T
  34   -169.8216082  0.164724E+00  0.751E+00    0.13       1.0  T
  35   -168.5370866  0.128452E+01  0.848E+00    0.03       1.0  T
  36   -175.4063571 -0.686927E+01  0.637E+00    0.06       1.0  T
  37   -175.8028038 -0.396447E+00  0.515E+00    0.05       1.0  T
  38   -181.7207047 -0.591790E+01  0.527E+00    0.10       1.0  T
  39   -181.1240610  0.596644E+00  0.422E+00    0.02       1.0  T
  40   -181.5323970 -0.408336E+00  0.426E+00    0.10       1.0  T
  41   -181.4063380  0.126059E+00  0.421E+00    0.05       1.0  T
  42   -181.5514486 -0.145111E+00  0.364E+00    0.07       1.0  T
  43   -181.8891305 -0.337682E+00  0.339E+00    0.00       1.0  T
  44   -182.0480522 -0.158922E+00  0.254E+00    0.04       1.0  T
  45   -182.0786081 -0.305559E-01  0.281E+00    0.05       1.0  T
  46   -182.1114372 -0.328291E-01  0.277E+00    0.05       1.0  T
  47   -182.0790461  0.323911E-01  0.243E+00    0.04       1.0  T
  48   -181.9695709  0.109475E+00  0.259E+00    0.12       1.0  T
  49   -181.9655792  0.399175E-02  0.264E+00    0.13       1.0  T
  50   -181.9805082 -0.149290E-01  0.254E+00    0.11       1.0  T
  51   -181.9035553  0.769530E-01  0.327E+00    0.23       1.0  T
  52   -181.8982543  0.530099E-02  0.331E+00    0.24       1.0  T
  53   -181.9118751 -0.136208E-01  0.317E+00    0.21       1.0  T
  54   -181.9537849 -0.419099E-01  0.287E+00    0.07       1.0  T
  55   -182.0184380 -0.646531E-01  0.243E+00    0.02       1.0  T
  56   -182.0959289 -0.774909E-01  0.164E+00    0.06       1.0  T
  57   -181.7646993  0.331230E+00  0.263E+00    0.15       1.0  T
  58   -182.0013100 -0.236611E+00  0.249E+00    0.07       1.0  T
  59   -182.0414849 -0.401749E-01  0.199E+00    0.11       1.0  T
  60   -182.0794111 -0.379263E-01  0.169E+00    0.07       1.0  T
  61   -182.1705409 -0.911297E-01  0.145E+00    0.03       1.0  T
  62   -182.1665214  0.401951E-02  0.137E+00    0.02       1.0  T
  63   -182.1581989  0.832251E-02  0.127E+00    0.02       1.0  T
  64   -182.1806929 -0.224941E-01  0.129E+00    0.03       1.0  T
  65   -182.1789439  0.174904E-02  0.125E+00    0.03       1.0  T
  66   -182.1832720 -0.432807E-02  0.109E+00    0.03       1.0  T
  67   -182.1951840 -0.119120E-01  0.156E+00    0.05       1.0  T
  68   -182.1936540  0.153001E-02  0.151E+00    0.05       1.0  T
  69   -182.2002691 -0.661519E-02  0.135E+00    0.05       1.0  T
  70   -182.1949850  0.528418E-02  0.666E-01    0.03       1.0  T
  71   -182.1899956  0.498937E-02  0.614E-01    0.02       1.0  T
  72   -182.1971638 -0.716820E-02  0.597E-01    0.03       1.0  T
  73   -182.1936113  0.355253E-02  0.521E-01    0.02       1.0  T
  74   -182.2020877 -0.847643E-02  0.449E-01    0.03       1.0  T
  75   -182.1989735  0.311424E-02  0.341E-01    0.02       1.0  T
  76   -182.1948172  0.415622E-02  0.399E-01    0.02       1.0  T
  77   -182.2008111 -0.599381E-02  0.297E-01    0.03       1.0  T
  78   -182.2009604 -0.149350E-03  0.293E-01    0.03       1.0  T
  79   -182.2036528 -0.269241E-02  0.245E-01    0.03       1.0  T
  80   -182.2044899 -0.837102E-03  0.224E-01    0.03       1.0  T
  81   -182.2063172 -0.182728E-02  0.219E-01    0.04       1.0  T
  82   -182.2051202  0.119699E-02  0.192E-01    0.03       1.0  T
  83   -182.2050099  0.110292E-03  0.187E-01    0.03       1.0  T
  84   -182.2054780 -0.468087E-03  0.162E-01    0.03       1.0  T
  85   -182.2069060 -0.142802E-02  0.131E-01    0.04       1.0  T
  86   -182.2074281 -0.522101E-03  0.145E-01    0.04       1.0  T
  87   -182.2073398  0.883547E-04  0.130E-01    0.04       1.0  T
  88   -182.2075623 -0.222540E-03  0.139E-01    0.04       1.0  T
  89   -182.2074285  0.133815E-03  0.120E-01    0.04       1.0  T
  90   -182.2075152 -0.866687E-04  0.112E-01    0.04       1.0  T
  91   -182.2077263 -0.211179E-03  0.101E-01    0.04       1.0  T
  92   -182.2077254  0.929942E-06  0.780E-02    0.04       1.0  T
  93   -182.2080223 -0.296891E-03  0.679E-02    0.04       1.0  T
  94   -182.2083896 -0.367298E-03  0.394E-02    0.04       1.0  T
  95   -182.2085189 -0.129293E-03  0.422E-02    0.04       1.0  T
  96   -182.2084993  0.196343E-04  0.422E-02    0.04       1.0  T
  97   -182.2083242  0.175047E-03  0.673E-02    0.05       1.0  T
  98   -182.2084462 -0.121961E-03  0.571E-02    0.05       1.0  T
  99   -182.2083418  0.104335E-03  0.624E-02    0.05       1.0  T
 100   -182.2084946 -0.152730E-03  0.446E-02    0.05       1.0  T
 101   -182.2085784 -0.838067E-04  0.352E-02    0.05       1.0  T
 102   -182.2085632  0.151500E-04  0.330E-02    0.04       1.0  T
 103   -182.2085837 -0.204802E-04  0.277E-02    0.04       1.0  T
 104   -182.2086190 -0.352996E-04  0.229E-02    0.04       1.0  T
 105   -182.2086242 -0.521619E-05  0.151E-02    0.04       1.0  T
 106   -182.2086380 -0.137693E-04  0.110E-02    0.04       1.0  T
 107   -182.2086420 -0.400251E-05  0.575E-03    0.04       1.9  T
 108   -182.2086433 -0.130179E-05  0.476E-03    0.04       2.3  T
 109   -182.2086434 -0.153627E-06  0.443E-03    0.04       2.4  T
 110   -182.2086439 -0.420568E-06  0.295E-03    0.04       3.6  T
 111   -182.2086440 -0.176946E-06  0.353E-03    0.04       3.0  T
 112   -182.2086440  0.622741E-07  0.359E-03    0.04       3.0  T
 113   -182.2086442 -0.237436E-06  0.242E-03    0.04       4.4  T
 114   -182.2086442 -0.517360E-09  0.168E-03    0.04       6.4  T
 115   -182.2086443 -0.319843E-07  0.983E-04    0.04      10.9  T
 116   -182.2086443 -0.754184E-08  0.903E-04    0.04      11.9  T

   *** convergence criteria satisfied after 116 iterations ***

         #    Occupation            Energy/Eh            Energy/eV
      -------------------------------------------------------------
         1        2.0000           -0.8492115             -23.1082
       ...           ...                  ...                  ...
       154        2.0000           -0.3772547             -10.2656
       155        1.9996           -0.3714304             -10.1071
       156        1.9993           -0.3707015             -10.0873
       157        1.9733           -0.3648830              -9.9290
       158        1.9435           -0.3636726              -9.8960
       159        1.6590           -0.3605748              -9.8117
       160        1.4446           -0.3595832              -9.7848 (HOMO)
       161        0.9799           -0.3580061              -9.7418 (LUMO)
       162        0.0007           -0.3455794              -9.4037
       163        0.0001           -0.3418986              -9.3035
       164                         -0.3228482              -8.7851
       165                         -0.3166033              -8.6152
       ...                                ...                  ...
       344                         13.3006753             361.9298
      -------------------------------------------------------------
                  HL-Gap            0.0015771 Eh            0.0429 eV
             Fermi-level           -0.3580697 Eh           -9.7436 eV

 SCC (total)                   0 d,  0 h,  0 min, 25.039 sec
 SCC setup                      ...        0 min,  0.001 sec (  0.004%)
 Dispersion                     ...        0 min,  0.005 sec (  0.020%)
 classical contributions        ...        0 min,  0.000 sec (  0.000%)
 integral evaluation            ...        0 min,  0.013 sec (  0.052%)
 iterations                     ...        0 min, 24.966 sec ( 99.708%)
 molecular gradient             ...        0 min,  0.051 sec (  0.204%)
 printout                       ...        0 min,  0.003 sec (  0.012%)

         :::::::::::::::::::::::::::::::::::::::::::::::::::::
         ::                     SUMMARY                     ::
         :::::::::::::::::::::::::::::::::::::::::::::::::::::
         :: total energy            -180.336311202368 Eh    ::
         :: gradient norm              0.152611008702 Eh/a0 ::
         :: HOMO-LUMO gap              0.042915984237 eV    ::
         ::.................................................::
         :: SCC energy              -182.207009767624 Eh    ::
         :: -> isotropic ES            0.823593299346 Eh    ::
         :: -> anisotropic ES         -0.286267043221 Eh    ::
         :: -> anisotropic XC          0.006014659256 Eh    ::
         :: -> dispersion             -0.148143829517 Eh    ::
         :: repulsion energy           1.870698565255 Eh    ::
         :: add. restraining           0.000000000000 Eh    ::
         :: total charge              -0.000000000010 e     ::
         :::::::::::::::::::::::::::::::::::::::::::::::::::::

           -------------------------------------------------
          |                Property Printout                |
           -------------------------------------------------

    * Orbital Energies and Occupations

         #    Occupation            Energy/Eh            Energy/eV
      -------------------------------------------------------------
         1        2.0000           -0.8492115             -23.1082
       ...           ...                  ...                  ...
       148        2.0000           -0.3951530             -10.7527
       149        2.0000           -0.3902741             -10.6199
       150        2.0000           -0.3849909             -10.4761
       151        2.0000           -0.3828455             -10.4178
       152        2.0000           -0.3823835             -10.4052
       153        2.0000           -0.3785827             -10.3018
       154        2.0000           -0.3772547             -10.2656
       155        1.9996           -0.3714304             -10.1071
       156        1.9993           -0.3707015             -10.0873
       157        1.9733           -0.3648830              -9.9290
       158        1.9435           -0.3636726              -9.8960
       159        1.6590           -0.3605748              -9.8117
       160        1.4446           -0.3595832              -9.7848 (HOMO)
       161        0.9799           -0.3580061              -9.7418 (LUMO)
       162        0.0007           -0.3455794              -9.4037
       163        0.0001           -0.3418986              -9.3035
       164                         -0.3228482              -8.7851
       165                         -0.3166033              -8.6152
       166                         -0.3141522              -8.5485
       167                         -0.3136926              -8.5360
       168                         -0.3104510              -8.4478
       169                         -0.3079851              -8.3807
       170                         -0.3054003              -8.3104
       171                         -0.3031512              -8.2492
       ...                                ...                  ...
       344                         13.3006753             361.9298
      -------------------------------------------------------------
                  HL-Gap            0.0015771 Eh            0.0429 eV
             Fermi-level           -0.3580697 Eh           -9.7436 eV

     #   Z          covCN         q      C6AA      α(0)
     1   6 C        3.754    -0.124    22.945     6.830
     2   6 C        2.982     0.019    27.569     8.613
     3   6 C        2.915    -0.038    28.942     8.822
     4   6 C        2.916    -0.048    29.203     8.862
     5   6 C        2.889     0.081    26.186     8.390
     6   7 N        2.700    -0.149    24.221     7.309
     7   6 C        2.841     0.230    23.174     7.889
     8   7 N        1.834    -0.288    28.315     7.885
     9   6 C        2.920     0.062    26.604     8.458
    10   6 C        2.957    -0.033    28.810     8.804
    11   6 C        3.755    -0.109    22.648     6.786
    12   6 C        2.885     0.162    24.510     8.116
    13   7 N        2.690    -0.176    24.819     7.399
    14   6 C        2.893     0.069    26.458     8.433
    15   6 C        2.937    -0.051    29.273     8.873
    16   6 C        2.898    -0.042    29.033     8.835
    17   6 C        3.136    -0.029    28.496     8.737
    18   6 C        2.982     0.017    27.623     8.621
    19   6 C        3.751    -0.111    22.681     6.792
    20   7 N        3.044     0.075    19.927     6.630
    21   6 C        3.689    -0.067    21.989     6.712
    22   7 N        1.960    -0.264    27.682     7.802
    23   6 C        3.112     0.068    26.327     8.406
    24   6 C        2.901    -0.073    29.823     8.954
    25   7 N        1.846    -0.315    29.026     7.985
    26   6 C        2.968    -0.059    29.467     8.904
    27   6 C        2.958    -0.099    30.486     9.056
    28  16 S        3.686     1.143   102.656    17.053
    29   8 O        0.860    -0.592    25.917     6.826
    30   8 O        0.860    -0.578    25.592     6.783
    31   7 N        2.632    -0.467    32.296     8.440
    32   1 H        0.924     0.055     2.258     2.350
    33   1 H        0.924     0.077     2.014     2.219
    34   1 H        0.924     0.055     2.264     2.353
    35   1 H        0.925     0.057     2.234     2.338
    36   1 H        0.925     0.079     1.988     2.205
    37   1 H        0.860     0.194     1.134     1.668
    38   1 H        0.925     0.043     2.405     2.425
    39   1 H        0.924     0.054     2.267     2.354
    40   1 H        0.924     0.047     2.353     2.399
    41   1 H        0.924     0.043     2.403     2.424
    42   1 H        0.860     0.176     1.240     1.744
    43   1 H        0.924     0.042     2.425     2.435
    44   1 H        0.926     0.040     2.442     2.444
    45   1 H        0.924     0.058     2.228     2.334
    46   1 H        0.924     0.053     2.288     2.366
    47   1 H        0.924     0.053     2.288     2.366
    48   1 H        0.924     0.067     2.124     2.279
    49   1 H        0.924     0.087     1.905     2.158
    50   1 H        0.924     0.065     2.137     2.286
    51   1 H        0.926     0.038     2.478     2.462
    52   1 H        0.925     0.060     2.196     2.317
    53   1 H        0.863     0.200     1.107     1.648
    54   1 H        0.863     0.201     1.102     1.645
    55  22 Ti       3.637     1.074   101.520    24.455
    56  22 Ti       6.855     1.519    84.352    14.911
    57  22 Ti       3.227     1.124   101.761    24.632
    58  22 Ti       5.860     1.371    85.759    15.035
    59  22 Ti       5.627     1.145    87.965    15.227
    60  22 Ti       3.541     1.061   102.231    24.642
    61  22 Ti       2.352     0.916   201.876    34.790
    62  22 Ti       6.011     1.303    86.410    15.092
    63  22 Ti       3.414    -0.934   130.429    27.877
    64  22 Ti       5.519     1.125    88.169    15.245
    65  22 Ti       5.687     1.218    87.243    15.165
    66  22 Ti       3.581     1.126   101.321    24.503
    67   6 C        2.246    -0.241    37.078     9.866
    68   6 C        2.142    -0.210    36.836     9.811
    69   6 C        2.248    -0.009    30.351     8.926
    70   6 C        1.838    -0.190    36.690     9.786
    71   6 C        1.894    -0.209    37.236     9.855
    72   6 C        1.821    -0.306    40.665    10.303
    73   6 C        2.631    -0.359    38.313    10.125
    74   8 O        1.554    -0.825    31.324     7.551
    75   8 O        1.464    -0.858    32.477     7.681
    76   8 O        1.557    -0.896    33.576     7.818
    77   8 O        1.523    -0.997    37.104     8.216
    78   8 O        1.523    -0.883    33.189     7.770
    79   8 O        1.458    -0.805    30.870     7.488
    80   8 O        1.455    -0.781    30.168     7.403
    81   8 O        0.727    -0.572    25.518     6.769
    82   8 O        1.453    -0.404    21.116     6.193
    83   8 O        1.476    -0.368    20.398     6.089
    84   8 O        1.603    -0.908    33.909     7.859
    85   8 O        1.547    -0.870    32.721     7.717
    86   8 O        1.700    -0.772    29.640     7.351
    87   8 O        1.453    -0.644    26.467     6.933

 Mol. C6AA /au·bohr⁶  :     185855.012852
 Mol. C8AA /au·bohr⁸  :    7958822.034113
 Mol. α(0) /au        :        732.310124


Wiberg/Mayer (AO) data.
largest (>0.10) Wiberg bond orders for each atom

 ---------------------------------------------------------------------------
     #   Z sym  total        # sym  WBO       # sym  WBO       # sym  WBO
 ---------------------------------------------------------------------------
     1   6 C    3.992 --     2 C    1.030    34 H    0.982    32 H    0.973
                            33 H    0.962
     2   6 C    3.970 --     3 C    1.399    27 C    1.379     1 C    1.030
     3   6 C    3.988 --     4 C    1.453     2 C    1.399    35 H    0.966
                            26 C    0.105
     4   6 C    3.980 --     3 C    1.453     5 C    1.356    36 H    0.961
     5   6 C    3.965 --     4 C    1.356    26 C    1.355     6 N    1.108
     6   7 N    3.471 --     7 C    1.151     5 C    1.108    37 H    0.929
     7   6 C    3.960 --     8 N    1.341    25 N    1.324     6 N    1.151
     8   7 N    3.025 --     9 C    1.400     7 C    1.341
     9   6 C    3.975 --    10 C    1.438     8 N    1.400    38 H    0.961
    10   6 C    3.969 --     9 C    1.438    12 C    1.307    11 C    1.024
    11   6 C    3.994 --    10 C    1.024    40 H    0.984    39 H    0.973
                            41 H    0.970
    12   6 C    3.965 --    25 N    1.370    10 C    1.307    13 N    1.104
    13   7 N    3.367 --    12 C    1.104    14 C    1.085    42 H    0.928
    14   6 C    3.949 --    24 C    1.441    15 C    1.278    13 N    1.085
    15   6 C    3.982 --    16 C    1.541    14 C    1.278    43 H    0.969
    16   6 C    3.978 --    15 C    1.541    17 C    1.285    44 H    0.967
                            24 C    0.113
    17   6 C    3.982 --    18 C    1.350    16 C    1.285    23 C    1.161
    18   6 C    3.943 --    17 C    1.350    20 N    1.269    19 C    1.036
                            22 N    0.173
    19   6 C    3.994 --    18 C    1.036    45 H    0.979    46 H    0.970
                            47 H    0.965
    20   7 N    3.669 --    18 C    1.269    22 N    1.199    21 C    1.002
    21   6 C    3.967 --    20 N    1.002    49 H    0.978    50 H    0.974
                            48 H    0.970
    22   7 N    2.910 --    23 C    1.367    20 N    1.199    18 C    0.173
    23   6 C    3.978 --    22 N    1.367    24 C    1.289    17 C    1.161
    24   6 C    3.949 --    14 C    1.441    23 C    1.289    51 H    0.967
                            16 C    0.113
    25   7 N    3.022 --    12 C    1.370     7 C    1.324
    26   6 C    3.980 --    27 C    1.428     5 C    1.355    52 H    0.961
                             3 C    0.105
    27   6 C    3.961 --    26 C    1.428     2 C    1.379    28 S    0.755
    28  16 S    4.937 --    30 O    1.598    29 O    1.591    31 N    0.935
                            27 C    0.755
    29   8 O    1.893 --    28 S    1.591    30 O    0.112
    30   8 O    1.908 --    28 S    1.598    29 O    0.112
    31   7 N    3.063 --    54 H    0.942    53 H    0.942    28 S    0.935
    32   1 H    0.996 --     1 C    0.973
    33   1 H    0.992 --     1 C    0.962
    34   1 H    0.997 --     1 C    0.982
    35   1 H    0.995 --     3 C    0.966
    36   1 H    0.993 --     4 C    0.961
    37   1 H    0.962 --     6 N    0.929
    38   1 H    0.997 --     9 C    0.961
    39   1 H    0.996 --    11 C    0.973
    40   1 H    0.998 --    11 C    0.984
    41   1 H    0.996 --    11 C    0.970
    42   1 H    0.968 --    13 N    0.928
    43   1 H    0.998 --    15 C    0.969
    44   1 H    0.998 --    16 C    0.967
    45   1 H    0.997 --    19 C    0.979
    46   1 H    0.995 --    19 C    0.970
    47   1 H    0.996 --    19 C    0.965
    48   1 H    0.992 --    21 C    0.970
    49   1 H    0.992 --    21 C    0.978
    50   1 H    0.994 --    21 C    0.974
    51   1 H    0.998 --    24 C    0.967
    52   1 H    0.996 --    26 C    0.961
    53   1 H    0.960 --    31 N    0.942
    54   1 H    0.959 --    31 N    0.942
    55  22 Ti   2.814 --    74 O    0.846    75 O    0.802    61 Ti   0.326
                            56 Ti   0.210    58 Ti   0.198
    56  22 Ti   3.902 --    75 O    0.785    78 O    0.727    76 O    0.713
                            77 O    0.611    55 Ti   0.210    57 Ti   0.179
                            60 Ti   0.142    59 Ti   0.140
    57  22 Ti   2.942 --    83 O    1.106    76 O    0.591    63 Ti   0.332
                            56 Ti   0.179    61 Ti   0.123    65 Ti   0.118
                            78 O    0.111
    58  22 Ti   3.935 --    79 O    0.944    74 O    0.724    67 C    0.714
                            77 O    0.565    60 Ti   0.210    55 Ti   0.198
                            64 Ti   0.179    84 O    0.126
    59  22 Ti   4.020 --    80 O    0.811    73 C    0.785    71 C    0.778
                            78 O    0.642    65 Ti   0.258    60 Ti   0.177
                            68 C    0.170    56 Ti   0.140    72 C    0.103
    60  22 Ti   2.640 --    80 O    0.954    79 O    0.722    58 Ti   0.210
                            59 Ti   0.177    56 Ti   0.142    75 O    0.122
    61  22 Ti   3.762 --    81 O    2.027    62 Ti   0.574    55 Ti   0.326
                            76 O    0.151    74 O    0.146    57 Ti   0.123
                            84 O    0.105
    62  22 Ti   4.099 --    82 O    0.844    84 O    0.777    85 O    0.748
                            61 Ti   0.574    86 O    0.189    66 Ti   0.182
                            64 Ti   0.144    63 Ti   0.125
    63  22 Ti   3.351 --    82 O    1.218    83 O    1.063    57 Ti   0.332
                            66 Ti   0.177    62 Ti   0.125
    64  22 Ti   3.917 --    72 C    0.919    70 C    0.750    86 O    0.664
                            84 O    0.502    66 Ti   0.210    58 Ti   0.179
                            67 C    0.167    62 Ti   0.144    73 C    0.130
    65  22 Ti   4.075 --    87 O    1.063    68 C    0.665    73 C    0.557
                            85 O    0.498    59 Ti   0.258    66 Ti   0.243
                            83 O    0.136    57 Ti   0.118
    66  22 Ti   2.917 --    86 O    0.890    87 O    0.796    65 Ti   0.243
                            64 Ti   0.210    62 Ti   0.182    63 Ti   0.177
                            82 O    0.110
    67   6 C    3.839 --    70 C    2.734    58 Ti   0.714    64 Ti   0.167
    68   6 C    3.776 --    71 C    2.716    65 Ti   0.665    59 Ti   0.170
    69   6 C    3.970 --    72 C    1.989    73 C    1.633
    70   6 C    3.723 --    67 C    2.734    64 Ti   0.750
    71   6 C    3.764 --    68 C    2.716    59 Ti   0.778
    72   6 C    3.475 --    69 C    1.989    64 Ti   0.919    59 Ti   0.103
    73   6 C    3.514 --    69 C    1.633    59 Ti   0.785    65 Ti   0.557
                            64 Ti   0.130
    74   8 O    1.957 --    55 Ti   0.846    58 Ti   0.724    61 Ti   0.146
    75   8 O    1.919 --    55 Ti   0.802    56 Ti   0.785    60 Ti   0.122
    76   8 O    1.854 --    56 Ti   0.713    57 Ti   0.591    61 Ti   0.151
    77   8 O    1.733 --    56 Ti   0.611    58 Ti   0.565
    78   8 O    1.886 --    56 Ti   0.727    59 Ti   0.642    57 Ti   0.111
    79   8 O    1.994 --    58 Ti   0.944    60 Ti   0.722
    80   8 O    2.037 --    60 Ti   0.954    59 Ti   0.811
    81   8 O    2.225 --    61 Ti   2.027
    82   8 O    2.486 --    63 Ti   1.218    62 Ti   0.844    66 Ti   0.110
    83   8 O    2.512 --    57 Ti   1.106    63 Ti   1.063    65 Ti   0.136
    84   8 O    1.846 --    62 Ti   0.777    64 Ti   0.502    58 Ti   0.126
                            61 Ti   0.105
    85   8 O    1.911 --    62 Ti   0.748    65 Ti   0.498
    86   8 O    2.037 --    66 Ti   0.890    64 Ti   0.664    62 Ti   0.189
    87   8 O    2.211 --    65 Ti   1.063    66 Ti   0.796
 ---------------------------------------------------------------------------

Topologies differ in total number of bonds
Writing topology from bond orders to xtbtopo.mol

molecular dipole:
                 x           y           z       tot (Debye)
 q only:       -4.429       0.583       6.504
   full:       -4.521       0.574       5.596      18.344
molecular quadrupole (traceless):
                xx          xy          yy          xz          yz          zz
 q only:       10.654     -17.448      -1.883     -17.226     -90.384      -8.771
  q+dip:       10.795     -30.809     -14.020      -9.437    -102.691       3.225
   full:        9.821     -30.402     -14.758     -12.952     -96.641       4.938


           -------------------------------------------------
          | TOTAL ENERGY             -180.336311202368 Eh   |
          | GRADIENT NORM               0.152611008702 Eh/α |
          | HOMO-LUMO GAP               0.042915984237 eV   |
           -------------------------------------------------

------------------------------------------------------------------------
 * finished run on 2026/08/31 at 21:58:06.991     
------------------------------------------------------------------------
 total:
 * wall-time:     0 d,  0 h,  0 min, 25.106 sec
 *  cpu-time:     0 d,  0 h,  0 min, 52.438 sec
 * ratio c/w:     2.089 speedup
 SCF:
 * wall-time:     0 d,  0 h,  0 min, 25.040 sec
 *  cpu-time:     0 d,  0 h,  0 min, 52.297 sec
 * ratio c/w:     2.089 speedup

normal termination of xtb
