112
Ti3C2O2 4x4 a=3.03 (DFT start)
Ti 0.00000 0.00000 13.30000
C 1.51500 0.87469 14.45000
C 3.03000 1.74937 12.15000
Ti 3.03000 1.74937 15.63000
Ti 1.51500 0.87469 10.97000
O 0.00000 0.00000 16.60000
O 0.00000 0.00000 10.00000
Ti 1.51500 2.62406 13.30000
C 3.03000 3.49874 14.45000
C 4.54500 4.37343 12.15000
Ti 4.54500 4.37343 15.63000
Ti 3.03000 3.49874 10.97000
O 1.51500 2.62406 16.60000
O 1.51500 2.62406 10.00000
Ti 3.03000 5.24811 13.30000
C 4.54500 6.12280 14.45000
C 6.06000 6.99749 12.15000
Ti 6.06000 6.99749 15.63000
Ti 4.54500 6.12280 10.97000
O 3.03000 5.24811 16.60000
O 3.03000 5.24811 10.00000
Ti 4.54500 7.87217 13.30000
C 6.06000 8.74686 14.45000
C 7.57500 9.62154 12.15000
Ti 7.57500 9.62154 15.63000
Ti 6.06000 8.74686 10.97000
O 4.54500 7.87217 16.60000
O 4.54500 7.87217 10.00000
Ti 3.03000 0.00000 13.30000
C 4.54500 0.87469 14.45000
C 6.06000 1.74937 12.15000
Ti 6.06000 1.74937 15.63000
Ti 4.54500 0.87469 10.97000
O 3.03000 0.00000 16.60000
O 3.03000 0.00000 10.00000
Ti 4.54500 2.62406 13.30000
C 6.06000 3.49874 14.45000
C 7.57500 4.37343 12.15000
Ti 7.57500 4.37343 15.63000
Ti 6.06000 3.49874 10.97000
O 4.54500 2.62406 16.60000
O 4.54500 2.62406 10.00000
Ti 6.06000 5.24811 13.30000
C 7.57500 6.12280 14.45000
C 9.09000 6.99749 12.15000
Ti 9.09000 6.99749 15.63000
Ti 7.57500 6.12280 10.97000
O 6.06000 5.24811 16.60000
O 6.06000 5.24811 10.00000
Ti 7.57500 7.87217 13.30000
C 9.09000 8.74686 14.45000
C 10.60500 9.62154 12.15000
Ti 10.60500 9.62154 15.63000
Ti 9.09000 8.74686 10.97000
O 7.57500 7.87217 16.60000
O 7.57500 7.87217 10.00000
Ti 6.06000 0.00000 13.30000
C 7.57500 0.87469 14.45000
C 9.09000 1.74937 12.15000
Ti 9.09000 1.74937 15.63000
Ti 7.57500 0.87469 10.97000
O 6.06000 0.00000 16.60000
O 6.06000 0.00000 10.00000
Ti 7.57500 2.62406 13.30000
C 9.09000 3.49874 14.45000
C 10.60500 4.37343 12.15000
Ti 10.60500 4.37343 15.63000
Ti 9.09000 3.49874 10.97000
O 7.57500 2.62406 16.60000
O 7.57500 2.62406 10.00000
Ti 9.09000 5.24811 13.30000
C 10.60500 6.12280 14.45000
C 12.12000 6.99749 12.15000
Ti 12.12000 6.99749 15.63000
Ti 10.60500 6.12280 10.97000
O 9.09000 5.24811 16.60000
O 9.09000 5.24811 10.00000
Ti 10.60500 7.87217 13.30000
C 12.12000 8.74686 14.45000
C 13.63500 9.62154 12.15000
Ti 13.63500 9.62154 15.63000
Ti 12.12000 8.74686 10.97000
O 10.60500 7.87217 16.60000
O 10.60500 7.87217 10.00000
Ti 9.09000 0.00000 13.30000
C 10.60500 0.87469 14.45000
C 12.12000 1.74937 12.15000
Ti 12.12000 1.74937 15.63000
Ti 10.60500 0.87469 10.97000
O 9.09000 0.00000 16.60000
O 9.09000 0.00000 10.00000
Ti 10.60500 2.62406 13.30000
C 12.12000 3.49874 14.45000
C 13.63500 4.37343 12.15000
Ti 13.63500 4.37343 15.63000
Ti 12.12000 3.49874 10.97000
O 10.60500 2.62406 16.60000
O 10.60500 2.62406 10.00000
Ti 12.12000 5.24811 13.30000
C 13.63500 6.12280 14.45000
C 15.15000 6.99749 12.15000
Ti 15.15000 6.99749 15.63000
Ti 13.63500 6.12280 10.97000
O 12.12000 5.24811 16.60000
O 12.12000 5.24811 10.00000
Ti 13.63500 7.87217 13.30000
C 15.15000 8.74686 14.45000
C 16.66500 9.62154 12.15000
Ti 16.66500 9.62154 15.63000
Ti 15.15000 8.74686 10.97000
O 13.63500 7.87217 16.60000
O 13.63500 7.87217 10.00000
