81
Drug@Ti12C7O14 non-overlapping complex
C     -1.103682     -3.900524      8.356659
C     -1.383838     -2.432094      8.423756
N     -0.357660     -1.618005      8.647231
C     -0.676348     -0.325999      8.711946
N     -1.915160      0.155424      8.587217
C     -2.883594     -0.733299      8.383672
N     -2.651293     -2.040561      8.298771
N     -4.175719     -0.275852      8.227685
C     -5.296859     -1.206765      8.386448
C     -6.318054     -0.634420      9.384000
O     -6.840776      0.650778      9.013804
C     -5.924879      1.440866      8.239700
C     -4.447579      1.131657      8.525973
C      0.415397      0.644105      8.947894
C      0.161480      2.021414      9.060528
C      1.198473      2.929316      9.270633
C      2.511633      2.477214      9.380050
F      3.457137      3.405721      9.593572
C      2.836322      1.112632      9.294949
N      4.139480      0.581756      9.381817
C      4.324392     -0.373520     10.503248
C      5.684175     -1.080348     10.368039
O      6.769676     -0.142005     10.302592
C      6.593544      0.735673      9.177831
C      5.277606      1.523598      9.283436
C      1.761590      0.226285      9.063745
H     -1.184622     -4.337018      9.356379
H     -1.818169     -4.399430      7.694689
H     -0.095661     -4.083904      7.972077
H     -5.773878     -1.331840      7.407292
H     -4.994334     -2.199330      8.737527
H     -7.168351     -1.316458      9.484902
H     -5.862593     -0.532304     10.376200
H     -6.138706      2.493207      8.451974
H     -6.152661      1.267724      7.181230
H     -4.233846      1.334610      9.583002
H     -3.824663      1.788163      7.907193
H     -0.855668      2.400781      8.977435
H      0.993083      3.992244      9.351260
H      3.543057     -1.140299     10.527903
H      4.292765      0.178496     11.451520
H      5.855157     -1.723352     11.237182
H      5.708756     -1.714328      9.473514
H      6.627430      0.144111      8.255062
H      7.440944      1.428272      9.163223
H      5.180690      2.158824      8.395660
H      5.319313      2.151512     10.182030
H      1.986494     -0.832727      8.939334
Ti     -2.141866     -3.008818      2.119748
Ti      0.288991     -1.694759      1.432425
Ti      1.903098     -3.067749     -0.729322
Ti     -2.521502     -0.251928      1.303687
Ti      2.142050      0.499533      2.204434
Ti     -0.681448      0.189635      3.681230
Ti     -2.036770     -3.077740     -1.200512
Ti     -0.605340     -0.770900     -2.035132
Ti      1.945488     -1.587317     -3.412400
Ti     -1.878170      1.746573     -1.240030
Ti      2.412512      0.454231     -0.774247
Ti      0.817742      1.838452     -2.940004
C     -3.678414      1.281398      0.600737
C      4.128193      0.482847      0.387293
C      0.455479      2.267202      0.349695
C     -3.666709      2.118834     -0.313920
C      4.115962      0.632239      1.621354
C     -0.635167      2.741046     -0.118921
C      1.630072      1.780996      0.734224
O     -3.093456     -1.956907      1.037949
O     -0.487250     -2.605849      2.701203
O      0.314079     -2.888890      0.145001
O     -0.800785     -0.435934      0.971227
O      1.902865     -1.158331      1.469449
O     -2.322673     -0.113878      3.024800
O      1.013786      0.441598      3.568761
O     -1.772019     -4.587905     -1.652810
O      0.190605     -1.189189     -3.534030
O      2.831420     -2.170248     -1.918042
O     -2.054558     -0.224445     -1.337505
O      0.768511     -0.390574     -1.063664
O     -0.900039      1.649313     -2.818565
O      2.415313      1.357463     -2.264115
