48
Buparlisib - conformer
C     -1.103682     -3.900524     -0.587172
C     -1.383838     -2.432094     -0.520075
N     -0.357660     -1.618005     -0.296600
C     -0.676348     -0.325999     -0.231885
N     -1.915160      0.155424     -0.356614
C     -2.883594     -0.733299     -0.560159
N     -2.651293     -2.040561     -0.645060
N     -4.175719     -0.275852     -0.716146
C     -5.296859     -1.206765     -0.557383
C     -6.318054     -0.634420      0.440169
O     -6.840776      0.650778      0.069973
C     -5.924879      1.440866     -0.704131
C     -4.447579      1.131657     -0.417858
C      0.415397      0.644105      0.004063
C      0.161480      2.021414      0.116697
C      1.198473      2.929316      0.326802
C      2.511633      2.477214      0.436219
F      3.457137      3.405721      0.649741
C      2.836322      1.112632      0.351118
N      4.139480      0.581756      0.437986
C      4.324392     -0.373520      1.559417
C      5.684175     -1.080348      1.424208
O      6.769676     -0.142005      1.358761
C      6.593544      0.735673      0.234000
C      5.277606      1.523598      0.339605
C      1.761590      0.226285      0.119914
H     -1.184622     -4.337018      0.412548
H     -1.818169     -4.399430     -1.249142
H     -0.095661     -4.083904     -0.971754
H     -5.773878     -1.331840     -1.536539
H     -4.994334     -2.199330     -0.206304
H     -7.168351     -1.316458      0.541071
H     -5.862593     -0.532304      1.432369
H     -6.138706      2.493207     -0.491857
H     -6.152661      1.267724     -1.762601
H     -4.233846      1.334610      0.639171
H     -3.824663      1.788163     -1.036638
H     -0.855668      2.400781      0.033604
H      0.993083      3.992244      0.407429
H      3.543057     -1.140299      1.584072
H      4.292765      0.178496      2.507689
H      5.855157     -1.723352      2.293351
H      5.708756     -1.714328      0.529683
H      6.627430      0.144111     -0.688769
H      7.440944      1.428272      0.219392
H      5.180690      2.158824     -0.548171
H      5.319313      2.151512      1.238199
H      1.986494     -0.832727     -0.004497
