      -----------------------------------------------------------      
     |                   =====================                   |     
     |                           x T B                           |     
     |                   =====================                   |     
     |                         S. Grimme                         |     
     |          Mulliken Center for Theoretical Chemistry        |     
     |                    University of Bonn                     |     
      -----------------------------------------------------------      

   * xtb version 6.7.1pre (5071a88) compiled by 'Marcel@Raven' on 2024-07-23

   xtb is free software: you can redistribute it and/or modify it under
   the terms of the GNU Lesser General Public License as published by
   the Free Software Foundation, either version 3 of the License, or
   (at your option) any later version.
   
   xtb is distributed in the hope that it will be useful,
   but WITHOUT ANY WARRANTY; without even the implied warranty of
   MERCHANTABILITY or FITNESS FOR A PARTICULAR PURPOSE.  See the
   GNU Lesser General Public License for more details.
   
   Cite this work as:
   * C. Bannwarth, E. Caldeweyher, S. Ehlert, A. Hansen, P. Pracht,
     J. Seibert, S. Spicher, S. Grimme, WIREs Comput. Mol. Sci., 2020, 11,
     e01493. DOI: 10.1002/wcms.1493
   
   for GFN2-xTB:
   * C. Bannwarth, S. Ehlert and S. Grimme., J. Chem. Theory Comput., 2019,
     15, 1652-1671. DOI: 10.1021/acs.jctc.8b01176
   for GFN1-xTB:
   * S. Grimme, C. Bannwarth, P. Shushkov, J. Chem. Theory Comput., 2017,
     13, 1989-2009. DOI: 10.1021/acs.jctc.7b00118
   for GFN0-xTB:
   * P. Pracht, E. Caldeweyher, S. Ehlert, S. Grimme, ChemRxiv, 2019, preprint.
     DOI: 10.26434/chemrxiv.8326202.v1
   for GFN-FF:
   * S. Spicher and S. Grimme, Angew. Chem. Int. Ed., 2020, 59, 15665-15673.
     DOI: 10.1002/anie.202004239
   
   for ALPB and GBSA implicit solvation:
   * S. Ehlert, M. Stahn, S. Spicher, S. Grimme, J. Chem. Theory Comput.,
     2021, 17, 4250-4261. DOI: 10.1021/acs.jctc.1c00471
   
   for ddCOSMO and CPCM-X implicit solvation:
   * M. Stahn, S. Ehlert, S. Grimme, J. Phys. Chem. A,
     2023, XX, XXXX-XXXX. DOI: 10.1021/acs.jpca.3c04382
   
   for DFT-D4:
   * E. Caldeweyher, C. Bannwarth and S. Grimme, J. Chem. Phys., 2017,
     147, 034112. DOI: 10.1063/1.4993215
   * E. Caldeweyher, S. Ehlert, A. Hansen, H. Neugebauer, S. Spicher,
     C. Bannwarth and S. Grimme, J. Chem. Phys., 2019, 150, 154122.
     DOI: 10.1063/1.5090222
   * E. Caldeweyher, J.-M. Mewes, S. Ehlert and S. Grimme, Phys. Chem. Chem. Phys.
     2020, 22, 8499-8512. DOI: 10.1039/D0CP00502A
   
   for sTDA-xTB:
   * S. Grimme and C. Bannwarth, J. Chem. Phys., 2016, 145, 054103.
     DOI: 10.1063/1.4959605
   
   in the mass-spec context:
   * V. Asgeirsson, C. Bauer and S. Grimme, Chem. Sci., 2017, 8, 4879.
     DOI: 10.1039/c7sc00601b
   * J. Koopman and S. Grimme, ACS Omega 2019, 4, 12, 15120-15133.
     DOI: 10.1021/acsomega.9b02011
   
   for metadynamics refer to:
   * S. Grimme, J. Chem. Theory Comput., 2019, 155, 2847-2862
     DOI: 10.1021/acs.jctc.9b00143
   
   for SPH calculations refer to:
   * S. Spicher and S. Grimme, J. Chem. Theory Comput., 2021, 17, 1701-1714
     DOI: 10.1021/acs.jctc.0c01306
   
   for ONIOM refer to:
   * C. Plett, A. Katbashev, S. Ehlert, S. Grimme, M. Bursch,
     Phys. Chem. Chem. Phys., 2023, 25, 17860-17868. DOI: 10.1039/D3CP02178E
   
   for DIPRO refer to:
   * J. Kohn, N. Gildemeister, S. Grimme, D. Fazzi, A. Hansen,
     J. Chem. Phys., 2023, just accepted.
   
   for PTB refer to:
   * S. Grimme, M. Mueller, A. Hansen, J. Chem. Phys., 2023, 158, 124111.
     DOI: 10.1063/5.0137838
   
   with help from (in alphabetical order)
   P. Atkinson, C. Bannwarth, F. Bohle, G. Brandenburg, E. Caldeweyher
   M. Checinski, S. Dohm, S. Ehlert, S. Ehrlich, I. Gerasimov, C. Hölzer
   A. Katbashev, J. Kohn, J. Koopman, C. Lavigne, S. Lehtola, F. März, M. Müller,
   F. Musil, H. Neugebauer, J. Pisarek, C. Plett, P. Pracht, F. Pultar,
   J. Seibert, P. Shushkov, S. Spicher, M. Stahn, M. Steiner, T. Strunk,
   J. Stückrath, T. Rose, and J. Unsleber
   
 * started run on 2026/08/31 at 20:55:50.481     
   ID    Z sym.   atoms
    1    6 C      1, 2, 4, 6, 9, 10, 12-17, 19, 21, 22, 24-26, 61-67
    2    7 N      3, 5, 7, 8, 20
    3    8 O      11, 23, 68-81
    4    9 F      18
    5    1 H      27-48
    6   22 Ti     49-60

           -------------------------------------------------
          |                Calculation Setup                |
           -------------------------------------------------

          program call               : "c:\Users\Andre\Proyectos doctorado\kras-pancreatic-gC3N4-ai\tools\xtb\xtb-6.7.1\bin\xtb.exe" "c:\Users\Andre\Proyectos doctorado\mxene-glioblastoma-qsar-ai\calculations\gbm\Buparlisib\Buparlisib_Ti3C2O2_complex.xyz" --gfn 2 --sp --chrg 0 --uhf 0 --iterations 500 --norestart
          coordinate file            : c:\Users\Andre\Proyectos doctorado\mxene-glioblastoma-qsar-ai\calculations\gbm\Buparlisib\Buparlisib_Ti3C2O2_complex.xyz
          omp threads                :                    16


molecular fragmentation (1/2 indicates fragments):
111111111111111111111111111111111111111111111111222222222222222222222222
222222222
# atoms in fragment 1/2:    48    33
 fragment masses (1/2) :      359.40      882.47
CMA distance (Bohr)    :  10.698
constraining FC (au)   :  0.0500

           -------------------------------------------------
          |                 G F N 2 - x T B                 |
           -------------------------------------------------

        Reference                      10.1021/acs.jctc.8b01176
      * Hamiltonian:
        H0-scaling (s, p, d)           1.850000    2.230000    2.230000
        zeta-weighting                 0.500000
      * Dispersion:
        s8                             2.700000
        a1                             0.520000
        a2                             5.000000
        s9                             5.000000
      * Repulsion:
        kExp                           1.500000    1.000000
        rExp                           1.000000
      * Coulomb:
        alpha                          2.000000
        third order                    shell-resolved
        anisotropic                    true
        a3                             3.000000
        a5                             4.000000
        cn-shift                       1.200000
        cn-exp                         4.000000
        max-rad                        5.000000


          ...................................................
          :                      SETUP                      :
          :.................................................:
          :  # basis functions                 330          :
          :  # atomic orbitals                 318          :
          :  # shells                          152          :
          :  # electrons                       298          :
          :  max. iterations                   500          :
          :  Hamiltonian                  GFN2-xTB          :
          :  restarted?                      false          :
          :  GBSA solvation                  false          :
          :  PC potential                    false          :
          :  electronic temp.          300.0000000     K    :
          :  accuracy                    1.0000000          :
          :  -> integral cutoff          0.2500000E+02      :
          :  -> integral neglect         0.1000000E-07      :
          :  -> SCF convergence          0.1000000E-05 Eh   :
          :  -> wf. convergence          0.1000000E-03 e    :
          :  Broyden damping             0.4000000          :
          :  net charge                          0          :
          :  unpaired electrons                  0          :
          ...................................................

 iter      E             dE          RMSdq      gap      omega  full diag
   1   -166.1665631 -0.166167E+03  0.126E+01    0.04       0.0  T
   2   -105.0346824  0.611319E+02  0.183E+01    0.05       1.0  T
   3    -49.1835084  0.558512E+02  0.244E+01    0.16       1.0  T
   4   -150.9440432 -0.101761E+03  0.110E+01    0.01       1.0  T
   5   -152.7999188 -0.185588E+01  0.130E+01    0.11       1.0  T
   6   -164.6531728 -0.118533E+02  0.892E+00    0.14       1.0  T
   7   -162.1255833  0.252759E+01  0.742E+00    0.06       1.0  T
   8   -158.1933859  0.393220E+01  0.978E+00    0.07       1.0  T
   9   -165.4962717 -0.730289E+01  0.711E+00    0.13       1.0  T
  10   -167.8494109 -0.235314E+01  0.517E+00    0.01       1.0  T
  11   -168.0786678 -0.229257E+00  0.489E+00    0.41       1.0  T
  12   -168.8691629 -0.790495E+00  0.411E+00    0.12       1.0  T
  13   -168.7678977  0.101265E+00  0.401E+00    0.03       1.0  T
  14   -169.3106636 -0.542766E+00  0.374E+00    0.04       1.0  T
  15   -168.7133384  0.597325E+00  0.377E+00    0.01       1.0  T
  16   -169.5503709 -0.837033E+00  0.329E+00    0.03       1.0  T
  17   -169.6657951 -0.115424E+00  0.274E+00    0.01       1.0  T
  18   -168.6094722  0.105632E+01  0.293E+00    0.02       1.0  T
  19   -169.8581331 -0.124866E+01  0.184E+00    0.05       1.0  T
  20   -169.8065817  0.515514E-01  0.183E+00    0.01       1.0  T
  21   -169.8720450 -0.654633E-01  0.147E+00    0.06       1.0  T
  22   -169.7376509  0.134394E+00  0.157E+00    0.01       1.0  T
  23   -169.9227688 -0.185118E+00  0.113E+00    0.12       1.0  T
  24   -169.9573576 -0.345887E-01  0.872E-01    0.14       1.0  T
  25   -169.9559377  0.141986E-02  0.797E-01    0.16       1.0  T
  26   -169.9695937 -0.136560E-01  0.719E-01    0.15       1.0  T
  27   -169.9771199 -0.752621E-02  0.633E-01    0.13       1.0  T
  28   -169.9726001  0.451986E-02  0.581E-01    0.11       1.0  T
  29   -169.9968589 -0.242588E-01  0.446E-01    0.10       1.0  T
  30   -169.9664962  0.303626E-01  0.603E-01    0.03       1.0  T
  31   -169.9745845 -0.808822E-02  0.549E-01    0.04       1.0  T
  32   -169.9766577 -0.207328E-02  0.525E-01    0.04       1.0  T
  33   -170.0099856 -0.333279E-01  0.211E-01    0.08       1.0  T
  34   -170.0098409  0.144678E-03  0.162E-01    0.07       1.0  T
  35   -170.0147874 -0.494641E-02  0.698E-02    0.09       1.0  T
  36   -170.0146981  0.892374E-04  0.834E-02    0.10       1.0  T
  37   -170.0147736 -0.755352E-04  0.703E-02    0.09       1.0  T
  38   -170.0150337 -0.260008E-03  0.647E-02    0.09       1.0  T
  39   -170.0144668  0.566867E-03  0.773E-02    0.08       1.0  T
  40   -170.0151706 -0.703839E-03  0.368E-02    0.09       1.0  T
  41   -170.0150026  0.168069E-03  0.508E-02    0.10       1.0  T
  42   -170.0151553 -0.152764E-03  0.361E-02    0.10       1.0  T
  43   -170.0152439 -0.885763E-04  0.225E-02    0.09       1.0  T
  44   -170.0152814 -0.374570E-04  0.167E-02    0.09       1.0  T
  45   -170.0152923 -0.109394E-04  0.105E-02    0.09       1.1  T
  46   -170.0152935 -0.119008E-05  0.867E-03    0.09       1.3  T
  47   -170.0152950 -0.152733E-05  0.628E-03    0.09       1.8  T
  48   -170.0152989 -0.384803E-05  0.377E-03    0.09       2.9  T
  49   -170.0152999 -0.998430E-06  0.234E-03    0.09       4.7  T
  50   -170.0153002 -0.297819E-06  0.144E-03    0.09       7.7  T
  51   -170.0153002 -0.479487E-07  0.118E-03    0.09       9.4  T
  52   -170.0153003 -0.919370E-07  0.104E-03    0.09      10.6  T
  53   -170.0153004 -0.689485E-07  0.500E-04    0.09      22.2  T
  54   -170.0153004  0.673109E-08  0.382E-04    0.09      29.1  T

   *** convergence criteria satisfied after 54 iterations ***

         #    Occupation            Energy/Eh            Energy/eV
      -------------------------------------------------------------
         1        2.0000           -0.9059159             -24.6512
       ...           ...                  ...                  ...
       143        2.0000           -0.3891985             -10.5906
       144        2.0000           -0.3856249             -10.4934
       145        1.9999           -0.3843967             -10.4600
       146        1.9999           -0.3836732             -10.4403
       147        1.9915           -0.3796670             -10.3313
       148        1.8808           -0.3771047             -10.2615
       149        1.7153           -0.3761898             -10.2366 (HOMO)
       150        0.2871           -0.3727870             -10.1441 (LUMO)
       151        0.0816           -0.3714835             -10.1086
       152        0.0439           -0.3708774             -10.0921
       153                         -0.3559241              -9.6852
       154                         -0.3526118              -9.5951
       ...                                ...                  ...
       318                         18.0640543             491.5479
      -------------------------------------------------------------
                  HL-Gap            0.0034028 Eh            0.0926 eV
             Fermi-level           -0.3744837 Eh          -10.1902 eV

 SCC (total)                   0 d,  0 h,  0 min,  1.108 sec
 SCC setup                      ...        0 min,  0.001 sec (  0.090%)
 Dispersion                     ...        0 min,  0.002 sec (  0.181%)
 classical contributions        ...        0 min,  0.000 sec (  0.000%)
 integral evaluation            ...        0 min,  0.010 sec (  0.903%)
 iterations                     ...        0 min,  1.073 sec ( 96.841%)
 molecular gradient             ...        0 min,  0.020 sec (  1.805%)
 printout                       ...        0 min,  0.002 sec (  0.181%)

         :::::::::::::::::::::::::::::::::::::::::::::::::::::
         ::                     SUMMARY                     ::
         :::::::::::::::::::::::::::::::::::::::::::::::::::::
         :: total energy            -164.302719281253 Eh    ::
         :: gradient norm              5.388770959794 Eh/a0 ::
         :: HOMO-LUMO gap              0.092595176863 eV    ::
         ::.................................................::
         :: SCC energy              -170.009457154008 Eh    ::
         :: -> isotropic ES            0.836758313793 Eh    ::
         :: -> anisotropic ES         -0.013222554702 Eh    ::
         :: -> anisotropic XC         -0.071682843329 Eh    ::
         :: -> dispersion             -0.156824806267 Eh    ::
         :: repulsion energy           5.706737872755 Eh    ::
         :: add. restraining           0.000000000000 Eh    ::
         :: total charge               0.000000000001 e     ::
         :::::::::::::::::::::::::::::::::::::::::::::::::::::

           -------------------------------------------------
          |                Property Printout                |
           -------------------------------------------------

    * Orbital Energies and Occupations

         #    Occupation            Energy/Eh            Energy/eV
      -------------------------------------------------------------
         1        2.0000           -0.9059159             -24.6512
       ...           ...                  ...                  ...
       137        2.0000           -0.4053483             -11.0301
       138        2.0000           -0.4034713             -10.9790
       139        2.0000           -0.4026122             -10.9556
       140        2.0000           -0.3992854             -10.8651
       141        2.0000           -0.3950190             -10.7490
       142        2.0000           -0.3904872             -10.6257
       143        2.0000           -0.3891985             -10.5906
       144        2.0000           -0.3856249             -10.4934
       145        1.9999           -0.3843967             -10.4600
       146        1.9999           -0.3836732             -10.4403
       147        1.9915           -0.3796670             -10.3313
       148        1.8808           -0.3771047             -10.2615
       149        1.7153           -0.3761898             -10.2366 (HOMO)
       150        0.2871           -0.3727870             -10.1441 (LUMO)
       151        0.0816           -0.3714835             -10.1086
       152        0.0439           -0.3708774             -10.0921
       153                         -0.3559241              -9.6852
       154                         -0.3526118              -9.5951
       155                         -0.3496895              -9.5155
       156                         -0.3479393              -9.4679
       157                         -0.3413617              -9.2889
       158                         -0.3394031              -9.2356
       159                         -0.3385442              -9.2123
       160                         -0.3363572              -9.1527
       ...                                ...                  ...
       318                         18.0640543             491.5479
      -------------------------------------------------------------
                  HL-Gap            0.0034028 Eh            0.0926 eV
             Fermi-level           -0.3744837 Eh          -10.1902 eV

     #   Z          covCN         q      C6AA      α(0)
     1   6 C        3.758    -0.152    23.497     6.911
     2   6 C        2.974     0.209    23.575     7.964
     3   7 N        1.839    -0.236    27.016     7.703
     4   6 C        2.979     0.203    23.691     7.984
     5   7 N        1.844    -0.237    27.038     7.706
     6   6 C        2.900     0.239    23.029     7.868
     7   7 N        1.843    -0.222    26.677     7.655
     8   7 N        2.742    -0.064    22.477     7.041
     9   6 C        3.740    -0.027    21.141     6.560
    10   6 C        3.687     0.065    19.670     6.348
    11   8 O        1.694    -0.316    19.276     5.928
    12   6 C        3.688     0.063    19.708     6.354
    13   6 C        3.742    -0.026    21.112     6.555
    14   6 C        2.963     0.020    27.562     8.611
    15   6 C        2.917    -0.017    28.429     8.743
    16   6 C        2.907    -0.039    28.980     8.827
    17   6 C        2.777     0.165    24.432     8.096
    18   9 F        0.787    -0.212    11.359     3.981
    19   6 C        2.901     0.056    26.735     8.478
    20   7 N        2.729    -0.076    22.708     7.077
    21   6 C        3.747    -0.019    20.973     6.532
    22   6 C        3.700     0.064    19.653     6.340
    23   8 O        1.694    -0.312    19.203     5.916
    24   6 C        3.700     0.064    19.665     6.342
    25   6 C        3.741    -0.015    20.921     6.526
    26   6 C        2.925    -0.035    28.881     8.813
    27   1 H        0.924     0.101     1.778     2.085
    28   1 H        0.924     0.098     1.806     2.101
    29   1 H        0.924     0.111     1.689     2.032
    30   1 H        0.924     0.077     2.011     2.218
    31   1 H        0.924     0.089     1.886     2.148
    32   1 H        0.924     0.064     2.148     2.292
    33   1 H        0.924     0.047     2.361     2.403
    34   1 H        0.924     0.069     2.097     2.264
    35   1 H        0.924     0.050     2.322     2.383
    36   1 H        0.924     0.069     2.092     2.262
    37   1 H        0.924     0.102     1.766     2.078
    38   1 H        0.925     0.096     1.819     2.109
    39   1 H        0.925     0.085     1.925     2.170
    40   1 H        0.924     0.068     2.112     2.273
    41   1 H        0.924     0.057     2.231     2.336
    42   1 H        0.924     0.064     2.153     2.295
    43   1 H        0.924     0.048     2.344     2.394
    44   1 H        0.924     0.044     2.399     2.422
    45   1 H        0.924     0.066     2.132     2.284
    46   1 H        0.924     0.074     2.042     2.235
    47   1 H        0.924     0.072     2.069     2.249
    48   1 H        0.925     0.104     1.749     2.068
    49  22 Ti       4.151     0.768    91.649    16.228
    50  22 Ti       6.350     0.726    92.322    15.600
    51  22 Ti       4.151     0.778    91.541    16.218
    52  22 Ti       7.449     1.035    89.082    15.324
    53  22 Ti       7.449     1.034    89.084    15.324
    54  22 Ti       6.519     1.062    88.801    15.300
    55  22 Ti       4.151     0.805    91.256    16.193
    56  22 Ti       6.350     0.765    91.895    15.564
    57  22 Ti       4.151     0.799    91.320    16.199
    58  22 Ti       7.449     1.054    88.884    15.307
    59  22 Ti       7.449     1.055    88.874    15.306
    60  22 Ti       6.519     1.073    88.692    15.290
    61   6 C        5.128    -0.726    39.543     8.931
    62   6 C        5.128    -0.727    39.585     8.935
    63   6 C        5.649    -0.569    34.012     8.282
    64   6 C        2.445    -0.409    40.700    10.409
    65   6 C        2.445    -0.405    40.517    10.386
    66   6 C        2.445    -0.334    38.009    10.059
    67   6 C        2.445    -0.333    37.979    10.055
    68   8 O        0.728    -0.533    24.592     6.645
    69   8 O        0.729    -0.573    25.524     6.770
    70   8 O        0.728    -0.536    24.674     6.656
    71   8 O        0.729    -0.665    27.838     7.070
    72   8 O        0.729    -0.657    27.640     7.045
    73   8 O        0.753    -0.595    26.062     6.842
    74   8 O        0.753    -0.598    26.129     6.851
    75   8 O        0.728    -0.536    24.669     6.656
    76   8 O        0.729    -0.575    25.573     6.777
    77   8 O        0.728    -0.534    24.613     6.648
    78   8 O        0.729    -0.654    27.551     7.034
    79   8 O        0.729    -0.650    27.468     7.023
    80   8 O        0.753    -0.571    25.484     6.765
    81   8 O        0.753    -0.572    25.510     6.769

 Mol. C6AA /au·bohr⁶  :     146753.949096
 Mol. C8AA /au·bohr⁸  :    6434442.368127
 Mol. α(0) /au        :        586.421228


Wiberg/Mayer (AO) data.
largest (>0.10) Wiberg bond orders for each atom

 ---------------------------------------------------------------------------
     #   Z sym  total        # sym  WBO       # sym  WBO       # sym  WBO
 ---------------------------------------------------------------------------
     1   6 C    3.961 --     2 C    1.016    27 H    0.952    29 H    0.936
                            28 H    0.935
     2   6 C    3.948 --     7 N    1.387     3 N    1.376     1 C    1.016
     3   7 N    3.048 --     2 C    1.376     4 C    1.340
     4   6 C    3.951 --     5 N    1.383     3 N    1.340    14 C    1.043
     5   7 N    3.052 --     4 C    1.383     6 C    1.293
     6   6 C    3.961 --     5 N    1.293     7 N    1.275     8 N    1.220
     7   7 N    3.097 --     2 C    1.387     6 C    1.275
     8   7 N    3.464 --     6 C    1.220     9 C    0.983    13 C    0.979
     9   6 C    3.960 --    10 C    0.996     8 N    0.983    31 H    0.959
                            30 H    0.942
    10   6 C    3.955 --     9 C    0.996    11 O    0.983    33 H    0.969
                            32 H    0.968
    11   8 O    2.055 --    10 C    0.983    12 C    0.978
    12   6 C    3.952 --    13 C    1.004    11 O    0.978    34 H    0.968
                            35 H    0.968
    13   6 C    3.961 --    12 C    1.004     8 N    0.979    36 H    0.962
                            37 H    0.952
    14   6 C    3.972 --    26 C    1.392    15 C    1.354     4 C    1.043
    15   6 C    3.928 --    16 C    1.436    14 C    1.354    38 H    0.954
    16   6 C    3.977 --    15 C    1.436    17 C    1.399    39 H    0.960
    17   6 C    3.841 --    16 C    1.399    19 C    1.306    18 F    0.965
    18   9 F    1.090 --    17 C    0.965
    19   6 C    3.946 --    26 C    1.353    17 C    1.306    20 N    1.104
    20   7 N    3.192 --    19 C    1.104    25 C    0.990    21 C    0.975
    21   6 C    3.965 --    22 C    0.997    20 N    0.975    40 H    0.966
                            41 H    0.959
    22   6 C    3.953 --    21 C    0.997    23 O    0.986    42 H    0.969
                            43 H    0.966
    23   8 O    2.065 --    22 C    0.986    24 C    0.983
    24   6 C    3.949 --    25 C    0.995    23 O    0.983    45 H    0.969
                            44 H    0.967
    25   6 C    3.963 --    24 C    0.995    20 N    0.990    46 H    0.969
                            47 H    0.955
    26   6 C    3.935 --    14 C    1.392    19 C    1.353    48 H    0.947
    27   1 H    0.988 --     1 C    0.952
    28   1 H    0.987 --     1 C    0.935
    29   1 H    0.985 --     1 C    0.936
    30   1 H    0.990 --     9 C    0.942
    31   1 H    0.991 --     9 C    0.959
    32   1 H    0.995 --    10 C    0.968
    33   1 H    0.997 --    10 C    0.969
    34   1 H    0.995 --    12 C    0.968
    35   1 H    0.995 --    12 C    0.968
    36   1 H    0.993 --    13 C    0.962
    37   1 H    0.989 --    13 C    0.952
    38   1 H    0.990 --    15 C    0.954
    39   1 H    0.990 --    16 C    0.960
    40   1 H    0.994 --    21 C    0.966
    41   1 H    0.979 --    21 C    0.959
    42   1 H    0.995 --    22 C    0.969
    43   1 H    0.995 --    22 C    0.966
    44   1 H    0.995 --    24 C    0.967
    45   1 H    0.995 --    24 C    0.969
    46   1 H    0.992 --    25 C    0.969
    47   1 H    0.975 --    25 C    0.955
    48   1 H    0.988 --    26 C    0.947
    49  22 Ti   4.042 --    68 O    2.006    55 Ti   0.565    50 Ti   0.289
                            61 C    0.258    52 Ti   0.193    64 C    0.166
    50  22 Ti   4.477 --    69 O    1.916    56 Ti   0.352    51 Ti   0.319
                            49 Ti   0.289    61 C    0.247    62 C    0.241
                            53 Ti   0.125    52 Ti   0.122    57 Ti   0.103
    51  22 Ti   3.964 --    70 O    2.024    57 Ti   0.586    50 Ti   0.319
                            62 C    0.269    53 Ti   0.192    65 C    0.169
                            56 Ti   0.109
    52  22 Ti   4.459 --    71 O    1.744    64 C    0.652    61 C    0.502
                            73 O    0.227    49 Ti   0.193    58 Ti   0.159
                            54 Ti   0.148    63 C    0.138    50 Ti   0.122
    53  22 Ti   4.455 --    72 O    1.747    65 C    0.653    62 C    0.525
                            74 O    0.222    51 Ti   0.192    59 Ti   0.173
                            63 C    0.151    54 Ti   0.147    50 Ti   0.125
    54  22 Ti   4.461 --    73 O    1.120    74 O    1.119    63 C    0.491
                            67 C    0.419    66 C    0.418    60 Ti   0.263
                            52 Ti   0.148    53 Ti   0.147
    55  22 Ti   3.995 --    75 O    2.020    49 Ti   0.565    56 Ti   0.336
                            61 C    0.289    58 Ti   0.203    64 C    0.181
    56  22 Ti   4.440 --    76 O    1.906    50 Ti   0.352    55 Ti   0.336
                            57 Ti   0.329    61 C    0.269    62 C    0.264
                            58 Ti   0.134    59 Ti   0.132    51 Ti   0.109
    57  22 Ti   3.994 --    77 O    2.025    51 Ti   0.586    56 Ti   0.329
                            62 C    0.275    59 Ti   0.196    65 C    0.177
                            50 Ti   0.103
    58  22 Ti   4.429 --    78 O    1.739    64 C    0.650    61 C    0.517
                            80 O    0.221    55 Ti   0.203    63 C    0.162
                            52 Ti   0.159    60 Ti   0.154    56 Ti   0.134
    59  22 Ti   4.439 --    79 O    1.749    65 C    0.629    62 C    0.517
                            81 O    0.225    57 Ti   0.196    53 Ti   0.173
                            63 C    0.165    60 Ti   0.157    56 Ti   0.132
    60  22 Ti   4.451 --    80 O    1.113    81 O    1.105    63 C    0.503
                            66 C    0.436    67 C    0.429    54 Ti   0.263
                            59 Ti   0.157    58 Ti   0.154
    61   6 C    3.667 --    64 C    0.881    58 Ti   0.517    52 Ti   0.502
                            55 Ti   0.289    56 Ti   0.269    49 Ti   0.258
                            50 Ti   0.247
    62   6 C    3.652 --    65 C    0.889    53 Ti   0.525    59 Ti   0.517
                            57 Ti   0.275    51 Ti   0.269    56 Ti   0.264
                            50 Ti   0.241
    63   6 C    3.800 --    67 C    0.824    66 C    0.823    60 Ti   0.503
                            54 Ti   0.491    59 Ti   0.165    58 Ti   0.162
                            53 Ti   0.151    52 Ti   0.138
    64   6 C    3.306 --    61 C    0.881    52 Ti   0.652    58 Ti   0.650
                            66 C    0.238    55 Ti   0.181    49 Ti   0.166
    65   6 C    3.310 --    62 C    0.889    53 Ti   0.653    59 Ti   0.629
                            67 C    0.247    57 Ti   0.177    51 Ti   0.169
    66   6 C    3.324 --    63 C    0.823    60 Ti   0.436    54 Ti   0.418
                            80 O    0.402    73 O    0.365    64 C    0.238
                            67 C    0.136
    67   6 C    3.333 --    63 C    0.824    60 Ti   0.429    54 Ti   0.419
                            81 O    0.402    74 O    0.368    65 C    0.247
                            66 C    0.136
    68   8 O    2.271 --    49 Ti   2.006
    69   8 O    2.232 --    50 Ti   1.916
    70   8 O    2.270 --    51 Ti   2.024
    71   8 O    2.113 --    52 Ti   1.744
    72   8 O    2.123 --    53 Ti   1.747
    73   8 O    2.136 --    54 Ti   1.120    66 C    0.365    52 Ti   0.227
                            80 O    0.131
    74   8 O    2.133 --    54 Ti   1.119    67 C    0.368    53 Ti   0.222
                            81 O    0.131
    75   8 O    2.266 --    55 Ti   2.020
    76   8 O    2.231 --    56 Ti   1.906
    77   8 O    2.271 --    57 Ti   2.025
    78   8 O    2.125 --    58 Ti   1.739
    79   8 O    2.130 --    59 Ti   1.749
    80   8 O    2.159 --    60 Ti   1.113    66 C    0.402    58 Ti   0.221
                            73 O    0.131
    81   8 O    2.157 --    60 Ti   1.105    67 C    0.402    59 Ti   0.225
                            74 O    0.131
 ---------------------------------------------------------------------------

Topologies differ in total number of bonds
Writing topology from bond orders to xtbtopo.mol

molecular dipole:
                 x           y           z       tot (Debye)
 q only:       -0.769      -9.708       7.224
   full:       -0.305      -4.253       4.696      16.122
molecular quadrupole (traceless):
                xx          xy          yy          xz          yz          zz
 q only:       17.417       5.110      32.932     -10.227     -17.210     -50.349
  q+dip:       13.377       5.549      49.403      -5.040      -9.033     -62.780
   full:       11.096       6.127      55.146      -5.684     -10.731     -66.242


           -------------------------------------------------
          | TOTAL ENERGY             -164.302719281253 Eh   |
          | GRADIENT NORM               5.388770959794 Eh/α |
          | HOMO-LUMO GAP               0.092595176863 eV   |
           -------------------------------------------------

------------------------------------------------------------------------
 * finished run on 2026/08/31 at 20:55:51.635     
------------------------------------------------------------------------
 total:
 * wall-time:     0 d,  0 h,  0 min,  1.154 sec
 *  cpu-time:     0 d,  0 h,  0 min, 10.391 sec
 * ratio c/w:     9.004 speedup
 SCF:
 * wall-time:     0 d,  0 h,  0 min,  1.110 sec
 *  cpu-time:     0 d,  0 h,  0 min, 10.125 sec
 * ratio c/w:     9.122 speedup

normal termination of xtb
