      -----------------------------------------------------------      
     |                   =====================                   |     
     |                           x T B                           |     
     |                   =====================                   |     
     |                         S. Grimme                         |     
     |          Mulliken Center for Theoretical Chemistry        |     
     |                    University of Bonn                     |     
      -----------------------------------------------------------      

   * xtb version 6.7.1pre (5071a88) compiled by 'Marcel@Raven' on 2024-07-23

   xtb is free software: you can redistribute it and/or modify it under
   the terms of the GNU Lesser General Public License as published by
   the Free Software Foundation, either version 3 of the License, or
   (at your option) any later version.
   
   xtb is distributed in the hope that it will be useful,
   but WITHOUT ANY WARRANTY; without even the implied warranty of
   MERCHANTABILITY or FITNESS FOR A PARTICULAR PURPOSE.  See the
   GNU Lesser General Public License for more details.
   
   Cite this work as:
   * C. Bannwarth, E. Caldeweyher, S. Ehlert, A. Hansen, P. Pracht,
     J. Seibert, S. Spicher, S. Grimme, WIREs Comput. Mol. Sci., 2020, 11,
     e01493. DOI: 10.1002/wcms.1493
   
   for GFN2-xTB:
   * C. Bannwarth, S. Ehlert and S. Grimme., J. Chem. Theory Comput., 2019,
     15, 1652-1671. DOI: 10.1021/acs.jctc.8b01176
   for GFN1-xTB:
   * S. Grimme, C. Bannwarth, P. Shushkov, J. Chem. Theory Comput., 2017,
     13, 1989-2009. DOI: 10.1021/acs.jctc.7b00118
   for GFN0-xTB:
   * P. Pracht, E. Caldeweyher, S. Ehlert, S. Grimme, ChemRxiv, 2019, preprint.
     DOI: 10.26434/chemrxiv.8326202.v1
   for GFN-FF:
   * S. Spicher and S. Grimme, Angew. Chem. Int. Ed., 2020, 59, 15665-15673.
     DOI: 10.1002/anie.202004239
   
   for ALPB and GBSA implicit solvation:
   * S. Ehlert, M. Stahn, S. Spicher, S. Grimme, J. Chem. Theory Comput.,
     2021, 17, 4250-4261. DOI: 10.1021/acs.jctc.1c00471
   
   for ddCOSMO and CPCM-X implicit solvation:
   * M. Stahn, S. Ehlert, S. Grimme, J. Phys. Chem. A,
     2023, XX, XXXX-XXXX. DOI: 10.1021/acs.jpca.3c04382
   
   for DFT-D4:
   * E. Caldeweyher, C. Bannwarth and S. Grimme, J. Chem. Phys., 2017,
     147, 034112. DOI: 10.1063/1.4993215
   * E. Caldeweyher, S. Ehlert, A. Hansen, H. Neugebauer, S. Spicher,
     C. Bannwarth and S. Grimme, J. Chem. Phys., 2019, 150, 154122.
     DOI: 10.1063/1.5090222
   * E. Caldeweyher, J.-M. Mewes, S. Ehlert and S. Grimme, Phys. Chem. Chem. Phys.
     2020, 22, 8499-8512. DOI: 10.1039/D0CP00502A
   
   for sTDA-xTB:
   * S. Grimme and C. Bannwarth, J. Chem. Phys., 2016, 145, 054103.
     DOI: 10.1063/1.4959605
   
   in the mass-spec context:
   * V. Asgeirsson, C. Bauer and S. Grimme, Chem. Sci., 2017, 8, 4879.
     DOI: 10.1039/c7sc00601b
   * J. Koopman and S. Grimme, ACS Omega 2019, 4, 12, 15120-15133.
     DOI: 10.1021/acsomega.9b02011
   
   for metadynamics refer to:
   * S. Grimme, J. Chem. Theory Comput., 2019, 155, 2847-2862
     DOI: 10.1021/acs.jctc.9b00143
   
   for SPH calculations refer to:
   * S. Spicher and S. Grimme, J. Chem. Theory Comput., 2021, 17, 1701-1714
     DOI: 10.1021/acs.jctc.0c01306
   
   for ONIOM refer to:
   * C. Plett, A. Katbashev, S. Ehlert, S. Grimme, M. Bursch,
     Phys. Chem. Chem. Phys., 2023, 25, 17860-17868. DOI: 10.1039/D3CP02178E
   
   for DIPRO refer to:
   * J. Kohn, N. Gildemeister, S. Grimme, D. Fazzi, A. Hansen,
     J. Chem. Phys., 2023, just accepted.
   
   for PTB refer to:
   * S. Grimme, M. Mueller, A. Hansen, J. Chem. Phys., 2023, 158, 124111.
     DOI: 10.1063/5.0137838
   
   with help from (in alphabetical order)
   P. Atkinson, C. Bannwarth, F. Bohle, G. Brandenburg, E. Caldeweyher
   M. Checinski, S. Dohm, S. Ehlert, S. Ehrlich, I. Gerasimov, C. Hölzer
   A. Katbashev, J. Kohn, J. Koopman, C. Lavigne, S. Lehtola, F. März, M. Müller,
   F. Musil, H. Neugebauer, J. Pisarek, C. Plett, P. Pracht, F. Pultar,
   J. Seibert, P. Shushkov, S. Spicher, M. Stahn, M. Steiner, T. Strunk,
   J. Stückrath, T. Rose, and J. Unsleber
   
 * started run on 2026/08/31 at 20:55:41.195     
   ID    Z sym.   atoms
    1    6 C      1, 2, 4, 6, 9, 10, 12-17, 19, 21, 22, 24-26
    2    7 N      3, 5, 7, 8, 20
    3    8 O      11, 23
    4    9 F      18
    5    1 H      27-48

           -------------------------------------------------
          |                Calculation Setup                |
           -------------------------------------------------

          program call               : "c:\Users\Andre\Proyectos doctorado\kras-pancreatic-gC3N4-ai\tools\xtb\xtb-6.7.1\bin\xtb.exe" "c:\Users\Andre\Proyectos doctorado\mxene-glioblastoma-qsar-ai\calculations\gbm\Buparlisib\Buparlisib_drug.xyz" --gfn 2 --sp --chrg 0 --uhf 0 --iterations 500 --norestart
          coordinate file            : c:\Users\Andre\Proyectos doctorado\mxene-glioblastoma-qsar-ai\calculations\gbm\Buparlisib\Buparlisib_drug.xyz
          omp threads                :                    16


           -------------------------------------------------
          |                 G F N 2 - x T B                 |
           -------------------------------------------------

        Reference                      10.1021/acs.jctc.8b01176
      * Hamiltonian:
        H0-scaling (s, p, d)           1.850000    2.230000    2.230000
        zeta-weighting                 0.500000
      * Dispersion:
        s8                             2.700000
        a1                             0.520000
        a2                             5.000000
        s9                             5.000000
      * Repulsion:
        kExp                           1.500000    1.000000
        rExp                           1.000000
      * Coulomb:
        alpha                          2.000000
        third order                    shell-resolved
        anisotropic                    true
        a3                             3.000000
        a5                             4.000000
        cn-shift                       1.200000
        cn-exp                         4.000000
        max-rad                        5.000000


          ...................................................
          :                      SETUP                      :
          :.................................................:
          :  # basis functions                 126          :
          :  # atomic orbitals                 126          :
          :  # shells                           74          :
          :  # electrons                       138          :
          :  max. iterations                   500          :
          :  Hamiltonian                  GFN2-xTB          :
          :  restarted?                      false          :
          :  GBSA solvation                  false          :
          :  PC potential                    false          :
          :  electronic temp.          300.0000000     K    :
          :  accuracy                    1.0000000          :
          :  -> integral cutoff          0.2500000E+02      :
          :  -> integral neglect         0.1000000E-07      :
          :  -> SCF convergence          0.1000000E-05 Eh   :
          :  -> wf. convergence          0.1000000E-03 e    :
          :  Broyden damping             0.4000000          :
          :  net charge                          0          :
          :  unpaired electrons                  0          :
          ...................................................

 iter      E             dE          RMSdq      gap      omega  full diag
   1    -78.0861094 -0.780861E+02  0.409E+00    2.26       0.0  T
   2    -78.1762554 -0.901460E-01  0.250E+00    2.72       1.0  T
   3    -78.1644929  0.117626E-01  0.113E+00    2.04       1.0  T
   4    -78.1896608 -0.251679E-01  0.364E-01    2.29       1.0  T
   5    -78.1947571 -0.509629E-02  0.106E-01    2.22       1.0  T
   6    -78.1949533 -0.196194E-03  0.448E-02    2.25       1.0  T
   7    -78.1949827 -0.294509E-04  0.183E-02    2.26       1.0  T
   8    -78.1949839 -0.122642E-05  0.900E-03    2.26       1.6  T
   9    -78.1949853 -0.137313E-05  0.290E-03    2.26       5.0  T
  10    -78.1949854 -0.833477E-07  0.877E-04    2.26      16.5  T
  11    -78.1949854 -0.749688E-08  0.374E-04    2.26      38.6  T

   *** convergence criteria satisfied after 11 iterations ***

         #    Occupation            Energy/Eh            Energy/eV
      -------------------------------------------------------------
         1        2.0000           -0.8201175             -22.3165
       ...           ...                  ...                  ...
        63        2.0000           -0.4067768             -11.0690
        64        2.0000           -0.4052820             -11.0283
        65        2.0000           -0.4032742             -10.9736
        66        2.0000           -0.3843186             -10.4578
        67        2.0000           -0.3722647             -10.1298
        68        2.0000           -0.3682697             -10.0211
        69        2.0000           -0.3614865              -9.8365 (HOMO)
        70                         -0.2785780              -7.5805 (LUMO)
        71                         -0.2451197              -6.6700
        72                         -0.2350761              -6.3967
        73                         -0.2074386              -5.6447
        74                         -0.1329046              -3.6165
       ...                                ...                  ...
       126                          0.6490050              17.6603
      -------------------------------------------------------------
                  HL-Gap            0.0829085 Eh            2.2561 eV
             Fermi-level           -0.3200323 Eh           -8.7085 eV

 SCC (total)                   0 d,  0 h,  0 min,  0.053 sec
 SCC setup                      ...        0 min,  0.000 sec (  0.000%)
 Dispersion                     ...        0 min,  0.002 sec (  3.774%)
 classical contributions        ...        0 min,  0.000 sec (  0.000%)
 integral evaluation            ...        0 min,  0.002 sec (  3.773%)
 iterations                     ...        0 min,  0.043 sec ( 81.132%)
 molecular gradient             ...        0 min,  0.005 sec (  9.434%)
 printout                       ...        0 min,  0.001 sec (  1.887%)

         :::::::::::::::::::::::::::::::::::::::::::::::::::::
         ::                     SUMMARY                     ::
         :::::::::::::::::::::::::::::::::::::::::::::::::::::
         :: total energy             -77.297671673970 Eh    ::
         :: gradient norm              0.069074527179 Eh/a0 ::
         :: HOMO-LUMO gap              2.256054662776 eV    ::
         ::.................................................::
         :: SCC energy               -78.195145509950 Eh    ::
         :: -> isotropic ES            0.095551700674 Eh    ::
         :: -> anisotropic ES          0.007165794273 Eh    ::
         :: -> anisotropic XC          0.034521703278 Eh    ::
         :: -> dispersion             -0.049528312150 Eh    ::
         :: repulsion energy           0.897473835980 Eh    ::
         :: add. restraining           0.000000000000 Eh    ::
         :: total charge              -0.000000000000 e     ::
         :::::::::::::::::::::::::::::::::::::::::::::::::::::

           -------------------------------------------------
          |                Property Printout                |
           -------------------------------------------------

    * Orbital Energies and Occupations

         #    Occupation            Energy/Eh            Energy/eV
      -------------------------------------------------------------
         1        2.0000           -0.8201175             -22.3165
       ...           ...                  ...                  ...
        57        2.0000           -0.4496143             -12.2346
        58        2.0000           -0.4446763             -12.1003
        59        2.0000           -0.4442027             -12.0874
        60        2.0000           -0.4413390             -12.0094
        61        2.0000           -0.4349586             -11.8358
        62        2.0000           -0.4240465             -11.5389
        63        2.0000           -0.4067768             -11.0690
        64        2.0000           -0.4052820             -11.0283
        65        2.0000           -0.4032742             -10.9736
        66        2.0000           -0.3843186             -10.4578
        67        2.0000           -0.3722647             -10.1298
        68        2.0000           -0.3682697             -10.0211
        69        2.0000           -0.3614865              -9.8365 (HOMO)
        70                         -0.2785780              -7.5805 (LUMO)
        71                         -0.2451197              -6.6700
        72                         -0.2350761              -6.3967
        73                         -0.2074386              -5.6447
        74                         -0.1329046              -3.6165
        75                         -0.0893543              -2.4315
        76                         -0.0368792              -1.0035
        77                         -0.0284856              -0.7751
        78                          0.0001765               0.0048
        79                          0.0139053               0.3784
        80                          0.0358019               0.9742
       ...                                ...                  ...
       126                          0.6490050              17.6603
      -------------------------------------------------------------
                  HL-Gap            0.0829085 Eh            2.2561 eV
             Fermi-level           -0.3200323 Eh           -8.7085 eV

     #   Z          covCN         q      C6AA      α(0)
     1   6 C        3.758    -0.121    22.879     6.819
     2   6 C        2.974     0.210    23.553     7.961
     3   7 N        1.839    -0.304    28.728     7.943
     4   6 C        2.979     0.203    23.704     7.986
     5   7 N        1.844    -0.324    29.260     8.017
     6   6 C        2.900     0.248    22.856     7.839
     7   7 N        1.843    -0.326    29.303     8.022
     8   7 N        2.742    -0.103    23.268     7.164
     9   6 C        3.740    -0.007    20.772     6.503
    10   6 C        3.687     0.074    19.536     6.327
    11   8 O        1.694    -0.323    19.403     5.947
    12   6 C        3.688     0.072    19.552     6.329
    13   6 C        3.742    -0.001    20.670     6.486
    14   6 C        2.963    -0.003    28.099     8.695
    15   6 C        2.917    -0.036    28.892     8.814
    16   6 C        2.907    -0.052    29.297     8.875
    17   6 C        2.777     0.148    24.768     8.151
    18   9 F        0.787    -0.226    11.509     4.007
    19   6 C        2.901     0.050    26.886     8.502
    20   7 N        2.729    -0.137    23.966     7.271
    21   6 C        3.747     0.000    20.643     6.481
    22   6 C        3.700     0.074    19.504     6.316
    23   8 O        1.694    -0.320    19.342     5.938
    24   6 C        3.700     0.071    19.537     6.321
    25   6 C        3.741     0.001    20.631     6.480
    26   6 C        2.925    -0.049    29.223     8.865
    27   1 H        0.924     0.067     2.117     2.276
    28   1 H        0.924     0.062     2.172     2.305
    29   1 H        0.924     0.063     2.160     2.298
    30   1 H        0.924     0.058     2.223     2.332
    31   1 H        0.924     0.073     2.057     2.243
    32   1 H        0.924     0.056     2.252     2.347
    33   1 H        0.924     0.036     2.501     2.473
    34   1 H        0.924     0.056     2.243     2.342
    35   1 H        0.924     0.042     2.428     2.437
    36   1 H        0.924     0.054     2.276     2.359
    37   1 H        0.924     0.067     2.118     2.276
    38   1 H        0.925     0.059     2.216     2.328
    39   1 H        0.925     0.060     2.204     2.321
    40   1 H        0.924     0.050     2.326     2.385
    41   1 H        0.924     0.035     2.524     2.484
    42   1 H        0.924     0.053     2.278     2.360
    43   1 H        0.924     0.036     2.503     2.474
    44   1 H        0.924     0.034     2.533     2.489
    45   1 H        0.924     0.055     2.264     2.353
    46   1 H        0.924     0.052     2.300     2.372
    47   1 H        0.924     0.048     2.340     2.392
    48   1 H        0.925     0.068     2.112     2.272

 Mol. C6AA /au·bohr⁶  :      24880.352109
 Mol. C8AA /au·bohr⁸  :     571333.306799
 Mol. α(0) /au        :        239.978185


Wiberg/Mayer (AO) data.
largest (>0.10) Wiberg bond orders for each atom

 ---------------------------------------------------------------------------
     #   Z sym  total        # sym  WBO       # sym  WBO       # sym  WBO
 ---------------------------------------------------------------------------
     1   6 C    3.993 --     2 C    1.024    29 H    0.978    28 H    0.978
                            27 H    0.957
     2   6 C    3.957 --     7 N    1.408     3 N    1.383     1 C    1.024
     3   7 N    3.038 --     2 C    1.383     4 C    1.357
     4   6 C    3.960 --     5 N    1.389     3 N    1.357    14 C    1.051
     5   7 N    3.032 --     4 C    1.389     6 C    1.312
     6   6 C    3.965 --     5 N    1.312     7 N    1.304     8 N    1.210
     7   7 N    3.027 --     2 C    1.408     6 C    1.304
     8   7 N    3.435 --     6 C    1.210     9 C    0.985    13 C    0.985
     9   6 C    3.972 --    10 C    0.997     8 N    0.985    30 H    0.967
                            31 H    0.966
    10   6 C    3.956 --     9 C    0.997    11 O    0.980    33 H    0.971
                            32 H    0.970
    11   8 O    2.053 --    10 C    0.980    12 C    0.979
    12   6 C    3.957 --    13 C    1.002    11 O    0.979    35 H    0.970
                            34 H    0.970
    13   6 C    3.974 --    12 C    1.002     8 N    0.985    37 H    0.967
                            36 H    0.966
    14   6 C    3.986 --    26 C    1.393    15 C    1.369     4 C    1.051
    15   6 C    3.988 --    16 C    1.450    14 C    1.369    38 H    0.967
    16   6 C    3.987 --    15 C    1.450    17 C    1.396    39 H    0.967
    17   6 C    3.873 --    16 C    1.396    19 C    1.320    18 F    0.956
    18   9 F    1.087 --    17 C    0.956
    19   6 C    3.977 --    26 C    1.372    17 C    1.320    20 N    1.098
    20   7 N    3.263 --    19 C    1.098    25 C    0.990    21 C    0.975
    21   6 C    3.982 --    22 C    0.998    20 N    0.975    40 H    0.970
                            41 H    0.969
    22   6 C    3.957 --    21 C    0.998    23 O    0.985    42 H    0.970
                            43 H    0.969
    23   8 O    2.062 --    22 C    0.985    24 C    0.982
    24   6 C    3.955 --    25 C    0.997    23 O    0.982    45 H    0.970
                            44 H    0.969
    25   6 C    3.980 --    24 C    0.997    20 N    0.990    46 H    0.973
                            47 H    0.968
    26   6 C    3.984 --    14 C    1.393    19 C    1.372    48 H    0.962
    27   1 H    0.995 --     1 C    0.957
    28   1 H    0.996 --     1 C    0.978
    29   1 H    0.995 --     1 C    0.978
    30   1 H    0.995 --     9 C    0.967
    31   1 H    0.995 --     9 C    0.966
    32   1 H    0.996 --    10 C    0.970
    33   1 H    0.999 --    10 C    0.971
    34   1 H    0.996 --    12 C    0.970
    35   1 H    0.998 --    12 C    0.970
    36   1 H    0.997 --    13 C    0.966
    37   1 H    0.995 --    13 C    0.967
    38   1 H    0.996 --    15 C    0.967
    39   1 H    0.996 --    16 C    0.967
    40   1 H    0.998 --    21 C    0.970
    41   1 H    0.999 --    21 C    0.969
    42   1 H    0.997 --    22 C    0.970
    43   1 H    0.999 --    22 C    0.969
    44   1 H    0.999 --    24 C    0.969
    45   1 H    0.997 --    24 C    0.970
    46   1 H    0.997 --    25 C    0.973
    47   1 H    0.998 --    25 C    0.968
    48   1 H    0.995 --    26 C    0.962
 ---------------------------------------------------------------------------

Topologies differ in total number of bonds
Writing topology from bond orders to xtbtopo.mol

molecular dipole:
                 x           y           z       tot (Debye)
 q only:       -0.639      -0.557      -0.288
   full:       -0.651      -0.542      -0.178       2.200
molecular quadrupole (traceless):
                xx          xy          yy          xz          yz          zz
 q only:       -5.951      -3.007       7.113      -3.528      -4.583      -1.162
  q+dip:      -14.658      -1.493      10.655      -3.960      -3.081       4.003
   full:      -15.978      -1.016       9.086      -5.028      -4.719       6.893


           -------------------------------------------------
          | TOTAL ENERGY              -77.297671673970 Eh   |
          | GRADIENT NORM               0.069074527179 Eh/α |
          | HOMO-LUMO GAP               2.256054662776 eV   |
           -------------------------------------------------

------------------------------------------------------------------------
 * finished run on 2026/08/31 at 20:55:41.283     
------------------------------------------------------------------------
 total:
 * wall-time:     0 d,  0 h,  0 min,  0.087 sec
 *  cpu-time:     0 d,  0 h,  0 min,  0.672 sec
 * ratio c/w:     7.723 speedup
 SCF:
 * wall-time:     0 d,  0 h,  0 min,  0.053 sec
 *  cpu-time:     0 d,  0 h,  0 min,  0.328 sec
 * ratio c/w:     6.191 speedup

normal termination of xtb
