      -----------------------------------------------------------      
     |                   =====================                   |     
     |                           x T B                           |     
     |                   =====================                   |     
     |                         S. Grimme                         |     
     |          Mulliken Center for Theoretical Chemistry        |     
     |                    University of Bonn                     |     
      -----------------------------------------------------------      

   * xtb version 6.7.1pre (5071a88) compiled by 'Marcel@Raven' on 2024-07-23

   xtb is free software: you can redistribute it and/or modify it under
   the terms of the GNU Lesser General Public License as published by
   the Free Software Foundation, either version 3 of the License, or
   (at your option) any later version.
   
   xtb is distributed in the hope that it will be useful,
   but WITHOUT ANY WARRANTY; without even the implied warranty of
   MERCHANTABILITY or FITNESS FOR A PARTICULAR PURPOSE.  See the
   GNU Lesser General Public License for more details.
   
   Cite this work as:
   * C. Bannwarth, E. Caldeweyher, S. Ehlert, A. Hansen, P. Pracht,
     J. Seibert, S. Spicher, S. Grimme, WIREs Comput. Mol. Sci., 2020, 11,
     e01493. DOI: 10.1002/wcms.1493
   
   for GFN2-xTB:
   * C. Bannwarth, S. Ehlert and S. Grimme., J. Chem. Theory Comput., 2019,
     15, 1652-1671. DOI: 10.1021/acs.jctc.8b01176
   for GFN1-xTB:
   * S. Grimme, C. Bannwarth, P. Shushkov, J. Chem. Theory Comput., 2017,
     13, 1989-2009. DOI: 10.1021/acs.jctc.7b00118
   for GFN0-xTB:
   * P. Pracht, E. Caldeweyher, S. Ehlert, S. Grimme, ChemRxiv, 2019, preprint.
     DOI: 10.26434/chemrxiv.8326202.v1
   for GFN-FF:
   * S. Spicher and S. Grimme, Angew. Chem. Int. Ed., 2020, 59, 15665-15673.
     DOI: 10.1002/anie.202004239
   
   for ALPB and GBSA implicit solvation:
   * S. Ehlert, M. Stahn, S. Spicher, S. Grimme, J. Chem. Theory Comput.,
     2021, 17, 4250-4261. DOI: 10.1021/acs.jctc.1c00471
   
   for ddCOSMO and CPCM-X implicit solvation:
   * M. Stahn, S. Ehlert, S. Grimme, J. Phys. Chem. A,
     2023, XX, XXXX-XXXX. DOI: 10.1021/acs.jpca.3c04382
   
   for DFT-D4:
   * E. Caldeweyher, C. Bannwarth and S. Grimme, J. Chem. Phys., 2017,
     147, 034112. DOI: 10.1063/1.4993215
   * E. Caldeweyher, S. Ehlert, A. Hansen, H. Neugebauer, S. Spicher,
     C. Bannwarth and S. Grimme, J. Chem. Phys., 2019, 150, 154122.
     DOI: 10.1063/1.5090222
   * E. Caldeweyher, J.-M. Mewes, S. Ehlert and S. Grimme, Phys. Chem. Chem. Phys.
     2020, 22, 8499-8512. DOI: 10.1039/D0CP00502A
   
   for sTDA-xTB:
   * S. Grimme and C. Bannwarth, J. Chem. Phys., 2016, 145, 054103.
     DOI: 10.1063/1.4959605
   
   in the mass-spec context:
   * V. Asgeirsson, C. Bauer and S. Grimme, Chem. Sci., 2017, 8, 4879.
     DOI: 10.1039/c7sc00601b
   * J. Koopman and S. Grimme, ACS Omega 2019, 4, 12, 15120-15133.
     DOI: 10.1021/acsomega.9b02011
   
   for metadynamics refer to:
   * S. Grimme, J. Chem. Theory Comput., 2019, 155, 2847-2862
     DOI: 10.1021/acs.jctc.9b00143
   
   for SPH calculations refer to:
   * S. Spicher and S. Grimme, J. Chem. Theory Comput., 2021, 17, 1701-1714
     DOI: 10.1021/acs.jctc.0c01306
   
   for ONIOM refer to:
   * C. Plett, A. Katbashev, S. Ehlert, S. Grimme, M. Bursch,
     Phys. Chem. Chem. Phys., 2023, 25, 17860-17868. DOI: 10.1039/D3CP02178E
   
   for DIPRO refer to:
   * J. Kohn, N. Gildemeister, S. Grimme, D. Fazzi, A. Hansen,
     J. Chem. Phys., 2023, just accepted.
   
   for PTB refer to:
   * S. Grimme, M. Mueller, A. Hansen, J. Chem. Phys., 2023, 158, 124111.
     DOI: 10.1063/5.0137838
   
   with help from (in alphabetical order)
   P. Atkinson, C. Bannwarth, F. Bohle, G. Brandenburg, E. Caldeweyher
   M. Checinski, S. Dohm, S. Ehlert, S. Ehrlich, I. Gerasimov, C. Hölzer
   A. Katbashev, J. Kohn, J. Koopman, C. Lavigne, S. Lehtola, F. März, M. Müller,
   F. Musil, H. Neugebauer, J. Pisarek, C. Plett, P. Pracht, F. Pultar,
   J. Seibert, P. Shushkov, S. Spicher, M. Stahn, M. Steiner, T. Strunk,
   J. Stückrath, T. Rose, and J. Unsleber
   
 * started run on 2026/08/31 at 21:53:18.623     
   ID    Z sym.   atoms
    1    6 C      1, 2, 4, 6-8, 13, 14, 16-19, 21, 23-26, 55-61
    2    7 N      3, 5, 12, 20, 22
    3    9 F      9-11
    4    8 O      15, 62-75
    5    1 H      27-42
    6   22 Ti     43-54

           -------------------------------------------------
          |                Calculation Setup                |
           -------------------------------------------------

          program call               : "c:\Users\Andre\Proyectos doctorado\kras-pancreatic-gC3N4-ai\tools\xtb\xtb-6.7.1\bin\xtb.exe" "c:\Users\Andre\Proyectos doctorado\mxene-glioblastoma-qsar-ai\calculations\gbm\Buparlisib\Buparlisib_Ti12C7O14_clean_complex.xyz" --gfn 2 --sp --chrg 0 --uhf 0 --etemp 500 --acc 1.0 --iterations 500 --norestart
          coordinate file            : c:\Users\Andre\Proyectos doctorado\mxene-glioblastoma-qsar-ai\calculations\gbm\Buparlisib\Buparlisib_Ti12C7O14_clean_complex.xyz
          omp threads                :                    16


molecular fragmentation (1/2 indicates fragments):
111111111111111111111111111111111111111111222222222222222222222222222222
222
# atoms in fragment 1/2:    42    33
 fragment masses (1/2) :      363.34      882.47
CMA distance (Bohr)    :  20.083
constraining FC (au)   :  0.0500

           -------------------------------------------------
          |                 G F N 2 - x T B                 |
           -------------------------------------------------

        Reference                      10.1021/acs.jctc.8b01176
      * Hamiltonian:
        H0-scaling (s, p, d)           1.850000    2.230000    2.230000
        zeta-weighting                 0.500000
      * Dispersion:
        s8                             2.700000
        a1                             0.520000
        a2                             5.000000
        s9                             5.000000
      * Repulsion:
        kExp                           1.500000    1.000000
        rExp                           1.000000
      * Coulomb:
        alpha                          2.000000
        third order                    shell-resolved
        anisotropic                    true
        a3                             3.000000
        a5                             4.000000
        cn-shift                       1.200000
        cn-exp                         4.000000
        max-rad                        5.000000


          ...................................................
          :                      SETUP                      :
          :.................................................:
          :  # basis functions                 324          :
          :  # atomic orbitals                 312          :
          :  # shells                          146          :
          :  # electrons                       296          :
          :  max. iterations                   500          :
          :  Hamiltonian                  GFN2-xTB          :
          :  restarted?                      false          :
          :  GBSA solvation                  false          :
          :  PC potential                    false          :
          :  electronic temp.          500.0000000     K    :
          :  accuracy                    1.0000000          :
          :  -> integral cutoff          0.2500000E+02      :
          :  -> integral neglect         0.1000000E-07      :
          :  -> SCF convergence          0.1000000E-05 Eh   :
          :  -> wf. convergence          0.1000000E-03 e    :
          :  Broyden damping             0.4000000          :
          :  net charge                          0          :
          :  unpaired electrons                  0          :
          ...................................................

 iter      E             dE          RMSdq      gap      omega  full diag
   1   -169.2383628 -0.169238E+03  0.135E+01    0.05       0.0  T
   2   -158.0918088  0.111466E+02  0.105E+01    0.08       1.0  T
   3   -106.5419466  0.515499E+02  0.216E+01    0.36       1.0  T
   4   -168.5677651 -0.620258E+02  0.941E+00    0.04       1.0  T
   5   -170.4917714 -0.192401E+01  0.595E+00    0.32       1.0  T
   6   -170.7612087 -0.269437E+00  0.465E+00    0.48       1.0  T
   7   -170.7795916 -0.183829E-01  0.364E+00    0.57       1.0  T
   8   -170.3566651  0.422926E+00  0.430E+00    0.02       1.0  T
   9   -170.9100521 -0.553387E+00  0.222E+00    0.28       1.0  T
  10   -169.8210340  0.108902E+01  0.536E+00    0.01       1.0  T
  11   -170.4585287 -0.637495E+00  0.301E+00    0.04       1.0  T
  12   -170.8575261 -0.398997E+00  0.143E+00    0.18       1.0  T
  13   -170.9530126 -0.954865E-01  0.125E+00    0.26       1.0  T
  14   -170.9937654 -0.407528E-01  0.118E+00    0.63       1.0  T
  15   -171.0104190 -0.166536E-01  0.109E+00    0.74       1.0  T
  16   -171.0194579 -0.903890E-02  0.939E-01    0.80       1.0  T
  17   -171.0279436 -0.848578E-02  0.743E-01    0.88       1.0  T
  18   -171.0402161 -0.122724E-01  0.488E-01    0.66       1.0  T
  19   -171.0441845 -0.396840E-02  0.335E-01    0.54       1.0  T
  20   -171.0471159 -0.293143E-02  0.262E-01    0.52       1.0  T
  21   -171.0486990 -0.158310E-02  0.204E-01    0.52       1.0  T
  22   -171.0495632 -0.864163E-03  0.187E-01    0.47       1.0  T
  23   -171.0501259 -0.562764E-03  0.191E-01    0.46       1.0  T
  24   -171.0503181 -0.192175E-03  0.187E-01    0.46       1.0  T
  25   -171.0506609 -0.342821E-03  0.176E-01    0.44       1.0  T
  26   -171.0508191 -0.158204E-03  0.165E-01    0.45       1.0  T
  27   -171.0509536 -0.134448E-03  0.149E-01    0.46       1.0  T
  28   -171.0510843 -0.130761E-03  0.134E-01    0.45       1.0  T
  29   -171.0512520 -0.167639E-03  0.112E-01    0.46       1.0  T
  30   -171.0514609 -0.208887E-03  0.682E-02    0.46       1.0  T
  31   -171.0515672 -0.106304E-03  0.388E-02    0.45       1.0  T
  32   -171.0516056 -0.384552E-04  0.199E-02    0.45       1.0  T
  33   -171.0516142 -0.853856E-05  0.119E-02    0.45       1.0  T
  34   -171.0516178 -0.359292E-05  0.670E-03    0.45       1.7  T
  35   -171.0516186 -0.792976E-06  0.469E-03    0.45       2.5  T
  36   -171.0516190 -0.409906E-06  0.279E-03    0.45       4.1  T
  37   -171.0516191 -0.108401E-06  0.202E-03    0.45       5.7  T
  38   -171.0516192 -0.100198E-06  0.117E-03    0.45       9.8  T
  39   -171.0516192 -0.253055E-07  0.810E-04    0.45      14.3  T
  40   -171.0516192 -0.246139E-07  0.245E-04    0.45      47.2  T

   *** convergence criteria satisfied after 40 iterations ***

         #    Occupation            Energy/Eh            Energy/eV
      -------------------------------------------------------------
         1        2.0000           -0.8744514             -23.7950
       ...           ...                  ...                  ...
       142        2.0000           -0.3598708              -9.7926
       143        2.0000           -0.3523271              -9.5873
       144        2.0000           -0.3516423              -9.5687
       145        2.0000           -0.3459738              -9.4144
       146        2.0000           -0.3390251              -9.2253
       147        2.0000           -0.3242492              -8.8233
       148        1.9887           -0.3096646              -8.4264 (HOMO)
       149        0.0109           -0.2932256              -7.9791 (LUMO)
       150        0.0001           -0.2861481              -7.7865
       151        0.0001           -0.2858135              -7.7774
       152        0.0001           -0.2854376              -7.7672
       153        0.0000           -0.2843642              -7.7379
       ...           ...                  ...                  ...
       312                         13.3339820             362.8361
      -------------------------------------------------------------
                  HL-Gap            0.0164389 Eh            0.4473 eV
             Fermi-level           -0.3014717 Eh           -8.2035 eV

 SCC (total)                   0 d,  0 h,  0 min,  0.818 sec
 SCC setup                      ...        0 min,  0.001 sec (  0.122%)
 Dispersion                     ...        0 min,  0.002 sec (  0.245%)
 classical contributions        ...        0 min,  0.000 sec (  0.000%)
 integral evaluation            ...        0 min,  0.009 sec (  1.100%)
 iterations                     ...        0 min,  0.782 sec ( 95.599%)
 molecular gradient             ...        0 min,  0.023 sec (  2.812%)
 printout                       ...        0 min,  0.001 sec (  0.122%)

         :::::::::::::::::::::::::::::::::::::::::::::::::::::
         ::                     SUMMARY                     ::
         :::::::::::::::::::::::::::::::::::::::::::::::::::::
         :: total energy            -169.516870375926 Eh    ::
         :: gradient norm              0.114362692569 Eh/a0 ::
         :: HOMO-LUMO gap              0.447326490109 eV    ::
         ::.................................................::
         :: SCC energy              -171.049572147747 Eh    ::
         :: -> isotropic ES            1.004810873418 Eh    ::
         :: -> anisotropic ES         -0.378725418295 Eh    ::
         :: -> anisotropic XC         -0.041400992206 Eh    ::
         :: -> dispersion             -0.138094084897 Eh    ::
         :: repulsion energy           1.532701771821 Eh    ::
         :: add. restraining           0.000000000000 Eh    ::
         :: total charge              -0.000000000003 e     ::
         :::::::::::::::::::::::::::::::::::::::::::::::::::::

           -------------------------------------------------
          |                Property Printout                |
           -------------------------------------------------

    * Orbital Energies and Occupations

         #    Occupation            Energy/Eh            Energy/eV
      -------------------------------------------------------------
         1        2.0000           -0.8744514             -23.7950
       ...           ...                  ...                  ...
       136        2.0000           -0.3827261             -10.4145
       137        2.0000           -0.3824523             -10.4071
       138        2.0000           -0.3779445             -10.2844
       139        2.0000           -0.3746791             -10.1955
       140        2.0000           -0.3696005             -10.0573
       141        2.0000           -0.3620551              -9.8520
       142        2.0000           -0.3598708              -9.7926
       143        2.0000           -0.3523271              -9.5873
       144        2.0000           -0.3516423              -9.5687
       145        2.0000           -0.3459738              -9.4144
       146        2.0000           -0.3390251              -9.2253
       147        2.0000           -0.3242492              -8.8233
       148        1.9887           -0.3096646              -8.4264 (HOMO)
       149        0.0109           -0.2932256              -7.9791 (LUMO)
       150        0.0001           -0.2861481              -7.7865
       151        0.0001           -0.2858135              -7.7774
       152        0.0001           -0.2854376              -7.7672
       153        0.0000           -0.2843642              -7.7379
       154        0.0000           -0.2832164              -7.7067
       155        0.0000           -0.2804514              -7.6315
       156        0.0000           -0.2757117              -7.5025
       157        0.0000           -0.2749921              -7.4829
       158                         -0.2728896              -7.4257
       159                         -0.2726801              -7.4200
       ...                                ...                  ...
       312                         13.3339820             362.8361
      -------------------------------------------------------------
                  HL-Gap            0.0164389 Eh            0.4473 eV
             Fermi-level           -0.3014717 Eh           -8.2035 eV

     #   Z          covCN         q      C6AA      α(0)
     1   6 C        3.757    -0.135    23.159     6.861
     2   6 C        2.950     0.123    25.309     8.251
     3   7 N        1.842    -0.258    27.556     7.780
     4   6 C        2.909     0.184    24.072     8.045
     5   7 N        1.840    -0.280    28.103     7.856
     6   6 C        2.924     0.181    24.118     8.054
     7   6 C        2.959    -0.073    29.814     8.956
     8   6 C        3.333     0.481    17.401     6.613
     9   9 F        0.788    -0.211    11.352     3.980
    10   9 F        0.788    -0.198    11.219     3.957
    11   9 F        0.789    -0.213    11.372     3.983
    12   7 N        2.730    -0.182    24.942     7.417
    13   6 C        3.747     0.002    20.610     6.475
    14   6 C        3.687     0.071    19.573     6.333
    15   8 O        1.694    -0.324    19.420     5.950
    16   6 C        3.687     0.072    19.554     6.330
    17   6 C        3.755     0.005    20.554     6.464
    18   6 C        2.963    -0.013    28.327     8.730
    19   6 C        2.930     0.054    26.780     8.487
    20   7 N        1.827    -0.253    27.433     7.761
    21   6 C        3.095     0.136    24.936     8.184
    22   7 N        2.798    -0.099    23.175     7.150
    23   6 C        2.996     0.005    27.895     8.664
    24   6 C        3.031    -0.069    29.680     8.936
    25   6 C        3.093    -0.013    28.215     8.706
    26   6 C        2.928    -0.016    28.421     8.743
    27   1 H        0.924     0.087     1.908     2.160
    28   1 H        0.924     0.080     1.976     2.198
    29   1 H        0.924     0.076     2.017     2.221
    30   1 H        0.924     0.046     2.365     2.405
    31   1 H        0.924     0.059     2.207     2.323
    32   1 H        0.924     0.052     2.299     2.371
    33   1 H        0.924     0.044     2.393     2.419
    34   1 H        0.924     0.046     2.365     2.405
    35   1 H        0.924     0.056     2.245     2.343
    36   1 H        0.924     0.055     2.256     2.349
    37   1 H        0.923     0.039     2.457     2.451
    38   1 H        0.925     0.060     2.196     2.318
    39   1 H        0.860     0.178     1.228     1.736
    40   1 H        0.925     0.049     2.327     2.386
    41   1 H        0.925     0.042     2.423     2.434
    42   1 H        0.925     0.061     2.185     2.312
    43  22 Ti       3.637     1.056   101.736    24.481
    44  22 Ti       6.855     1.551    84.059    14.885
    45  22 Ti       3.227     1.048   102.637    24.738
    46  22 Ti       5.860     1.381    85.662    15.027
    47  22 Ti       5.627     1.121    88.210    15.248
    48  22 Ti       3.541     1.034   102.538    24.679
    49  22 Ti       2.352     0.882   202.644    34.856
    50  22 Ti       6.011     1.348    85.976    15.054
    51  22 Ti       3.414     1.008   103.054    24.779
    52  22 Ti       5.519     1.097    88.446    15.269
    53  22 Ti       5.687     1.189    87.530    15.190
    54  22 Ti       3.581     1.026   102.476    24.643
    55   6 C        2.246    -0.257    37.616     9.937
    56   6 C        2.142    -0.255    38.335    10.008
    57   6 C        2.248    -0.019    30.605     8.964
    58   6 C        1.838    -0.210    37.313     9.868
    59   6 C        1.894    -0.225    37.754     9.924
    60   6 C        1.821    -0.346    42.133    10.488
    61   6 C        2.631    -0.404    39.907    10.333
    62   8 O        1.554    -0.848    32.036     7.636
    63   8 O        1.464    -0.882    33.244     7.772
    64   8 O        1.557    -0.956    35.611     8.051
    65   8 O        1.523    -1.007    37.506     8.260
    66   8 O        1.523    -0.913    34.176     7.885
    67   8 O        1.458    -0.821    31.349     7.546
    68   8 O        1.455    -0.798    30.665     7.463
    69   8 O        0.727    -0.635    27.072     6.972
    70   8 O        1.453    -0.864    32.691     7.706
    71   8 O        1.476    -0.799    30.661     7.465
    72   8 O        1.603    -0.946    35.200     8.007
    73   8 O        1.547    -0.969    36.082     8.104
    74   8 O        1.700    -0.817    30.971     7.514
    75   8 O        1.453    -0.781    30.163     7.402

 Mol. C6AA /au·bohr⁶  :     147587.863078
 Mol. C8AA /au·bohr⁸  :    6557641.010717
 Mol. α(0) /au        :        651.653356


Wiberg/Mayer (AO) data.
largest (>0.10) Wiberg bond orders for each atom

 ---------------------------------------------------------------------------
     #   Z sym  total        # sym  WBO       # sym  WBO       # sym  WBO
 ---------------------------------------------------------------------------
     1   6 C    3.983 --     2 C    1.033    28 H    0.979    27 H    0.957
                            29 H    0.943
     2   6 C    3.967 --     3 N    1.404     7 C    1.365     1 C    1.033
     3   7 N    3.043 --     2 C    1.404     4 C    1.360
     4   6 C    3.951 --     3 N    1.360     5 N    1.358    18 C    1.070
     5   7 N    3.045 --     6 C    1.387     4 C    1.358
     6   6 C    3.972 --     5 N    1.387     7 C    1.345    12 N    1.054
     7   6 C    3.950 --     2 C    1.365     6 C    1.345     8 C    0.961
     8   6 C    3.825 --     7 C    0.961    10 F    0.948    11 F    0.939
                             9 F    0.936
     9   9 F    1.069 --     8 C    0.936
    10   9 F    1.075 --     8 C    0.948
    11   9 F    1.061 --     8 C    0.939
    12   7 N    3.141 --     6 C    1.054    13 C    0.974    17 C    0.954
    13   6 C    3.978 --    14 C    1.000    12 N    0.974    30 H    0.973
                            31 H    0.968
    14   6 C    3.955 --    13 C    1.000    15 O    0.977    32 H    0.970
                            33 H    0.969
    15   8 O    2.050 --    16 C    0.981    14 C    0.977
    16   6 C    3.957 --    17 C    1.002    15 O    0.981    34 H    0.970
                            35 H    0.968
    17   6 C    3.975 --    16 C    1.002    37 H    0.970    36 H    0.970
                            12 N    0.954
    18   6 C    3.984 --    26 C    1.394    19 C    1.338     4 C    1.070
    19   6 C    3.975 --    20 N    1.464    18 C    1.338    38 H    0.961
    20   7 N    3.034 --    19 C    1.464    21 C    1.333    26 C    0.103
    21   6 C    3.958 --    20 N    1.333    25 C    1.225    22 N    1.198
    22   7 N    3.554 --    21 C    1.198    23 C    1.197    39 H    0.941
    23   6 C    3.949 --    24 C    1.613    22 N    1.197    40 H    0.969
    24   6 C    3.970 --    23 C    1.613    25 C    1.222    41 H    0.973
    25   6 C    3.986 --    26 C    1.360    21 C    1.225    24 C    1.222
    26   6 C    3.980 --    18 C    1.394    25 C    1.360    42 H    0.966
                            20 N    0.103
    27   1 H    0.992 --     1 C    0.957
    28   1 H    0.992 --     1 C    0.979
    29   1 H    0.994 --     1 C    0.943
    30   1 H    0.998 --    13 C    0.973
    31   1 H    0.995 --    13 C    0.968
    32   1 H    0.997 --    14 C    0.970
    33   1 H    0.998 --    14 C    0.969
    34   1 H    0.998 --    16 C    0.970
    35   1 H    0.996 --    16 C    0.968
    36   1 H    0.997 --    17 C    0.970
    37   1 H    0.998 --    17 C    0.970
    38   1 H    0.996 --    19 C    0.961
    39   1 H    0.968 --    22 N    0.941
    40   1 H    0.997 --    23 C    0.969
    41   1 H    0.998 --    24 C    0.973
    42   1 H    0.996 --    26 C    0.966
    43  22 Ti   2.823 --    62 O    0.845    63 O    0.812    49 Ti   0.331
                            44 Ti   0.202    46 Ti   0.197
    44  22 Ti   3.854 --    63 O    0.751    66 O    0.746    64 O    0.691
                            65 O    0.606    43 Ti   0.202    45 Ti   0.188
                            47 Ti   0.138    48 Ti   0.138
    45  22 Ti   2.722 --    71 O    0.963    64 O    0.599    51 Ti   0.371
                            44 Ti   0.188    49 Ti   0.140    66 O    0.110
    46  22 Ti   3.919 --    67 O    0.940    55 C    0.720    62 O    0.704
                            65 O    0.563    48 Ti   0.209    43 Ti   0.197
                            52 Ti   0.178    72 O    0.124
    47  22 Ti   4.073 --    61 C    0.894    68 O    0.773    59 C    0.743
                            66 O    0.600    53 Ti   0.284    48 Ti   0.173
                            60 C    0.161    56 C    0.152    44 Ti   0.138
    48  22 Ti   2.669 --    68 O    0.971    67 O    0.708    46 Ti   0.209
                            47 Ti   0.173    44 Ti   0.138    63 O    0.122
    49  22 Ti   3.770 --    69 O    1.997    50 Ti   0.609    43 Ti   0.331
                            64 O    0.152    62 O    0.147    45 Ti   0.140
                            72 O    0.112
    50  22 Ti   4.017 --    72 O    0.801    70 O    0.753    73 O    0.714
                            49 Ti   0.609    74 O    0.196    51 Ti   0.166
                            54 Ti   0.147    52 Ti   0.141
    51  22 Ti   2.745 --    70 O    0.836    71 O    0.764    45 Ti   0.371
                            54 Ti   0.221    50 Ti   0.166    53 Ti   0.130
    52  22 Ti   4.008 --    60 C    1.054    58 C    0.727    74 O    0.615
                            72 O    0.442    61 C    0.229    54 Ti   0.199
                            46 Ti   0.178    55 C    0.156    50 Ti   0.141
    53  22 Ti   4.081 --    75 O    0.968    56 C    0.670    61 C    0.653
                            73 O    0.442    47 Ti   0.284    54 Ti   0.210
                            60 C    0.141    51 Ti   0.130    71 O    0.113
    54  22 Ti   2.790 --    74 O    0.901    75 O    0.734    51 Ti   0.221
                            53 Ti   0.210    52 Ti   0.199    50 Ti   0.147
    55   6 C    3.842 --    58 C    2.739    46 Ti   0.720    52 Ti   0.156
    56   6 C    3.781 --    59 C    2.732    53 Ti   0.670    47 Ti   0.152
    57   6 C    3.979 --    60 C    2.010    61 C    1.604
    58   6 C    3.707 --    55 C    2.739    52 Ti   0.727
    59   6 C    3.748 --    56 C    2.732    47 Ti   0.743
    60   6 C    3.763 --    57 C    2.010    52 Ti   1.054    47 Ti   0.161
                            53 Ti   0.141
    61   6 C    3.822 --    57 C    1.604    47 Ti   0.894    53 Ti   0.653
                            52 Ti   0.229
    62   8 O    1.933 --    43 Ti   0.845    46 Ti   0.704    49 Ti   0.147
    63   8 O    1.891 --    43 Ti   0.812    44 Ti   0.751    48 Ti   0.122
    64   8 O    1.782 --    44 Ti   0.691    45 Ti   0.599    49 Ti   0.152
    65   8 O    1.718 --    44 Ti   0.606    46 Ti   0.563
    66   8 O    1.847 --    44 Ti   0.746    47 Ti   0.600    45 Ti   0.110
    67   8 O    1.972 --    46 Ti   0.940    48 Ti   0.708
    68   8 O    2.013 --    48 Ti   0.971    47 Ti   0.773
    69   8 O    2.171 --    49 Ti   1.997
    70   8 O    1.911 --    51 Ti   0.836    50 Ti   0.753
    71   8 O    2.008 --    45 Ti   0.963    51 Ti   0.764    53 Ti   0.113
    72   8 O    1.799 --    50 Ti   0.801    52 Ti   0.442    46 Ti   0.124
                            49 Ti   0.112
    73   8 O    1.772 --    50 Ti   0.714    53 Ti   0.442
    74   8 O    1.987 --    54 Ti   0.901    52 Ti   0.615    50 Ti   0.196
    75   8 O    2.032 --    53 Ti   0.968    54 Ti   0.734
 ---------------------------------------------------------------------------

Topologies differ in total number of bonds
Writing topology from bond orders to xtbtopo.mol

molecular dipole:
                 x           y           z       tot (Debye)
 q only:        2.837      -0.792      -0.500
   full:        1.466      -1.139      -0.021       4.719
molecular quadrupole (traceless):
                xx          xy          yy          xz          yz          zz
 q only:      -31.733      -3.809     -20.900      36.505      -3.222      52.633
  q+dip:       -8.624      -5.395     -34.405      71.055     -25.992      43.029
   full:       -9.086      -4.091     -32.228      70.080     -26.940      41.314


           -------------------------------------------------
          | TOTAL ENERGY             -169.516870375926 Eh   |
          | GRADIENT NORM               0.114362692569 Eh/α |
          | HOMO-LUMO GAP               0.447326490109 eV   |
           -------------------------------------------------

------------------------------------------------------------------------
 * finished run on 2026/08/31 at 21:53:19.515     
------------------------------------------------------------------------
 total:
 * wall-time:     0 d,  0 h,  0 min,  0.891 sec
 *  cpu-time:     0 d,  0 h,  0 min,  7.375 sec
 * ratio c/w:     8.277 speedup
 SCF:
 * wall-time:     0 d,  0 h,  0 min,  0.819 sec
 *  cpu-time:     0 d,  0 h,  0 min,  7.062 sec
 * ratio c/w:     8.623 speedup

normal termination of xtb
