      -----------------------------------------------------------      
     |                   =====================                   |     
     |                           x T B                           |     
     |                   =====================                   |     
     |                         S. Grimme                         |     
     |          Mulliken Center for Theoretical Chemistry        |     
     |                    University of Bonn                     |     
      -----------------------------------------------------------      

   * xtb version 6.7.1pre (5071a88) compiled by 'Marcel@Raven' on 2024-07-23

   xtb is free software: you can redistribute it and/or modify it under
   the terms of the GNU Lesser General Public License as published by
   the Free Software Foundation, either version 3 of the License, or
   (at your option) any later version.
   
   xtb is distributed in the hope that it will be useful,
   but WITHOUT ANY WARRANTY; without even the implied warranty of
   MERCHANTABILITY or FITNESS FOR A PARTICULAR PURPOSE.  See the
   GNU Lesser General Public License for more details.
   
   Cite this work as:
   * C. Bannwarth, E. Caldeweyher, S. Ehlert, A. Hansen, P. Pracht,
     J. Seibert, S. Spicher, S. Grimme, WIREs Comput. Mol. Sci., 2020, 11,
     e01493. DOI: 10.1002/wcms.1493
   
   for GFN2-xTB:
   * C. Bannwarth, S. Ehlert and S. Grimme., J. Chem. Theory Comput., 2019,
     15, 1652-1671. DOI: 10.1021/acs.jctc.8b01176
   for GFN1-xTB:
   * S. Grimme, C. Bannwarth, P. Shushkov, J. Chem. Theory Comput., 2017,
     13, 1989-2009. DOI: 10.1021/acs.jctc.7b00118
   for GFN0-xTB:
   * P. Pracht, E. Caldeweyher, S. Ehlert, S. Grimme, ChemRxiv, 2019, preprint.
     DOI: 10.26434/chemrxiv.8326202.v1
   for GFN-FF:
   * S. Spicher and S. Grimme, Angew. Chem. Int. Ed., 2020, 59, 15665-15673.
     DOI: 10.1002/anie.202004239
   
   for ALPB and GBSA implicit solvation:
   * S. Ehlert, M. Stahn, S. Spicher, S. Grimme, J. Chem. Theory Comput.,
     2021, 17, 4250-4261. DOI: 10.1021/acs.jctc.1c00471
   
   for ddCOSMO and CPCM-X implicit solvation:
   * M. Stahn, S. Ehlert, S. Grimme, J. Phys. Chem. A,
     2023, XX, XXXX-XXXX. DOI: 10.1021/acs.jpca.3c04382
   
   for DFT-D4:
   * E. Caldeweyher, C. Bannwarth and S. Grimme, J. Chem. Phys., 2017,
     147, 034112. DOI: 10.1063/1.4993215
   * E. Caldeweyher, S. Ehlert, A. Hansen, H. Neugebauer, S. Spicher,
     C. Bannwarth and S. Grimme, J. Chem. Phys., 2019, 150, 154122.
     DOI: 10.1063/1.5090222
   * E. Caldeweyher, J.-M. Mewes, S. Ehlert and S. Grimme, Phys. Chem. Chem. Phys.
     2020, 22, 8499-8512. DOI: 10.1039/D0CP00502A
   
   for sTDA-xTB:
   * S. Grimme and C. Bannwarth, J. Chem. Phys., 2016, 145, 054103.
     DOI: 10.1063/1.4959605
   
   in the mass-spec context:
   * V. Asgeirsson, C. Bauer and S. Grimme, Chem. Sci., 2017, 8, 4879.
     DOI: 10.1039/c7sc00601b
   * J. Koopman and S. Grimme, ACS Omega 2019, 4, 12, 15120-15133.
     DOI: 10.1021/acsomega.9b02011
   
   for metadynamics refer to:
   * S. Grimme, J. Chem. Theory Comput., 2019, 155, 2847-2862
     DOI: 10.1021/acs.jctc.9b00143
   
   for SPH calculations refer to:
   * S. Spicher and S. Grimme, J. Chem. Theory Comput., 2021, 17, 1701-1714
     DOI: 10.1021/acs.jctc.0c01306
   
   for ONIOM refer to:
   * C. Plett, A. Katbashev, S. Ehlert, S. Grimme, M. Bursch,
     Phys. Chem. Chem. Phys., 2023, 25, 17860-17868. DOI: 10.1039/D3CP02178E
   
   for DIPRO refer to:
   * J. Kohn, N. Gildemeister, S. Grimme, D. Fazzi, A. Hansen,
     J. Chem. Phys., 2023, just accepted.
   
   for PTB refer to:
   * S. Grimme, M. Mueller, A. Hansen, J. Chem. Phys., 2023, 158, 124111.
     DOI: 10.1063/5.0137838
   
   with help from (in alphabetical order)
   P. Atkinson, C. Bannwarth, F. Bohle, G. Brandenburg, E. Caldeweyher
   M. Checinski, S. Dohm, S. Ehlert, S. Ehrlich, I. Gerasimov, C. Hölzer
   A. Katbashev, J. Kohn, J. Koopman, C. Lavigne, S. Lehtola, F. März, M. Müller,
   F. Musil, H. Neugebauer, J. Pisarek, C. Plett, P. Pracht, F. Pultar,
   J. Seibert, P. Shushkov, S. Spicher, M. Stahn, M. Steiner, T. Strunk,
   J. Stückrath, T. Rose, and J. Unsleber
   
 * started run on 2026/08/31 at 21:19:28.331     
   ID    Z sym.   atoms
    1    6 C      1, 2, 4, 6, 9, 10, 12-17, 19, 21, 22, 24-26, 61-67
    2    7 N      3, 5, 7, 8, 20
    3    8 O      11, 23, 68-81
    4    9 F      18
    5    1 H      27-48
    6   22 Ti     49-60

           -------------------------------------------------
          |                Calculation Setup                |
           -------------------------------------------------

          program call               : "c:\Users\Andre\Proyectos doctorado\kras-pancreatic-gC3N4-ai\tools\xtb\xtb-6.7.1\bin\xtb.exe" "c:\Users\Andre\Proyectos doctorado\mxene-glioblastoma-qsar-ai\calculations\gbm\Buparlisib\Buparlisib_Ti12C7O14_phys_complex.xyz" --gfn 2 --sp --chrg 0 --uhf 0 --etemp 300 --iterations 500 --norestart
          coordinate file            : c:\Users\Andre\Proyectos doctorado\mxene-glioblastoma-qsar-ai\calculations\gbm\Buparlisib\Buparlisib_Ti12C7O14_phys_complex.xyz
          omp threads                :                    16


molecular fragmentation (1/2 indicates fragments):
111111111111111111111111111111111111111111111111222222222222222222222222
222222222
# atoms in fragment 1/2:    48    33
 fragment masses (1/2) :      359.40      882.47
CMA distance (Bohr)    :  17.298
constraining FC (au)   :  0.0500

           -------------------------------------------------
          |                 G F N 2 - x T B                 |
           -------------------------------------------------

        Reference                      10.1021/acs.jctc.8b01176
      * Hamiltonian:
        H0-scaling (s, p, d)           1.850000    2.230000    2.230000
        zeta-weighting                 0.500000
      * Dispersion:
        s8                             2.700000
        a1                             0.520000
        a2                             5.000000
        s9                             5.000000
      * Repulsion:
        kExp                           1.500000    1.000000
        rExp                           1.000000
      * Coulomb:
        alpha                          2.000000
        third order                    shell-resolved
        anisotropic                    true
        a3                             3.000000
        a5                             4.000000
        cn-shift                       1.200000
        cn-exp                         4.000000
        max-rad                        5.000000


          ...................................................
          :                      SETUP                      :
          :.................................................:
          :  # basis functions                 330          :
          :  # atomic orbitals                 318          :
          :  # shells                          152          :
          :  # electrons                       298          :
          :  max. iterations                   500          :
          :  Hamiltonian                  GFN2-xTB          :
          :  restarted?                      false          :
          :  GBSA solvation                  false          :
          :  PC potential                    false          :
          :  electronic temp.          300.0000000     K    :
          :  accuracy                    1.0000000          :
          :  -> integral cutoff          0.2500000E+02      :
          :  -> integral neglect         0.1000000E-07      :
          :  -> SCF convergence          0.1000000E-05 Eh   :
          :  -> wf. convergence          0.1000000E-03 e    :
          :  Broyden damping             0.4000000          :
          :  net charge                          0          :
          :  unpaired electrons                  0          :
          ...................................................

 iter      E             dE          RMSdq      gap      omega  full diag
   1   -167.7668509 -0.167767E+03  0.140E+01    0.12       0.0  T
   2   -128.0260148  0.397408E+02  0.159E+01    0.05       1.0  T
   3    -20.5714102  0.107455E+03  0.277E+01    0.01       1.0  T
   4   -159.6288394 -0.139057E+03  0.118E+01    0.23       1.0  T
   5   -158.6795456  0.949294E+00  0.959E+00    0.04       1.0  T
   6   -168.7727250 -0.100932E+02  0.605E+00    0.03       1.0  T
   7   -170.1965887 -0.142386E+01  0.564E+00    0.17       1.0  T
   8   -170.4582121 -0.261623E+00  0.538E+00    0.62       1.0  T
   9   -170.4968735 -0.386614E-01  0.520E+00    0.81       1.0  T
  10   -168.0941801  0.240269E+01  0.544E+00    0.05       1.0  T
  11   -169.7829200 -0.168874E+01  0.470E+00    0.11       1.0  T
  12   -169.8145123 -0.315923E-01  0.440E+00    0.34       1.0  T
  13   -167.9924496  0.182206E+01  0.610E+00    0.10       1.0  T
  14   -170.5822891 -0.258984E+01  0.320E+00    0.05       1.0  T
  15   -167.6134550  0.296883E+01  0.110E+01    0.18       1.0  T
  16   -167.5850205  0.284345E-01  0.107E+01    0.07       1.0  T
  17   -167.6449619 -0.599414E-01  0.990E+00    0.06       1.0  T
  18   -167.6509958 -0.603388E-02  0.987E+00    0.06       1.0  T
  19   -167.5057024  0.145293E+00  0.953E+00    0.08       1.0  T
  20   -167.4092523  0.964501E-01  0.108E+01    0.17       1.0  T
  21   -166.5083453  0.900907E+00  0.897E+00    0.20       1.0  T
  22   -167.8506780 -0.134233E+01  0.737E+00    0.01       1.0  T
  23   -170.3982029 -0.254752E+01  0.362E+00    0.02       1.0  T
  24   -170.7125073 -0.314304E+00  0.356E+00    0.14       1.0  T
  25   -169.9219446  0.790563E+00  0.476E+00    0.17       1.0  T
  26   -170.3967389 -0.474794E+00  0.434E+00    0.02       1.0  T
  27   -170.8186585 -0.421920E+00  0.379E+00    0.20       1.0  T
  28   -170.8423564 -0.236979E-01  0.366E+00    0.23       1.0  T
  29   -170.8423444  0.120118E-04  0.345E+00    0.18       1.0  T
  30   -170.8319670  0.103773E-01  0.281E+00    0.13       1.0  T
  31   -170.7811555  0.508115E-01  0.204E+00    0.07       1.0  T
  32   -170.8285021 -0.473466E-01  0.196E+00    0.12       1.0  T
  33   -170.7274615  0.101041E+00  0.150E+00    0.05       1.0  T
  34   -170.8617451 -0.134284E+00  0.135E+00    0.20       1.0  T
  35   -170.8709952 -0.925009E-02  0.115E+00    0.24       1.0  T
  36   -170.8818010 -0.108059E-01  0.965E-01    0.36       1.0  T
  37   -170.8901065 -0.830551E-02  0.807E-01    0.51       1.0  T
  38   -170.8924107 -0.230416E-02  0.765E-01    0.67       1.0  T
  39   -170.8956628 -0.325211E-02  0.657E-01    0.80       1.0  T
  40   -170.8992017 -0.353886E-02  0.526E-01    0.79       1.0  T
  41   -170.9025726 -0.337097E-02  0.358E-01    0.76       1.0  T
  42   -170.9049384 -0.236576E-02  0.282E-01    0.70       1.0  T
  43   -170.9053744 -0.436042E-03  0.265E-01    0.68       1.0  T
  44   -170.9058944 -0.519978E-03  0.241E-01    0.66       1.0  T
  45   -170.9064490 -0.554594E-03  0.213E-01    0.66       1.0  T
  46   -170.9069971 -0.548116E-03  0.161E-01    0.65       1.0  T
  47   -170.9071280 -0.130836E-03  0.143E-01    0.65       1.0  T
  48   -170.9071384 -0.104494E-04  0.118E-01    0.65       1.0  T
  49   -170.9072899 -0.151443E-03  0.106E-01    0.65       1.0  T
  50   -170.9073948 -0.104913E-03  0.845E-02    0.65       1.0  T
  51   -170.9074515 -0.566928E-04  0.697E-02    0.64       1.0  T
  52   -170.9075157 -0.642474E-04  0.560E-02    0.64       1.0  T
  53   -170.9075505 -0.347700E-04  0.462E-02    0.64       1.0  T
  54   -170.9075696 -0.190939E-04  0.381E-02    0.63       1.0  T
  55   -170.9075890 -0.194352E-04  0.303E-02    0.63       1.0  T
  56   -170.9076046 -0.155420E-04  0.249E-02    0.63       1.0  T
  57   -170.9076184 -0.138059E-04  0.210E-02    0.62       1.0  T
  58   -170.9076274 -0.901406E-05  0.175E-02    0.62       1.0  T
  59   -170.9076337 -0.631400E-05  0.129E-02    0.62       1.0  T
  60   -170.9076366 -0.294331E-05  0.108E-02    0.62       1.0  T
  61   -170.9076383 -0.167524E-05  0.917E-03    0.62       1.2  T
  62   -170.9076404 -0.205855E-05  0.720E-03    0.61       1.5  T
  63   -170.9076425 -0.216348E-05  0.520E-03    0.61       2.1  T
  64   -170.9076432 -0.670724E-06  0.486E-03    0.61       2.3  T
  65   -170.9076438 -0.594294E-06  0.370E-03    0.61       3.0  T
  66   -170.9076439 -0.137191E-06  0.276E-03    0.61       4.0  T
  67   -170.9076439  0.437920E-07  0.270E-03    0.61       4.1  T
  68   -170.9076439 -0.456682E-07  0.238E-03    0.61       4.7  T
  69   -170.9076440 -0.732717E-07  0.200E-03    0.61       5.6  T
  70   -170.9076441 -0.563362E-07  0.166E-03    0.61       6.7  T
  71   -170.9076441 -0.424919E-07  0.124E-03    0.61       9.0  T
  72   -170.9076441 -0.170186E-07  0.979E-04    0.61      11.4  T
  73   -170.9076441 -0.151140E-07  0.777E-04    0.61      14.3  T

   *** convergence criteria satisfied after 73 iterations ***

         #    Occupation            Energy/Eh            Energy/eV
      -------------------------------------------------------------
         1        2.0000           -0.8206900             -22.3321
       ...           ...                  ...                  ...
       143        2.0000           -0.3588392              -9.7645
       144        2.0000           -0.3504914              -9.5374
       145        2.0000           -0.3496596              -9.5147
       146        2.0000           -0.3455367              -9.4025
       147        2.0000           -0.3383743              -9.2076
       148        2.0000           -0.3229388              -8.7876
       149        2.0000           -0.3083550              -8.3908 (HOMO)
       150        0.0000           -0.2858760              -7.7791 (LUMO)
       151        0.0000           -0.2854201              -7.7667
       152        0.0000           -0.2842657              -7.7353
       153        0.0000           -0.2837302              -7.7207
       154                         -0.2798613              -7.6154
       ...                                ...                  ...
       318                         13.3446062             363.1252
      -------------------------------------------------------------
                  HL-Gap            0.0224791 Eh            0.6117 eV
             Fermi-level           -0.2974229 Eh           -8.0933 eV

 SCC (total)                   0 d,  0 h,  0 min,  1.192 sec
 SCC setup                      ...        0 min,  0.000 sec (  0.000%)
 Dispersion                     ...        0 min,  0.001 sec (  0.084%)
 classical contributions        ...        0 min,  0.000 sec (  0.000%)
 integral evaluation            ...        0 min,  0.007 sec (  0.587%)
 iterations                     ...        0 min,  1.162 sec ( 97.483%)
 molecular gradient             ...        0 min,  0.018 sec (  1.510%)
 printout                       ...        0 min,  0.003 sec (  0.252%)

         :::::::::::::::::::::::::::::::::::::::::::::::::::::
         ::                     SUMMARY                     ::
         :::::::::::::::::::::::::::::::::::::::::::::::::::::
         :: total energy            -169.333292683079 Eh    ::
         :: gradient norm              0.070473084589 Eh/a0 ::
         :: HOMO-LUMO gap              0.611686117108 eV    ::
         ::.................................................::
         :: SCC energy              -170.904920381321 Eh    ::
         :: -> isotropic ES            1.001346678105 Eh    ::
         :: -> anisotropic ES         -0.376252212340 Eh    ::
         :: -> anisotropic XC         -0.030088197940 Eh    ::
         :: -> dispersion             -0.140269889383 Eh    ::
         :: repulsion energy           1.571627698243 Eh    ::
         :: add. restraining           0.000000000000 Eh    ::
         :: total charge              -0.000000000017 e     ::
         :::::::::::::::::::::::::::::::::::::::::::::::::::::

           -------------------------------------------------
          |                Property Printout                |
           -------------------------------------------------

    * Orbital Energies and Occupations

         #    Occupation            Energy/Eh            Energy/eV
      -------------------------------------------------------------
         1        2.0000           -0.8206900             -22.3321
       ...           ...                  ...                  ...
       137        2.0000           -0.3775366             -10.2733
       138        2.0000           -0.3739355             -10.1753
       139        2.0000           -0.3696884             -10.0597
       140        2.0000           -0.3692403             -10.0475
       141        2.0000           -0.3613001              -9.8315
       142        2.0000           -0.3601735              -9.8008
       143        2.0000           -0.3588392              -9.7645
       144        2.0000           -0.3504914              -9.5374
       145        2.0000           -0.3496596              -9.5147
       146        2.0000           -0.3455367              -9.4025
       147        2.0000           -0.3383743              -9.2076
       148        2.0000           -0.3229388              -8.7876
       149        2.0000           -0.3083550              -8.3908 (HOMO)
       150        0.0000           -0.2858760              -7.7791 (LUMO)
       151        0.0000           -0.2854201              -7.7667
       152        0.0000           -0.2842657              -7.7353
       153        0.0000           -0.2837302              -7.7207
       154                         -0.2798613              -7.6154
       155                         -0.2794904              -7.6053
       156                         -0.2753278              -7.4921
       157                         -0.2743649              -7.4658
       158                         -0.2723976              -7.4123
       159                         -0.2721719              -7.4062
       160                         -0.2711572              -7.3786
       ...                                ...                  ...
       318                         13.3446062             363.1252
      -------------------------------------------------------------
                  HL-Gap            0.0224791 Eh            0.6117 eV
             Fermi-level           -0.2974229 Eh           -8.0933 eV

     #   Z          covCN         q      C6AA      α(0)
     1   6 C        3.758    -0.132    23.087     6.850
     2   6 C        2.974     0.205    23.651     7.977
     3   7 N        1.839    -0.301    28.658     7.933
     4   6 C        2.979     0.197    23.806     8.003
     5   7 N        1.844    -0.320    29.144     8.001
     6   6 C        2.900     0.242    22.973     7.859
     7   7 N        1.843    -0.324    29.252     8.015
     8   7 N        2.742    -0.098    23.165     7.148
     9   6 C        3.740    -0.014    20.910     6.524
    10   6 C        3.687     0.070    19.591     6.336
    11   8 O        1.694    -0.321    19.361     5.941
    12   6 C        3.688     0.067    19.645     6.344
    13   6 C        3.742    -0.010    20.830     6.511
    14   6 C        2.963    -0.005    28.142     8.701
    15   6 C        2.917    -0.040    28.988     8.829
    16   6 C        2.907    -0.054    29.344     8.882
    17   6 C        2.777     0.149    24.757     8.149
    18   9 F        0.787    -0.224    11.490     4.004
    19   6 C        2.901     0.049    26.893     8.503
    20   7 N        2.729    -0.135    23.917     7.263
    21   6 C        3.747    -0.004    20.708     6.491
    22   6 C        3.700     0.071    19.546     6.323
    23   8 O        1.694    -0.319    19.324     5.935
    24   6 C        3.700     0.068    19.591     6.330
    25   6 C        3.741    -0.003    20.714     6.493
    26   6 C        2.925    -0.053    29.306     8.878
    27   1 H        0.924     0.075     2.030     2.228
    28   1 H        0.924     0.065     2.137     2.286
    29   1 H        0.924     0.067     2.121     2.277
    30   1 H        0.924     0.061     2.184     2.311
    31   1 H        0.924     0.076     2.021     2.223
    32   1 H        0.924     0.058     2.217     2.329
    33   1 H        0.924     0.039     2.457     2.451
    34   1 H        0.924     0.061     2.190     2.314
    35   1 H        0.924     0.046     2.376     2.410
    36   1 H        0.924     0.060     2.199     2.319
    37   1 H        0.924     0.071     2.072     2.251
    38   1 H        0.925     0.064     2.154     2.295
    39   1 H        0.925     0.065     2.139     2.287
    40   1 H        0.924     0.051     2.313     2.378
    41   1 H        0.924     0.037     2.487     2.466
    42   1 H        0.924     0.055     2.261     2.351
    43   1 H        0.924     0.037     2.489     2.467
    44   1 H        0.924     0.036     2.500     2.473
    45   1 H        0.924     0.057     2.231     2.336
    46   1 H        0.924     0.055     2.259     2.351
    47   1 H        0.924     0.051     2.304     2.374
    48   1 H        0.925     0.071     2.070     2.250
    49  22 Ti       3.637     1.051   101.793    24.488
    50  22 Ti       6.855     1.551    84.059    14.885
    51  22 Ti       3.227     1.048   102.641    24.739
    52  22 Ti       5.860     1.379    85.683    15.028
    53  22 Ti       5.627     1.121    88.206    15.248
    54  22 Ti       3.541     1.037   102.509    24.676
    55  22 Ti       2.352     0.880   202.676    34.858
    56  22 Ti       6.011     1.348    85.975    15.054
    57  22 Ti       3.414     1.008   103.055    24.779
    58  22 Ti       5.519     1.095    88.474    15.271
    59  22 Ti       5.687     1.189    87.534    15.190
    60  22 Ti       3.581     1.025   102.481    24.643
    61   6 C        2.246    -0.258    37.661     9.943
    62   6 C        2.142    -0.256    38.342    10.009
    63   6 C        2.248    -0.019    30.611     8.964
    64   6 C        1.838    -0.210    37.324     9.870
    65   6 C        1.894    -0.225    37.758     9.924
    66   6 C        1.821    -0.347    42.170    10.492
    67   6 C        2.631    -0.404    39.923    10.335
    68   8 O        1.554    -0.848    32.019     7.634
    69   8 O        1.464    -0.882    33.240     7.771
    70   8 O        1.557    -0.956    35.591     8.049
    71   8 O        1.523    -1.006    37.460     8.255
    72   8 O        1.523    -0.913    34.171     7.885
    73   8 O        1.458    -0.823    31.404     7.553
    74   8 O        1.455    -0.798    30.677     7.465
    75   8 O        0.727    -0.635    27.082     6.974
    76   8 O        1.453    -0.864    32.687     7.705
    77   8 O        1.476    -0.799    30.660     7.465
    78   8 O        1.603    -0.945    35.185     8.006
    79   8 O        1.547    -0.969    36.063     8.102
    80   8 O        1.700    -0.817    30.961     7.512
    81   8 O        1.453    -0.781    30.161     7.402

 Mol. C6AA /au·bohr⁶  :     155560.974577
 Mol. C8AA /au·bohr⁸  :    6769034.867929
 Mol. α(0) /au        :        665.829996


Wiberg/Mayer (AO) data.
largest (>0.10) Wiberg bond orders for each atom

 ---------------------------------------------------------------------------
     #   Z sym  total        # sym  WBO       # sym  WBO       # sym  WBO
 ---------------------------------------------------------------------------
     1   6 C    3.991 --     2 C    1.023    29 H    0.977    28 H    0.977
                            27 H    0.956
     2   6 C    3.955 --     7 N    1.407     3 N    1.382     1 C    1.023
     3   7 N    3.034 --     2 C    1.382     4 C    1.353
     4   6 C    3.959 --     5 N    1.386     3 N    1.353    14 C    1.050
     5   7 N    3.034 --     4 C    1.386     6 C    1.308
     6   6 C    3.966 --     5 N    1.308     7 N    1.301     8 N    1.215
     7   7 N    3.024 --     2 C    1.407     6 C    1.301
     8   7 N    3.442 --     6 C    1.215     9 C    0.984    13 C    0.984
     9   6 C    3.970 --    10 C    0.997     8 N    0.984    30 H    0.966
                            31 H    0.965
    10   6 C    3.956 --     9 C    0.997    11 O    0.980    33 H    0.970
                            32 H    0.969
    11   8 O    2.054 --    10 C    0.980    12 C    0.979
    12   6 C    3.956 --    13 C    1.003    11 O    0.979    35 H    0.970
                            34 H    0.969
    13   6 C    3.971 --    12 C    1.003     8 N    0.984    37 H    0.965
                            36 H    0.965
    14   6 C    3.982 --    26 C    1.392    15 C    1.367     4 C    1.050
    15   6 C    3.985 --    16 C    1.450    14 C    1.367    38 H    0.965
    16   6 C    3.986 --    15 C    1.450    17 C    1.396    39 H    0.966
    17   6 C    3.874 --    16 C    1.396    19 C    1.319    18 F    0.957
    18   9 F    1.088 --    17 C    0.957
    19   6 C    3.977 --    26 C    1.372    17 C    1.319    20 N    1.100
    20   7 N    3.266 --    19 C    1.100    25 C    0.989    21 C    0.975
    21   6 C    3.981 --    22 C    0.998    20 N    0.975    40 H    0.970
                            41 H    0.969
    22   6 C    3.958 --    21 C    0.998    23 O    0.985    42 H    0.970
                            43 H    0.969
    23   8 O    2.062 --    22 C    0.985    24 C    0.982
    24   6 C    3.955 --    25 C    0.997    23 O    0.982    45 H    0.970
                            44 H    0.969
    25   6 C    3.979 --    24 C    0.997    20 N    0.989    46 H    0.972
                            47 H    0.967
    26   6 C    3.983 --    14 C    1.392    19 C    1.372    48 H    0.961
    27   1 H    0.994 --     1 C    0.956
    28   1 H    0.994 --     1 C    0.977
    29   1 H    0.995 --     1 C    0.977
    30   1 H    0.994 --     9 C    0.966
    31   1 H    0.994 --     9 C    0.965
    32   1 H    0.996 --    10 C    0.969
    33   1 H    0.998 --    10 C    0.970
    34   1 H    0.996 --    12 C    0.969
    35   1 H    0.998 --    12 C    0.970
    36   1 H    0.996 --    13 C    0.965
    37   1 H    0.994 --    13 C    0.965
    38   1 H    0.995 --    15 C    0.965
    39   1 H    0.995 --    16 C    0.966
    40   1 H    0.997 --    21 C    0.970
    41   1 H    0.999 --    21 C    0.969
    42   1 H    0.996 --    22 C    0.970
    43   1 H    0.999 --    22 C    0.969
    44   1 H    0.999 --    24 C    0.969
    45   1 H    0.996 --    24 C    0.970
    46   1 H    0.997 --    25 C    0.972
    47   1 H    0.997 --    25 C    0.967
    48   1 H    0.994 --    26 C    0.961
    49  22 Ti   2.825 --    68 O    0.845    69 O    0.814    55 Ti   0.331
                            50 Ti   0.201    52 Ti   0.197    54 Ti   0.100
    50  22 Ti   3.854 --    69 O    0.750    72 O    0.745    70 O    0.691
                            71 O    0.608    49 Ti   0.201    51 Ti   0.188
                            53 Ti   0.138    54 Ti   0.137
    51  22 Ti   2.722 --    77 O    0.963    70 O    0.599    57 Ti   0.372
                            50 Ti   0.188    55 Ti   0.140    72 O    0.110
    52  22 Ti   3.921 --    73 O    0.936    61 C    0.721    68 O    0.705
                            71 O    0.564    54 Ti   0.212    49 Ti   0.197
                            58 Ti   0.178    78 O    0.124
    53  22 Ti   4.074 --    67 C    0.892    74 O    0.773    65 C    0.743
                            72 O    0.602    59 Ti   0.284    54 Ti   0.174
                            66 C    0.159    62 C    0.152    50 Ti   0.138
    54  22 Ti   2.659 --    74 O    0.971    73 O    0.710    52 Ti   0.212
                            53 Ti   0.174    50 Ti   0.137    69 O    0.123
                            49 Ti   0.100
    55  22 Ti   3.767 --    75 O    1.997    56 Ti   0.607    49 Ti   0.331
                            70 O    0.152    68 O    0.147    51 Ti   0.140
                            78 O    0.112
    56  22 Ti   4.017 --    78 O    0.803    76 O    0.753    79 O    0.715
                            55 Ti   0.607    80 O    0.196    57 Ti   0.166
                            60 Ti   0.148    58 Ti   0.141
    57  22 Ti   2.746 --    76 O    0.836    77 O    0.764    51 Ti   0.372
                            60 Ti   0.221    56 Ti   0.166    59 Ti   0.130
    58  22 Ti   4.013 --    66 C    1.059    64 C    0.725    80 O    0.614
                            78 O    0.441    67 C    0.234    60 Ti   0.199
                            52 Ti   0.178    61 C    0.155    56 Ti   0.141
    59  22 Ti   4.082 --    81 O    0.968    62 C    0.670    67 C    0.653
                            79 O    0.442    53 Ti   0.284    60 Ti   0.210
                            66 C    0.142    57 Ti   0.130    77 O    0.114
    60  22 Ti   2.792 --    80 O    0.901    81 O    0.734    57 Ti   0.221
                            59 Ti   0.210    58 Ti   0.199    56 Ti   0.148
    61   6 C    3.842 --    64 C    2.739    52 Ti   0.721    58 Ti   0.155
    62   6 C    3.781 --    65 C    2.732    59 Ti   0.670    53 Ti   0.152
    63   6 C    3.979 --    66 C    2.008    67 C    1.605
    64   6 C    3.704 --    61 C    2.739    58 Ti   0.725
    65   6 C    3.747 --    62 C    2.732    53 Ti   0.743
    66   6 C    3.769 --    63 C    2.008    58 Ti   1.059    53 Ti   0.159
                            59 Ti   0.142
    67   6 C    3.829 --    63 C    1.605    53 Ti   0.892    59 Ti   0.653
                            58 Ti   0.234
    68   8 O    1.934 --    49 Ti   0.845    52 Ti   0.705    55 Ti   0.147
    69   8 O    1.892 --    49 Ti   0.814    50 Ti   0.750    54 Ti   0.123
    70   8 O    1.783 --    50 Ti   0.691    51 Ti   0.599    55 Ti   0.152
    71   8 O    1.720 --    50 Ti   0.608    52 Ti   0.564
    72   8 O    1.847 --    50 Ti   0.745    53 Ti   0.602    51 Ti   0.110
    73   8 O    1.970 --    52 Ti   0.936    54 Ti   0.710
    74   8 O    2.013 --    54 Ti   0.971    53 Ti   0.773
    75   8 O    2.171 --    55 Ti   1.997
    76   8 O    1.911 --    57 Ti   0.836    56 Ti   0.753
    77   8 O    2.008 --    51 Ti   0.963    57 Ti   0.764    59 Ti   0.114
    78   8 O    1.799 --    56 Ti   0.803    58 Ti   0.441    52 Ti   0.124
                            55 Ti   0.112
    79   8 O    1.773 --    56 Ti   0.715    59 Ti   0.442
    80   8 O    1.987 --    60 Ti   0.901    58 Ti   0.614    56 Ti   0.196
    81   8 O    2.032 --    59 Ti   0.968    60 Ti   0.734
 ---------------------------------------------------------------------------

Topologies differ in total number of bonds
Writing topology from bond orders to xtbtopo.mol

molecular dipole:
                 x           y           z       tot (Debye)
 q only:        0.030      -1.534      -1.103
   full:       -1.256      -1.683      -0.175       5.355
molecular quadrupole (traceless):
                xx          xy          yy          xz          yz          zz
 q only:      -32.885      -5.873       7.317     -53.333     -27.055      25.568
  q+dip:      -28.980     -10.244      -8.345     -21.897     -41.427      37.325
   full:      -27.887      -7.932      -8.896     -23.583     -40.239      36.784


           -------------------------------------------------
          | TOTAL ENERGY             -169.333292683079 Eh   |
          | GRADIENT NORM               0.070473084589 Eh/α |
          | HOMO-LUMO GAP               0.611686117108 eV   |
           -------------------------------------------------

------------------------------------------------------------------------
 * finished run on 2026/08/31 at 21:19:29.569     
------------------------------------------------------------------------
 total:
 * wall-time:     0 d,  0 h,  0 min,  1.237 sec
 *  cpu-time:     0 d,  0 h,  0 min, 13.500 sec
 * ratio c/w:    10.914 speedup
 SCF:
 * wall-time:     0 d,  0 h,  0 min,  1.193 sec
 *  cpu-time:     0 d,  0 h,  0 min, 13.281 sec
 * ratio c/w:    11.133 speedup

normal termination of xtb
