      -----------------------------------------------------------      
     |                   =====================                   |     
     |                           x T B                           |     
     |                   =====================                   |     
     |                         S. Grimme                         |     
     |          Mulliken Center for Theoretical Chemistry        |     
     |                    University of Bonn                     |     
      -----------------------------------------------------------      

   * xtb version 6.7.1pre (5071a88) compiled by 'Marcel@Raven' on 2024-07-23

   xtb is free software: you can redistribute it and/or modify it under
   the terms of the GNU Lesser General Public License as published by
   the Free Software Foundation, either version 3 of the License, or
   (at your option) any later version.
   
   xtb is distributed in the hope that it will be useful,
   but WITHOUT ANY WARRANTY; without even the implied warranty of
   MERCHANTABILITY or FITNESS FOR A PARTICULAR PURPOSE.  See the
   GNU Lesser General Public License for more details.
   
   Cite this work as:
   * C. Bannwarth, E. Caldeweyher, S. Ehlert, A. Hansen, P. Pracht,
     J. Seibert, S. Spicher, S. Grimme, WIREs Comput. Mol. Sci., 2020, 11,
     e01493. DOI: 10.1002/wcms.1493
   
   for GFN2-xTB:
   * C. Bannwarth, S. Ehlert and S. Grimme., J. Chem. Theory Comput., 2019,
     15, 1652-1671. DOI: 10.1021/acs.jctc.8b01176
   for GFN1-xTB:
   * S. Grimme, C. Bannwarth, P. Shushkov, J. Chem. Theory Comput., 2017,
     13, 1989-2009. DOI: 10.1021/acs.jctc.7b00118
   for GFN0-xTB:
   * P. Pracht, E. Caldeweyher, S. Ehlert, S. Grimme, ChemRxiv, 2019, preprint.
     DOI: 10.26434/chemrxiv.8326202.v1
   for GFN-FF:
   * S. Spicher and S. Grimme, Angew. Chem. Int. Ed., 2020, 59, 15665-15673.
     DOI: 10.1002/anie.202004239
   
   for ALPB and GBSA implicit solvation:
   * S. Ehlert, M. Stahn, S. Spicher, S. Grimme, J. Chem. Theory Comput.,
     2021, 17, 4250-4261. DOI: 10.1021/acs.jctc.1c00471
   
   for ddCOSMO and CPCM-X implicit solvation:
   * M. Stahn, S. Ehlert, S. Grimme, J. Phys. Chem. A,
     2023, XX, XXXX-XXXX. DOI: 10.1021/acs.jpca.3c04382
   
   for DFT-D4:
   * E. Caldeweyher, C. Bannwarth and S. Grimme, J. Chem. Phys., 2017,
     147, 034112. DOI: 10.1063/1.4993215
   * E. Caldeweyher, S. Ehlert, A. Hansen, H. Neugebauer, S. Spicher,
     C. Bannwarth and S. Grimme, J. Chem. Phys., 2019, 150, 154122.
     DOI: 10.1063/1.5090222
   * E. Caldeweyher, J.-M. Mewes, S. Ehlert and S. Grimme, Phys. Chem. Chem. Phys.
     2020, 22, 8499-8512. DOI: 10.1039/D0CP00502A
   
   for sTDA-xTB:
   * S. Grimme and C. Bannwarth, J. Chem. Phys., 2016, 145, 054103.
     DOI: 10.1063/1.4959605
   
   in the mass-spec context:
   * V. Asgeirsson, C. Bauer and S. Grimme, Chem. Sci., 2017, 8, 4879.
     DOI: 10.1039/c7sc00601b
   * J. Koopman and S. Grimme, ACS Omega 2019, 4, 12, 15120-15133.
     DOI: 10.1021/acsomega.9b02011
   
   for metadynamics refer to:
   * S. Grimme, J. Chem. Theory Comput., 2019, 155, 2847-2862
     DOI: 10.1021/acs.jctc.9b00143
   
   for SPH calculations refer to:
   * S. Spicher and S. Grimme, J. Chem. Theory Comput., 2021, 17, 1701-1714
     DOI: 10.1021/acs.jctc.0c01306
   
   for ONIOM refer to:
   * C. Plett, A. Katbashev, S. Ehlert, S. Grimme, M. Bursch,
     Phys. Chem. Chem. Phys., 2023, 25, 17860-17868. DOI: 10.1039/D3CP02178E
   
   for DIPRO refer to:
   * J. Kohn, N. Gildemeister, S. Grimme, D. Fazzi, A. Hansen,
     J. Chem. Phys., 2023, just accepted.
   
   for PTB refer to:
   * S. Grimme, M. Mueller, A. Hansen, J. Chem. Phys., 2023, 158, 124111.
     DOI: 10.1063/5.0137838
   
   with help from (in alphabetical order)
   P. Atkinson, C. Bannwarth, F. Bohle, G. Brandenburg, E. Caldeweyher
   M. Checinski, S. Dohm, S. Ehlert, S. Ehrlich, I. Gerasimov, C. Hölzer
   A. Katbashev, J. Kohn, J. Koopman, C. Lavigne, S. Lehtola, F. März, M. Müller,
   F. Musil, H. Neugebauer, J. Pisarek, C. Plett, P. Pracht, F. Pultar,
   J. Seibert, P. Shushkov, S. Spicher, M. Stahn, M. Steiner, T. Strunk,
   J. Stückrath, T. Rose, and J. Unsleber
   
 * started run on 2026/09/02 at 20:11:57.234     
   ID    Z sym.   atoms
    1   22 Ti     1-12
    2    6 C      13-19
    3    8 O      20-33

           -------------------------------------------------
          |                Calculation Setup                |
           -------------------------------------------------

          program call               : "c:\Users\Andre\Proyectos doctorado\nano-qsar-ai-papers\kras-pancreatic-gC3N4-ai\tools\xtb\xtb-6.7.1\bin\xtb.exe" "c:\Users\Andre\Proyectos doctorado\nano-qsar-ai-papers\mxene-glioblastoma-qsar-ai\calculations\gbm\Temozolomide\Temozolomide_mxene_frozen_from_opt.xyz" --opt loose --gfn 2 --chrg 0 --uhf 0 --iterations 500 --cycles 400 --norestart
          coordinate file            : c:\Users\Andre\Proyectos doctorado\nano-qsar-ai-papers\mxene-glioblastoma-qsar-ai\calculations\gbm\Temozolomide\Temozolomide_mxene_frozen_from_opt.xyz
          omp threads                :                     4


molecular fragmentation (1/2 indicates fragments):
111111111111111112111222122222222
# atoms in fragment 1/2:    21    12
 fragment masses (1/2) :      694.46      188.00
CMA distance (Bohr)    :   1.962
constraining FC (au)   :  0.0500

           -------------------------------------------------
          |                 G F N 2 - x T B                 |
           -------------------------------------------------

        Reference                      10.1021/acs.jctc.8b01176
      * Hamiltonian:
        H0-scaling (s, p, d)           1.850000    2.230000    2.230000
        zeta-weighting                 0.500000
      * Dispersion:
        s8                             2.700000
        a1                             0.520000
        a2                             5.000000
        s9                             5.000000
      * Repulsion:
        kExp                           1.500000    1.000000
        rExp                           1.000000
      * Coulomb:
        alpha                          2.000000
        third order                    shell-resolved
        anisotropic                    true
        a3                             3.000000
        a5                             4.000000
        cn-shift                       1.200000
        cn-exp                         4.000000
        max-rad                        5.000000


          ...................................................
          :                      SETUP                      :
          :.................................................:
          :  # basis functions                 204          :
          :  # atomic orbitals                 192          :
          :  # shells                           78          :
          :  # electrons                       160          :
          :  max. iterations                   500          :
          :  Hamiltonian                  GFN2-xTB          :
          :  restarted?                      false          :
          :  GBSA solvation                  false          :
          :  PC potential                    false          :
          :  electronic temp.          300.0000000     K    :
          :  accuracy                    1.0000000          :
          :  -> integral cutoff          0.2500000E+02      :
          :  -> integral neglect         0.1000000E-07      :
          :  -> SCF convergence          0.1000000E-05 Eh   :
          :  -> wf. convergence          0.1000000E-03 e    :
          :  Broyden damping             0.4000000          :
          :  net charge                          0          :
          :  unpaired electrons                  0          :
          ...................................................

 iter      E             dE          RMSdq      gap      omega  full diag
   1    -86.6334557 -0.866335E+02  0.231E+01    0.09       0.0  T
   2      8.2832034  0.949167E+02  0.348E+01    0.18       1.0  T
   3     -3.3925568 -0.116758E+02  0.381E+01    0.10       1.0  T
   4    -84.5217973 -0.811292E+02  0.203E+01    0.10       1.0  T
   5    -90.3718433 -0.585005E+01  0.166E+01    0.05       1.0  T
   6    -87.5763392  0.279550E+01  0.169E+01    0.02       1.0  T
   7    -85.4107642  0.216557E+01  0.171E+01    0.09       1.0  T
   8    -86.4416203 -0.103086E+01  0.160E+01    0.01       1.0  T
   9    -82.0381586  0.440346E+01  0.176E+01    0.03       1.0  T
  10    -87.5599614 -0.552180E+01  0.151E+01    0.03       1.0  T
  11    -86.2622347  0.129773E+01  0.162E+01    0.02       1.0  T
  12    -88.9486202 -0.268639E+01  0.129E+01    0.03       1.0  T
  13    -90.7473357 -0.179872E+01  0.119E+01    0.03       1.0  T
  14    -91.4315936 -0.684258E+00  0.940E+00    0.01       1.0  T
  15    -88.9978722  0.243372E+01  0.141E+01    0.32       1.0  T
  16    -91.9189187 -0.292105E+01  0.805E+00    0.06       1.0  T
  17    -91.9898689 -0.709502E-01  0.809E+00    0.28       1.0  T
  18    -91.9985463 -0.867731E-02  0.774E+00    0.25       1.0  T
  19    -92.0891332 -0.905870E-01  0.694E+00    0.29       1.0  T
  20    -92.0984179 -0.928465E-02  0.988E+00    0.00       1.0  T
  21    -92.1645535 -0.661356E-01  0.974E+00    0.00       1.0  T
  22    -92.2700640 -0.105511E+00  0.595E+00    0.08       1.0  T
  23    -91.4155337  0.854530E+00  0.114E+01    0.08       1.0  T
  24    -91.9174272 -0.501894E+00  0.113E+01    0.05       1.0  T
  25    -91.7656409  0.151786E+00  0.124E+01    0.06       1.0  T
  26    -92.3242645 -0.558624E+00  0.506E+00    0.43       1.0  T
  27    -92.3347732 -0.105087E-01  0.480E+00    0.38       1.0  T
  28    -92.2787201  0.560531E-01  0.448E+00    0.06       1.0  T
  29    -91.9761156  0.302604E+00  0.666E+00    0.01       1.0  T
  30    -91.5182764  0.457839E+00  0.998E+00    0.02       1.0  T
  31    -92.0957381 -0.577462E+00  0.515E+00    0.01       1.0  T
  32    -92.4134279 -0.317690E+00  0.756E+00    0.01       1.0  T
  33    -92.4207211 -0.729319E-02  0.740E+00    0.01       1.0  T
  34    -92.5524109 -0.131690E+00  0.332E+00    0.13       1.0  T
  35    -92.6197824 -0.673715E-01  0.359E+00    0.00       1.0  T
  36    -92.6713781 -0.515957E-01  0.185E+00    0.03       1.0  T
  37    -92.5861061  0.852720E-01  0.438E+00    0.00       1.0  T
  38    -92.6667350 -0.806289E-01  0.170E+00    0.06       1.0  T
  39    -92.5768200  0.899150E-01  0.334E+00    0.12       1.0  T
  40    -92.5958292 -0.190092E-01  0.319E+00    0.11       1.0  T
  41    -92.5902939  0.553539E-02  0.329E+00    0.11       1.0  T
  42    -92.6594357 -0.691418E-01  0.231E+00    0.07       1.0  T
  43    -92.6851276 -0.256919E-01  0.144E+00    0.01       1.0  T
  44    -92.6936064 -0.847882E-02  0.129E+00    0.02       1.0  T
  45    -92.6780156  0.155908E-01  0.167E+00    0.06       1.0  T
  46    -92.6638037  0.142119E-01  0.194E+00    0.07       1.0  T
  47    -92.6928366 -0.290329E-01  0.130E+00    0.05       1.0  T
  48    -92.6993539 -0.651726E-02  0.118E+00    0.03       1.0  T
  49    -92.6993401  0.137110E-04  0.120E+00    0.03       1.0  T
  50    -92.6993385  0.165229E-05  0.117E+00    0.03       1.0  T
  51    -92.6992015  0.137026E-03  0.116E+00    0.03       1.0  T
  52    -92.6996812 -0.479711E-03  0.112E+00    0.03       1.0  T
  53    -92.6966346  0.304655E-02  0.112E+00    0.02       1.0  T
  54    -92.6949569  0.167769E-02  0.120E+00    0.05       1.0  T
  55    -92.6966201 -0.166316E-02  0.110E+00    0.05       1.0  T
  56    -92.7029275 -0.630743E-02  0.861E-01    0.05       1.0  T
  57    -92.7058913 -0.296373E-02  0.626E-01    0.05       1.0  T
  58    -92.7115603 -0.566903E-02  0.281E-01    0.04       1.0  T
  59    -92.7096653  0.189498E-02  0.645E-01    0.03       1.0  T
  60    -92.7040742  0.559114E-02  0.107E+00    0.02       1.0  T
  61    -92.7078238 -0.374967E-02  0.850E-01    0.02       1.0  T
  62    -92.7071304  0.693463E-03  0.882E-01    0.02       1.0  T
  63    -92.7102479 -0.311748E-02  0.597E-01    0.03       1.0  T
  64    -92.7115436 -0.129577E-02  0.390E-01    0.03       1.0  T
  65    -92.7114279  0.115689E-03  0.367E-01    0.03       1.0  T
  66    -92.7118275 -0.399524E-03  0.295E-01    0.03       1.0  T
  67    -92.7123886 -0.561147E-03  0.123E-01    0.03       1.0  T
  68    -92.7124184 -0.297466E-04  0.991E-02    0.03       1.0  T
  69    -92.7124360 -0.176762E-04  0.878E-02    0.03       1.0  T
  70    -92.7124701 -0.340119E-04  0.677E-02    0.03       1.0  T
  71    -92.7123555  0.114508E-03  0.134E-01    0.03       1.0  T
  72    -92.7124567 -0.101117E-03  0.816E-02    0.03       1.0  T
  73    -92.7124767 -0.200828E-04  0.588E-02    0.03       1.0  T
  74    -92.7124652  0.115072E-04  0.593E-02    0.03       1.0  T
  75    -92.7125046 -0.393245E-04  0.188E-02    0.03       1.0  T
  76    -92.7125101 -0.557879E-05  0.497E-03    0.03       3.5  T
  77    -92.7125104 -0.243050E-06  0.814E-03    0.03       2.1  T
  78    -92.7125105 -0.133787E-06  0.446E-03    0.03       3.9  T
  79    -92.7125099  0.576854E-06  0.858E-03    0.03       2.0  T
  80    -92.7125099  0.625737E-07  0.910E-03    0.03       1.9  T
  81    -92.7125106 -0.749938E-06  0.411E-03    0.03       4.2  T
  82    -92.7125108 -0.132083E-06  0.195E-03    0.03       8.9  T
  83    -92.7125107  0.533157E-07  0.262E-03    0.03       6.6  T
  84    -92.7125108 -0.875174E-07  0.962E-04    0.03      18.1  T
  85    -92.7125108 -0.481478E-09  0.128E-03    0.03      13.6  T
  86    -92.7125108 -0.313972E-08  0.106E-03    0.03      16.5  T
  87    -92.7125108 -0.221642E-08  0.834E-04    0.03      20.9  T

   *** convergence criteria satisfied after 87 iterations ***

         #    Occupation            Energy/Eh            Energy/eV
      -------------------------------------------------------------
         1        2.0000           -0.8027476             -21.8439
       ...           ...                  ...                  ...
        74        2.0000           -0.3432836              -9.3412
        75        2.0000           -0.3391553              -9.2289
        76        2.0000           -0.3374222              -9.1817
        77        2.0000           -0.3237665              -8.8101
        78        2.0000           -0.3069135              -8.3515
        79        1.9921           -0.2911694              -7.9231
        80        1.0534           -0.2860139              -7.7828 (HOMO)
        81        0.4566           -0.2847550              -7.7486 (LUMO)
        82        0.4068           -0.2846154              -7.7448
        83        0.0688           -0.2827440              -7.6939
        84        0.0166           -0.2813702              -7.6565
        85        0.0056           -0.2803311              -7.6282
       ...           ...                  ...                  ...
       192                         13.6072050             370.2709
      -------------------------------------------------------------
                  HL-Gap            0.0012589 Eh            0.0343 eV
             Fermi-level           -0.2859122 Eh           -7.7801 eV

 SCC (total)                   0 d,  0 h,  0 min,  0.767 sec
 SCC setup                      ...        0 min,  0.001 sec (  0.130%)
 Dispersion                     ...        0 min,  0.000 sec (  0.000%)
 classical contributions        ...        0 min,  0.000 sec (  0.000%)
 integral evaluation            ...        0 min,  0.009 sec (  1.173%)
 iterations                     ...        0 min,  0.739 sec ( 96.349%)
 molecular gradient             ...        0 min,  0.017 sec (  2.216%)
 printout                       ...        0 min,  0.001 sec (  0.130%)

         :::::::::::::::::::::::::::::::::::::::::::::::::::::
         ::                     SUMMARY                     ::
         :::::::::::::::::::::::::::::::::::::::::::::::::::::
         :: total energy             -92.028381412137 Eh    ::
         :: gradient norm              0.080569565958 Eh/a0 ::
         :: HOMO-LUMO gap              0.034255765242 eV    ::
         ::.................................................::
         :: SCC energy               -92.710570543365 Eh    ::
         :: -> isotropic ES            0.894120860911 Eh    ::
         :: -> anisotropic ES         -0.437523947585 Eh    ::
         :: -> anisotropic XC         -0.065352119353 Eh    ::
         :: -> dispersion             -0.096909592425 Eh    ::
         :: repulsion energy           0.682189131227 Eh    ::
         :: add. restraining           0.000000000000 Eh    ::
         :: total charge              -0.000000000000 e     ::
         :::::::::::::::::::::::::::::::::::::::::::::::::::::

      ----------------------------------------------------------- 
     |                   =====================                   |
     |                        A N C O P T                        |
     |                   =====================                   |
     |               Approximate Normal Coordinate               |
     |                Rational Function Optimizer                |
      ----------------------------------------------------------- 
      ----------------------------------------------------------- 
     |                   =====================                   |
     |                        A N C O P T                        |
     |                   =====================                   |
     |               Approximate Normal Coordinate               |
     |                Rational Function Optimizer                |
      ----------------------------------------------------------- 

          ...................................................
          :                      SETUP                      :
          :.................................................:
          :   optimization level             loose          :
          :   max. optcycles                   400          :
          :   ANC micro-cycles                  20          :
          :   degrees of freedom                93          :
          :.................................................:
          :   RF solver                   davidson          :
          :   write xtbopt.log                true          :
          :   linear?                        false          :
          :   energy convergence         0.5000000E-04 Eh   :
          :   grad. convergence          0.4000000E-02 Eh/α :
          :   maxmium RF displ.          1.0000000          :
          :   Hlow (freq-cutoff)         0.1000000E-01      :
          :   Hmax (freq-cutoff)         5.0000000          :
          :   S6 in model hess.         20.0000000          :
          ...................................................

generating ANC from exact Hessian ...
Using Lindh-Hessian (1995)
 Shifting diagonal of input Hessian by   1.072299336845551E-002
 Lowest  eigenvalues of input Hessian
    0.010000    0.000000    0.000000    0.000000    0.000000    0.000000
    0.000000    0.011100    0.012642    0.013850    0.014198    0.014387
    0.014573    0.015229    0.016053    0.017266    0.017410    0.017641
 Highest eigenvalues
    1.482382    1.618703    1.625221    1.760003    1.810466    2.259263
 

........................................................................
.............................. CYCLE    1 ..............................
........................................................................

 iter      E             dE          RMSdq      gap      omega  full diag
   1    -92.7125108 -0.927125E+02  0.422E-04    0.03       0.0  T
   2    -92.7125082  0.263446E-05  0.111E-02    0.03       1.6  T
   3    -92.7125096 -0.139980E-05  0.703E-03    0.03       2.5  T
   4    -92.7125107 -0.114380E-05  0.252E-03    0.03       6.9  T
   5    -92.7125107 -0.308327E-08  0.232E-03    0.03       7.5  T
   6    -92.7125108 -0.900055E-07  0.255E-04    0.03      68.3  T
   7    -92.7125108  0.591569E-09  0.321E-04    0.03      54.2  T
     SCC iter.                  ...        0 min,  0.063 sec
     gradient                   ...        0 min,  0.017 sec
 * total energy  :   -92.0283814 Eh     change       -0.1977170E-08 Eh
   gradient norm :     0.0805648 Eh/α   predicted     0.0000000E+00 (-100.00%)
   displ. norm   :     0.6531640 α      lambda       -0.3993467E-01
   maximum displ.:     0.3217264 α      in ANC's #7, #8, #33, ...

........................................................................
.............................. CYCLE    2 ..............................
........................................................................

 iter      E             dE          RMSdq      gap      omega  full diag
   1    -92.5180307 -0.925180E+02  0.387E+00    0.61       0.0  T
   2    -86.6962795  0.582175E+01  0.196E+01    0.36       1.0  T
   3    -91.7421684 -0.504589E+01  0.879E+00    0.00       1.0  T
   4    -92.5795498 -0.837381E+00  0.269E+00    0.18       1.0  T
   5    -92.5728371  0.671266E-02  0.603E+00    0.01       1.0  T
   6    -92.5535353  0.193018E-01  0.603E+00    0.01       1.0  T
   7    -92.6159099 -0.623745E-01  0.507E+00    0.01       1.0  T
   8    -92.5689754  0.469345E-01  0.479E+00    0.01       1.0  T
   9    -92.6354469 -0.664715E-01  0.232E+00    0.01       1.0  T
  10    -92.7286593 -0.932124E-01  0.262E-01    0.04       1.0  T
  11    -92.7231485  0.551084E-02  0.785E-01    0.02       1.0  T
  12    -92.7287193 -0.557085E-02  0.302E-01    0.03       1.0  T
  13    -92.7247902  0.392912E-02  0.677E-01    0.05       1.0  T
  14    -92.7284769 -0.368672E-02  0.264E-01    0.04       1.0  T
  15    -92.7293652 -0.888268E-03  0.163E-01    0.04       1.0  T
  16    -92.7294385 -0.732671E-04  0.893E-02    0.04       1.0  T
  17    -92.7294503 -0.118222E-04  0.417E-02    0.04       1.0  T
  18    -92.7294756 -0.252878E-04  0.411E-02    0.04       1.0  T
  19    -92.7294801 -0.449180E-05  0.324E-02    0.04       1.0  T
  20    -92.7294834 -0.331767E-05  0.237E-02    0.04       1.0  T
  21    -92.7294795  0.390580E-05  0.190E-02    0.04       1.0  T
  22    -92.7294832 -0.374435E-05  0.145E-02    0.04       1.2  T
  23    -92.7294816  0.160349E-05  0.219E-02    0.04       1.0  T
  24    -92.7294854 -0.376321E-05  0.971E-03    0.04       1.8  T
  25    -92.7294856 -0.182282E-06  0.611E-03    0.04       2.9  T
  26    -92.7294859 -0.313943E-06  0.168E-03    0.04      10.3  T
  27    -92.7294859 -0.148642E-07  0.982E-04    0.04      17.7  T
  28    -92.7294858  0.443082E-07  0.205E-03    0.04       8.5  T
  29    -92.7294859 -0.427328E-07  0.117E-03    0.04      14.9  T
  30    -92.7294859 -0.551982E-08  0.546E-04    0.04      31.9  T
     SCC iter.                  ...        0 min,  0.266 sec
     gradient                   ...        0 min,  0.016 sec
 * total energy  :   -92.0489254 Eh     change       -0.2054403E-01 Eh
   gradient norm :     0.0442827 Eh/α   predicted    -0.2848590E-01 (  38.66%)
   displ. norm   :     0.6110141 α      lambda       -0.1868032E-01
   maximum displ.:     0.2610568 α      in ANC's #1, #18, #4, ...

........................................................................
.............................. CYCLE    3 ..............................
........................................................................

 iter      E             dE          RMSdq      gap      omega  full diag
   1    -92.5500624 -0.925501E+02  0.372E+00    0.24       0.0  T
   2    -86.7364771  0.581359E+01  0.192E+01    0.33       1.0  T
   3    -91.9873274 -0.525085E+01  0.694E+00    0.01       1.0  T
   4    -92.6922801 -0.704953E+00  0.132E+00    0.08       1.0  T
   5    -92.6894316  0.284852E-02  0.300E+00    0.01       1.0  T
   6    -92.6457593  0.436723E-01  0.302E+00    0.01       1.0  T
   7    -92.7115146 -0.657553E-01  0.843E-01    0.06       1.0  T
   8    -92.6918466  0.196680E-01  0.280E+00    0.02       1.0  T
   9    -92.6992436 -0.739702E-02  0.237E+00    0.02       1.0  T
  10    -92.7230277 -0.237841E-01  0.976E-01    0.04       1.0  T
  11    -92.7260561 -0.302837E-02  0.422E-01    0.05       1.0  T
  12    -92.7285740 -0.251791E-02  0.239E-01    0.04       1.0  T
  13    -92.7289442 -0.370212E-03  0.177E-01    0.04       1.0  T
  14    -92.7287974  0.146776E-03  0.115E-01    0.04       1.0  T
  15    -92.7290164 -0.219000E-03  0.714E-02    0.04       1.0  T
  16    -92.7289784  0.380521E-04  0.134E-01    0.04       1.0  T
  17    -92.7290346 -0.562417E-04  0.912E-02    0.04       1.0  T
  18    -92.7290886 -0.540258E-04  0.208E-02    0.04       1.0  T
  19    -92.7290725  0.161187E-04  0.303E-02    0.04       1.0  T
  20    -92.7290710  0.151935E-05  0.271E-02    0.04       1.0  T
  21    -92.7290903 -0.193308E-04  0.138E-02    0.04       1.3  T
  22    -92.7290910 -0.695842E-06  0.112E-02    0.04       1.6  T
  23    -92.7290913 -0.322983E-06  0.486E-03    0.04       3.6  T
  24    -92.7290916 -0.241808E-06  0.137E-03    0.04      12.7  T
  25    -92.7290916 -0.797937E-08  0.520E-04    0.04      33.5  T
  26    -92.7290916  0.150018E-08  0.809E-04    0.04      21.5  T
     SCC iter.                  ...        0 min,  0.268 sec
     gradient                   ...        0 min,  0.016 sec
 * total energy  :   -92.0579066 Eh     change       -0.8981156E-02 Eh
   gradient norm :     0.0361308 Eh/α   predicted    -0.1282726E-01 (  42.82%)
   displ. norm   :     0.4605463 α      lambda       -0.8611469E-02
   maximum displ.:     0.1863567 α      in ANC's #8, #7, #5, ...

........................................................................
.............................. CYCLE    4 ..............................
........................................................................

 iter      E             dE          RMSdq      gap      omega  full diag
   1    -92.5715346 -0.925715E+02  0.327E+00    0.23       0.0  T
   2    -86.9673034  0.560423E+01  0.192E+01    0.33       1.0  T
   3    -92.1173337 -0.515003E+01  0.589E+00    0.01       1.0  T
   4    -92.6750598 -0.557726E+00  0.127E+00    0.09       1.0  T
   5    -92.4529088  0.222151E+00  0.487E+00    0.02       1.0  T
   6    -92.7145288 -0.261620E+00  0.204E+00    0.03       1.0  T
   7    -92.6140255  0.100503E+00  0.290E+00    0.02       1.0  T
   8    -92.6755393 -0.615138E-01  0.186E+00    0.01       1.0  T
   9    -92.6323155  0.432238E-01  0.187E+00    0.02       1.0  T
  10    -92.7005976 -0.682821E-01  0.987E-01    0.02       1.0  T
  11    -92.7290649 -0.284673E-01  0.321E-01    0.05       1.0  T
  12    -92.7291550 -0.900996E-04  0.320E-01    0.03       1.0  T
  13    -92.7304468 -0.129185E-02  0.117E-01    0.04       1.0  T
  14    -92.7288473  0.159950E-02  0.395E-01    0.05       1.0  T
  15    -92.7303459 -0.149854E-02  0.136E-01    0.04       1.0  T
  16    -92.7305368 -0.190908E-03  0.282E-02    0.04       1.0  T
  17    -92.7304991  0.376922E-04  0.502E-02    0.04       1.0  T
  18    -92.7305321 -0.330507E-04  0.285E-02    0.04       1.0  T
  19    -92.7305552 -0.231060E-04  0.544E-03    0.04       3.2  T
  20    -92.7305538  0.140976E-05  0.163E-02    0.04       1.1  T
  21    -92.7305554 -0.159479E-05  0.260E-03    0.04       6.7  T
  22    -92.7305550  0.457615E-06  0.453E-03    0.04       3.8  T
  23    -92.7305554 -0.462105E-06  0.170E-03    0.04      10.3  T
  24    -92.7305553  0.107348E-06  0.260E-03    0.04       6.7  T
  25    -92.7305554 -0.857139E-07  0.134E-03    0.04      13.0  T
  26    -92.7305554 -0.220011E-07  0.787E-04    0.04      22.1  T
  27    -92.7305554 -0.270036E-08  0.646E-04    0.04      26.9  T
     SCC iter.                  ...        0 min,  0.208 sec
     gradient                   ...        0 min,  0.016 sec
 * total energy  :   -92.0630450 Eh     change       -0.5138353E-02 Eh
   gradient norm :     0.0284971 Eh/α   predicted    -0.5218995E-02 (   1.57%)
   displ. norm   :     0.4171417 α      lambda       -0.5069176E-02
   maximum displ.:     0.1826070 α      in ANC's #1, #29, #23, ...

........................................................................
.............................. CYCLE    5 ..............................
........................................................................

 iter      E             dE          RMSdq      gap      omega  full diag
   1    -92.7057696 -0.927058E+02  0.170E+00    0.07       0.0  T
   2    -88.8017875  0.390398E+01  0.145E+01    0.04       1.0  T
   3    -92.5131664 -0.371138E+01  0.279E+00    0.43       1.0  T
   4    -92.5391486 -0.259822E-01  0.256E+00    0.36       1.0  T
   5    -92.5357124  0.343628E-02  0.240E+00    0.35       1.0  T
   6    -92.6096495 -0.739372E-01  0.169E+00    0.15       1.0  T
   7    -92.7049824 -0.953328E-01  0.176E+00    0.05       1.0  T
   8    -92.6950824  0.989995E-02  0.254E+00    0.04       1.0  T
   9    -92.7013556 -0.627314E-02  0.250E+00    0.03       1.0  T
  10    -92.7277233 -0.263678E-01  0.637E-01    0.04       1.0  T
  11    -92.7188331  0.889025E-02  0.812E-01    0.03       1.0  T
  12    -92.7286472 -0.981412E-02  0.356E-01    0.04       1.0  T
  13    -92.7225750  0.607216E-02  0.638E-01    0.03       1.0  T
  14    -92.7288966 -0.632150E-02  0.247E-01    0.04       1.0  T
  15    -92.7288804  0.161643E-04  0.259E-01    0.04       1.0  T
  16    -92.7291180 -0.237599E-03  0.131E-01    0.04       1.0  T
  17    -92.7291790 -0.610637E-04  0.909E-02    0.04       1.0  T
  18    -92.7290561  0.122944E-03  0.124E-01    0.04       1.0  T
  19    -92.7291387 -0.825563E-04  0.720E-02    0.04       1.0  T
  20    -92.7292170 -0.783011E-04  0.201E-02    0.04       1.0  T
  21    -92.7291940  0.229795E-04  0.438E-02    0.04       1.0  T
  22    -92.7292226 -0.286347E-04  0.122E-02    0.04       1.4  T
  23    -92.7292269 -0.433232E-05  0.355E-03    0.04       4.9  T
  24    -92.7292268  0.112486E-06  0.632E-03    0.04       2.8  T
  25    -92.7292255  0.130389E-05  0.905E-03    0.04       1.9  T
  26    -92.7292270 -0.150245E-05  0.129E-03    0.04      13.5  T
  27    -92.7292269  0.145892E-06  0.390E-03    0.04       4.5  T
  28    -92.7292270 -0.132595E-06  0.191E-03    0.04       9.1  T
  29    -92.7292271 -0.483308E-07  0.822E-04    0.04      21.2  T
  30    -92.7292271 -0.155128E-07  0.314E-04    0.04      55.4  T
     SCC iter.                  ...        0 min,  0.225 sec
     gradient                   ...        0 min,  0.016 sec
 * total energy  :   -92.0664120 Eh     change       -0.3367033E-02 Eh
   gradient norm :     0.0266585 Eh/α   predicted    -0.2975627E-02 ( -11.62%)
   displ. norm   :     0.4834294 α      lambda       -0.4737941E-02
   maximum displ.:     0.2816989 α      in ANC's #1, #19, #32, ...

........................................................................
.............................. CYCLE    6 ..............................
........................................................................

 iter      E             dE          RMSdq      gap      omega  full diag
   1    -92.6611778 -0.926612E+02  0.228E+00    0.11       0.0  T
   2    -87.6058492  0.505533E+01  0.186E+01    0.24       1.0  T
   3    -92.5348778 -0.492903E+01  0.232E+00    0.33       1.0  T
   4    -92.6232126 -0.883348E-01  0.168E+00    0.16       1.0  T
   5    -92.7010807 -0.778681E-01  0.193E+00    0.06       1.0  T
   6    -92.4263258  0.274755E+00  0.374E+00    0.01       1.0  T
   7    -92.7049623 -0.278636E+00  0.764E-01    0.08       1.0  T
   8    -92.7008849  0.407741E-02  0.194E+00    0.02       1.0  T
   9    -92.7075703 -0.668547E-02  0.148E+00    0.02       1.0  T
  10    -92.6886652  0.189052E-01  0.138E+00    0.02       1.0  T
  11    -92.7198727 -0.312075E-01  0.754E-01    0.03       1.0  T
  12    -92.7341207 -0.142480E-01  0.160E-01    0.05       1.0  T
  13    -92.7299707  0.415002E-02  0.364E-01    0.04       1.0  T
  14    -92.7340962 -0.412551E-02  0.169E-01    0.05       1.0  T
  15    -92.7342509 -0.154703E-03  0.786E-02    0.05       1.0  T
  16    -92.7342652 -0.142727E-04  0.498E-02    0.05       1.0  T
  17    -92.7342875 -0.223533E-04  0.309E-02    0.05       1.0  T
  18    -92.7342834  0.413636E-05  0.461E-02    0.05       1.0  T
  19    -92.7342961 -0.126559E-04  0.291E-02    0.05       1.0  T
  20    -92.7343046 -0.857411E-05  0.703E-03    0.05       2.5  T
  21    -92.7343039  0.679877E-06  0.758E-03    0.05       2.3  T
  22    -92.7343046 -0.675190E-06  0.500E-03    0.05       3.5  T
  23    -92.7343048 -0.179626E-06  0.420E-03    0.05       4.1  T
  24    -92.7343050 -0.217906E-06  0.119E-03    0.05      14.6  T
  25    -92.7343049  0.905660E-07  0.204E-03    0.05       8.5  T
  26    -92.7343050 -0.115111E-06  0.586E-04    0.05      29.7  T
  27    -92.7343050 -0.241624E-08  0.334E-04    0.05      52.1  T
     SCC iter.                  ...        0 min,  0.226 sec
     gradient                   ...        0 min,  0.016 sec
 * total energy  :   -92.0694192 Eh     change       -0.3007250E-02 Eh
   gradient norm :     0.0292121 Eh/α   predicted    -0.2922616E-02 (  -2.81%)
   displ. norm   :     0.4498768 α      lambda       -0.3812983E-02
   maximum displ.:     0.2604863 α      in ANC's #1, #32, #47, ...

........................................................................
.............................. CYCLE    7 ..............................
........................................................................

 iter      E             dE          RMSdq      gap      omega  full diag
   1    -92.6645027 -0.926645E+02  0.205E+00    0.13       0.0  T
   2    -87.3778782  0.528662E+01  0.185E+01    0.30       1.0  T
   3    -92.5928479 -0.521497E+01  0.194E+00    0.25       1.0  T
   4    -92.7143327 -0.121485E+00  0.209E+00    0.03       1.0  T
   5    -92.6306209  0.837118E-01  0.163E+00    0.17       1.0  T
   6    -92.5018867  0.128734E+00  0.332E+00    0.01       1.0  T
   7    -92.6572672 -0.155380E+00  0.226E+00    0.02       1.0  T
   8    -92.6110788  0.461884E-01  0.250E+00    0.02       1.0  T
   9    -92.7433199 -0.132241E+00  0.258E-01    0.06       1.0  T
  10    -92.7438719 -0.552054E-03  0.151E-01    0.06       1.0  T
  11    -92.7399195  0.395245E-02  0.437E-01    0.04       1.0  T
  12    -92.7434165 -0.349700E-02  0.215E-01    0.04       1.0  T
  13    -92.7446438 -0.122737E-02  0.546E-02    0.05       1.0  T
  14    -92.7446338  0.100041E-04  0.503E-02    0.05       1.0  T
  15    -92.7446309  0.289405E-05  0.422E-02    0.05       1.0  T
  16    -92.7446759 -0.449939E-04  0.223E-02    0.05       1.0  T
  17    -92.7446485  0.273865E-04  0.374E-02    0.05       1.0  T
  18    -92.7446796 -0.310986E-04  0.137E-02    0.05       1.3  T
  19    -92.7446801 -0.432874E-06  0.123E-02    0.05       1.4  T
  20    -92.7446845 -0.437856E-05  0.373E-03    0.05       4.7  T
  21    -92.7446833  0.117953E-05  0.594E-03    0.05       2.9  T
  22    -92.7446844 -0.116532E-05  0.146E-03    0.05      11.9  T
  23    -92.7446845 -0.576745E-07  0.121E-03    0.05      14.4  T
  24    -92.7446845  0.151388E-07  0.152E-03    0.05      11.4  T
  25    -92.7446845 -0.202128E-07  0.619E-04    0.05      28.1  T
  26    -92.7446845 -0.266637E-08  0.355E-04    0.05      49.0  T
     SCC iter.                  ...        0 min,  0.192 sec
     gradient                   ...        0 min,  0.016 sec
 * total energy  :   -92.0719767 Eh     change       -0.2557500E-02 Eh
   gradient norm :     0.0331350 Eh/α   predicted    -0.2292347E-02 ( -10.37%)
   displ. norm   :     0.4199602 α      lambda       -0.4098799E-02
   maximum displ.:     0.2278505 α      in ANC's #1, #32, #3, ...

........................................................................
.............................. CYCLE    8 ..............................
........................................................................

 iter      E             dE          RMSdq      gap      omega  full diag
   1    -92.6264402 -0.926264E+02  0.219E+00    0.20       0.0  T
   2    -86.8348543  0.579159E+01  0.185E+01    0.42       1.0  T
   3    -92.6287235 -0.579387E+01  0.281E+00    0.02       1.0  T
   4    -92.6040450  0.246785E-01  0.192E+00    0.27       1.0  T
   5    -92.7484675 -0.144423E+00  0.474E-01    0.07       1.0  T
   6    -92.5375106  0.210957E+00  0.295E+00    0.01       1.0  T
   7    -92.5992203 -0.617097E-01  0.251E+00    0.02       1.0  T
   8    -92.5680423  0.311779E-01  0.267E+00    0.02       1.0  T
   9    -92.7274411 -0.159399E+00  0.872E-01    0.09       1.0  T
  10    -92.7534530 -0.260119E-01  0.112E-01    0.06       1.0  T
  11    -92.7529995  0.453521E-03  0.142E-01    0.05       1.0  T
  12    -92.7536841 -0.684686E-03  0.800E-02    0.05       1.0  T
  13    -92.7530710  0.613145E-03  0.137E-01    0.05       1.0  T
  14    -92.7535974 -0.526389E-03  0.671E-02    0.05       1.0  T
  15    -92.7537229 -0.125543E-03  0.312E-02    0.05       1.0  T
  16    -92.7537419 -0.189323E-04  0.119E-02    0.05       1.5  T
  17    -92.7537428 -0.966608E-06  0.757E-03    0.05       2.3  T
  18    -92.7537435 -0.695407E-06  0.555E-03    0.05       3.1  T
  19    -92.7537433  0.183910E-06  0.639E-03    0.05       2.7  T
  20    -92.7537428  0.563032E-06  0.535E-03    0.05       3.3  T
  21    -92.7537438 -0.102580E-05  0.115E-03    0.05      15.1  T
  22    -92.7537436  0.169201E-06  0.238E-03    0.05       7.3  T
  23    -92.7537438 -0.131191E-06  0.141E-03    0.05      12.3  T
  24    -92.7537437  0.642078E-07  0.201E-03    0.05       8.7  T
  25    -92.7537438 -0.110765E-06  0.205E-04    0.05      84.9  T
  26    -92.7537438  0.547971E-10  0.163E-04    0.05     106.7  T
     SCC iter.                  ...        0 min,  0.189 sec
     gradient                   ...        0 min,  0.016 sec
 * total energy  :   -92.0749512 Eh     change       -0.2974494E-02 Eh
   gradient norm :     0.0354759 Eh/α   predicted    -0.2410857E-02 ( -18.95%)
   displ. norm   :     0.4464563 α      lambda       -0.5881872E-02
   maximum displ.:     0.2130223 α      in ANC's #1, #70, #5, ...

........................................................................
.............................. CYCLE    9 ..............................
........................................................................

 iter      E             dE          RMSdq      gap      omega  full diag
   1    -92.6495725 -0.926496E+02  0.207E+00    0.20       0.0  T
   2    -86.7975502  0.585202E+01  0.183E+01    0.36       1.0  T
   3    -92.3242146 -0.552666E+01  0.418E+00    0.01       1.0  T
   4    -92.6208925 -0.296678E+00  0.187E+00    0.32       1.0  T
   5    -92.7619090 -0.141016E+00  0.805E-01    0.04       1.0  T
   6    -92.7670549 -0.514589E-02  0.590E-01    0.05       1.0  T
   7    -92.7146547  0.524002E-01  0.144E+00    0.02       1.0  T
   8    -92.6935148  0.211399E-01  0.168E+00    0.02       1.0  T
   9    -92.7590876 -0.655728E-01  0.579E-01    0.08       1.0  T
  10    -92.7689159 -0.982836E-02  0.211E-01    0.06       1.0  T
  11    -92.7705845 -0.166858E-02  0.536E-02    0.06       1.0  T
  12    -92.7674263  0.315827E-02  0.311E-01    0.05       1.0  T
  13    -92.7704229 -0.299665E-02  0.914E-02    0.06       1.0  T
  14    -92.7702092  0.213723E-03  0.119E-01    0.06       1.0  T
  15    -92.7706555 -0.446324E-03  0.290E-02    0.06       1.0  T
  16    -92.7706231  0.324223E-04  0.427E-02    0.06       1.0  T
  17    -92.7706797 -0.566378E-04  0.111E-02    0.06       1.6  T
  18    -92.7706828 -0.311836E-05  0.678E-03    0.06       2.6  T
  19    -92.7706761  0.678696E-05  0.155E-02    0.06       1.1  T
  20    -92.7706822 -0.619671E-05  0.669E-03    0.06       2.6  T
  21    -92.7706838 -0.152565E-05  0.587E-04    0.06      29.7  T
  22    -92.7706835  0.235006E-06  0.281E-03    0.06       6.2  T
  23    -92.7706836 -0.761592E-07  0.224E-03    0.06       7.8  T
  24    -92.7706838 -0.158506E-06  0.274E-04    0.06      63.4  T
  25    -92.7706838 -0.243236E-08  0.702E-05    0.06     248.1  T
     SCC iter.                  ...        0 min,  0.195 sec
     gradient                   ...        0 min,  0.015 sec
 * total energy  :   -92.0788443 Eh     change       -0.3893050E-02 Eh
   gradient norm :     0.0424239 Eh/α   predicted    -0.3527141E-02 (  -9.40%)
   displ. norm   :     0.3709319 α      lambda       -0.6255898E-02
   maximum displ.:     0.1456422 α      in ANC's #70, #1, #8, ...

........................................................................
.............................. CYCLE   10 ..............................
........................................................................

 iter      E             dE          RMSdq      gap      omega  full diag
   1    -92.6554723 -0.926555E+02  0.199E+00    0.21       0.0  T
   2    -86.2435005  0.641197E+01  0.179E+01    0.08       1.0  T
   3    -92.2920156 -0.604852E+01  0.417E+00    0.01       1.0  T
   4    -92.6945027 -0.402487E+00  0.138E+00    0.15       1.0  T
   5    -92.5533733  0.141129E+00  0.279E+00    0.01       1.0  T
   6    -92.5821290 -0.287557E-01  0.256E+00    0.01       1.0  T
   7    -92.7782201 -0.196091E+00  0.146E-01    0.06       1.0  T
   8    -92.7769492  0.127090E-02  0.217E-01    0.07       1.0  T
   9    -92.7630655  0.138837E-01  0.686E-01    0.04       1.0  T
  10    -92.7786372 -0.155717E-01  0.639E-02    0.06       1.0  T
  11    -92.7787279 -0.906895E-04  0.332E-02    0.06       1.0  T
  12    -92.7786581  0.697789E-04  0.756E-02    0.06       1.0  T
  13    -92.7775847  0.107344E-02  0.195E-01    0.06       1.0  T
  14    -92.7784853 -0.900599E-03  0.964E-02    0.06       1.0  T
  15    -92.7787314 -0.246128E-03  0.363E-02    0.06       1.0  T
  16    -92.7787651 -0.336602E-04  0.780E-03    0.06       2.2  T
  17    -92.7787654 -0.324987E-06  0.456E-03    0.06       3.8  T
  18    -92.7787623  0.311607E-05  0.100E-02    0.06       1.7  T
  19    -92.7787656 -0.337667E-05  0.125E-03    0.06      13.9  T
  20    -92.7787650  0.629493E-06  0.452E-03    0.06       3.9  T
  21    -92.7787657 -0.668182E-06  0.599E-04    0.06      29.1  T
  22    -92.7787656  0.122019E-06  0.202E-03    0.06       8.6  T
  23    -92.7787657 -0.130944E-06  0.129E-04    0.06     135.0  T
     SCC iter.                  ...        0 min,  0.179 sec
     gradient                   ...        0 min,  0.016 sec
 * total energy  :   -92.0831213 Eh     change       -0.4277072E-02 Eh
   gradient norm :     0.0470113 Eh/α   predicted    -0.3558338E-02 ( -16.80%)
   displ. norm   :     0.3554649 α      lambda       -0.6686026E-02
   maximum displ.:     0.1033822 α      in ANC's #2, #70, #14, ...

........................................................................
.............................. CYCLE   11 ..............................
........................................................................

 iter      E             dE          RMSdq      gap      omega  full diag
   1    -92.6676260 -0.926676E+02  0.175E+00    0.19       0.0  T
   2    -85.5457528  0.712187E+01  0.178E+01    0.09       1.0  T
   3    -92.2810838 -0.673533E+01  0.405E+00    0.01       1.0  T
   4    -92.7430665 -0.461983E+00  0.788E-01    0.10       1.0  T
   5    -92.6143809  0.128686E+00  0.226E+00    0.00       1.0  T
   6    -92.6589447 -0.445637E-01  0.191E+00    0.01       1.0  T
   7    -92.7718061 -0.112861E+00  0.109E-01    0.07       1.0  T
   8    -92.7717803  0.258177E-04  0.889E-02    0.07       1.0  T
   9    -92.7698296  0.195069E-02  0.276E-01    0.05       1.0  T
  10    -92.7720818 -0.225222E-02  0.290E-02    0.06       1.0  T
  11    -92.7716983  0.383452E-03  0.105E-01    0.06       1.0  T
  12    -92.7720874 -0.389059E-03  0.140E-02    0.06       1.2  T
  13    -92.7718159  0.271477E-03  0.893E-02    0.07       1.0  T
  14    -92.7720419 -0.225973E-03  0.373E-02    0.06       1.0  T
  15    -92.7720889 -0.470141E-04  0.595E-03    0.06       2.9  T
  16    -92.7720895 -0.633724E-06  0.412E-03    0.06       4.2  T
  17    -92.7720829  0.665477E-05  0.150E-02    0.06       1.2  T
  18    -92.7720893 -0.640070E-05  0.372E-03    0.06       4.7  T
  19    -92.7720894 -0.155554E-06  0.240E-03    0.06       7.3  T
  20    -92.7720897 -0.216846E-06  0.528E-04    0.06      32.9  T
  21    -92.7720897 -0.369054E-08  0.300E-04    0.06      58.0  T
     SCC iter.                  ...        0 min,  0.181 sec
     gradient                   ...        0 min,  0.017 sec
 * total energy  :   -92.0877700 Eh     change       -0.4648683E-02 Eh
   gradient norm :     0.0364969 Eh/α   predicted    -0.3765423E-02 ( -19.00%)
   displ. norm   :     0.3736314 α      lambda       -0.4695217E-02
   maximum displ.:     0.1911617 α      in ANC's #1, #24, #26, ...

........................................................................
.............................. CYCLE   12 ..............................
........................................................................

 iter      E             dE          RMSdq      gap      omega  full diag
   1    -92.6877016 -0.926877E+02  0.163E+00    0.18       0.0  T
   2    -85.8851248  0.680258E+01  0.177E+01    0.04       1.0  T
   3    -92.2809495 -0.639582E+01  0.401E+00    0.00       1.0  T
   4    -92.6966883 -0.415739E+00  0.131E+00    0.16       1.0  T
   5    -92.6941335  0.255479E-02  0.162E+00    0.02       1.0  T
   6    -92.7377794 -0.436458E-01  0.107E+00    0.04       1.0  T
   7    -92.7661338 -0.283545E-01  0.438E-01    0.06       1.0  T
   8    -92.7705384 -0.440454E-02  0.871E-02    0.07       1.0  T
   9    -92.7672815  0.325683E-02  0.349E-01    0.06       1.0  T
  10    -92.7688846 -0.160301E-02  0.252E-01    0.06       1.0  T
  11    -92.7706970 -0.181243E-02  0.301E-02    0.07       1.0  T
  12    -92.7706494  0.475790E-04  0.502E-02    0.07       1.0  T
  13    -92.7706853 -0.358878E-04  0.185E-02    0.07       1.0  T
  14    -92.7706991 -0.138341E-04  0.165E-02    0.07       1.1  T
  15    -92.7706638  0.352735E-04  0.369E-02    0.07       1.0  T
  16    -92.7706945 -0.306776E-04  0.166E-02    0.07       1.0  T
  17    -92.7707007 -0.620893E-05  0.476E-03    0.07       3.7  T
  18    -92.7707016 -0.901915E-06  0.152E-03    0.07      11.4  T
  19    -92.7707016 -0.813147E-08  0.197E-03    0.07       8.8  T
  20    -92.7707015  0.149134E-06  0.268E-03    0.07       6.5  T
  21    -92.7707017 -0.229800E-06  0.300E-04    0.07      57.9  T
  22    -92.7707017  0.376505E-07  0.118E-03    0.07      14.7  T
  23    -92.7707017 -0.339519E-07  0.523E-04    0.07      33.3  T
     SCC iter.                  ...        0 min,  0.172 sec
     gradient                   ...        0 min,  0.016 sec
 * total energy  :   -92.0910686 Eh     change       -0.3298588E-02 Eh
   gradient norm :     0.0247026 Eh/α   predicted    -0.2675340E-02 ( -18.89%)
   displ. norm   :     0.4940847 α      lambda       -0.4096059E-02
   maximum displ.:     0.2526194 α      in ANC's #1, #2, #7, ...

........................................................................
.............................. CYCLE   13 ..............................
........................................................................

 iter      E             dE          RMSdq      gap      omega  full diag
   1    -92.6711336 -0.926711E+02  0.195E+00    0.30       0.0  T
   2    -85.5754852  0.709565E+01  0.178E+01    0.03       1.0  T
   3    -92.2867078 -0.671122E+01  0.424E+00    0.01       1.0  T
   4    -92.6704598 -0.383752E+00  0.158E+00    0.29       1.0  T
   5    -92.7528002 -0.823405E-01  0.603E-01    0.10       1.0  T
   6    -92.7447010  0.809926E-02  0.679E-01    0.11       1.0  T
   7    -92.7149917  0.297093E-01  0.154E+00    0.03       1.0  T
   8    -92.7358870 -0.208954E-01  0.123E+00    0.04       1.0  T
   9    -92.7582162 -0.223292E-01  0.768E-01    0.05       1.0  T
  10    -92.7497422  0.847402E-02  0.904E-01    0.04       1.0  T
  11    -92.7594512 -0.970904E-02  0.620E-01    0.05       1.0  T
  12    -92.7677605 -0.830931E-02  0.196E-01    0.06       1.0  T
  13    -92.7682871 -0.526530E-03  0.417E-02    0.07       1.0  T
  14    -92.7680931  0.193982E-03  0.103E-01    0.07       1.0  T
  15    -92.7683378 -0.244705E-03  0.142E-02    0.07       1.2  T
  16    -92.7683430 -0.524563E-05  0.148E-02    0.07       1.2  T
  17    -92.7683373  0.569986E-05  0.202E-02    0.07       1.0  T
  18    -92.7683356  0.174951E-05  0.197E-02    0.07       1.0  T
  19    -92.7683449 -0.934477E-05  0.245E-03    0.07       7.1  T
  20    -92.7683446  0.379032E-06  0.406E-03    0.07       4.3  T
  21    -92.7683450 -0.415110E-06  0.103E-03    0.07      16.9  T
  22    -92.7683450 -0.167568E-07  0.717E-04    0.07      24.3  T
  23    -92.7683450  0.470624E-08  0.959E-04    0.07      18.1  T
     SCC iter.                  ...        0 min,  0.177 sec
     gradient                   ...        0 min,  0.017 sec
 * total energy  :   -92.0937673 Eh     change       -0.2698654E-02 Eh
   gradient norm :     0.0229494 Eh/α   predicted    -0.2547999E-02 (  -5.58%)
   displ. norm   :     0.4965510 α      lambda       -0.3560464E-02
   maximum displ.:     0.2558993 α      in ANC's #2, #1, #7, ...

........................................................................
.............................. CYCLE   14 ..............................
........................................................................

 iter      E             dE          RMSdq      gap      omega  full diag
   1    -92.6943609 -0.926944E+02  0.209E+00    0.35       0.0  T
   2    -86.4146277  0.627973E+01  0.158E+01    0.15       1.0  T
   3    -92.6964568 -0.628183E+01  0.154E+00    0.38       1.0  T
   4    -92.6845656  0.118912E-01  0.133E+00    0.45       1.0  T
   5    -92.7499225 -0.653569E-01  0.749E-01    0.12       1.0  T
   6    -92.7588441 -0.892162E-02  0.115E+00    0.05       1.0  T
   7    -92.7564537  0.239041E-02  0.126E+00    0.05       1.0  T
   8    -92.7626106 -0.615689E-02  0.103E+00    0.06       1.0  T
   9    -92.7686934 -0.608284E-02  0.497E-01    0.07       1.0  T
  10    -92.7483208  0.203726E-01  0.107E+00    0.04       1.0  T
  11    -92.7685229 -0.202021E-01  0.175E-01    0.08       1.0  T
  12    -92.7663108  0.221201E-02  0.460E-01    0.06       1.0  T
  13    -92.7688584 -0.254755E-02  0.250E-01    0.07       1.0  T
  14    -92.7697695 -0.911118E-03  0.897E-02    0.07       1.0  T
  15    -92.7696606  0.108880E-03  0.738E-02    0.08       1.0  T
  16    -92.7697597 -0.990367E-04  0.501E-02    0.08       1.0  T
  17    -92.7697514  0.826920E-05  0.652E-02    0.07       1.0  T
  18    -92.7698326 -0.812001E-04  0.263E-02    0.07       1.0  T
  19    -92.7698458 -0.131888E-04  0.315E-03    0.07       5.5  T
  20    -92.7698444  0.135630E-05  0.908E-03    0.07       1.9  T
  21    -92.7698459 -0.151077E-05  0.352E-03    0.07       4.9  T
  22    -92.7698460 -0.379581E-07  0.277E-03    0.07       6.3  T
  23    -92.7698459  0.675418E-07  0.263E-03    0.07       6.6  T
  24    -92.7698460 -0.779431E-07  0.106E-03    0.07      16.5  T
  25    -92.7698459  0.104690E-06  0.263E-03    0.07       6.6  T
  26    -92.7698460 -0.142587E-06  0.155E-04    0.07     112.2  T
  27    -92.7698460  0.844651E-09  0.211E-04    0.07      82.5  T
     SCC iter.                  ...        0 min,  0.201 sec
     gradient                   ...        0 min,  0.017 sec
 * total energy  :   -92.0959979 Eh     change       -0.2230645E-02 Eh
   gradient norm :     0.0217904 Eh/α   predicted    -0.2219172E-02 (  -0.51%)
   displ. norm   :     0.3085598 α      lambda       -0.2121051E-02
   maximum displ.:     0.1533866 α      in ANC's #2, #1, #3, ...

........................................................................
.............................. CYCLE   15 ..............................
........................................................................

 iter      E             dE          RMSdq      gap      omega  full diag
   1    -92.7212495 -0.927212E+02  0.176E+00    0.33       0.0  T
   2    -86.5597538  0.616150E+01  0.157E+01    0.33       1.0  T
   3    -92.7205443 -0.616079E+01  0.139E+00    0.42       1.0  T
   4    -92.7122637  0.828061E-02  0.121E+00    0.49       1.0  T
   5    -92.7339074 -0.216437E-01  0.105E+00    0.23       1.0  T
   6    -92.7533721 -0.194647E-01  0.725E-01    0.15       1.0  T
   7    -92.7766373 -0.232652E-01  0.538E-01    0.09       1.0  T
   8    -92.7761433  0.493990E-03  0.500E-01    0.09       1.0  T
   9    -92.7753564  0.786832E-03  0.446E-01    0.10       1.0  T
  10    -92.7666468  0.870969E-02  0.935E-01    0.06       1.0  T
  11    -92.7729753 -0.632850E-02  0.456E-01    0.11       1.0  T
  12    -92.7769066 -0.393139E-02  0.215E-01    0.09       1.0  T
  13    -92.7782321 -0.132541E-02  0.265E-01    0.08       1.0  T
  14    -92.7787355 -0.503476E-03  0.106E-01    0.08       1.0  T
  15    -92.7787599 -0.243365E-04  0.459E-02    0.08       1.0  T
  16    -92.7787593  0.615828E-06  0.231E-02    0.08       1.0  T
  17    -92.7786542  0.105024E-03  0.670E-02    0.08       1.0  T
  18    -92.7787751 -0.120866E-03  0.810E-03    0.08       2.1  T
  19    -92.7787710  0.405286E-05  0.135E-02    0.08       1.3  T
  20    -92.7787750 -0.395825E-05  0.766E-03    0.08       2.3  T
  21    -92.7787757 -0.688380E-06  0.394E-03    0.08       4.4  T
  22    -92.7787755  0.237192E-06  0.295E-03    0.08       5.9  T
  23    -92.7787758 -0.314002E-06  0.161E-03    0.08      10.8  T
  24    -92.7787757  0.588047E-07  0.186E-03    0.08       9.4  T
  25    -92.7787756  0.597945E-07  0.254E-03    0.08       6.9  T
  26    -92.7787758 -0.129035E-06  0.194E-04    0.08      89.7  T
  27    -92.7787758  0.222575E-07  0.103E-03    0.08      16.9  T
  28    -92.7787758 -0.222203E-07  0.164E-04    0.08     105.9  T
     SCC iter.                  ...        0 min,  0.204 sec
     gradient                   ...        0 min,  0.016 sec
 * total energy  :   -92.0972295 Eh     change       -0.1231591E-02 Eh
   gradient norm :     0.0189722 Eh/α   predicted    -0.1161500E-02 (  -5.69%)
   displ. norm   :     0.1882036 α      lambda       -0.1228269E-02
   maximum displ.:     0.0726288 α      in ANC's #14, #1, #26, ...

........................................................................
.............................. CYCLE   16 ..............................
........................................................................

 iter      E             dE          RMSdq      gap      omega  full diag
   1    -92.7577970 -0.927578E+02  0.981E-01    0.15       0.0  T
   2    -88.7828572  0.397494E+01  0.128E+01    0.08       1.0  T
   3    -92.7699600 -0.398710E+01  0.666E-01    0.12       1.0  T
   4    -92.7431511  0.268089E-01  0.103E+00    0.19       1.0  T
   5    -92.7788249 -0.356738E-01  0.351E-01    0.09       1.0  T
   6    -92.7695323  0.929263E-02  0.829E-01    0.06       1.0  T
   7    -92.7722277 -0.269542E-02  0.723E-01    0.06       1.0  T
   8    -92.7802955 -0.806785E-02  0.112E-01    0.08       1.0  T
   9    -92.7802746  0.209254E-04  0.784E-02    0.09       1.0  T
  10    -92.7795851  0.689515E-03  0.216E-01    0.07       1.0  T
  11    -92.7800030 -0.417871E-03  0.147E-01    0.08       1.0  T
  12    -92.7803959 -0.392904E-03  0.279E-02    0.08       1.0  T
  13    -92.7803548  0.410272E-04  0.412E-02    0.08       1.0  T
  14    -92.7803996 -0.447557E-04  0.124E-02    0.08       1.4  T
  15    -92.7803987  0.843276E-06  0.137E-02    0.08       1.3  T
  16    -92.7803987  0.334216E-07  0.125E-02    0.08       1.4  T
  17    -92.7804010 -0.228770E-05  0.385E-03    0.08       4.5  T
  18    -92.7804012 -0.218657E-06  0.121E-03    0.08      14.4  T
  19    -92.7804012 -0.382522E-08  0.101E-03    0.08      17.2  T
  20    -92.7804012 -0.340299E-08  0.647E-04    0.08      26.9  T
  21    -92.7804011  0.121164E-06  0.265E-03    0.08       6.6  T
  22    -92.7804012 -0.117229E-06  0.775E-04    0.08      22.5  T
     SCC iter.                  ...        0 min,  0.165 sec
     gradient                   ...        0 min,  0.017 sec
 * total energy  :   -92.0979947 Eh     change       -0.7652257E-03 Eh
   gradient norm :     0.0130005 Eh/α   predicted    -0.6358895E-03 ( -16.90%)
   displ. norm   :     0.1485101 α      lambda       -0.5634157E-03
   maximum displ.:     0.0751674 α      in ANC's #6, #14, #9, ...

........................................................................
.............................. CYCLE   17 ..............................
........................................................................

 iter      E             dE          RMSdq      gap      omega  full diag
   1    -92.7531022 -0.927531E+02  0.109E+00    0.17       0.0  T
   2    -88.5048626  0.424824E+01  0.133E+01    0.08       1.0  T
   3    -92.7571936 -0.425233E+01  0.976E-01    0.16       1.0  T
   4    -92.7391206  0.180730E-01  0.107E+00    0.24       1.0  T
   5    -92.7780843 -0.389636E-01  0.481E-01    0.09       1.0  T
   6    -92.7801825 -0.209819E-02  0.420E-01    0.08       1.0  T
   7    -92.7804709 -0.288460E-03  0.278E-01    0.08       1.0  T
   8    -92.7808581 -0.387209E-03  0.146E-01    0.08       1.0  T
   9    -92.7803483  0.509840E-03  0.150E-01    0.09       1.0  T
  10    -92.7810577 -0.709442E-03  0.898E-02    0.08       1.0  T
  11    -92.7808829  0.174786E-03  0.120E-01    0.08       1.0  T
  12    -92.7810914 -0.208479E-03  0.386E-02    0.08       1.0  T
  13    -92.7810644  0.270083E-04  0.339E-02    0.09       1.0  T
  14    -92.7810998 -0.353683E-04  0.145E-02    0.08       1.2  T
  15    -92.7810999 -0.104692E-06  0.101E-02    0.08       1.7  T
  16    -92.7811000 -0.114027E-06  0.692E-03    0.08       2.5  T
  17    -92.7811012 -0.120334E-05  0.152E-03    0.08      11.4  T
  18    -92.7811011  0.557918E-07  0.251E-03    0.08       6.9  T
  19    -92.7811012 -0.627114E-07  0.770E-04    0.08      22.6  T
  20    -92.7811012 -0.748594E-08  0.106E-03    0.08      16.4  T
  21    -92.7811012  0.199664E-07  0.146E-03    0.08      11.9  T
  22    -92.7811012 -0.269175E-07  0.190E-04    0.08      91.7  T
     SCC iter.                  ...        0 min,  0.204 sec
     gradient                   ...        0 min,  0.017 sec
 * total energy  :   -92.0983612 Eh     change       -0.3664677E-03 Eh
   gradient norm :     0.0089765 Eh/α   predicted    -0.2879250E-03 ( -21.43%)
   displ. norm   :     0.1663853 α      lambda       -0.4193718E-03
   maximum displ.:     0.0733471 α      in ANC's #2, #14, #1, ...

........................................................................
.............................. CYCLE   18 ..............................
........................................................................

 iter      E             dE          RMSdq      gap      omega  full diag
   1    -92.7501568 -0.927502E+02  0.116E+00    0.19       0.0  T
   2    -88.4713545  0.427880E+01  0.134E+01    0.07       1.0  T
   3    -92.7477589 -0.427640E+01  0.111E+00    0.21       1.0  T
   4    -92.7386984  0.906058E-02  0.106E+00    0.27       1.0  T
   5    -92.7725842 -0.338858E-01  0.518E-01    0.12       1.0  T
   6    -92.7784324 -0.584820E-02  0.319E-01    0.10       1.0  T
   7    -92.7791382 -0.705847E-03  0.339E-01    0.08       1.0  T
   8    -92.7795746 -0.436352E-03  0.188E-01    0.09       1.0  T
   9    -92.7779849  0.158967E-02  0.233E-01    0.10       1.0  T
  10    -92.7796701 -0.168518E-02  0.151E-01    0.09       1.0  T
  11    -92.7798134 -0.143271E-03  0.722E-02    0.09       1.0  T
  12    -92.7797918  0.215335E-04  0.729E-02    0.09       1.0  T
  13    -92.7798320 -0.401482E-04  0.233E-02    0.09       1.0  T
  14    -92.7798371 -0.512534E-05  0.111E-02    0.09       1.6  T
  15    -92.7798286  0.851181E-05  0.190E-02    0.09       1.0  T
  16    -92.7798387 -0.101287E-04  0.396E-03    0.09       4.4  T
  17    -92.7798385  0.260241E-06  0.491E-03    0.09       3.5  T
  18    -92.7798383  0.131970E-06  0.475E-03    0.09       3.7  T
  19    -92.7798389 -0.510401E-06  0.227E-03    0.09       7.7  T
  20    -92.7798389 -0.128177E-07  0.109E-03    0.09      16.0  T
  21    -92.7798388  0.333812E-07  0.234E-03    0.09       7.4  T
  22    -92.7798389 -0.627174E-07  0.399E-04    0.09      43.6  T
  23    -92.7798389  0.575881E-09  0.482E-04    0.09      36.1  T
     SCC iter.                  ...        0 min,  0.170 sec
     gradient                   ...        0 min,  0.016 sec
 * total energy  :   -92.0985683 Eh     change       -0.2071249E-03 Eh
   gradient norm :     0.0062960 Eh/α   predicted    -0.2154947E-03 (   4.04%)
   displ. norm   :     0.1128664 α      lambda       -0.2418123E-03
   maximum displ.:     0.0442963 α      in ANC's #2, #6, #1, ...

........................................................................
.............................. CYCLE   19 ..............................
........................................................................

 iter      E             dE          RMSdq      gap      omega  full diag
   1    -92.7776207 -0.927776E+02  0.232E-01    0.09       0.0  T
   2    -92.7607724  0.168483E-01  0.804E-01    0.15       1.0  T
   3    -92.7084668  0.523057E-01  0.167E+00    0.03       1.0  T
   4    -92.7774767 -0.690099E-01  0.102E-01    0.09       1.0  T
   5    -92.7755935  0.188318E-02  0.287E-01    0.10       1.0  T
   6    -92.7767287 -0.113521E-02  0.192E-01    0.10       1.0  T
   7    -92.7776699 -0.941272E-03  0.223E-02    0.09       1.0  T
   8    -92.7775662  0.103759E-03  0.689E-02    0.08       1.0  T
   9    -92.7776320 -0.657852E-04  0.451E-02    0.09       1.0  T
  10    -92.7776767 -0.446942E-04  0.143E-02    0.09       1.2  T
  11    -92.7776813 -0.462315E-05  0.349E-03    0.09       5.0  T
  12    -92.7776815 -0.255476E-06  0.157E-03    0.09      11.1  T
  13    -92.7776816 -0.388272E-07  0.824E-04    0.09      21.1  T
  14    -92.7776816  0.185069E-07  0.112E-03    0.09      15.5  T
  15    -92.7776816  0.140796E-07  0.135E-03    0.09      12.9  T
  16    -92.7776816 -0.397042E-07  0.509E-04    0.09      34.2  T
     SCC iter.                  ...        0 min,  0.128 sec
     gradient                   ...        0 min,  0.016 sec
 * total energy  :   -92.0986295 Eh     change       -0.6112390E-04 Eh
   gradient norm :     0.0060786 Eh/α   predicted    -0.1224498E-03 ( 100.33%)
   displ. norm   :     0.0736025 α      lambda       -0.1917159E-03
   maximum displ.:     0.0392499 α      in ANC's #2, #12, #14, ...

........................................................................
.............................. CYCLE   20 ..............................
........................................................................

 iter      E             dE          RMSdq      gap      omega  full diag
   1    -92.7664491 -0.927664E+02  0.687E-01    0.14       0.0  T
   2    -90.1062445  0.266020E+01  0.110E+01    0.22       1.0  T
   3    -92.7659697 -0.265973E+01  0.728E-01    0.06       1.0  T
   4    -92.7768675 -0.108979E-01  0.214E-01    0.10       1.0  T
   5    -92.7751095  0.175801E-02  0.352E-01    0.07       1.0  T
   6    -92.7778790 -0.276954E-02  0.102E-01    0.08       1.0  T
   7    -92.7780564 -0.177353E-03  0.622E-02    0.09       1.0  T
   8    -92.7780494  0.698885E-05  0.634E-02    0.09       1.0  T
   9    -92.7781270 -0.776075E-04  0.268E-02    0.09       1.0  T
  10    -92.7781265  0.463637E-06  0.267E-02    0.09       1.0  T
  11    -92.7781429 -0.163307E-04  0.105E-02    0.09       1.7  T
  12    -92.7781446 -0.167946E-05  0.621E-03    0.09       2.8  T
  13    -92.7781440  0.568561E-06  0.648E-03    0.09       2.7  T
  14    -92.7781446 -0.656783E-06  0.342E-03    0.09       5.1  T
  15    -92.7781448 -0.188223E-06  0.254E-03    0.09       6.9  T
  16    -92.7781449 -0.108897E-06  0.710E-04    0.09      24.5  T
  17    -92.7781449  0.167119E-07  0.106E-03    0.09      16.4  T
  18    -92.7781449 -0.211925E-07  0.304E-04    0.09      57.2  T
     SCC iter.                  ...        0 min,  0.138 sec
     gradient                   ...        0 min,  0.015 sec
 * total energy  :   -92.0987094 Eh     change       -0.7996684E-04 Eh
   gradient norm :     0.0043978 Eh/α   predicted    -0.9636774E-04 (  20.51%)
   displ. norm   :     0.0944198 α      lambda       -0.1263549E-03
   maximum displ.:     0.0624984 α      in ANC's #1, #7, #8, ...
 * RMSD in coord.:     0.6524190 α      energy gain  -0.7032801E-01 Eh

generating ANC from exact Hessian ...
Using Lindh-Hessian (1995)
 Shifting diagonal of input Hessian by   8.694623594567602E-003
 Lowest  eigenvalues of input Hessian
    0.000000    0.000000    0.000000    0.000000    0.000000    0.000000
    0.010000    0.010724    0.011034    0.011443    0.011841    0.012471
    0.013011    0.013927    0.014295    0.014707    0.015485    0.016124
 Highest eigenvalues
    1.485827    1.564000    1.565961    1.764674    1.805442    2.243171
 

........................................................................
.............................. CYCLE   21 ..............................
........................................................................

 iter      E             dE          RMSdq      gap      omega  full diag
   1    -92.7771617 -0.927772E+02  0.158E-01    0.09       0.0  T
   2    -92.7567830  0.203786E-01  0.904E-01    0.05       1.0  T
   3    -92.7594011 -0.261809E-02  0.833E-01    0.15       1.0  T
   4    -92.7763473 -0.169461E-01  0.191E-01    0.10       1.0  T
   5    -92.7763404  0.689464E-05  0.185E-01    0.10       1.0  T
   6    -92.7771081 -0.767731E-03  0.601E-02    0.09       1.0  T
   7    -92.7769330  0.175132E-03  0.103E-01    0.08       1.0  T
   8    -92.7770501 -0.117093E-03  0.777E-02    0.08       1.0  T
   9    -92.7771887 -0.138629E-03  0.223E-02    0.09       1.0  T
  10    -92.7772003 -0.115873E-04  0.368E-03    0.09       4.7  T
  11    -92.7772001  0.168185E-06  0.392E-03    0.09       4.4  T
  12    -92.7771996  0.466510E-06  0.540E-03    0.09       3.2  T
  13    -92.7772003 -0.655958E-06  0.200E-03    0.09       8.7  T
  14    -92.7772001  0.222415E-06  0.350E-03    0.09       5.0  T
  15    -92.7772003 -0.183154E-06  0.225E-03    0.09       7.7  T
  16    -92.7772003 -0.669700E-07  0.146E-03    0.09      12.0  T
  17    -92.7772004 -0.462072E-07  0.620E-04    0.09      28.1  T
  18    -92.7772004 -0.771927E-08  0.232E-04    0.09      74.9  T
     SCC iter.                  ...        0 min,  0.126 sec
     gradient                   ...        0 min,  0.016 sec
 * total energy  :   -92.0987271 Eh     change       -0.1767614E-04 Eh
   gradient norm :     0.0039262 Eh/α   predicted     0.0000000E+00 (-100.00%)
   displ. norm   :     0.0938291 α      lambda       -0.1837957E-03
   maximum displ.:     0.0465613 α      in ANC's #4, #7, #17, ...

   *** GEOMETRY OPTIMIZATION CONVERGED AFTER 21 ITERATIONS ***

------------------------------------------------------------------------
 total energy gain   :        -0.0703457 Eh      -44.1426 kcal/mol
 total RMSD          :         0.6524190 a0        0.3452 Å
 total power (kW/mol):        -8.7948840 (step)  -41.7102 (real)
------------------------------------------------------------------------

 ANCopt (total)                0 d,  0 h,  0 min,  4.428 sec
 optimizer setup                ...        0 min,  0.000 sec (  0.000%)
 model hessian                  ...        0 min,  0.017 sec (  0.384%)
 ANC generation                 ...        0 min,  0.003 sec (  0.068%)
 coordinate transformation      ...        0 min,  0.002 sec (  0.045%)
 single point calculation       ...        0 min,  4.388 sec ( 99.097%)
 optimization log               ...        0 min,  0.008 sec (  0.181%)
 hessian update                 ...        0 min,  0.001 sec (  0.023%)
 rational function              ...        0 min,  0.005 sec (  0.113%)

================
 final structure:
================
33
 xtb: 6.7.1pre (5071a88)
Ti          -1.81664939034772       -2.14136718522311        4.67353574359311
Ti           0.36728237466457       -1.26382353364059        2.81477238041482
Ti           1.55121846382427       -3.41798119541086        1.22567510503612
Ti          -2.39801095573559        0.04281355866838        2.33671314039724
Ti           2.31798534820391        0.96511612159450        2.93881221693135
Ti          -0.54957765304880        1.33983085983731        4.37738892920245
Ti          -2.22067065391646       -2.73996667811397        1.08936606970721
Ti          -0.39368177271551       -1.30605548314262       -0.69306156926297
Ti           1.83436359054165       -2.62958152453973       -1.81010995875946
Ti          -1.71455631177043        1.42036708574496       -0.64470054603133
Ti           2.53083568185529        0.17975711591620        0.02380481903410
Ti           0.86080639417392        1.11949231802705       -2.30521704387595
C           -3.58030788049796        1.32150305154681        1.26732002270987
C            4.27001489861069        0.35160518189794        1.13648862572558
C            0.62082549660307        2.25504949109386        0.82762661971742
C           -3.54155344158567        1.89742358591795        0.17042607354174
C            4.27209560875674        0.82156160182611        2.28694985121151
C           -0.53749752267687        2.60434734838338        0.42930454118137
C            1.85250132044168        1.88100367645066        1.18102681554157
O           -2.96479672114771       -1.66024059905431        2.26704271825841
O           -0.15567348105800       -1.37233722229754        4.46733471369618
O            0.23626844429258       -2.91953430081909        2.36374031317109
O           -0.70373318138529       -0.18925184689861        2.01033153420851
O            1.99850370116130       -0.78983470779667        2.68771341748104
O           -2.20615204929022        0.61431547722073        3.96868521526221
O            1.15455666031986        1.51143961852977        4.15363944132186
O           -0.90064662919659       -2.87190867666196       -0.07881950840009
O            0.32088817376229       -1.71260352541575       -2.24066241039706
O            2.47156097324064       -3.16321179976499       -0.23895815099763
O           -1.80959646031010       -0.36858679289981       -0.41251787504419
O            0.98166808441495       -0.68806712612530        0.13881084175884
O           -0.83463242803700        1.41730066894227       -2.18400593506495
O            2.46125531785268        0.62443143620643       -1.64457915127131
 
 Bond Distances (Angstroems)
 ---------------------------
Ti1-Ti2=2.9991       Ti1-Ti4=3.2511       Ti1-Ti6=3.7164       Ti1-Ti7=3.6562       Ti1-O20=2.7094       Ti1-O21=1.8419       
Ti2-Ti1=2.9991       Ti2-Ti3=2.9270       Ti2-Ti4=3.0956       Ti2-Ti5=2.9646       Ti2-Ti6=3.1720       Ti2-Ti7=3.4429       
Ti2-Ti8=3.5897       Ti2-Ti11=3.8150      Ti2-O21=1.7367       Ti2-O22=1.7210       Ti2-O23=1.7172       Ti2-O24=1.7034       
Ti3-Ti2=2.9270       Ti3-Ti7=3.8348       Ti3-Ti8=3.4532       Ti3-Ti9=3.1492       Ti3-O22=1.8091       Ti3-O29=1.7485       
Ti4-Ti1=3.2511       Ti4-Ti2=3.0956       Ti4-Ti6=3.0436       Ti4-Ti7=3.0547       Ti4-Ti10=3.3546      Ti4-C13=2.0436       
Ti4-O20=1.7962       Ti4-O23=1.7410       Ti4-O25=1.7398       Ti5-Ti2=2.9646       Ti5-Ti6=3.2300       Ti5-Ti11=3.0264      
Ti5-C14=2.7268       Ti5-C17=2.0650       Ti5-C19=2.0360       Ti5-O24=1.8014       Ti5-O26=1.7686       Ti6-Ti1=3.7164       
Ti6-Ti2=3.1720       Ti6-Ti4=3.0436       Ti6-Ti5=3.2300       Ti6-O21=2.7421       Ti6-O25=1.8541       Ti6-O26=1.7273       
Ti7-Ti1=3.6562       Ti7-Ti2=3.4429       Ti7-Ti3=3.8348       Ti7-Ti4=3.0547       Ti7-Ti8=2.9276       Ti7-O20=1.7625       
Ti7-O27=1.7676       Ti8-Ti2=3.5897       Ti8-Ti3=3.4532       Ti8-Ti7=2.9276       Ti8-Ti9=2.8220       Ti8-Ti10=3.0299      
Ti8-Ti11=3.3577      Ti8-Ti12=3.1711      Ti8-O27=1.7568       Ti8-O28=1.7524       Ti8-O30=1.7212       Ti8-O31=1.7221       
Ti9-Ti3=3.1492       Ti9-Ti8=2.8220       Ti9-Ti11=3.4265      Ti9-O28=1.8212       Ti9-O29=1.7774       Ti10-Ti4=3.3546      
Ti10-Ti8=3.0299      Ti10-Ti12=3.0790     Ti10-C13=2.6733      Ti10-C15=2.8842      Ti10-C16=2.0567      Ti10-C18=1.9851      
Ti10-O30=1.8065      Ti10-O32=1.7731      Ti11-Ti2=3.8150      Ti11-Ti5=3.0264      Ti11-Ti8=3.3577      Ti11-Ti9=3.4265      
Ti11-Ti12=3.0160     Ti11-C14=2.0718      Ti11-C19=2.1665      Ti11-O31=1.7794      Ti11-O33=1.7280      Ti12-Ti8=3.1711      
Ti12-Ti10=3.0790     Ti12-Ti11=3.0160     Ti12-O32=1.7257      Ti12-O33=1.8008      C13-Ti4=2.0436       C13-Ti10=2.6733      
C13-C16=1.2395       C14-Ti5=2.7268       C14-Ti11=2.0718      C14-C17=1.2427       C15-Ti10=2.8842      C15-C18=1.2737       
C15-C19=1.3349       C16-Ti10=2.0567      C16-C13=1.2395       C17-Ti5=2.0650       C17-C14=1.2427       C18-Ti10=1.9851      
C18-C15=1.2737       C19-Ti5=2.0360       C19-Ti11=2.1665      C19-C15=1.3349       O20-Ti1=2.7094       O20-Ti4=1.7962       
O20-Ti7=1.7625       O21-Ti1=1.8419       O21-Ti2=1.7367       O21-Ti6=2.7421       O22-Ti2=1.7210       O22-Ti3=1.8091       
O23-Ti2=1.7172       O23-Ti4=1.7410       O24-Ti2=1.7034       O24-Ti5=1.8014       O25-Ti4=1.7398       O25-Ti6=1.8541       
O26-Ti5=1.7686       O26-Ti6=1.7273       O27-Ti7=1.7676       O27-Ti8=1.7568       O28-Ti8=1.7524       O28-Ti9=1.8212       
O29-Ti3=1.7485       O29-Ti9=1.7774       O30-Ti8=1.7212       O30-Ti10=1.8065      O31-Ti8=1.7221       O31-Ti11=1.7794      
O32-Ti10=1.7731      O32-Ti12=1.7257      O33-Ti11=1.7280      O33-Ti12=1.8008      
 C  C  Rav=1.2727 sigma=0.0383  Rmin=1.2395  Rmax=1.3349     4
 Ti C  Rav=2.2709 sigma=0.3276  Rmin=1.9851  Rmax=2.8842    10
 Ti O  Rav=1.8284 sigma=0.2429  Rmin=1.7034  Rmax=2.7421    30
 Ti Ti Rav=3.2447 sigma=0.2813  Rmin=2.8220  Rmax=3.8348    27
 
 selected bond angles (degree)
 --------------------
Ti4-Ti1-Ti2= 59.21             Ti6-Ti1-Ti2= 55.13             Ti6-Ti1-Ti4= 51.27             Ti7-Ti1-Ti2= 61.37             
Ti7-Ti1-Ti4= 52.09             Ti7-Ti1-Ti6= 96.48             O20-Ti1-Ti2= 72.91             O20-Ti1-Ti4= 33.54             
O20-Ti1-Ti6= 84.68             O20-Ti1-Ti7= 27.32             O21-Ti1-Ti2= 31.98             O21-Ti1-Ti4= 78.48             
O21-Ti1-Ti6= 44.97             O21-Ti1-Ti7= 93.34             O21-Ti1-O20=102.04             Ti3-Ti2-Ti1=114.56             
Ti4-Ti2-Ti1= 64.45             Ti4-Ti2-Ti3=126.02             Ti5-Ti2-Ti1=132.32             Ti5-Ti2-Ti3=108.05             
Ti5-Ti2-Ti4=106.08             Ti6-Ti2-Ti1= 74.00             Ti6-Ti2-Ti3=171.29             Ti6-Ti2-Ti4= 58.09             
Ti6-Ti2-Ti5= 63.41             Ti7-Ti2-Ti1= 68.76             Ti7-Ti2-Ti3= 73.53             Ti7-Ti2-Ti4= 55.40             
Ti7-Ti2-Ti5=146.92             Ti7-Ti2-Ti6=112.43             Ti8-Ti2-Ti1=116.60             Ti8-Ti2-Ti3= 63.04             
Ti8-Ti2-Ti4= 70.41             Ti8-Ti2-Ti5=100.91             Ti8-Ti2-Ti6=115.45             Ti8-Ti2-Ti7= 49.15             
Ti11-Ti2-Ti1=167.71            Ti11-Ti2-Ti3= 69.63            Ti11-Ti2-Ti4=103.53            Ti11-Ti2-Ti5= 51.17            
Ti11-Ti2-Ti6=102.34            Ti11-Ti2-Ti7=102.82            Ti11-Ti2-Ti8= 53.83            O21-Ti2-Ti1= 34.18             
O21-Ti2-Ti3=126.33             O21-Ti2-Ti4= 84.51             O21-Ti2-Ti5=101.85             O21-Ti2-Ti6= 59.70             
O21-Ti2-Ti7=102.93             O21-Ti2-Ti8=149.91             O21-Ti2-Ti11=152.94            O22-Ti2-Ti1= 79.95             
O22-Ti2-Ti3= 34.96             O22-Ti2-Ti4=107.31             O22-Ti2-Ti5=141.66             O22-Ti2-Ti6=153.74             
O22-Ti2-Ti7= 53.06             O22-Ti2-Ti8= 73.53             O22-Ti2-Ti11=102.44            O22-Ti2-O21= 99.57             
O23-Ti2-Ti1= 91.10             O23-Ti2-Ti3=117.29             O23-Ti2-Ti4= 26.67             O23-Ti2-Ti5= 87.68             
O23-Ti2-Ti6= 62.41             O23-Ti2-Ti7= 64.20             O23-Ti2-Ti8= 54.36             O23-Ti2-Ti11= 76.95            
O23-Ti2-O21=107.28             O23-Ti2-O22=115.58             O24-Ti2-Ti1=145.59             O24-Ti2-Ti3= 77.11             
O24-Ti2-Ti4=136.59             O24-Ti2-Ti5= 33.26             O24-Ti2-Ti6= 94.88             O24-Ti2-Ti7=143.30             
O24-Ti2-Ti8= 97.67             O24-Ti2-Ti11= 45.34            O24-Ti2-O21=112.13             O24-Ti2-O22=108.73             
O24-Ti2-O23=112.84             Ti7-Ti3-Ti2= 59.42             Ti8-Ti3-Ti2= 67.90             Ti8-Ti3-Ti7= 47.01             
Ti9-Ti3-Ti2=112.05             Ti9-Ti3-Ti7= 90.57             Ti9-Ti3-Ti8= 50.35             O22-Ti3-Ti2= 33.04             
O22-Ti3-Ti7= 42.16             O22-Ti3-Ti8= 76.80             O22-Ti3-Ti9=127.07             O29-Ti3-Ti2=124.09             
O29-Ti3-Ti7=117.53             O29-Ti3-Ti8= 75.04             O29-Ti3-Ti9= 26.96             O29-Ti3-O22=150.39             
Ti2-Ti4-Ti1= 56.34             Ti6-Ti4-Ti1= 72.29             Ti6-Ti4-Ti2= 62.21             Ti7-Ti4-Ti1= 70.80             
Ti7-Ti4-Ti2= 68.08             Ti7-Ti4-Ti6=128.81             Ti10-Ti4-Ti1=151.43            Ti10-Ti4-Ti2= 97.39            
Ti10-Ti4-Ti6=107.29            Ti10-Ti4-Ti7= 89.96            C13-Ti4-Ti1=154.15             C13-Ti4-Ti2=149.51             
C13-Ti4-Ti6=115.82             C13-Ti4-Ti7=112.95             C13-Ti4-Ti10= 52.83            O20-Ti4-Ti1= 56.45             
O20-Ti4-Ti2= 83.55             O20-Ti4-Ti6=128.44             O20-Ti4-Ti7= 30.54             O20-Ti4-Ti10=114.78            
O20-Ti4-C13=112.98             O23-Ti4-Ti1= 82.60             O23-Ti4-Ti2= 26.28             O23-Ti4-Ti6= 65.89             
O23-Ti4-Ti7= 75.26             O23-Ti4-Ti10= 71.93            O23-Ti4-C13=123.25             O23-Ti4-O20= 99.99             
O25-Ti4-Ti1= 61.75             O25-Ti4-Ti2= 83.99             O25-Ti4-Ti6= 33.29             O25-Ti4-Ti7=132.52             
O25-Ti4-Ti10=132.56            O25-Ti4-C13=110.43             O25-Ti4-O20=112.50             O25-Ti4-O23= 96.45             
Ti6-Ti5-Ti2= 61.42             Ti11-Ti5-Ti2= 79.10            Ti11-Ti5-Ti6=121.43            C14-Ti5-Ti2=105.92             
C14-Ti5-Ti6=162.95             C14-Ti5-Ti11= 41.81            C17-Ti5-Ti2=123.86             C17-Ti5-Ti6=171.41             
C17-Ti5-Ti11= 67.13            C17-Ti5-C14= 25.61             C19-Ti5-Ti2= 98.72             C19-Ti5-Ti6= 97.43             
C19-Ti5-Ti11= 45.67            C19-Ti5-C14= 72.20             C19-Ti5-C17= 88.57             O24-Ti5-Ti2= 31.24             
O24-Ti5-Ti6= 91.01             O24-Ti5-Ti11= 68.00            O24-Ti5-C14= 79.38             O24-Ti5-C17= 93.22             
O24-Ti5-C19=106.10             O26-Ti5-Ti2= 80.10             O26-Ti5-Ti6= 22.21             O26-Ti5-Ti11=142.00            
O26-Ti5-C14=173.97             O26-Ti5-C17=149.41             O26-Ti5-C19=107.68             O26-Ti5-O24=106.26             
Ti2-Ti6-Ti1= 50.87             Ti4-Ti6-Ti1= 56.44             Ti4-Ti6-Ti2= 59.70             Ti5-Ti6-Ti1=103.27             
Ti5-Ti6-Ti2= 55.16             Ti5-Ti6-Ti4=101.02             O21-Ti6-Ti1= 28.34             O21-Ti6-Ti2= 33.15             
O21-Ti6-Ti4= 71.80             O21-Ti6-Ti5= 76.84             O25-Ti6-Ti1= 49.19             O25-Ti6-Ti2= 80.12             
O25-Ti6-Ti4= 31.00             O25-Ti6-Ti5=130.51             O25-Ti6-O21= 75.44             O26-Ti6-Ti1=116.09             
O26-Ti6-Ti2= 74.49             O26-Ti6-Ti4=123.69             O26-Ti6-Ti5= 22.77             O26-Ti6-O21= 87.75             
O26-Ti6-O25=153.10             Ti2-Ti7-Ti1= 49.87             Ti3-Ti7-Ti1= 83.42             Ti3-Ti7-Ti2= 47.05             
Ti4-Ti7-Ti1= 57.11             Ti4-Ti7-Ti2= 56.52             Ti4-Ti7-Ti3=101.75             Ti8-Ti7-Ti1=116.60             
Ti8-Ti7-Ti2= 68.04             Ti8-Ti7-Ti3= 59.63             Ti8-Ti7-Ti4= 80.71             O20-Ti7-Ti1= 44.87             
O20-Ti7-Ti2= 73.73             O20-Ti7-Ti3=119.99             O20-Ti7-Ti4= 31.19             O20-Ti7-Ti8=111.73             
O27-Ti7-Ti1=125.28             O27-Ti7-Ti2= 78.57             O27-Ti7-Ti3= 43.59             O27-Ti7-Ti4=112.41             
O27-Ti7-Ti8= 33.71             O27-Ti7-O20=143.38             Ti3-Ti8-Ti2= 49.07             Ti7-Ti8-Ti2= 62.81             
Ti7-Ti8-Ti3= 73.36             Ti9-Ti8-Ti2=103.00             Ti9-Ti8-Ti3= 59.23             Ti9-Ti8-Ti7=120.26             
Ti10-Ti8-Ti2= 93.80            Ti10-Ti8-Ti3=141.91            Ti10-Ti8-Ti7= 99.15            Ti10-Ti8-Ti9=140.58            
Ti11-Ti8-Ti2= 66.52            Ti11-Ti8-Ti3= 70.21            Ti11-Ti8-Ti7=129.07            Ti11-Ti8-Ti9= 66.70            
Ti11-Ti8-Ti10= 88.75           Ti12-Ti8-Ti2=113.82            Ti12-Ti8-Ti3=121.83            Ti12-Ti8-Ti7=158.59            
Ti12-Ti8-Ti9= 81.09            Ti12-Ti8-Ti10= 59.49           Ti12-Ti8-Ti11= 54.94           O27-Ti8-Ti2= 74.34             
O27-Ti8-Ti3= 54.77             O27-Ti8-Ti7= 33.95             O27-Ti8-Ti9= 87.03             O27-Ti8-Ti10=132.12            
O27-Ti8-Ti11=124.83            O27-Ti8-Ti12=166.83            O28-Ti8-Ti2=141.19             O28-Ti8-Ti3= 96.84             
O28-Ti8-Ti7=132.73             O28-Ti8-Ti9= 38.71             O28-Ti8-Ti10=113.62            O28-Ti8-Ti11= 86.33            
O28-Ti8-Ti12= 64.35            O28-Ti8-O27=102.69             O30-Ti8-Ti2= 90.50             O30-Ti8-Ti3=134.90             
O30-Ti8-Ti7= 69.77             O30-Ti8-Ti9=165.81             O30-Ti8-Ti10= 31.64            O30-Ti8-Ti11=116.15            
O30-Ti8-Ti12= 89.52            O30-Ti8-O27=101.02             O30-Ti8-O28=127.28             O31-Ti8-Ti2= 49.79             
O31-Ti8-Ti3= 60.08             O31-Ti8-Ti7=112.34             O31-Ti8-Ti9= 74.27             O31-Ti8-Ti10= 91.01            
O31-Ti8-Ti11= 16.75            O31-Ti8-Ti12= 69.83            O31-Ti8-O27=112.42             O31-Ti8-O28=100.61             
O31-Ti8-O30=112.51             Ti8-Ti9-Ti3= 70.42             Ti11-Ti9-Ti3= 73.00            Ti11-Ti9-Ti8= 64.16            
O28-Ti9-Ti3=106.21             O28-Ti9-Ti8= 37.00             O28-Ti9-Ti11= 83.26            O29-Ti9-Ti3= 26.49             
O29-Ti9-Ti8= 94.24             O29-Ti9-Ti11= 72.55            O29-Ti9-O28=131.15             Ti8-Ti10-Ti4= 74.54            
Ti12-Ti10-Ti4=127.56           Ti12-Ti10-Ti8= 62.54           C13-Ti10-Ti4= 37.53            C13-Ti10-Ti8=106.40            
C13-Ti10-Ti12=164.99           C15-Ti10-Ti4= 80.22            C15-Ti10-Ti8= 85.16            C15-Ti10-Ti12= 68.06           
C15-Ti10-C13=102.16            C16-Ti10-Ti4= 64.03            C16-Ti10-Ti8=127.04            C16-Ti10-Ti12=168.36           
C16-Ti10-C13= 26.51            C16-Ti10-C15=116.73            C18-Ti10-Ti4= 83.39            C18-Ti10-Ti8=106.67            
C18-Ti10-Ti12= 81.61           C18-Ti10-C13= 92.80            C18-Ti10-C15= 21.74            C18-Ti10-C16=100.02            
O30-Ti10-Ti4= 57.89            O30-Ti10-Ti8= 29.99            O30-Ti10-Ti12= 90.95           O30-Ti10-C13= 80.49            
O30-Ti10-C15=105.28            O30-Ti10-C16= 97.59            O30-Ti10-C18=123.53            O32-Ti10-Ti4=150.69            
O32-Ti10-Ti8= 76.60            O32-Ti10-Ti12= 27.94           O32-Ti10-C13=165.29            O32-Ti10-C15= 92.40            
O32-Ti10-C16=141.75            O32-Ti10-C18=100.16            O32-Ti10-O30= 97.82            
 
 selected dihedral angles (degree)
 ---------------------------------
Ti3-Ti2-Ti1-Ti4=240.12        Ti3-Ti2-Ti1-Ti6=178.31        Ti3-Ti2-Ti1-Ti7=300.81        Ti3-Ti2-Ti1-O20=273.82        
Ti3-Ti2-Ti1-O21=119.10        Ti4-Ti2-Ti1-Ti6=298.19        Ti4-Ti2-Ti1-Ti7= 60.69        Ti4-Ti2-Ti1-O20= 33.71        
Ti4-Ti2-Ti1-O21=238.99        Ti5-Ti2-Ti1-Ti4= 88.85        Ti5-Ti2-Ti1-Ti6= 27.04        Ti5-Ti2-Ti1-Ti7=149.54        
Ti5-Ti2-Ti1-O20=122.55        Ti5-Ti2-Ti1-O21=327.83        Ti6-Ti2-Ti1-Ti4= 61.81        Ti6-Ti2-Ti1-Ti7=122.50        
Ti6-Ti2-Ti1-O20= 95.52        Ti6-Ti2-Ti1-O21=300.80        Ti7-Ti2-Ti1-Ti4=299.31        Ti7-Ti2-Ti1-Ti6=237.50        
Ti7-Ti2-Ti1-O20=333.02        Ti7-Ti2-Ti1-O21=178.30        Ti8-Ti2-Ti1-Ti4=310.93        Ti8-Ti2-Ti1-Ti6=249.12        
Ti8-Ti2-Ti1-Ti7= 11.62        Ti8-Ti2-Ti1-O20=344.63        Ti8-Ti2-Ti1-O21=189.92        Ti11-Ti2-Ti1-Ti4=347.58       
Ti11-Ti2-Ti1-Ti6=285.77       Ti11-Ti2-Ti1-Ti7= 48.27       Ti11-Ti2-Ti1-O20= 21.29       Ti11-Ti2-Ti1-O21=226.57       
O21-Ti2-Ti1-Ti4=121.01        O21-Ti2-Ti1-Ti6= 59.20        O21-Ti2-Ti1-Ti7=181.70        O21-Ti2-Ti1-O20=154.72        
O22-Ti2-Ti1-Ti4=245.18        O22-Ti2-Ti1-Ti6=183.38        O22-Ti2-Ti1-Ti7=305.87        O22-Ti2-Ti1-O20=278.89        
O22-Ti2-Ti1-O21=124.17        O23-Ti2-Ti1-Ti4=  0.98        O23-Ti2-Ti1-Ti6=299.17        O23-Ti2-Ti1-Ti7= 61.67        
O23-Ti2-Ti1-O20= 34.69        O23-Ti2-Ti1-O21=239.97        O24-Ti2-Ti1-Ti4=136.63        O24-Ti2-Ti1-Ti6= 74.82        
O24-Ti2-Ti1-Ti7=197.32        O24-Ti2-Ti1-O20=170.34        O24-Ti2-Ti1-O21= 15.62        Ti7-Ti3-Ti2-Ti1= 56.60        
Ti7-Ti3-Ti2-Ti4=341.31        Ti7-Ti3-Ti2-Ti5=214.65        Ti7-Ti3-Ti2-Ti6=225.79        Ti7-Ti3-Ti2-Ti8=307.94        
Ti7-Ti3-Ti2-Ti11=249.11       Ti7-Ti3-Ti2-O21= 94.14        Ti7-Ti3-Ti2-O22= 47.87        Ti7-Ti3-Ti2-O23=311.55        
Ti7-Ti3-Ti2-O24=202.28        Ti8-Ti3-Ti2-Ti1=108.66        Ti8-Ti3-Ti2-Ti4= 33.37        Ti8-Ti3-Ti2-Ti5=266.71        
Ti8-Ti3-Ti2-Ti6=277.85        Ti8-Ti3-Ti2-Ti7= 52.06        Ti8-Ti3-Ti2-Ti11=301.16       Ti8-Ti3-Ti2-O21=146.19        
Ti8-Ti3-Ti2-O22= 99.93        Ti8-Ti3-Ti2-O23=  3.61        Ti8-Ti3-Ti2-O24=254.34        Ti9-Ti3-Ti2-Ti1=133.48        
Ti9-Ti3-Ti2-Ti4= 58.20        Ti9-Ti3-Ti2-Ti5=291.53        Ti9-Ti3-Ti2-Ti6=302.68        Ti9-Ti3-Ti2-Ti7= 76.88        
Ti9-Ti3-Ti2-Ti8= 24.83        Ti9-Ti3-Ti2-Ti11=325.99       Ti9-Ti3-Ti2-O21=171.02        Ti9-Ti3-Ti2-O22=124.75        
Ti9-Ti3-Ti2-O23= 28.44        Ti9-Ti3-Ti2-O24=279.17        O22-Ti3-Ti2-Ti1=  8.73        O22-Ti3-Ti2-Ti4=293.44        
O22-Ti3-Ti2-Ti5=166.78        O22-Ti3-Ti2-Ti6=177.92        O22-Ti3-Ti2-Ti7=312.13        O22-Ti3-Ti2-Ti8=260.07        
O22-Ti3-Ti2-Ti11=201.24       O22-Ti3-Ti2-O21= 46.27        O22-Ti3-Ti2-O23=263.68        O22-Ti3-Ti2-O24=154.41        
O29-Ti3-Ti2-Ti1=160.98        O29-Ti3-Ti2-Ti4= 85.70        O29-Ti3-Ti2-Ti5=319.03        O29-Ti3-Ti2-Ti6=330.18        
O29-Ti3-Ti2-Ti7=104.38        O29-Ti3-Ti2-Ti8= 52.33        O29-Ti3-Ti2-Ti11=353.49       O29-Ti3-Ti2-O21=198.52        
O29-Ti3-Ti2-O22=152.25        O29-Ti3-Ti2-O23= 55.94        O29-Ti3-Ti2-O24=306.66        Ti2-Ti4-Ti1-Ti6= 67.96        
Ti2-Ti4-Ti1-Ti7=284.06        Ti2-Ti4-Ti1-O20=253.76        Ti2-Ti4-Ti1-O21= 27.60        Ti6-Ti4-Ti1-Ti2=292.04        
Ti6-Ti4-Ti1-Ti7=216.11        Ti6-Ti4-Ti1-O20=185.80        Ti6-Ti4-Ti1-O21=319.64        Ti7-Ti4-Ti1-Ti2= 75.94        
Ti7-Ti4-Ti1-Ti6=143.89        Ti7-Ti4-Ti1-O20=329.69        Ti7-Ti4-Ti1-O21=103.54        Ti10-Ti4-Ti1-Ti2= 25.81       
Ti10-Ti4-Ti1-Ti6= 93.77       Ti10-Ti4-Ti1-Ti7=309.88       Ti10-Ti4-Ti1-O20=279.57       Ti10-Ti4-Ti1-O21= 53.41       
C13-Ti4-Ti1-Ti2=179.12        C13-Ti4-Ti1-Ti6=247.08        C13-Ti4-Ti1-Ti7=103.18        C13-Ti4-Ti1-O20= 72.88        
C13-Ti4-Ti1-O21=206.72        O20-Ti4-Ti1-Ti2=106.24        O20-Ti4-Ti1-Ti6=174.20        O20-Ti4-Ti1-Ti7= 30.31        
O20-Ti4-Ti1-O21=133.84        O23-Ti4-Ti1-Ti2=359.03        O23-Ti4-Ti1-Ti6= 66.98        O23-Ti4-Ti1-Ti7=283.09        
O23-Ti4-Ti1-O20=252.78        O23-Ti4-Ti1-O21= 26.63        O25-Ti4-Ti1-Ti2=257.58        O25-Ti4-Ti1-Ti6=325.54        
O25-Ti4-Ti1-Ti7=181.65        O25-Ti4-Ti1-O20=151.34        O25-Ti4-Ti1-O21=285.19        Ti1-Ti4-Ti2-Ti3=102.83        
Ti1-Ti4-Ti2-Ti5=230.30        Ti1-Ti4-Ti2-Ti6=273.57        Ti1-Ti4-Ti2-Ti7= 80.91        Ti1-Ti4-Ti2-Ti8=134.19        
Ti1-Ti4-Ti2-Ti11=177.30       Ti1-Ti4-Ti2-O21=331.07        Ti1-Ti4-Ti2-O22= 69.41        Ti1-Ti4-Ti2-O23=182.18        
Ti1-Ti4-Ti2-O24=214.39        Ti6-Ti4-Ti2-Ti1= 86.43        Ti6-Ti4-Ti2-Ti3=189.26        Ti6-Ti4-Ti2-Ti5=316.73        
Ti6-Ti4-Ti2-Ti7=167.34        Ti6-Ti4-Ti2-Ti8=220.62        Ti6-Ti4-Ti2-Ti11=263.73       Ti6-Ti4-Ti2-O21= 57.51        
Ti6-Ti4-Ti2-O22=155.85        Ti6-Ti4-Ti2-O23=268.61        Ti6-Ti4-Ti2-O24=300.82        Ti7-Ti4-Ti2-Ti1=279.09        
Ti7-Ti4-Ti2-Ti3= 21.92        Ti7-Ti4-Ti2-Ti5=149.39        Ti7-Ti4-Ti2-Ti6=192.66        Ti7-Ti4-Ti2-Ti8= 53.28        
Ti7-Ti4-Ti2-Ti11= 96.39       Ti7-Ti4-Ti2-O21=250.16        Ti7-Ti4-Ti2-O22=348.50        Ti7-Ti4-Ti2-O23=101.27        
Ti7-Ti4-Ti2-O24=133.47        Ti10-Ti4-Ti2-Ti1=192.12       Ti10-Ti4-Ti2-Ti3=294.95       Ti10-Ti4-Ti2-Ti5= 62.42       
Ti10-Ti4-Ti2-Ti6=105.69       Ti10-Ti4-Ti2-Ti7=273.03       Ti10-Ti4-Ti2-Ti8=326.31       Ti10-Ti4-Ti2-Ti11=  9.42      
Ti10-Ti4-Ti2-O21=163.19       Ti10-Ti4-Ti2-O22=261.53       Ti10-Ti4-Ti2-O23= 14.30       Ti10-Ti4-Ti2-O24= 46.51       
C13-Ti4-Ti2-Ti1=180.76        C13-Ti4-Ti2-Ti3=283.59        C13-Ti4-Ti2-Ti5= 51.05        C13-Ti4-Ti2-Ti6= 94.32        
C13-Ti4-Ti2-Ti7=261.67        C13-Ti4-Ti2-Ti8=314.94        C13-Ti4-Ti2-Ti11=358.06       C13-Ti4-Ti2-O21=151.83        
C13-Ti4-Ti2-O22=250.17        C13-Ti4-Ti2-O23=  2.94        C13-Ti4-Ti2-O24= 35.14        O20-Ti4-Ti2-Ti1=306.37        
O20-Ti4-Ti2-Ti3= 49.20        O20-Ti4-Ti2-Ti5=176.67        O20-Ti4-Ti2-Ti6=219.94        O20-Ti4-Ti2-Ti7= 27.28        
O20-Ti4-Ti2-Ti8= 80.56        O20-Ti4-Ti2-Ti11=123.67       O20-Ti4-Ti2-O21=277.44        O20-Ti4-Ti2-O22= 15.78        
O20-Ti4-Ti2-O23=128.55        O20-Ti4-Ti2-O24=160.75        O23-Ti4-Ti2-Ti1=177.82        O23-Ti4-Ti2-Ti3=280.65        
O23-Ti4-Ti2-Ti5= 48.12        O23-Ti4-Ti2-Ti6= 91.39        O23-Ti4-Ti2-Ti7=258.73        O23-Ti4-Ti2-Ti8=312.01        
O23-Ti4-Ti2-Ti11=355.12       O23-Ti4-Ti2-O21=148.89        O23-Ti4-Ti2-O22=247.23        O23-Ti4-Ti2-O24= 32.21        
O25-Ti4-Ti2-Ti1= 59.89        O25-Ti4-Ti2-Ti3=162.72        O25-Ti4-Ti2-Ti5=290.19        O25-Ti4-Ti2-Ti6=333.46        
O25-Ti4-Ti2-Ti7=140.80        O25-Ti4-Ti2-Ti8=194.08        O25-Ti4-Ti2-Ti11=237.19       O25-Ti4-Ti2-O21= 30.96        
O25-Ti4-Ti2-O22=129.30        O25-Ti4-Ti2-O23=242.07        O25-Ti4-Ti2-O24=274.28        Ti6-Ti5-Ti2-Ti1=330.75        
Ti6-Ti5-Ti2-Ti3=178.12        Ti6-Ti5-Ti2-Ti4= 40.59        Ti6-Ti5-Ti2-Ti7= 90.76        Ti6-Ti5-Ti2-Ti8=113.14        
Ti6-Ti5-Ti2-Ti11=135.21       Ti6-Ti5-Ti2-O21=312.96        Ti6-Ti5-Ti2-O22=190.32        Ti6-Ti5-Ti2-O23= 60.13        
Ti6-Ti5-Ti2-O24=200.50        Ti11-Ti5-Ti2-Ti1=195.54       Ti11-Ti5-Ti2-Ti3= 42.92       Ti11-Ti5-Ti2-Ti4=265.38       
Ti11-Ti5-Ti2-Ti6=224.79       Ti11-Ti5-Ti2-Ti7=315.56       Ti11-Ti5-Ti2-Ti8=337.93       Ti11-Ti5-Ti2-O21=177.75       
Ti11-Ti5-Ti2-O22= 55.11       Ti11-Ti5-Ti2-O23=284.92       Ti11-Ti5-Ti2-O24= 65.29       C14-Ti5-Ti2-Ti1=163.13        
C14-Ti5-Ti2-Ti3= 10.51        C14-Ti5-Ti2-Ti4=232.97        C14-Ti5-Ti2-Ti6=192.38        C14-Ti5-Ti2-Ti7=283.15        
C14-Ti5-Ti2-Ti8=305.52        C14-Ti5-Ti2-Ti11=327.59       C14-Ti5-Ti2-O21=145.34        C14-Ti5-Ti2-O22= 22.71        
C14-Ti5-Ti2-O23=252.51        C14-Ti5-Ti2-O24= 32.88        C17-Ti5-Ti2-Ti1=142.83        C17-Ti5-Ti2-Ti3=350.21        
C17-Ti5-Ti2-Ti4=212.67        C17-Ti5-Ti2-Ti6=172.08        C17-Ti5-Ti2-Ti7=262.85        C17-Ti5-Ti2-Ti8=285.22        
C17-Ti5-Ti2-Ti11=307.29       C17-Ti5-Ti2-O21=125.04        C17-Ti5-Ti2-O22=  2.41        C17-Ti5-Ti2-O23=232.21        
C17-Ti5-Ti2-O24= 12.58        C19-Ti5-Ti2-Ti1=237.00        C19-Ti5-Ti2-Ti3= 84.37        C19-Ti5-Ti2-Ti4=306.84        
C19-Ti5-Ti2-Ti6=266.25        C19-Ti5-Ti2-Ti7=357.01        C19-Ti5-Ti2-Ti8= 19.39        C19-Ti5-Ti2-Ti11= 41.46       
C19-Ti5-Ti2-O21=219.20        C19-Ti5-Ti2-O22= 96.57        C19-Ti5-Ti2-O23=326.38        C19-Ti5-Ti2-O24=106.74        
O24-Ti5-Ti2-Ti1=130.25        O24-Ti5-Ti2-Ti3=337.63        O24-Ti5-Ti2-Ti4=200.09        O24-Ti5-Ti2-Ti6=159.50        
O24-Ti5-Ti2-Ti7=250.27        O24-Ti5-Ti2-Ti8=272.64        O24-Ti5-Ti2-Ti11=294.71       O24-Ti5-Ti2-O21=112.46        
O24-Ti5-Ti2-O22=349.83        O24-Ti5-Ti2-O23=219.63        O26-Ti5-Ti2-Ti1=343.56        O26-Ti5-Ti2-Ti3=190.94        
O26-Ti5-Ti2-Ti4= 53.40        O26-Ti5-Ti2-Ti6= 12.81        O26-Ti5-Ti2-Ti7=103.58        O26-Ti5-Ti2-Ti8=125.95        
O26-Ti5-Ti2-Ti11=148.02       O26-Ti5-Ti2-O21=325.77        O26-Ti5-Ti2-O22=203.13        O26-Ti5-Ti2-O23= 72.94        
O26-Ti5-Ti2-O24=213.31        Ti1-Ti6-Ti2-Ti3=190.22        Ti1-Ti6-Ti2-Ti4= 69.51        Ti1-Ti6-Ti2-Ti5=202.08        
Ti1-Ti6-Ti2-Ti7= 58.26        Ti1-Ti6-Ti2-Ti8=112.30        Ti1-Ti6-Ti2-Ti11=167.90       Ti1-Ti6-Ti2-O21=326.02        
Ti1-Ti6-Ti2-O22=  7.53        Ti1-Ti6-Ti2-O23= 99.93        Ti1-Ti6-Ti2-O24=213.19        Ti4-Ti6-Ti2-Ti1=290.49        
Ti4-Ti6-Ti2-Ti3=120.70        Ti4-Ti6-Ti2-Ti5=132.57        Ti4-Ti6-Ti2-Ti7=348.75        Ti4-Ti6-Ti2-Ti8= 42.79        
Ti4-Ti6-Ti2-Ti11= 98.39       Ti4-Ti6-Ti2-O21=256.51        Ti4-Ti6-Ti2-O22=298.02        Ti4-Ti6-Ti2-O23= 30.42        
Ti4-Ti6-Ti2-O24=143.68        Ti5-Ti6-Ti2-Ti1=157.92        Ti5-Ti6-Ti2-Ti3=348.14        Ti5-Ti6-Ti2-Ti4=227.43        
Ti5-Ti6-Ti2-Ti7=216.18        Ti5-Ti6-Ti2-Ti8=270.22        Ti5-Ti6-Ti2-Ti11=325.82       Ti5-Ti6-Ti2-O21=123.94        
Ti5-Ti6-Ti2-O22=165.45        Ti5-Ti6-Ti2-O23=257.85        Ti5-Ti6-Ti2-O24= 11.11        O21-Ti6-Ti2-Ti1= 33.98        
O21-Ti6-Ti2-Ti3=224.20        O21-Ti6-Ti2-Ti4=103.49        O21-Ti6-Ti2-Ti5=236.06        O21-Ti6-Ti2-Ti7= 92.24        
O21-Ti6-Ti2-Ti8=146.28        O21-Ti6-Ti2-Ti11=201.88       O21-Ti6-Ti2-O22= 41.51        O21-Ti6-Ti2-O23=133.91        
O21-Ti6-Ti2-O24=247.17        O25-Ti6-Ti2-Ti1=315.53        O25-Ti6-Ti2-Ti3=145.75        O25-Ti6-Ti2-Ti4= 25.04        
O25-Ti6-Ti2-Ti5=157.61        O25-Ti6-Ti2-Ti7= 13.79        O25-Ti6-Ti2-Ti8= 67.83        O25-Ti6-Ti2-Ti11=123.43       
O25-Ti6-Ti2-O21=281.55        O25-Ti6-Ti2-O22=323.06        O25-Ti6-Ti2-O23= 55.46        O25-Ti6-Ti2-O24=168.72        
O26-Ti6-Ti2-Ti1=144.50        O26-Ti6-Ti2-Ti3=334.72        O26-Ti6-Ti2-Ti4=214.01        O26-Ti6-Ti2-Ti5=346.58        
O26-Ti6-Ti2-Ti7=202.76        O26-Ti6-Ti2-Ti8=256.80        O26-Ti6-Ti2-Ti11=312.40       O26-Ti6-Ti2-O21=110.52        
O26-Ti6-Ti2-O22=152.03        O26-Ti6-Ti2-O23=244.43        O26-Ti6-Ti2-O24=357.69        Ti1-Ti6-Ti4-Ti2=299.31        
Ti1-Ti6-Ti4-Ti7=314.43        Ti1-Ti6-Ti4-Ti10=209.98       Ti1-Ti6-Ti4-C13=153.50        Ti1-Ti6-Ti4-O20=353.83        
Ti1-Ti6-Ti4-O23=270.30        Ti1-Ti6-Ti4-O25= 65.24        Ti2-Ti6-Ti4-Ti1= 60.69        Ti2-Ti6-Ti4-Ti7= 15.12        
Ti2-Ti6-Ti4-Ti10=270.67       Ti2-Ti6-Ti4-C13=214.20        Ti2-Ti6-Ti4-O20= 54.52        Ti2-Ti6-Ti4-O23=330.99        
Ti2-Ti6-Ti4-O25=125.94        Ti5-Ti6-Ti4-Ti1= 98.71        Ti5-Ti6-Ti4-Ti2= 38.01        Ti5-Ti6-Ti4-Ti7= 53.13        
Ti5-Ti6-Ti4-Ti10=308.69       Ti5-Ti6-Ti4-C13=252.21        Ti5-Ti6-Ti4-O20= 92.54        Ti5-Ti6-Ti4-O23=  9.01        
Ti5-Ti6-Ti4-O25=163.95        O21-Ti6-Ti4-Ti1= 26.66        O21-Ti6-Ti4-Ti2=325.96        O21-Ti6-Ti4-Ti7=341.08        
O21-Ti6-Ti4-Ti10=236.64       O21-Ti6-Ti4-C13=180.16        O21-Ti6-Ti4-O20= 20.49        O21-Ti6-Ti4-O23=296.96        
O21-Ti6-Ti4-O25= 91.90        O25-Ti6-Ti4-Ti1=294.76        O25-Ti6-Ti4-Ti2=234.06        O25-Ti6-Ti4-Ti7=249.18        
O25-Ti6-Ti4-Ti10=144.74       O25-Ti6-Ti4-C13= 88.26        O25-Ti6-Ti4-O20=288.59        O25-Ti6-Ti4-O23=205.06        
O26-Ti6-Ti4-Ti1=101.07        O26-Ti6-Ti4-Ti2= 40.37        O26-Ti6-Ti4-Ti7= 55.49        O26-Ti6-Ti4-Ti10=311.05       
O26-Ti6-Ti4-C13=254.57        O26-Ti6-Ti4-O20= 94.90        O26-Ti6-Ti4-O23= 11.37        O26-Ti6-Ti4-O25=166.31        
Ti1-Ti6-Ti5-Ti2= 17.43        Ti1-Ti6-Ti5-Ti11= 71.61       Ti1-Ti6-Ti5-C14= 62.13        Ti1-Ti6-Ti5-C17=247.44        
Ti1-Ti6-Ti5-C19=113.35        Ti1-Ti6-Ti5-O24=  6.97        Ti1-Ti6-Ti5-O26=232.73        Ti2-Ti6-Ti5-Ti11= 54.17       
Ti2-Ti6-Ti5-C14= 44.69        Ti2-Ti6-Ti5-C17=230.01        Ti2-Ti6-Ti5-C19= 95.92        Ti2-Ti6-Ti5-O24=349.54        
Ti2-Ti6-Ti5-O26=215.30        Ti4-Ti6-Ti5-Ti2=319.62        Ti4-Ti6-Ti5-Ti11= 13.80       Ti4-Ti6-Ti5-C14=  4.32        
Ti4-Ti6-Ti5-C17=189.63        Ti4-Ti6-Ti5-C19= 55.54        Ti4-Ti6-Ti5-O24=309.16        Ti4-Ti6-Ti5-O26=174.92        
O21-Ti6-Ti5-Ti2= 27.77        O21-Ti6-Ti5-Ti11= 81.94       O21-Ti6-Ti5-C14= 72.46        O21-Ti6-Ti5-C17=257.78        
O21-Ti6-Ti5-C19=123.69        O21-Ti6-Ti5-O24= 17.30        O21-Ti6-Ti5-O26=243.07        O25-Ti6-Ti5-Ti2=330.42        
O25-Ti6-Ti5-Ti11= 24.59       O25-Ti6-Ti5-C14= 15.11        O25-Ti6-Ti5-C17=200.43        O25-Ti6-Ti5-C19= 66.33        
O25-Ti6-Ti5-O24=319.95        O25-Ti6-Ti5-O26=185.72        O26-Ti6-Ti5-Ti2=144.70        O26-Ti6-Ti5-Ti11=198.88       
O26-Ti6-Ti5-C14=189.39        O26-Ti6-Ti5-C17= 14.71        O26-Ti6-Ti5-C19=240.62        O26-Ti6-Ti5-O24=134.24        
Ti2-Ti7-Ti1-Ti4= 71.70        Ti2-Ti7-Ti1-Ti6= 44.14        Ti2-Ti7-Ti1-O20=109.11        Ti2-Ti7-Ti1-O21=359.10        
Ti3-Ti7-Ti1-Ti2= 36.89        Ti3-Ti7-Ti1-Ti4=108.59        Ti3-Ti7-Ti1-Ti6= 81.03        Ti3-Ti7-Ti1-O20=145.99        
Ti3-Ti7-Ti1-O21= 35.98        Ti4-Ti7-Ti1-Ti2=288.30        Ti4-Ti7-Ti1-Ti6=332.44        Ti4-Ti7-Ti1-O20= 37.41        
Ti4-Ti7-Ti1-O21=287.40        Ti8-Ti7-Ti1-Ti2=345.71        Ti8-Ti7-Ti1-Ti4= 57.41        Ti8-Ti7-Ti1-Ti6= 29.85        
Ti8-Ti7-Ti1-O20= 94.82        Ti8-Ti7-Ti1-O21=344.81        O20-Ti7-Ti1-Ti2=250.89        O20-Ti7-Ti1-Ti4=322.59        
O20-Ti7-Ti1-Ti6=295.03        O20-Ti7-Ti1-O21=249.99        O27-Ti7-Ti1-Ti2= 23.96        O27-Ti7-Ti1-Ti4= 95.66        
O27-Ti7-Ti1-Ti6= 68.10        O27-Ti7-Ti1-O20=133.07        O27-Ti7-Ti1-O21= 23.06        Ti1-Ti7-Ti2-Ti3=125.45        
Ti1-Ti7-Ti2-Ti4=287.10        Ti1-Ti7-Ti2-Ti5=223.39        Ti1-Ti7-Ti2-Ti6=298.71        Ti1-Ti7-Ti2-Ti8=193.77        
Ti1-Ti7-Ti2-Ti11=189.37       Ti1-Ti7-Ti2-O21=  0.98        Ti1-Ti7-Ti2-O22= 93.32        Ti1-Ti7-Ti2-O23=257.83        
Ti1-Ti7-Ti2-O24=163.65        Ti3-Ti7-Ti2-Ti1=234.55        Ti3-Ti7-Ti2-Ti4=161.65        Ti3-Ti7-Ti2-Ti5= 97.94        
Ti3-Ti7-Ti2-Ti6=173.26        Ti3-Ti7-Ti2-Ti8= 68.32        Ti3-Ti7-Ti2-Ti11= 63.92       Ti3-Ti7-Ti2-O21=235.53        
Ti3-Ti7-Ti2-O22=327.88        Ti3-Ti7-Ti2-O23=132.38        Ti3-Ti7-Ti2-O24= 38.20        Ti4-Ti7-Ti2-Ti1= 72.90        
Ti4-Ti7-Ti2-Ti3=198.35        Ti4-Ti7-Ti2-Ti5=296.29        Ti4-Ti7-Ti2-Ti6= 11.61        Ti4-Ti7-Ti2-Ti8=266.67        
Ti4-Ti7-Ti2-Ti11=262.27       Ti4-Ti7-Ti2-O21= 73.88        Ti4-Ti7-Ti2-O22=166.23        Ti4-Ti7-Ti2-O23=330.73        
Ti4-Ti7-Ti2-O24=236.55        Ti8-Ti7-Ti2-Ti1=166.23        Ti8-Ti7-Ti2-Ti3=291.68        Ti8-Ti7-Ti2-Ti4= 93.33        
Ti8-Ti7-Ti2-Ti5= 29.62        Ti8-Ti7-Ti2-Ti6=104.94        Ti8-Ti7-Ti2-Ti11=355.60       Ti8-Ti7-Ti2-O21=167.21        
Ti8-Ti7-Ti2-O22=259.56        Ti8-Ti7-Ti2-O23= 64.06        Ti8-Ti7-Ti2-O24=329.88        O20-Ti7-Ti2-Ti1= 43.99        
O20-Ti7-Ti2-Ti3=169.44        O20-Ti7-Ti2-Ti4=331.08        O20-Ti7-Ti2-Ti5=267.37        O20-Ti7-Ti2-Ti6=342.69        
O20-Ti7-Ti2-Ti8=237.76        O20-Ti7-Ti2-Ti11=233.36       O20-Ti7-Ti2-O21= 44.97        O20-Ti7-Ti2-O22=137.31        
O20-Ti7-Ti2-O23=301.81        O20-Ti7-Ti2-O24=207.64        O27-Ti7-Ti2-Ti1=199.77        O27-Ti7-Ti2-Ti3=325.22        
O27-Ti7-Ti2-Ti4=126.87        O27-Ti7-Ti2-Ti5= 63.15        O27-Ti7-Ti2-Ti6=138.47        O27-Ti7-Ti2-Ti8= 33.54        
O27-Ti7-Ti2-Ti11= 29.14       O27-Ti7-Ti2-O21=200.75        O27-Ti7-Ti2-O22=293.09        O27-Ti7-Ti2-O23= 97.59        
O27-Ti7-Ti2-O24=  3.42        Ti1-Ti7-Ti4-Ti2= 60.49        Ti1-Ti7-Ti4-Ti6= 46.09        Ti1-Ti7-Ti4-Ti10=158.47       
Ti1-Ti7-Ti4-C13=207.45        Ti1-Ti7-Ti4-O20=304.15        Ti1-Ti7-Ti4-O23= 87.17        Ti1-Ti7-Ti4-O25=  1.97        
Ti2-Ti7-Ti4-Ti1=299.51        Ti2-Ti7-Ti4-Ti6=345.60        Ti2-Ti7-Ti4-Ti10= 97.98       Ti2-Ti7-Ti4-C13=146.96        
Ti2-Ti7-Ti4-O20=243.66        Ti2-Ti7-Ti4-O23= 26.68        Ti2-Ti7-Ti4-O25=301.48        Ti3-Ti7-Ti4-Ti1=285.90        
Ti3-Ti7-Ti4-Ti2=346.39        Ti3-Ti7-Ti4-Ti6=331.98        Ti3-Ti7-Ti4-Ti10= 84.37       Ti3-Ti7-Ti4-C13=133.35        
Ti3-Ti7-Ti4-O20=230.05        Ti3-Ti7-Ti4-O23= 13.06        Ti3-Ti7-Ti4-O25=287.87        Ti8-Ti7-Ti4-Ti1=229.76        
Ti8-Ti7-Ti4-Ti2=290.25        Ti8-Ti7-Ti4-Ti6=275.85        Ti8-Ti7-Ti4-Ti10= 28.24       Ti8-Ti7-Ti4-C13= 77.22        
Ti8-Ti7-Ti4-O20=173.91        Ti8-Ti7-Ti4-O23=316.93        Ti8-Ti7-Ti4-O25=231.73        O20-Ti7-Ti4-Ti1= 55.85        
O20-Ti7-Ti4-Ti2=116.34        O20-Ti7-Ti4-Ti6=101.94        O20-Ti7-Ti4-Ti10=214.32       O20-Ti7-Ti4-C13=263.30        
O20-Ti7-Ti4-O23=143.02        O20-Ti7-Ti4-O25= 57.82        O27-Ti7-Ti4-Ti1=241.49        O27-Ti7-Ti4-Ti2=301.98        
O27-Ti7-Ti4-Ti6=287.58        O27-Ti7-Ti4-Ti10= 39.96       O27-Ti7-Ti4-C13= 88.94        O27-Ti7-Ti4-O20=185.64        
O27-Ti7-Ti4-O23=328.66        O27-Ti7-Ti4-O25=243.46        Ti3-Ti8-Ti2-Ti1=254.53        Ti3-Ti8-Ti2-Ti4=208.18        
Ti3-Ti8-Ti2-Ti5=104.84        Ti3-Ti8-Ti2-Ti6=170.44        Ti3-Ti8-Ti2-Ti7=268.89        Ti3-Ti8-Ti2-Ti11= 83.58       
Ti3-Ti8-Ti2-O21=243.40        Ti3-Ti8-Ti2-O22=323.94        Ti3-Ti8-Ti2-O23=183.95        Ti3-Ti8-Ti2-O24= 71.28        
Ti7-Ti8-Ti2-Ti1=345.63        Ti7-Ti8-Ti2-Ti3= 91.11        Ti7-Ti8-Ti2-Ti4=299.28        Ti7-Ti8-Ti2-Ti5=195.94        
Ti7-Ti8-Ti2-Ti6=261.55        Ti7-Ti8-Ti2-Ti11=174.69       Ti7-Ti8-Ti2-O21=334.51        Ti7-Ti8-Ti2-O22= 55.05        
Ti7-Ti8-Ti2-O23=275.06        Ti7-Ti8-Ti2-O24=162.38        Ti9-Ti8-Ti2-Ti1=228.06        Ti9-Ti8-Ti2-Ti3=333.53        
Ti9-Ti8-Ti2-Ti4=181.71        Ti9-Ti8-Ti2-Ti5= 78.37        Ti9-Ti8-Ti2-Ti6=143.97        Ti9-Ti8-Ti2-Ti7=242.43        
Ti9-Ti8-Ti2-Ti11= 57.11       Ti9-Ti8-Ti2-O21=216.93        Ti9-Ti8-Ti2-O22=297.47        Ti9-Ti8-Ti2-O23=157.48        
Ti9-Ti8-Ti2-O24= 44.81        Ti10-Ti8-Ti2-Ti1= 83.97       Ti10-Ti8-Ti2-Ti3=189.44       Ti10-Ti8-Ti2-Ti4= 37.62       
Ti10-Ti8-Ti2-Ti5=294.28       Ti10-Ti8-Ti2-Ti6=359.88       Ti10-Ti8-Ti2-Ti7= 98.34       Ti10-Ti8-Ti2-Ti11=273.02      
Ti10-Ti8-Ti2-O21= 72.84       Ti10-Ti8-Ti2-O22=153.38       Ti10-Ti8-Ti2-O23= 13.39       Ti10-Ti8-Ti2-O24=260.72       
Ti11-Ti8-Ti2-Ti1=170.95       Ti11-Ti8-Ti2-Ti3=276.42       Ti11-Ti8-Ti2-Ti4=124.60       Ti11-Ti8-Ti2-Ti5= 21.26       
Ti11-Ti8-Ti2-Ti6= 86.86       Ti11-Ti8-Ti2-Ti7=185.31       Ti11-Ti8-Ti2-O21=159.82       Ti11-Ti8-Ti2-O22=240.36       
Ti11-Ti8-Ti2-O23=100.37       Ti11-Ti8-Ti2-O24=347.70       Ti12-Ti8-Ti2-Ti1=142.17       Ti12-Ti8-Ti2-Ti3=247.65       
Ti12-Ti8-Ti2-Ti4= 95.82       Ti12-Ti8-Ti2-Ti5=352.48       Ti12-Ti8-Ti2-Ti6= 58.09       Ti12-Ti8-Ti2-Ti7=156.54       
Ti12-Ti8-Ti2-Ti11=331.23      Ti12-Ti8-Ti2-O21=131.05       Ti12-Ti8-Ti2-O22=211.59       Ti12-Ti8-Ti2-O23= 71.60       
Ti12-Ti8-Ti2-O24=318.93       O27-Ti8-Ti2-Ti1=311.17        O27-Ti8-Ti2-Ti3= 56.64        O27-Ti8-Ti2-Ti4=264.82        
O27-Ti8-Ti2-Ti5=161.48        O27-Ti8-Ti2-Ti6=227.08        O27-Ti8-Ti2-Ti7=325.54        O27-Ti8-Ti2-Ti11=140.22       
O27-Ti8-Ti2-O21=300.04        O27-Ti8-Ti2-O22= 20.58        O27-Ti8-Ti2-O23=240.59        O27-Ti8-Ti2-O24=127.92        
O28-Ti8-Ti2-Ti1=220.29        O28-Ti8-Ti2-Ti3=325.76        O28-Ti8-Ti2-Ti4=173.94        O28-Ti8-Ti2-Ti5= 70.60        
O28-Ti8-Ti2-Ti6=136.20        O28-Ti8-Ti2-Ti7=234.66        O28-Ti8-Ti2-Ti11= 49.34       O28-Ti8-Ti2-O21=209.16        
O28-Ti8-Ti2-O22=289.70        O28-Ti8-Ti2-O23=149.71        O28-Ti8-Ti2-O24= 37.04        O30-Ti8-Ti2-Ti1= 52.47        
O30-Ti8-Ti2-Ti3=157.95        O30-Ti8-Ti2-Ti4=  6.13        O30-Ti8-Ti2-Ti5=262.78        O30-Ti8-Ti2-Ti6=328.39        
O30-Ti8-Ti2-Ti7= 66.84        O30-Ti8-Ti2-Ti11=241.53       O30-Ti8-Ti2-O21= 41.35        O30-Ti8-Ti2-O22=121.89        
O30-Ti8-Ti2-O23=341.90        O30-Ti8-Ti2-O24=229.23        O31-Ti8-Ti2-Ti1=172.07        O31-Ti8-Ti2-Ti3=277.55        
O31-Ti8-Ti2-Ti4=125.72        O31-Ti8-Ti2-Ti5= 22.38        O31-Ti8-Ti2-Ti6= 87.99        O31-Ti8-Ti2-Ti7=186.44        
O31-Ti8-Ti2-Ti11=  1.13       O31-Ti8-Ti2-O21=160.95        O31-Ti8-Ti2-O22=241.49        O31-Ti8-Ti2-O23=101.50        
O31-Ti8-Ti2-O24=348.83        Ti2-Ti8-Ti3-Ti7= 68.16        Ti2-Ti8-Ti3-Ti9=210.36        Ti2-Ti8-Ti3-O22= 33.48        
Ti2-Ti8-Ti3-O29=222.73        Ti7-Ti8-Ti3-Ti2=291.84        Ti7-Ti8-Ti3-Ti9=142.20        Ti7-Ti8-Ti3-O22=325.32        
Ti7-Ti8-Ti3-O29=154.57        Ti9-Ti8-Ti3-Ti2=149.64        Ti9-Ti8-Ti3-Ti7=217.80        Ti9-Ti8-Ti3-O22=183.12        
Ti9-Ti8-Ti3-O29= 12.37        Ti10-Ti8-Ti3-Ti2= 15.39       Ti10-Ti8-Ti3-Ti7= 83.55       Ti10-Ti8-Ti3-Ti9=225.75       
Ti10-Ti8-Ti3-O22= 48.87       Ti10-Ti8-Ti3-O29=238.12       Ti11-Ti8-Ti3-Ti2= 75.61       Ti11-Ti8-Ti3-Ti7=143.77       
Ti11-Ti8-Ti3-Ti9=285.97       Ti11-Ti8-Ti3-O22=109.09       Ti11-Ti8-Ti3-O29=298.34       Ti12-Ti8-Ti3-Ti2= 95.22       
Ti12-Ti8-Ti3-Ti7=163.38       Ti12-Ti8-Ti3-Ti9=305.57       Ti12-Ti8-Ti3-O22=128.69       Ti12-Ti8-Ti3-O29=317.94       
O27-Ti8-Ti3-Ti2=259.93        O27-Ti8-Ti3-Ti7=328.09        O27-Ti8-Ti3-Ti9=110.28        O27-Ti8-Ti3-O22=293.40        
O27-Ti8-Ti3-O29=122.65        O28-Ti8-Ti3-Ti2=159.20        O28-Ti8-Ti3-Ti7=227.36        O28-Ti8-Ti3-Ti9=  9.56        
O28-Ti8-Ti3-O22=192.68        O28-Ti8-Ti3-O29= 21.93        O30-Ti8-Ti3-Ti2=327.99        O30-Ti8-Ti3-Ti7= 36.15        
O30-Ti8-Ti3-Ti9=178.35        O30-Ti8-Ti3-O22=  1.47        O30-Ti8-Ti3-O29=190.72        O31-Ti8-Ti3-Ti2= 60.86        
O31-Ti8-Ti3-Ti7=129.02        O31-Ti8-Ti3-Ti9=271.22        O31-Ti8-Ti3-O22= 94.34        O31-Ti8-Ti3-O29=283.59        
Ti2-Ti8-Ti7-Ti1= 11.74        Ti2-Ti8-Ti7-Ti3=307.97        Ti2-Ti8-Ti7-Ti4= 57.54        Ti2-Ti8-Ti7-O20= 60.93        
Ti2-Ti8-Ti7-O27=257.33        Ti3-Ti8-Ti7-Ti1= 63.77        Ti3-Ti8-Ti7-Ti2= 52.03        Ti3-Ti8-Ti7-Ti4=109.57        
Ti3-Ti8-Ti7-O20=112.96        Ti3-Ti8-Ti7-O27=309.36        Ti9-Ti8-Ti7-Ti1=101.35        Ti9-Ti8-Ti7-Ti2= 89.60        
Ti9-Ti8-Ti7-Ti3= 37.57        Ti9-Ti8-Ti7-Ti4=147.14        Ti9-Ti8-Ti7-O20=150.53        Ti9-Ti8-Ti7-O27=346.93        
Ti10-Ti8-Ti7-Ti1=282.16       Ti10-Ti8-Ti7-Ti2=270.42       Ti10-Ti8-Ti7-Ti3=218.39       Ti10-Ti8-Ti7-Ti4=327.96       
Ti10-Ti8-Ti7-O20=331.35       Ti10-Ti8-Ti7-O27=167.74       Ti11-Ti8-Ti7-Ti1= 18.02       Ti11-Ti8-Ti7-Ti2=  6.28       
Ti11-Ti8-Ti7-Ti3=314.25       Ti11-Ti8-Ti7-Ti4= 63.82       Ti11-Ti8-Ti7-O20= 67.21       Ti11-Ti8-Ti7-O27=263.61       
Ti12-Ti8-Ti7-Ti1=285.53       Ti12-Ti8-Ti7-Ti2=273.79       Ti12-Ti8-Ti7-Ti3=221.76       Ti12-Ti8-Ti7-Ti4=331.33       
Ti12-Ti8-Ti7-O20=334.72       Ti12-Ti8-Ti7-O27=171.11       O27-Ti8-Ti7-Ti1=114.42        O27-Ti8-Ti7-Ti2=102.67        
O27-Ti8-Ti7-Ti3= 50.64        O27-Ti8-Ti7-Ti4=160.21        O27-Ti8-Ti7-O20=163.60        O28-Ti8-Ti7-Ti1=147.65        
O28-Ti8-Ti7-Ti2=135.90        O28-Ti8-Ti7-Ti3= 83.87        O28-Ti8-Ti7-Ti4=193.44        O28-Ti8-Ti7-O20=196.83        
O28-Ti8-Ti7-O27= 33.23        O30-Ti8-Ti7-Ti1=270.22        O30-Ti8-Ti7-Ti2=258.48        O30-Ti8-Ti7-Ti3=206.45        
O30-Ti8-Ti7-Ti4=316.02        O30-Ti8-Ti7-O20=319.41        O30-Ti8-Ti7-O27=155.80        O31-Ti8-Ti7-Ti1= 17.06        
O31-Ti8-Ti7-Ti2=  5.31        O31-Ti8-Ti7-Ti3=313.28        O31-Ti8-Ti7-Ti4= 62.85        O31-Ti8-Ti7-O20= 66.24        
O31-Ti8-Ti7-O27=262.64        Ti8-Ti9-Ti3-Ti2=329.65        Ti8-Ti9-Ti3-Ti7= 26.64        Ti8-Ti9-Ti3-O22=  3.81        
Ti8-Ti9-Ti3-O29=207.15        Ti11-Ti9-Ti3-Ti2= 37.63       Ti11-Ti9-Ti3-Ti7= 94.61       Ti11-Ti9-Ti3-Ti8= 67.97       
Ti11-Ti9-Ti3-O22= 71.78       Ti11-Ti9-Ti3-O29=275.13       O28-Ti9-Ti3-Ti2=320.14        O28-Ti9-Ti3-Ti7= 17.13        
O28-Ti9-Ti3-Ti8=350.49        O28-Ti9-Ti3-O22=354.29        O28-Ti9-Ti3-O29=197.64        O29-Ti9-Ti3-Ti2=122.50        
O29-Ti9-Ti3-Ti7=179.49        O29-Ti9-Ti3-Ti8=152.85        O29-Ti9-Ti3-O22=156.65        Ti3-Ti9-Ti8-Ti2= 23.07        
Ti3-Ti9-Ti8-Ti7=317.16        Ti3-Ti9-Ti8-Ti10=135.90       Ti3-Ti9-Ti8-Ti11= 80.06       Ti3-Ti9-Ti8-Ti12=135.62       
Ti3-Ti9-Ti8-O27=309.90        Ti3-Ti9-Ti8-O28=195.29        Ti3-Ti9-Ti8-O30=184.77        Ti3-Ti9-Ti8-O31= 64.19        
Ti11-Ti9-Ti8-Ti2=303.01       Ti11-Ti9-Ti8-Ti3=279.94       Ti11-Ti9-Ti8-Ti7=237.10       Ti11-Ti9-Ti8-Ti10= 55.83      
Ti11-Ti9-Ti8-Ti12= 55.55      Ti11-Ti9-Ti8-O27=229.83       Ti11-Ti9-Ti8-O28=115.22       Ti11-Ti9-Ti8-O30=104.70       
Ti11-Ti9-Ti8-O31=344.13       O28-Ti9-Ti8-Ti2=187.78        O28-Ti9-Ti8-Ti3=164.71        O28-Ti9-Ti8-Ti7=121.88        
O28-Ti9-Ti8-Ti10=300.61       O28-Ti9-Ti8-Ti11=244.78       O28-Ti9-Ti8-Ti12=300.33       O28-Ti9-Ti8-O27=114.61        
O28-Ti9-Ti8-O30=349.48        O28-Ti9-Ti8-O31=228.90        O29-Ti9-Ti8-Ti2= 11.29        O29-Ti9-Ti8-Ti3=348.22        
O29-Ti9-Ti8-Ti7=305.38        O29-Ti9-Ti8-Ti10=124.12       O29-Ti9-Ti8-Ti11= 68.29       O29-Ti9-Ti8-Ti12=123.84       
O29-Ti9-Ti8-O27=298.12        O29-Ti9-Ti8-O28=183.51        O29-Ti9-Ti8-O30=172.99        O29-Ti9-Ti8-O31= 52.41        
Ti8-Ti10-Ti4-Ti1= 18.54       Ti8-Ti10-Ti4-Ti2= 39.97       Ti8-Ti10-Ti4-Ti6=103.10       Ti8-Ti10-Ti4-Ti7=332.09       
Ti8-Ti10-Ti4-C13=212.76       Ti8-Ti10-Ti4-O20=313.69       Ti8-Ti10-Ti4-O23= 46.58       Ti8-Ti10-Ti4-O25=128.58       
Ti12-Ti10-Ti4-Ti1=343.24      Ti12-Ti10-Ti4-Ti2=  4.68      Ti12-Ti10-Ti4-Ti6= 67.81      Ti12-Ti10-Ti4-Ti7=296.80      
Ti12-Ti10-Ti4-C13=177.47      Ti12-Ti10-Ti4-O20=278.40      Ti12-Ti10-Ti4-O23= 11.28      Ti12-Ti10-Ti4-O25= 93.29      
C13-Ti10-Ti4-Ti1=165.77       C13-Ti10-Ti4-Ti2=187.21       C13-Ti10-Ti4-Ti6=250.34       C13-Ti10-Ti4-Ti7=119.33       
C13-Ti10-Ti4-O20=100.93       C13-Ti10-Ti4-O23=193.81       C13-Ti10-Ti4-O25=275.81       C15-Ti10-Ti4-Ti1=290.90       
C15-Ti10-Ti4-Ti2=312.33       C15-Ti10-Ti4-Ti6= 15.46       C15-Ti10-Ti4-Ti7=244.45       C15-Ti10-Ti4-C13=125.13       
C15-Ti10-Ti4-O20=226.06       C15-Ti10-Ti4-O23=318.94       C15-Ti10-Ti4-O25= 40.94       C16-Ti10-Ti4-Ti1=164.62       
C16-Ti10-Ti4-Ti2=186.05       C16-Ti10-Ti4-Ti6=249.18       C16-Ti10-Ti4-Ti7=118.17       C16-Ti10-Ti4-C13=358.85       
C16-Ti10-Ti4-O20= 99.77       C16-Ti10-Ti4-O23=192.66       C16-Ti10-Ti4-O25=274.66       C18-Ti10-Ti4-Ti1=269.17       
C18-Ti10-Ti4-Ti2=290.60       C18-Ti10-Ti4-Ti6=353.73       C18-Ti10-Ti4-Ti7=222.72       C18-Ti10-Ti4-C13=103.40       
C18-Ti10-Ti4-O20=204.33       C18-Ti10-Ti4-O23=297.21       C18-Ti10-Ti4-O25= 19.21       O30-Ti10-Ti4-Ti1= 45.99       
O30-Ti10-Ti4-Ti2= 67.42       O30-Ti10-Ti4-Ti6=130.55       O30-Ti10-Ti4-Ti7=359.54       O30-Ti10-Ti4-C13=240.21       
O30-Ti10-Ti4-O20=341.14       O30-Ti10-Ti4-O23= 74.03       O30-Ti10-Ti4-O25=156.03       O32-Ti10-Ti4-Ti1=  8.17       
O32-Ti10-Ti4-Ti2= 29.61       O32-Ti10-Ti4-Ti6= 92.74       O32-Ti10-Ti4-Ti7=321.73       O32-Ti10-Ti4-C13=202.40       
O32-Ti10-Ti4-O20=303.33       O32-Ti10-Ti4-O23= 36.21       O32-Ti10-Ti4-O25=118.21       Ti4-Ti10-Ti8-Ti2=326.59       
Ti4-Ti10-Ti8-Ti3=315.00       Ti4-Ti10-Ti8-Ti7= 29.65       Ti4-Ti10-Ti8-Ti9=210.75       Ti4-Ti10-Ti8-Ti11=260.23      
Ti4-Ti10-Ti8-Ti12=211.08      Ti4-Ti10-Ti8-O27= 38.85       Ti4-Ti10-Ti8-O28=174.78       Ti4-Ti10-Ti8-O30= 51.37       
Ti4-Ti10-Ti8-O31=276.83       Ti12-Ti10-Ti8-Ti2=115.52      Ti12-Ti10-Ti8-Ti3=103.93      Ti12-Ti10-Ti8-Ti7=178.57      
Ti12-Ti10-Ti8-Ti9=359.68      Ti12-Ti10-Ti8-Ti11= 49.15     Ti12-Ti10-Ti8-O27=187.77      Ti12-Ti10-Ti8-O28=323.70      
Ti12-Ti10-Ti8-O30=200.29      Ti12-Ti10-Ti8-O31= 65.75      C13-Ti10-Ti8-Ti2=306.49       C13-Ti10-Ti8-Ti3=294.90       
C13-Ti10-Ti8-Ti7=  9.55       C13-Ti10-Ti8-Ti9=190.65       C13-Ti10-Ti8-Ti11=240.13      C13-Ti10-Ti8-Ti12=190.97      
C13-Ti10-Ti8-O27= 18.74       C13-Ti10-Ti8-O28=154.68       C13-Ti10-Ti8-O30= 31.26       C13-Ti10-Ti8-O31=256.73       
C15-Ti10-Ti8-Ti2= 47.76       C15-Ti10-Ti8-Ti3= 36.17       C15-Ti10-Ti8-Ti7=110.82       C15-Ti10-Ti8-Ti9=291.93       
C15-Ti10-Ti8-Ti11=341.40      C15-Ti10-Ti8-Ti12=292.25      C15-Ti10-Ti8-O27=120.02       C15-Ti10-Ti8-O28=255.95       
C15-Ti10-Ti8-O30=132.54       C15-Ti10-Ti8-O31=358.00       C16-Ti10-Ti8-Ti2=287.66       C16-Ti10-Ti8-Ti3=276.07       
C16-Ti10-Ti8-Ti7=350.71       C16-Ti10-Ti8-Ti9=171.82       C16-Ti10-Ti8-Ti11=221.29      C16-Ti10-Ti8-Ti12=172.14      
C16-Ti10-Ti8-O27=359.91       C16-Ti10-Ti8-O28=135.85       C16-Ti10-Ti8-O30= 12.43       C16-Ti10-Ti8-O31=237.89       
C18-Ti10-Ti8-Ti2= 44.62       C18-Ti10-Ti8-Ti3= 33.03       C18-Ti10-Ti8-Ti7=107.67       C18-Ti10-Ti8-Ti9=288.78       
C18-Ti10-Ti8-Ti11=338.25      C18-Ti10-Ti8-Ti12=289.10      C18-Ti10-Ti8-O27=116.87       C18-Ti10-Ti8-O28=252.81       
C18-Ti10-Ti8-O30=129.39       C18-Ti10-Ti8-O31=354.85       O30-Ti10-Ti8-Ti2=275.23       O30-Ti10-Ti8-Ti3=263.64       
O30-Ti10-Ti8-Ti7=338.28       O30-Ti10-Ti8-Ti9=159.39       O30-Ti10-Ti8-Ti11=208.86      O30-Ti10-Ti8-Ti12=159.71      
O30-Ti10-Ti8-O27=347.48       O30-Ti10-Ti8-O28=123.41       O30-Ti10-Ti8-O31=225.46       O32-Ti10-Ti8-Ti2=141.40       
O32-Ti10-Ti8-Ti3=129.81       O32-Ti10-Ti8-Ti7=204.45       O32-Ti10-Ti8-Ti9= 25.56       O32-Ti10-Ti8-Ti11= 75.03      
O32-Ti10-Ti8-Ti12= 25.88      O32-Ti10-Ti8-O27=213.65       O32-Ti10-Ti8-O28=349.58       O32-Ti10-Ti8-O30=226.17       
O32-Ti10-Ti8-O31= 91.63       
 
 CMA Distance (Angstroems)
 ---------------------------
R(CMA):  1.0304
           -------------------------------------------------
          |                Final Singlepoint                |
           -------------------------------------------------

          ...................................................
          :                      SETUP                      :
          :.................................................:
          :  # basis functions                 204          :
          :  # atomic orbitals                 192          :
          :  # shells                           78          :
          :  # electrons                       160          :
          :  max. iterations                   500          :
          :  Hamiltonian                  GFN2-xTB          :
          :  restarted?                      false          :
          :  GBSA solvation                  false          :
          :  PC potential                    false          :
          :  electronic temp.          300.0000000     K    :
          :  accuracy                    1.0000000          :
          :  -> integral cutoff          0.2500000E+02      :
          :  -> integral neglect         0.1000000E-07      :
          :  -> SCF convergence          0.1000000E-05 Eh   :
          :  -> wf. convergence          0.1000000E-03 e    :
          :  Broyden damping             0.4000000          :
          :  net charge                          0          :
          :  unpaired electrons                  0          :
          ...................................................

 iter      E             dE          RMSdq      gap      omega  full diag
   1    -92.7772004 -0.927772E+02  0.145E-04    0.09       0.0  T
   2    -92.7771999  0.481704E-06  0.436E-03    0.09       4.0  T
   3    -92.7772004 -0.481753E-06  0.131E-04    0.09     133.3  T
   4    -92.7772004 -0.346887E-09  0.529E-05    0.09     328.8  T

   *** convergence criteria satisfied after 4 iterations ***

         #    Occupation            Energy/Eh            Energy/eV
      -------------------------------------------------------------
         1        2.0000           -0.8128569             -22.1190
       ...           ...                  ...                  ...
        74        2.0000           -0.3511827              -9.5562
        75        2.0000           -0.3445680              -9.3762
        76        2.0000           -0.3434834              -9.3467
        77        2.0000           -0.3374985              -9.1838
        78        2.0000           -0.3254072              -8.8548
        79        2.0000           -0.3179992              -8.6532
        80        1.6208           -0.3013783              -8.2009 (HOMO)
        81        0.2458           -0.2981313              -8.1126 (LUMO)
        82        0.1332           -0.2974905              -8.0951
        83        0.0002           -0.2912013              -7.9240
        84        0.0000           -0.2885174              -7.8510
        85                         -0.2652978              -7.2191
       ...                                ...                  ...
       192                         12.4216006             338.0090
      -------------------------------------------------------------
                  HL-Gap            0.0032470 Eh            0.0884 eV
             Fermi-level           -0.2999984 Eh           -8.1634 eV

 SCC (total)                   0 d,  0 h,  0 min,  0.057 sec
 SCC setup                      ...        0 min,  0.001 sec (  1.754%)
 Dispersion                     ...        0 min,  0.000 sec (  0.000%)
 classical contributions        ...        0 min,  0.000 sec (  0.000%)
 integral evaluation            ...        0 min,  0.007 sec ( 12.281%)
 iterations                     ...        0 min,  0.032 sec ( 56.141%)
 molecular gradient             ...        0 min,  0.016 sec ( 28.070%)
 printout                       ...        0 min,  0.001 sec (  1.754%)

         :::::::::::::::::::::::::::::::::::::::::::::::::::::
         ::                     SUMMARY                     ::
         :::::::::::::::::::::::::::::::::::::::::::::::::::::
         :: total energy             -92.098727096134 Eh    ::
         :: gradient norm              0.003926713403 Eh/a0 ::
         :: HOMO-LUMO gap              0.088355981701 eV    ::
         ::.................................................::
         :: SCC energy               -92.775424800939 Eh    ::
         :: -> isotropic ES            0.899887032053 Eh    ::
         :: -> anisotropic ES         -0.434870336509 Eh    ::
         :: -> anisotropic XC         -0.070791955659 Eh    ::
         :: -> dispersion             -0.091478690562 Eh    ::
         :: repulsion energy           0.676697704805 Eh    ::
         :: add. restraining           0.000000000000 Eh    ::
         :: total charge              -0.000000000000 e     ::
         :::::::::::::::::::::::::::::::::::::::::::::::::::::

           -------------------------------------------------
          |                Property Printout                |
           -------------------------------------------------

    * Orbital Energies and Occupations

         #    Occupation            Energy/Eh            Energy/eV
      -------------------------------------------------------------
         1        2.0000           -0.8128569             -22.1190
       ...           ...                  ...                  ...
        68        2.0000           -0.3880667             -10.5598
        69        2.0000           -0.3790639             -10.3149
        70        2.0000           -0.3750234             -10.2049
        71        2.0000           -0.3667460              -9.9797
        72        2.0000           -0.3608304              -9.8187
        73        2.0000           -0.3523511              -9.5880
        74        2.0000           -0.3511827              -9.5562
        75        2.0000           -0.3445680              -9.3762
        76        2.0000           -0.3434834              -9.3467
        77        2.0000           -0.3374985              -9.1838
        78        2.0000           -0.3254072              -8.8548
        79        2.0000           -0.3179992              -8.6532
        80        1.6208           -0.3013783              -8.2009 (HOMO)
        81        0.2458           -0.2981313              -8.1126 (LUMO)
        82        0.1332           -0.2974905              -8.0951
        83        0.0002           -0.2912013              -7.9240
        84        0.0000           -0.2885174              -7.8510
        85                         -0.2652978              -7.2191
        86                         -0.2646047              -7.2003
        87                         -0.2642137              -7.1896
        88                         -0.2633251              -7.1654
        89                         -0.2617011              -7.1212
        90                         -0.2611086              -7.1051
        91                         -0.2596647              -7.0658
       ...                                ...                  ...
       192                         12.4216006             338.0090
      -------------------------------------------------------------
                  HL-Gap            0.0032470 Eh            0.0884 eV
             Fermi-level           -0.2999984 Eh           -8.1634 eV

     #   Z          covCN         q      C6AA      α(0)
     1  22 Ti       2.295     0.948   202.908    34.877
     2  22 Ti       7.099     1.562    83.955    14.876
     3  22 Ti       3.265     1.045   102.673    24.742
     4  22 Ti       6.107     1.366    85.803    15.039
     5  22 Ti       5.544     1.137    88.049    15.235
     6  22 Ti       3.499     1.049   102.470    24.690
     7  22 Ti       3.514     1.072   102.176    24.649
     8  22 Ti       6.778     1.541    84.146    14.893
     9  22 Ti       3.300     1.017   102.998    24.780
    10  22 Ti       5.418     1.154    87.876    15.220
    11  22 Ti       5.516     1.182    87.601    15.196
    12  22 Ti       3.564     1.016   102.669    24.681
    13   6 C        2.170    -0.270    38.679    10.057
    14   6 C        2.098    -0.256    38.511    10.027
    15   6 C        2.234    -0.030    30.991     9.016
    16   6 C        1.842    -0.216    37.520     9.895
    17   6 C        1.905    -0.230    37.929     9.946
    18   6 C        1.818    -0.341    41.979    10.469
    19   6 C        2.627    -0.388    39.336    10.259
    20   8 O        1.560    -0.880    33.047     7.756
    21   8 O        1.537    -0.859    32.390     7.677
    22   8 O        1.521    -0.941    35.142     7.996
    23   8 O        1.517    -1.021    38.038     8.318
    24   8 O        1.484    -0.916    34.329     7.899
    25   8 O        1.481    -0.837    31.796     7.602
    26   8 O        1.454    -0.797    30.642     7.460
    27   8 O        1.496    -0.922    34.510     7.921
    28   8 O        1.478    -0.873    32.941     7.738
    29   8 O        1.453    -0.803    30.827     7.483
    30   8 O        1.532    -0.940    35.064     7.988
    31   8 O        1.547    -0.988    36.746     8.178
    32   8 O        1.454    -0.791    30.473     7.440
    33   8 O        1.453    -0.791    30.474     7.440

 Mol. C6AA /au·bohr⁶  :      56776.084545
 Mol. C8AA /au·bohr⁸  :    3450971.105999
 Mol. α(0) /au        :        427.443361


Wiberg/Mayer (AO) data.
largest (>0.10) Wiberg bond orders for each atom

 ---------------------------------------------------------------------------
     #   Z sym  total        # sym  WBO       # sym  WBO       # sym  WBO
 ---------------------------------------------------------------------------
     1  22 Ti   2.157 --    21 O    0.863     7 Ti   0.256     2 Ti   0.219
                            20 O    0.180     6 Ti   0.172    25 O    0.155
                             4 Ti   0.136
     2  22 Ti   3.837 --    22 O    0.759    21 O    0.734    24 O    0.722
                            23 O    0.572     1 Ti   0.219     3 Ti   0.208
                             5 Ti   0.130
     3  22 Ti   2.625 --    29 O    0.915    22 O    0.610     9 Ti   0.300
                             2 Ti   0.208    27 O    0.114     7 Ti   0.107
     4  22 Ti   3.934 --    25 O    0.941    13 C    0.726    20 O    0.695
                            23 O    0.574     6 Ti   0.217    10 Ti   0.163
                             7 Ti   0.148     1 Ti   0.136
     5  22 Ti   4.021 --    19 C    0.845    26 O    0.777    17 C    0.734
                            24 O    0.651    11 Ti   0.272     6 Ti   0.169
                            14 C    0.142    18 C    0.142     2 Ti   0.130
     6  22 Ti   2.645 --    26 O    0.984    25 O    0.625     4 Ti   0.217
                             1 Ti   0.172     5 Ti   0.169    21 O    0.143
     7  22 Ti   2.669 --    20 O    0.795    27 O    0.722     1 Ti   0.256
                             8 Ti   0.192     4 Ti   0.148    22 O    0.132
                            30 O    0.109     3 Ti   0.107
     8  22 Ti   3.859 --    28 O    0.781    27 O    0.718    30 O    0.694
                            31 O    0.633     9 Ti   0.211     7 Ti   0.192
                            12 Ti   0.127    10 Ti   0.121
     9  22 Ti   2.716 --    29 O    0.872    28 O    0.773     3 Ti   0.300
                             8 Ti   0.211    11 Ti   0.166    12 Ti   0.121
    10  22 Ti   4.030 --    18 C    0.871    32 O    0.817    16 C    0.720
                            30 O    0.609    12 Ti   0.218     4 Ti   0.163
                            13 C    0.139     8 Ti   0.121    19 C    0.119
    11  22 Ti   4.100 --    33 O    0.992    14 C    0.676    19 C    0.627
                            31 O    0.530     5 Ti   0.272    12 Ti   0.219
                             9 Ti   0.166    18 C    0.122
    12  22 Ti   2.733 --    32 O    0.928    33 O    0.710    11 Ti   0.219
                            10 Ti   0.218    28 O    0.141     8 Ti   0.127
                             9 Ti   0.121
    13   6 C    3.840 --    16 C    2.749     4 Ti   0.726    10 Ti   0.139
    14   6 C    3.785 --    17 C    2.740    11 Ti   0.676     5 Ti   0.142
    15   6 C    3.977 --    18 C    2.055    19 C    1.566
    16   6 C    3.712 --    13 C    2.749    10 Ti   0.720
    17   6 C    3.746 --    14 C    2.740     5 Ti   0.734
    18   6 C    3.545 --    15 C    2.055    10 Ti   0.871     5 Ti   0.142
                            11 Ti   0.122
    19   6 C    3.573 --    15 C    1.566     5 Ti   0.845    11 Ti   0.627
                            10 Ti   0.119
    20   8 O    1.894 --     7 Ti   0.795     4 Ti   0.695     1 Ti   0.180
    21   8 O    1.920 --     1 Ti   0.863     2 Ti   0.734     6 Ti   0.143
    22   8 O    1.806 --     2 Ti   0.759     3 Ti   0.610     7 Ti   0.132
    23   8 O    1.701 --     4 Ti   0.574     2 Ti   0.572
    24   8 O    1.843 --     2 Ti   0.722     5 Ti   0.651
    25   8 O    1.951 --     4 Ti   0.941     6 Ti   0.625     1 Ti   0.155
    26   8 O    2.013 --     6 Ti   0.984     5 Ti   0.777
    27   8 O    1.834 --     7 Ti   0.722     8 Ti   0.718     3 Ti   0.114
    28   8 O    1.904 --     8 Ti   0.781     9 Ti   0.773    12 Ti   0.141
    29   8 O    2.005 --     3 Ti   0.915     9 Ti   0.872
    30   8 O    1.810 --     8 Ti   0.694    10 Ti   0.609     7 Ti   0.109
    31   8 O    1.747 --     8 Ti   0.633    11 Ti   0.530
    32   8 O    2.019 --    12 Ti   0.928    10 Ti   0.817
    33   8 O    2.019 --    11 Ti   0.992    12 Ti   0.710
 ---------------------------------------------------------------------------

Topologies differ in total number of bonds
Writing topology from bond orders to xtbtopo.mol

molecular dipole:
                 x           y           z       tot (Debye)
 q only:       -1.007      -3.212       1.721
   full:       -1.761      -2.897       1.161       9.107
molecular quadrupole (traceless):
                xx          xy          yy          xz          yz          zz
 q only:      -42.662      11.335      13.358     -43.056     -18.707      29.305
  q+dip:      -27.462      12.721      -1.419      -8.715     -11.811      28.881
   full:      -25.203      13.619       0.217     -10.015     -11.582      24.987

           -------------------------------------------------
          |                Geometry Summary                 |
           -------------------------------------------------

      molecular mass/u    :      882.4677597
   center of mass at/Å    :        0.0666085      -0.5155506       1.1368223
  moments of inertia/u·Å² :        0.5309559E+04   0.6960267E+04   0.7093347E+04
rotational constants/cm⁻¹ :        0.3174959E-02   0.2421981E-02   0.2376541E-02

 * 34 selected distances

     #   Z          #   Z                                           value/Å
     8  22 Ti       9  22 Ti                                      2.8220039 (max)
     4  22 Ti      13   6 C                                       2.0436426
    13   6 C       16   6 C                                       1.2395011 (min)
    14   6 C       17   6 C                                       1.2427488
    10  22 Ti      18   6 C                                       1.9851358
    15   6 C       18   6 C                                       1.2737276
     5  22 Ti      19   6 C                                       2.0360097
    15   6 C       19   6 C                                       1.3348512
     4  22 Ti      20   8 O                                       1.7962445
     7  22 Ti      20   8 O                                       1.7625138
     2  22 Ti      21   8 O                                       1.7367271
     2  22 Ti      22   8 O                                       1.7210384
     3  22 Ti      22   8 O                                       1.8090704
     2  22 Ti      23   8 O                                       1.7172374
     4  22 Ti      23   8 O                                       1.7409644
     2  22 Ti      24   8 O                                       1.7034356
     5  22 Ti      24   8 O                                       1.8013806
     4  22 Ti      25   8 O                                       1.7397579
     5  22 Ti      26   8 O                                       1.7685705
     6  22 Ti      26   8 O                                       1.7273065
     7  22 Ti      27   8 O                                       1.7676341
     8  22 Ti      27   8 O                                       1.7567594
     8  22 Ti      28   8 O                                       1.7524156
     9  22 Ti      28   8 O                                       1.8212173
     3  22 Ti      29   8 O                                       1.7484533
     9  22 Ti      29   8 O                                       1.7774421
     8  22 Ti      30   8 O                                       1.7211529
    10  22 Ti      30   8 O                                       1.8064601
     8  22 Ti      31   8 O                                       1.7220654
    11  22 Ti      31   8 O                                       1.7794005
    10  22 Ti      32   8 O                                       1.7730587
    12  22 Ti      32   8 O                                       1.7256579
    11  22 Ti      33   8 O                                       1.7280284
    12  22 Ti      33   8 O                                       1.8008234

 * 4 distinct bonds (by element types)

   Z      Z             #   av. dist./Å        max./Å        min./Å
   6 C    6 C           4     1.2727072     1.3348512     1.2395011
   6 C   22 Ti          3     2.0215961     2.0436426     1.9851358
   8 O   22 Ti         26     1.7578775     1.8212173     1.7034356
  22 Ti  22 Ti          1     2.8220039     2.8220039     2.8220039


optimized geometry written to: xtbopt.xyz


           -------------------------------------------------
          | TOTAL ENERGY              -92.098727096134 Eh   |
          | GRADIENT NORM               0.003926713403 Eh/α |
          | HOMO-LUMO GAP               0.088355981701 eV   |
           -------------------------------------------------

------------------------------------------------------------------------
 * finished run on 2026/09/02 at 20:12:02.549     
------------------------------------------------------------------------
 total:
 * wall-time:     0 d,  0 h,  0 min,  5.313 sec
 *  cpu-time:     0 d,  0 h,  0 min, 14.875 sec
 * ratio c/w:     2.800 speedup
 SCF:
 * wall-time:     0 d,  0 h,  0 min,  0.768 sec
 *  cpu-time:     0 d,  0 h,  0 min,  1.875 sec
 * ratio c/w:     2.441 speedup
 ANC optimizer:
 * wall-time:     0 d,  0 h,  0 min,  4.500 sec
 *  cpu-time:     0 d,  0 h,  0 min, 12.891 sec
 * ratio c/w:     2.865 speedup

