20
Drug frozen in complex geometry
C     -3.419073      0.510540      7.947212
N     -2.000015      0.261435      8.095739
C     -1.564272     -0.849550      8.795576
O     -2.219989     -1.718940      9.349553
N     -0.185462     -0.904129      8.821338
C      0.619414     -1.839835      9.407986
N      1.890713     -1.564469      9.225769
C      1.918800     -0.390275      8.483006
C      0.620430      0.026025      8.227975
N      0.067845      1.068628      7.572120
N     -1.176361      1.191558      7.502279
C      3.167038      0.253256      8.068098
O      4.283967     -0.179704      8.334842
N      3.048031      1.406356      7.339581
H     -4.016025     -0.261833      8.439486
H     -3.664608      0.526590      6.881230
H     -3.655010      1.481916      8.391764
H      0.222798     -2.690524      9.948496
H      2.158986      1.813889      7.087463
H      3.902795      1.859063      7.047842
