33
 energy: -92.087006888599 gnorm: 0.000794002468 xtb: 6.7.1pre (5071a88)
Ti          -1.58413876247486       -2.34830653434263        3.96105045747178
Ti           0.64221224206062       -1.76671449046381        2.19857059815696
Ti           1.57409461409527       -3.41288836275187       -0.09018948164187
Ti          -2.14548104206261       -0.00537955225448        2.31993335176074
Ti           2.71270843954381        0.45857323579099        2.18028264096329
Ti           0.26726594392916        0.83064404279992        4.03640047817306
Ti          -2.14842725086191       -3.26607157129050        0.67011521643190
Ti          -0.84311003996327       -1.08810858314626       -1.12147458786876
Ti           1.09451275182571       -2.10910918599698       -2.92546103123028
Ti          -2.07838656376375        1.48560513750540       -0.41861510812299
Ti           2.24261719676233        0.17156735605924       -0.76664753418109
Ti           0.23916218270367        1.52001161798942       -2.53750095976578
C           -3.59215844526118        1.26574554734768        1.60434557034791
C            4.17693612778448        0.16308046751499       -0.04875008443802
C            0.56156537030199        1.97237033794065        0.78513226086200
C           -3.75925441931971        2.00181332325217        0.61677415407680
C            4.47909300287743        0.42860030499188        1.12756647675164
C           -0.68092004289950        2.27301423410107        0.74715490302562
C            1.85725377299865        1.65479863101347        0.77702414074870
O           -2.83735770122958       -1.58546173603575        2.92870774761942
O            0.18066972647071       -2.22305995443767        3.83896333697196
O            0.53156847790228       -3.29318842784983        1.36716839091983
O           -0.62491484090201       -0.72487917482897        1.71133215334071
O            2.19966051519386       -1.20457856584320        1.77445293247262
O           -1.47181617079155        0.65243622502512        3.77509859243902
O            1.95624256813683        0.77903018208192        3.72419767369450
O           -1.11766523198648       -2.77685243685926       -0.70950475948068
O           -0.49516418514266       -1.22978264351015       -2.82801880411233
O            2.12902421888980       -2.76161180914025       -1.62664985235291
O           -2.22355184716550       -0.35234931164751       -0.37563925724383
O            0.67118911143898       -0.61118843898726       -0.48979459523243
O           -1.40377496081476        1.67986043056452       -2.02559445420441
O            1.90471168026926        0.91451787117196       -2.29948206832366
