20
Temozolomide frozen in true relaxed complex geometry
C            0.37574143997870        3.47052263047751        6.87365706300558
N           -0.05861289699722        2.08157514752532        6.91251617688266
C           -0.76462102784113        1.60213664011242        7.95711239594646
O           -1.21807529313305        2.26053744481694        8.86700477684295
N           -0.94204893955259        0.20227807625528        7.86007313910530
C           -1.78799478954382       -0.64955694863372        8.56256412355529
N           -1.58413946940636       -1.88611490927756        8.26961287484272
C           -0.52201196990346       -1.91956847414015        7.37865845068694
C           -0.11199505249828       -0.61197185700504        7.10851791317344
N            0.89606073493094       -0.08238924723672        6.35758188525504
N            0.67326754078213        1.29188343060159        5.97999312290167
C           -0.05320303585545       -3.09187674337642        6.65432325034910
O           -0.79176195145647       -4.03345121166153        6.30353928718134
N            1.25136274815043       -3.04837789243232        6.26095752966604
H           -0.17395382983022        4.03184485067612        7.62459297302382
H            0.17202894518834        3.86255938062717        5.87350503564593
H            1.44755229908041        3.52816117747704        7.07501620977757
H           -2.51152306885627       -0.27906967081682        9.26499874380217
H            1.77764282520952       -2.17225688212209        6.31953502096531
H            1.51191535303534       -3.74900610763686        5.58264452924472
