52
Drug@Ti12C7O14 non-overlapping complex
C     -2.660026      1.083236      8.204812
N     -1.546715      0.155903      8.221594
C     -0.251398      0.651647      8.180875
O      0.010210      1.840466      8.000625
N      0.699065     -0.318355      8.329750
C      0.401300     -1.598401      8.052111
N     -0.780726     -2.081537      7.950957
C     -1.822869     -1.205511      8.113599
O     -2.980652     -1.615227      8.133266
N      1.561239     -2.303231      7.846867
N      2.535386     -1.487112      7.902408
N      2.045423     -0.202789      8.079717
C      2.769122      0.626069      9.023642
H     -3.042819      1.145613      7.181230
H     -3.460994      0.721926      8.857180
H     -2.356411      2.080165      8.535949
H      2.661264      0.221434     10.034792
H      2.392819      1.651350      8.987410
H      3.826781      0.634355      8.743778
Ti     -2.141866     -3.008818      2.119748
Ti      0.288991     -1.694759      1.432425
Ti      1.903098     -3.067749     -0.729322
Ti     -2.521502     -0.251928      1.303687
Ti      2.142050      0.499533      2.204434
Ti     -0.681448      0.189635      3.681230
Ti     -2.036770     -3.077740     -1.200512
Ti     -0.605340     -0.770900     -2.035132
Ti      1.945488     -1.587317     -3.412400
Ti     -1.878170      1.746573     -1.240030
Ti      2.412512      0.454231     -0.774247
Ti      0.817742      1.838452     -2.940004
C     -3.678414      1.281398      0.600737
C      4.128193      0.482847      0.387293
C      0.455479      2.267202      0.349695
C     -3.666709      2.118834     -0.313920
C      4.115962      0.632239      1.621354
C     -0.635167      2.741046     -0.118921
C      1.630072      1.780996      0.734224
O     -3.093456     -1.956907      1.037949
O     -0.487250     -2.605849      2.701203
O      0.314079     -2.888890      0.145001
O     -0.800785     -0.435934      0.971227
O      1.902865     -1.158331      1.469449
O     -2.322673     -0.113878      3.024800
O      1.013786      0.441598      3.568761
O     -1.772019     -4.587905     -1.652810
O      0.190605     -1.189189     -3.534030
O      2.831420     -2.170248     -1.918042
O     -2.054558     -0.224445     -1.337505
O      0.768511     -0.390574     -1.063664
O     -0.900039      1.649313     -2.818565
O      2.415313      1.357463     -2.264115
