20
 energy: -41.590002086396 gnorm: 0.002022004801 xtb: 6.7.1pre (5071a88)
C            0.53619498297800        3.38865832404577        7.93079188368468
N            0.26963128436806        1.97538930810387        8.09039575742053
C           -0.85570698300847        1.57914847916002        8.79956683899792
O           -1.64140944222577        2.33520583655691        9.30126376650518
N           -0.94996406269042        0.19013186237465        8.85035552928375
C           -1.85426956491200       -0.65496773933428        9.41689128542905
N           -1.54357471151122       -1.89979422785582        9.21249512869251
C           -0.39744290636362       -1.93093758856532        8.48745827097081
C            0.01053090480244       -0.62698584472318        8.23772725753035
N            1.05131694779515       -0.08044090283578        7.58298162439938
N            1.16789981761205        1.15726669053228        7.51711371930088
C            0.25899441447600       -3.19657186545300        8.06427567106260
O           -0.16924920544010       -4.29470706959492        8.32814977318297
N            1.39106761182412       -2.98799136201258        7.34963052345019
H           -0.25300725816231        3.94323595481343        8.43344246090710
H            0.55454288595794        3.63916343456831        6.87090355286417
H            1.50307979924284        3.62962946392316        8.37069996421280
H           -2.70944401694494       -0.30652263609687        9.95993528454925
H            1.73267010401081       -2.06463451975000        7.13944870030760
H            1.89813639819148       -3.79427759785663        7.02382800724829
