      -----------------------------------------------------------      
     |                   =====================                   |     
     |                           x T B                           |     
     |                   =====================                   |     
     |                         S. Grimme                         |     
     |          Mulliken Center for Theoretical Chemistry        |     
     |                    University of Bonn                     |     
      -----------------------------------------------------------      

   * xtb version 6.7.1pre (5071a88) compiled by 'Marcel@Raven' on 2024-07-23

   xtb is free software: you can redistribute it and/or modify it under
   the terms of the GNU Lesser General Public License as published by
   the Free Software Foundation, either version 3 of the License, or
   (at your option) any later version.
   
   xtb is distributed in the hope that it will be useful,
   but WITHOUT ANY WARRANTY; without even the implied warranty of
   MERCHANTABILITY or FITNESS FOR A PARTICULAR PURPOSE.  See the
   GNU Lesser General Public License for more details.
   
   Cite this work as:
   * C. Bannwarth, E. Caldeweyher, S. Ehlert, A. Hansen, P. Pracht,
     J. Seibert, S. Spicher, S. Grimme, WIREs Comput. Mol. Sci., 2020, 11,
     e01493. DOI: 10.1002/wcms.1493
   
   for GFN2-xTB:
   * C. Bannwarth, S. Ehlert and S. Grimme., J. Chem. Theory Comput., 2019,
     15, 1652-1671. DOI: 10.1021/acs.jctc.8b01176
   for GFN1-xTB:
   * S. Grimme, C. Bannwarth, P. Shushkov, J. Chem. Theory Comput., 2017,
     13, 1989-2009. DOI: 10.1021/acs.jctc.7b00118
   for GFN0-xTB:
   * P. Pracht, E. Caldeweyher, S. Ehlert, S. Grimme, ChemRxiv, 2019, preprint.
     DOI: 10.26434/chemrxiv.8326202.v1
   for GFN-FF:
   * S. Spicher and S. Grimme, Angew. Chem. Int. Ed., 2020, 59, 15665-15673.
     DOI: 10.1002/anie.202004239
   
   for ALPB and GBSA implicit solvation:
   * S. Ehlert, M. Stahn, S. Spicher, S. Grimme, J. Chem. Theory Comput.,
     2021, 17, 4250-4261. DOI: 10.1021/acs.jctc.1c00471
   
   for ddCOSMO and CPCM-X implicit solvation:
   * M. Stahn, S. Ehlert, S. Grimme, J. Phys. Chem. A,
     2023, XX, XXXX-XXXX. DOI: 10.1021/acs.jpca.3c04382
   
   for DFT-D4:
   * E. Caldeweyher, C. Bannwarth and S. Grimme, J. Chem. Phys., 2017,
     147, 034112. DOI: 10.1063/1.4993215
   * E. Caldeweyher, S. Ehlert, A. Hansen, H. Neugebauer, S. Spicher,
     C. Bannwarth and S. Grimme, J. Chem. Phys., 2019, 150, 154122.
     DOI: 10.1063/1.5090222
   * E. Caldeweyher, J.-M. Mewes, S. Ehlert and S. Grimme, Phys. Chem. Chem. Phys.
     2020, 22, 8499-8512. DOI: 10.1039/D0CP00502A
   
   for sTDA-xTB:
   * S. Grimme and C. Bannwarth, J. Chem. Phys., 2016, 145, 054103.
     DOI: 10.1063/1.4959605
   
   in the mass-spec context:
   * V. Asgeirsson, C. Bauer and S. Grimme, Chem. Sci., 2017, 8, 4879.
     DOI: 10.1039/c7sc00601b
   * J. Koopman and S. Grimme, ACS Omega 2019, 4, 12, 15120-15133.
     DOI: 10.1021/acsomega.9b02011
   
   for metadynamics refer to:
   * S. Grimme, J. Chem. Theory Comput., 2019, 155, 2847-2862
     DOI: 10.1021/acs.jctc.9b00143
   
   for SPH calculations refer to:
   * S. Spicher and S. Grimme, J. Chem. Theory Comput., 2021, 17, 1701-1714
     DOI: 10.1021/acs.jctc.0c01306
   
   for ONIOM refer to:
   * C. Plett, A. Katbashev, S. Ehlert, S. Grimme, M. Bursch,
     Phys. Chem. Chem. Phys., 2023, 25, 17860-17868. DOI: 10.1039/D3CP02178E
   
   for DIPRO refer to:
   * J. Kohn, N. Gildemeister, S. Grimme, D. Fazzi, A. Hansen,
     J. Chem. Phys., 2023, just accepted.
   
   for PTB refer to:
   * S. Grimme, M. Mueller, A. Hansen, J. Chem. Phys., 2023, 158, 124111.
     DOI: 10.1063/5.0137838
   
   with help from (in alphabetical order)
   P. Atkinson, C. Bannwarth, F. Bohle, G. Brandenburg, E. Caldeweyher
   M. Checinski, S. Dohm, S. Ehlert, S. Ehrlich, I. Gerasimov, C. Hölzer
   A. Katbashev, J. Kohn, J. Koopman, C. Lavigne, S. Lehtola, F. März, M. Müller,
   F. Musil, H. Neugebauer, J. Pisarek, C. Plett, P. Pracht, F. Pultar,
   J. Seibert, P. Shushkov, S. Spicher, M. Stahn, M. Steiner, T. Strunk,
   J. Stückrath, T. Rose, and J. Unsleber
   
 * started run on 2026/09/01 at 17:02:43.754     
   ID    Z sym.   atoms
    1    6 C      1, 3, 6, 8, 9, 12, 33-39
    2    7 N      2, 5, 7, 10, 11, 14
    3    8 O      4, 13, 40-53
    4    1 H      15-20
    5   22 Ti     21-32

           -------------------------------------------------
          |                Calculation Setup                |
           -------------------------------------------------

          program call               : "c:\Users\Andre\Proyectos doctorado\nano-qsar-ai-papers\kras-pancreatic-gC3N4-ai\tools\xtb\xtb-6.7.1\bin\xtb.exe" "c:\Users\Andre\Proyectos doctorado\nano-qsar-ai-papers\mxene-glioblastoma-qsar-ai\calculations\gbm\Temozolomide\Temozolomide_opt_orient_0deg.xyz" --opt vloose --gfn 2 --chrg 0 --uhf 0 --iterations 500 --cycles 40 --norestart
          coordinate file            : c:\Users\Andre\Proyectos doctorado\nano-qsar-ai-papers\mxene-glioblastoma-qsar-ai\calculations\gbm\Temozolomide\Temozolomide_opt_orient_0deg.xyz
          omp threads                :                    16


molecular fragmentation (1/2 indicates fragments):
11111111111111111111222222222222222222222222222222222
# atoms in fragment 1/2:    20    33
 fragment masses (1/2) :      194.15      882.47
CMA distance (Bohr)    :  15.966
constraining FC (au)   :  0.0500

           -------------------------------------------------
          |                 G F N 2 - x T B                 |
           -------------------------------------------------

        Reference                      10.1021/acs.jctc.8b01176
      * Hamiltonian:
        H0-scaling (s, p, d)           1.850000    2.230000    2.230000
        zeta-weighting                 0.500000
      * Dispersion:
        s8                             2.700000
        a1                             0.520000
        a2                             5.000000
        s9                             5.000000
      * Repulsion:
        kExp                           1.500000    1.000000
        rExp                           1.000000
      * Coulomb:
        alpha                          2.000000
        third order                    shell-resolved
        anisotropic                    true
        a3                             3.000000
        a5                             4.000000
        cn-shift                       1.200000
        cn-exp                         4.000000
        max-rad                        5.000000


          ...................................................
          :                      SETUP                      :
          :.................................................:
          :  # basis functions                 266          :
          :  # atomic orbitals                 254          :
          :  # shells                          112          :
          :  # electrons                       232          :
          :  max. iterations                   500          :
          :  Hamiltonian                  GFN2-xTB          :
          :  restarted?                      false          :
          :  GBSA solvation                  false          :
          :  PC potential                    false          :
          :  electronic temp.          300.0000000     K    :
          :  accuracy                    1.0000000          :
          :  -> integral cutoff          0.2500000E+02      :
          :  -> integral neglect         0.1000000E-07      :
          :  -> SCF convergence          0.1000000E-05 Eh   :
          :  -> wf. convergence          0.1000000E-03 e    :
          :  Broyden damping             0.4000000          :
          :  net charge                          0          :
          :  unpaired electrons                  0          :
          ...................................................

 iter      E             dE          RMSdq      gap      omega  full diag
   1   -132.5103547 -0.132510E+03  0.161E+01    0.02       0.0  T
   2   -112.6952113  0.198151E+02  0.143E+01    0.02       1.0  T
   3    -25.0594596  0.876358E+02  0.308E+01    0.13       1.0  T
   4   -128.4456041 -0.103386E+03  0.128E+01    0.00       1.0  T
   5   -133.8372021 -0.539160E+01  0.794E+00    0.62       1.0  T
   6   -134.3050616 -0.467860E+00  0.629E+00    0.76       1.0  T
   7   -134.1954357  0.109626E+00  0.545E+00    0.02       1.0  T
   8   -134.2646424 -0.692067E-01  0.510E+00    0.69       1.0  T
   9   -134.3859639 -0.121321E+00  0.350E+00    0.10       1.0  T
  10   -132.8544252  0.153154E+01  0.572E+00    0.01       1.0  T
  11   -133.5772617 -0.722836E+00  0.471E+00    0.18       1.0  T
  12   -133.5021482  0.751136E-01  0.468E+00    0.12       1.0  T
  13   -133.3879746  0.114174E+00  0.450E+00    0.08       1.0  T
  14   -133.3983438 -0.103692E-01  0.558E+00    0.01       1.0  T
  15   -134.2079273 -0.809584E+00  0.368E+00    0.06       1.0  T
  16   -134.5728070 -0.364880E+00  0.319E+00    0.36       1.0  T
  17   -134.5919942 -0.191872E-01  0.289E+00    0.43       1.0  T
  18   -134.6098987 -0.179045E-01  0.246E+00    0.49       1.0  T
  19   -134.6563783 -0.464795E-01  0.199E+00    0.26       1.0  T
  20   -134.3564073  0.299971E+00  0.232E+00    0.04       1.0  T
  21   -134.6842272 -0.327820E+00  0.160E+00    0.13       1.0  T
  22   -134.6946271 -0.103999E-01  0.134E+00    0.11       1.0  T
  23   -134.7244944 -0.298673E-01  0.107E+00    0.22       1.0  T
  24   -134.7300837 -0.558928E-02  0.954E-01    0.35       1.0  T
  25   -134.7360739 -0.599023E-02  0.789E-01    0.57       1.0  T
  26   -134.7412722 -0.519830E-02  0.574E-01    0.68       1.0  T
  27   -134.7422709 -0.998695E-03  0.531E-01    0.71       1.0  T
  28   -134.7433595 -0.108854E-02  0.435E-01    0.63       1.0  T
  29   -134.7435043 -0.144854E-03  0.378E-01    0.58       1.0  T
  30   -134.7442758 -0.771471E-03  0.341E-01    0.47       1.0  T
  31   -134.7452467 -0.970895E-03  0.298E-01    0.31       1.0  T
  32   -134.7468750 -0.162833E-02  0.252E-01    0.21       1.0  T
  33   -134.7480845 -0.120950E-02  0.224E-01    0.17       1.0  T
  34   -134.7484801 -0.395585E-03  0.240E-01    0.14       1.0  T
  35   -134.7388737  0.960641E-02  0.427E-01    0.08       1.0  T
  36   -134.7370231  0.185062E-02  0.455E-01    0.08       1.0  T
  37   -134.7263568  0.106662E-01  0.572E-01    0.06       1.0  T
  38   -134.7455930 -0.192361E-01  0.274E-01    0.10       1.0  T
  39   -134.7485668 -0.297384E-02  0.166E-01    0.11       1.0  T
  40   -134.7496350 -0.106817E-02  0.883E-02    0.12       1.0  T
  41   -134.7496979 -0.629218E-04  0.641E-02    0.15       1.0  T
  42   -134.7493074  0.390492E-03  0.940E-02    0.16       1.0  T
  43   -134.7495797 -0.272241E-03  0.721E-02    0.15       1.0  T
  44   -134.7499080 -0.328365E-03  0.359E-02    0.14       1.0  T
  45   -134.7499966 -0.885346E-04  0.162E-02    0.13       1.0  T
  46   -134.7499957  0.875170E-06  0.145E-02    0.13       1.0  T
  47   -134.7500001 -0.439225E-05  0.121E-02    0.13       1.1  T
  48   -134.7499966  0.350762E-05  0.133E-02    0.13       1.0  T
  49   -134.7500002 -0.362207E-05  0.102E-02    0.13       1.3  T
  50   -134.7500018 -0.161596E-05  0.816E-03    0.13       1.7  T
  51   -134.7500020 -0.204909E-06  0.756E-03    0.13       1.8  T
  52   -134.7500017  0.318051E-06  0.728E-03    0.13       1.9  T
  53   -134.7500007  0.103409E-05  0.746E-03    0.13       1.8  T
  54   -134.7500005  0.110790E-06  0.657E-03    0.13       2.1  T
  55   -134.7500031 -0.251075E-05  0.238E-03    0.13       5.8  T
  56   -134.7500034 -0.292286E-06  0.110E-03    0.13      12.5  T
  57   -134.7500033  0.560626E-07  0.127E-03    0.13      10.8  T
  58   -134.7500034 -0.749183E-07  0.437E-04    0.13      31.4  T
  59   -134.7500034 -0.270856E-08  0.251E-04    0.13      54.7  T

   *** convergence criteria satisfied after 59 iterations ***

         #    Occupation            Energy/Eh            Energy/eV
      -------------------------------------------------------------
         1        2.0000           -0.8319595             -22.6388
       ...           ...                  ...                  ...
       110        2.0000           -0.3703174             -10.0769
       111        2.0000           -0.3615593              -9.8385
       112        2.0000           -0.3582015              -9.7472
       113        2.0000           -0.3545263              -9.6472
       114        2.0000           -0.3472691              -9.4497
       115        2.0000           -0.3371847              -9.1753
       116        1.8555           -0.3237931              -8.8109 (HOMO)
       117        0.1445           -0.3189425              -8.6789 (LUMO)
       118                         -0.2957619              -8.0481
       119                         -0.2941819              -8.0051
       120                         -0.2930863              -7.9753
       121                         -0.2925628              -7.9610
       ...                                ...                  ...
       254                         13.4131217             364.9896
      -------------------------------------------------------------
                  HL-Gap            0.0048506 Eh            0.1320 eV
             Fermi-level           -0.3213678 Eh           -8.7449 eV

 SCC (total)                   0 d,  0 h,  0 min, 16.264 sec
 SCC setup                      ...        0 min,  0.006 sec (  0.037%)
 Dispersion                     ...        0 min,  0.021 sec (  0.129%)
 classical contributions        ...        0 min,  0.016 sec (  0.098%)
 integral evaluation            ...        0 min,  0.023 sec (  0.141%)
 iterations                     ...        0 min, 16.049 sec ( 98.678%)
 molecular gradient             ...        0 min,  0.142 sec (  0.873%)
 printout                       ...        0 min,  0.007 sec (  0.043%)

         :::::::::::::::::::::::::::::::::::::::::::::::::::::
         ::                     SUMMARY                     ::
         :::::::::::::::::::::::::::::::::::::::::::::::::::::
         :: total energy            -133.629989085005 Eh    ::
         :: gradient norm              0.075444548679 Eh/a0 ::
         :: HOMO-LUMO gap              0.131992326283 eV    ::
         ::.................................................::
         :: SCC energy              -134.747570617027 Eh    ::
         :: -> isotropic ES            0.983771651328 Eh    ::
         :: -> anisotropic ES         -0.368788819711 Eh    ::
         :: -> anisotropic XC         -0.042589654310 Eh    ::
         :: -> dispersion             -0.111871674607 Eh    ::
         :: repulsion energy           1.117581532022 Eh    ::
         :: add. restraining           0.000000000000 Eh    ::
         :: total charge              -0.000000000000 e     ::
         :::::::::::::::::::::::::::::::::::::::::::::::::::::

      ----------------------------------------------------------- 
     |                   =====================                   |
     |                        A N C O P T                        |
     |                   =====================                   |
     |               Approximate Normal Coordinate               |
     |                Rational Function Optimizer                |
      ----------------------------------------------------------- 
      ----------------------------------------------------------- 
     |                   =====================                   |
     |                        A N C O P T                        |
     |                   =====================                   |
     |               Approximate Normal Coordinate               |
     |                Rational Function Optimizer                |
      ----------------------------------------------------------- 

          ...................................................
          :                      SETUP                      :
          :.................................................:
          :   optimization level            normal          :
          :   max. optcycles                    40          :
          :   ANC micro-cycles                  20          :
          :   degrees of freedom               153          :
          :.................................................:
          :   RF solver                   davidson          :
          :   write xtbopt.log                true          :
          :   linear?                        false          :
          :   energy convergence         0.5000000E-05 Eh   :
          :   grad. convergence          0.1000000E-02 Eh/α :
          :   maxmium RF displ.          1.0000000          :
          :   Hlow (freq-cutoff)         0.1000000E-01      :
          :   Hmax (freq-cutoff)         5.0000000          :
          :   S6 in model hess.         20.0000000          :
          ...................................................

generating ANC from exact Hessian ...
Using Lindh-Hessian (1995)
 Shifting diagonal of input Hessian by   1.791459823251744E-002
 Lowest  eigenvalues of input Hessian
    0.010000    0.017276    0.017393    0.017431    0.000000    0.000000
    0.000000    0.000000    0.000000    0.000000    0.018010    0.018021
    0.018174    0.018355    0.018851    0.019046    0.019764    0.020026
 Highest eigenvalues
    2.091552    2.197002    2.262055    2.328245    2.431799    2.548152
 

........................................................................
.............................. CYCLE    1 ..............................
........................................................................

 iter      E             dE          RMSdq      gap      omega  full diag
   1   -134.7500034 -0.134750E+03  0.211E-04    0.13       0.0  T
   2   -134.7500032  0.161028E-06  0.139E-03    0.13       9.9  T
   3   -134.7500034 -0.156754E-06  0.420E-04    0.13      32.7  T
   4   -134.7500034  0.151600E-07  0.555E-04    0.13      24.7  T
     SCC iter.                  ...        0 min,  0.958 sec
     gradient                   ...        0 min,  0.166 sec
 * total energy  :  -133.6299891 Eh     change        0.1929345E-07 Eh
   gradient norm :     0.0754393 Eh/α   predicted     0.0000000E+00 (-100.00%)
   displ. norm   :     0.2520646 α      lambda       -0.7910792E-02
   maximum displ.:     0.0859899 α      in ANC's #11, #70, #60, ...

........................................................................
.............................. CYCLE    2 ..............................
........................................................................

 iter      E             dE          RMSdq      gap      omega  full diag
   1   -134.7540639 -0.134754E+03  0.461E-01    0.08       0.0  T
   2   -134.7345917  0.194722E-01  0.784E-01    1.01       1.0  T
   3   -134.7582846 -0.236930E-01  0.374E-01    0.57       1.0  T
   4   -134.7620709 -0.378626E-02  0.251E-01    0.24       1.0  T
   5   -134.7339057  0.281651E-01  0.573E-01    0.06       1.0  T
   6   -134.7615193 -0.276136E-01  0.240E-01    0.26       1.0  T
   7   -134.7648899 -0.337055E-02  0.125E-01    0.17       1.0  T
   8   -134.7658042 -0.914285E-03  0.672E-02    0.12       1.0  T
   9   -134.7661727 -0.368506E-03  0.110E-02    0.13       1.3  T
  10   -134.7661655  0.719891E-05  0.126E-02    0.13       1.1  T
  11   -134.7661600  0.550068E-05  0.141E-02    0.13       1.0  T
  12   -134.7661710 -0.110022E-04  0.826E-03    0.13       1.7  T
  13   -134.7661750 -0.401350E-05  0.419E-03    0.13       3.3  T
  14   -134.7661735  0.150373E-05  0.562E-03    0.13       2.4  T
  15   -134.7661762 -0.269277E-05  0.992E-04    0.13      13.8  T
  16   -134.7661757  0.488999E-06  0.246E-03    0.13       5.6  T
  17   -134.7661761 -0.470446E-06  0.654E-04    0.13      21.0  T
  18   -134.7661762 -0.245536E-07  0.355E-04    0.13      38.7  T
     SCC iter.                  ...        0 min,  4.750 sec
     gradient                   ...        0 min,  0.133 sec
 * total energy  :  -133.6353521 Eh     change       -0.5363067E-02 Eh
   gradient norm :     0.0333090 Eh/α   predicted    -0.4209559E-02 ( -21.51%)
   displ. norm   :     0.3418382 α      lambda       -0.4803473E-02
   maximum displ.:     0.1356605 α      in ANC's #7, #5, #6, ...

........................................................................
.............................. CYCLE    3 ..............................
........................................................................

 iter      E             dE          RMSdq      gap      omega  full diag
   1   -134.7810028 -0.134781E+03  0.345E-01    0.14       0.0  T
   2   -134.7805563  0.446555E-03  0.153E-01    0.12       1.0  T
   3   -134.7727916  0.776471E-02  0.324E-01    0.35       1.0  T
   4   -134.7804753 -0.768370E-02  0.110E-01    0.12       1.0  T
   5   -134.7792668  0.120852E-02  0.156E-01    0.18       1.0  T
   6   -134.7812378 -0.197103E-02  0.372E-02    0.14       1.0  T
   7   -134.7811691  0.687078E-04  0.402E-02    0.13       1.0  T
   8   -134.7812915 -0.122428E-03  0.131E-02    0.13       1.1  T
   9   -134.7812776  0.138781E-04  0.164E-02    0.13       1.0  T
  10   -134.7812948 -0.171684E-04  0.574E-03    0.13       2.4  T
  11   -134.7812959 -0.114701E-05  0.349E-03    0.13       3.9  T
  12   -134.7812937  0.223808E-05  0.590E-03    0.13       2.3  T
  13   -134.7812964 -0.264883E-05  0.142E-03    0.13       9.7  T
  14   -134.7812964 -0.128052E-07  0.118E-03    0.13      11.7  T
  15   -134.7812964 -0.576653E-07  0.784E-04    0.13      17.5  T
  16   -134.7812964 -0.266205E-07  0.354E-04    0.13      38.8  T
     SCC iter.                  ...        0 min,  4.738 sec
     gradient                   ...        0 min,  0.177 sec
 * total energy  :  -133.6375042 Eh     change       -0.2152090E-02 Eh
   gradient norm :     0.0222077 Eh/α   predicted    -0.2682396E-02 (  24.64%)
   displ. norm   :     0.3034099 α      lambda       -0.2069853E-02
   maximum displ.:     0.1552243 α      in ANC's #1, #7, #5, ...

........................................................................
.............................. CYCLE    4 ..............................
........................................................................

 iter      E             dE          RMSdq      gap      omega  full diag
   1   -134.7766429 -0.134777E+03  0.405E-01    0.11       0.0  T
   2   -134.7680137  0.862924E-02  0.375E-01    0.44       1.0  T
   3   -134.1907827  0.577231E+00  0.243E+00    0.11       1.0  T
   4   -134.7734223 -0.582640E+00  0.330E-01    0.29       1.0  T
   5   -134.7716596  0.176270E-02  0.275E-01    0.33       1.0  T
   6   -134.7730496 -0.139002E-02  0.264E-01    0.28       1.0  T
   7   -134.7734801 -0.430539E-03  0.236E-01    0.25       1.0  T
   8   -134.7746706 -0.119049E-02  0.203E-01    0.21       1.0  T
   9   -134.7766411 -0.197045E-02  0.127E-01    0.17       1.0  T
  10   -134.7779620 -0.132092E-02  0.341E-02    0.14       1.0  T
  11   -134.7780246 -0.626358E-04  0.195E-02    0.13       1.0  T
  12   -134.7780091  0.155687E-04  0.234E-02    0.13       1.0  T
  13   -134.7780479 -0.388326E-04  0.103E-02    0.13       1.3  T
  14   -134.7780461  0.179988E-05  0.113E-02    0.13       1.2  T
  15   -134.7780566 -0.105542E-04  0.272E-03    0.13       5.0  T
  16   -134.7780571 -0.427913E-06  0.149E-03    0.13       9.2  T
  17   -134.7780572 -0.104669E-06  0.898E-04    0.13      15.3  T
  18   -134.7780572  0.105129E-07  0.914E-04    0.13      15.0  T
     SCC iter.                  ...        0 min,  5.732 sec
     gradient                   ...        0 min,  0.300 sec
 * total energy  :  -133.6379966 Eh     change       -0.4923405E-03 Eh
   gradient norm :     0.0237177 Eh/α   predicted    -0.1130211E-02 ( 129.56%)
   displ. norm   :     0.4569286 α      lambda       -0.3935781E-02
   maximum displ.:     0.2037172 α      in ANC's #7, #1, #5, ...

........................................................................
.............................. CYCLE    5 ..............................
........................................................................

 iter      E             dE          RMSdq      gap      omega  full diag
   1   -134.7421126 -0.134742E+03  0.730E-01    0.06       0.0  T
   2   -134.7148825  0.272301E-01  0.104E+00    1.04       1.0  T
   3   -134.7534439 -0.385615E-01  0.485E-01    0.65       1.0  T
   4   -134.7603414 -0.689753E-02  0.270E-01    0.19       1.0  T
   5   -134.4148268  0.345515E+00  0.188E+00    0.05       1.0  T
   6   -134.7554095 -0.340583E+00  0.324E-01    0.36       1.0  T
   7   -134.7566650 -0.125551E-02  0.283E-01    0.29       1.0  T
   8   -134.7581393 -0.147426E-02  0.245E-01    0.23       1.0  T
   9   -134.7608136 -0.267426E-02  0.162E-01    0.18       1.0  T
  10   -134.7629405 -0.212695E-02  0.404E-02    0.13       1.0  T
  11   -134.7630148 -0.742827E-04  0.255E-02    0.12       1.0  T
  12   -134.7630569 -0.421136E-04  0.120E-02    0.12       1.1  T
  13   -134.7630547  0.223246E-05  0.121E-02    0.12       1.1  T
  14   -134.7630604 -0.569610E-05  0.927E-03    0.12       1.5  T
  15   -134.7630666 -0.623857E-05  0.289E-03    0.13       4.8  T
  16   -134.7630653  0.129599E-05  0.449E-03    0.13       3.1  T
  17   -134.7630655 -0.207079E-06  0.404E-03    0.13       3.4  T
  18   -134.7630660 -0.485617E-06  0.329E-03    0.13       4.2  T
  19   -134.7630665 -0.472934E-06  0.238E-03    0.13       5.8  T
  20   -134.7630668 -0.355175E-06  0.125E-03    0.13      11.0  T
  21   -134.7630670 -0.124087E-06  0.245E-04    0.13      56.1  T
  22   -134.7630669  0.890662E-07  0.101E-03    0.13      13.5  T
  23   -134.7630670 -0.904646E-07  0.795E-05    0.13     172.8  T
     SCC iter.                  ...        0 min,  6.789 sec
     gradient                   ...        0 min,  0.119 sec
 * total energy  :  -133.6382668 Eh     change       -0.2702583E-03 Eh
   gradient norm :     0.0254112 Eh/α   predicted    -0.2378786E-02 ( 780.19%)
   displ. norm   :     0.2173784 α      lambda       -0.3331230E-02
   maximum displ.:     0.0771769 α      in ANC's #7, #28, #12, ...

........................................................................
.............................. CYCLE    6 ..............................
........................................................................

 iter      E             dE          RMSdq      gap      omega  full diag
   1   -134.7677169 -0.134768E+03  0.389E-01    0.16       0.0  T
   2   -134.0581542  0.709563E+00  0.270E+00    0.23       1.0  T
   3   -134.7668197 -0.708665E+00  0.200E-01    0.19       1.0  T
   4   -134.7675875 -0.767763E-03  0.156E-01    0.17       1.0  T
   5   -134.7684675 -0.879972E-03  0.124E-01    0.16       1.0  T
   6   -134.7685862 -0.118759E-03  0.104E-01    0.16       1.0  T
   7   -134.7693766 -0.790427E-03  0.484E-02    0.14       1.0  T
   8   -134.7694228 -0.461988E-04  0.355E-02    0.14       1.0  T
   9   -134.7695316 -0.108720E-03  0.715E-03    0.13       1.9  T
  10   -134.7695292  0.231814E-05  0.872E-03    0.13       1.6  T
  11   -134.7695279  0.132801E-05  0.875E-03    0.13       1.6  T
  12   -134.7695326 -0.464203E-05  0.454E-03    0.13       3.0  T
  13   -134.7695340 -0.145583E-05  0.139E-03    0.13       9.9  T
  14   -134.7695341 -0.714278E-07  0.573E-04    0.13      24.0  T
  15   -134.7695341  0.234773E-07  0.621E-04    0.13      22.1  T
     SCC iter.                  ...        0 min,  4.272 sec
     gradient                   ...        0 min,  0.129 sec
 * total energy  :  -133.6402641 Eh     change       -0.1997260E-02 Eh
   gradient norm :     0.0125487 Eh/α   predicted    -0.1744322E-02 ( -12.66%)
   displ. norm   :     0.3770585 α      lambda       -0.2059338E-02
   maximum displ.:     0.2210999 α      in ANC's #7, #5, #6, ...

........................................................................
.............................. CYCLE    7 ..............................
........................................................................

 iter      E             dE          RMSdq      gap      omega  full diag
   1   -134.7754457 -0.134775E+03  0.278E-01    0.11       0.0  T
   2   -134.7660314  0.941438E-02  0.349E-01    0.38       1.0  T
   3   -134.5041592  0.261872E+00  0.166E+00    0.04       1.0  T
   4   -134.7726958 -0.268537E+00  0.276E-01    0.22       1.0  T
   5   -134.7708108  0.188502E-02  0.254E-01    0.26       1.0  T
   6   -134.7719683 -0.115747E-02  0.237E-01    0.23       1.0  T
   7   -134.7724250 -0.456746E-03  0.216E-01    0.22       1.0  T
   8   -134.7738979 -0.147285E-02  0.171E-01    0.19       1.0  T
   9   -134.7751329 -0.123502E-02  0.118E-01    0.16       1.0  T
  10   -134.7761530 -0.102011E-02  0.479E-02    0.14       1.0  T
  11   -134.7763310 -0.178042E-03  0.160E-02    0.13       1.0  T
  12   -134.7763505 -0.194089E-04  0.284E-03    0.13       4.8  T
  13   -134.7763498  0.632173E-06  0.329E-03    0.13       4.2  T
  14   -134.7763490  0.807273E-06  0.436E-03    0.13       3.2  T
  15   -134.7763490  0.296465E-07  0.435E-03    0.13       3.2  T
  16   -134.7763503 -0.127130E-05  0.200E-03    0.13       6.9  T
  17   -134.7763506 -0.327292E-06  0.368E-04    0.13      37.3  T
  18   -134.7763503  0.269141E-06  0.177E-03    0.13       7.7  T
  19   -134.7763506 -0.249217E-06  0.541E-04    0.13      25.4  T
     SCC iter.                  ...        0 min,  4.568 sec
     gradient                   ...        0 min,  0.154 sec
 * total energy  :  -133.6415401 Eh     change       -0.1275978E-02 Eh
   gradient norm :     0.0097104 Eh/α   predicted    -0.1176063E-02 (  -7.83%)
   displ. norm   :     0.6084030 α      lambda       -0.1981759E-02
   maximum displ.:     0.3799383 α      in ANC's #7, #5, #6, ...

........................................................................
.............................. CYCLE    8 ..............................
........................................................................

 iter      E             dE          RMSdq      gap      omega  full diag
   1   -134.7750706 -0.134775E+03  0.316E-01    0.11       0.0  T
   2   -134.7644212  0.106495E-01  0.380E-01    0.45       1.0  T
   3   -134.5368636  0.227558E+00  0.156E+00    0.04       1.0  T
