19
Temozolomide - ETKDG+MMFF conformer
C     -2.660026      1.083236     -0.131007
N     -1.546715      0.155903     -0.114225
C     -0.251398      0.651647     -0.154944
O      0.010210      1.840466     -0.335194
N      0.699065     -0.318355     -0.006069
C      0.401300     -1.598401     -0.283708
N     -0.780726     -2.081537     -0.384862
C     -1.822869     -1.205511     -0.222220
O     -2.980652     -1.615227     -0.202553
N      1.561239     -2.303231     -0.488952
N      2.535386     -1.487112     -0.433411
N      2.045423     -0.202789     -0.256102
C      2.769122      0.626069      0.687823
H     -3.042819      1.145613     -1.154589
H     -3.460994      0.721926      0.521361
H     -2.356411      2.080165      0.200130
H      2.661264      0.221434      1.698973
H      2.392819      1.651350      0.651591
H      3.826781      0.634355      0.407959
