      -----------------------------------------------------------      
     |                   =====================                   |     
     |                           x T B                           |     
     |                   =====================                   |     
     |                         S. Grimme                         |     
     |          Mulliken Center for Theoretical Chemistry        |     
     |                    University of Bonn                     |     
      -----------------------------------------------------------      

   * xtb version 6.7.1pre (5071a88) compiled by 'Marcel@Raven' on 2024-07-23

   xtb is free software: you can redistribute it and/or modify it under
   the terms of the GNU Lesser General Public License as published by
   the Free Software Foundation, either version 3 of the License, or
   (at your option) any later version.
   
   xtb is distributed in the hope that it will be useful,
   but WITHOUT ANY WARRANTY; without even the implied warranty of
   MERCHANTABILITY or FITNESS FOR A PARTICULAR PURPOSE.  See the
   GNU Lesser General Public License for more details.
   
   Cite this work as:
   * C. Bannwarth, E. Caldeweyher, S. Ehlert, A. Hansen, P. Pracht,
     J. Seibert, S. Spicher, S. Grimme, WIREs Comput. Mol. Sci., 2020, 11,
     e01493. DOI: 10.1002/wcms.1493
   
   for GFN2-xTB:
   * C. Bannwarth, S. Ehlert and S. Grimme., J. Chem. Theory Comput., 2019,
     15, 1652-1671. DOI: 10.1021/acs.jctc.8b01176
   for GFN1-xTB:
   * S. Grimme, C. Bannwarth, P. Shushkov, J. Chem. Theory Comput., 2017,
     13, 1989-2009. DOI: 10.1021/acs.jctc.7b00118
   for GFN0-xTB:
   * P. Pracht, E. Caldeweyher, S. Ehlert, S. Grimme, ChemRxiv, 2019, preprint.
     DOI: 10.26434/chemrxiv.8326202.v1
   for GFN-FF:
   * S. Spicher and S. Grimme, Angew. Chem. Int. Ed., 2020, 59, 15665-15673.
     DOI: 10.1002/anie.202004239
   
   for ALPB and GBSA implicit solvation:
   * S. Ehlert, M. Stahn, S. Spicher, S. Grimme, J. Chem. Theory Comput.,
     2021, 17, 4250-4261. DOI: 10.1021/acs.jctc.1c00471
   
   for ddCOSMO and CPCM-X implicit solvation:
   * M. Stahn, S. Ehlert, S. Grimme, J. Phys. Chem. A,
     2023, XX, XXXX-XXXX. DOI: 10.1021/acs.jpca.3c04382
   
   for DFT-D4:
   * E. Caldeweyher, C. Bannwarth and S. Grimme, J. Chem. Phys., 2017,
     147, 034112. DOI: 10.1063/1.4993215
   * E. Caldeweyher, S. Ehlert, A. Hansen, H. Neugebauer, S. Spicher,
     C. Bannwarth and S. Grimme, J. Chem. Phys., 2019, 150, 154122.
     DOI: 10.1063/1.5090222
   * E. Caldeweyher, J.-M. Mewes, S. Ehlert and S. Grimme, Phys. Chem. Chem. Phys.
     2020, 22, 8499-8512. DOI: 10.1039/D0CP00502A
   
   for sTDA-xTB:
   * S. Grimme and C. Bannwarth, J. Chem. Phys., 2016, 145, 054103.
     DOI: 10.1063/1.4959605
   
   in the mass-spec context:
   * V. Asgeirsson, C. Bauer and S. Grimme, Chem. Sci., 2017, 8, 4879.
     DOI: 10.1039/c7sc00601b
   * J. Koopman and S. Grimme, ACS Omega 2019, 4, 12, 15120-15133.
     DOI: 10.1021/acsomega.9b02011
   
   for metadynamics refer to:
   * S. Grimme, J. Chem. Theory Comput., 2019, 155, 2847-2862
     DOI: 10.1021/acs.jctc.9b00143
   
   for SPH calculations refer to:
   * S. Spicher and S. Grimme, J. Chem. Theory Comput., 2021, 17, 1701-1714
     DOI: 10.1021/acs.jctc.0c01306
   
   for ONIOM refer to:
   * C. Plett, A. Katbashev, S. Ehlert, S. Grimme, M. Bursch,
     Phys. Chem. Chem. Phys., 2023, 25, 17860-17868. DOI: 10.1039/D3CP02178E
   
   for DIPRO refer to:
   * J. Kohn, N. Gildemeister, S. Grimme, D. Fazzi, A. Hansen,
     J. Chem. Phys., 2023, just accepted.
   
   for PTB refer to:
   * S. Grimme, M. Mueller, A. Hansen, J. Chem. Phys., 2023, 158, 124111.
     DOI: 10.1063/5.0137838
   
   with help from (in alphabetical order)
   P. Atkinson, C. Bannwarth, F. Bohle, G. Brandenburg, E. Caldeweyher
   M. Checinski, S. Dohm, S. Ehlert, S. Ehrlich, I. Gerasimov, C. Hölzer
   A. Katbashev, J. Kohn, J. Koopman, C. Lavigne, S. Lehtola, F. März, M. Müller,
   F. Musil, H. Neugebauer, J. Pisarek, C. Plett, P. Pracht, F. Pultar,
   J. Seibert, P. Shushkov, S. Spicher, M. Stahn, M. Steiner, T. Strunk,
   J. Stückrath, T. Rose, and J. Unsleber
   
 * started run on 2026/09/02 at 20:11:55.406     
   ID    Z sym.   atoms
    1    6 C      1, 3, 6, 8, 9, 12
    2    7 N      2, 5, 7, 10, 11, 14
    3    8 O      4, 13
    4    1 H      15-20

           -------------------------------------------------
          |                Calculation Setup                |
           -------------------------------------------------

          program call               : "c:\Users\Andre\Proyectos doctorado\nano-qsar-ai-papers\kras-pancreatic-gC3N4-ai\tools\xtb\xtb-6.7.1\bin\xtb.exe" "c:\Users\Andre\Proyectos doctorado\nano-qsar-ai-papers\mxene-glioblastoma-qsar-ai\calculations\gbm\Temozolomide\Temozolomide_drug_frozen_from_opt.xyz" --gfn 2 --chrg 0 --uhf 0 --norestart
          coordinate file            : c:\Users\Andre\Proyectos doctorado\nano-qsar-ai-papers\mxene-glioblastoma-qsar-ai\calculations\gbm\Temozolomide\Temozolomide_drug_frozen_from_opt.xyz
          omp threads                :                     4


           -------------------------------------------------
          |                 G F N 2 - x T B                 |
           -------------------------------------------------

        Reference                      10.1021/acs.jctc.8b01176
      * Hamiltonian:
        H0-scaling (s, p, d)           1.850000    2.230000    2.230000
        zeta-weighting                 0.500000
      * Dispersion:
        s8                             2.700000
        a1                             0.520000
        a2                             5.000000
        s9                             5.000000
      * Repulsion:
        kExp                           1.500000    1.000000
        rExp                           1.000000
      * Coulomb:
        alpha                          2.000000
        third order                    shell-resolved
        anisotropic                    true
        a3                             3.000000
        a5                             4.000000
        cn-shift                       1.200000
        cn-exp                         4.000000
        max-rad                        5.000000


          ...................................................
          :                      SETUP                      :
          :.................................................:
          :  # basis functions                  62          :
          :  # atomic orbitals                  62          :
          :  # shells                           34          :
          :  # electrons                        72          :
          :  max. iterations                   250          :
          :  Hamiltonian                  GFN2-xTB          :
          :  restarted?                      false          :
          :  GBSA solvation                  false          :
          :  PC potential                    false          :
          :  electronic temp.          300.0000000     K    :
          :  accuracy                    1.0000000          :
          :  -> integral cutoff          0.2500000E+02      :
          :  -> integral neglect         0.1000000E-07      :
          :  -> SCF convergence          0.1000000E-05 Eh   :
          :  -> wf. convergence          0.1000000E-03 e    :
          :  Broyden damping             0.4000000          :
          :  net charge                          0          :
          :  unpaired electrons                  0          :
          ...................................................

 iter      E             dE          RMSdq      gap      omega  full diag
   1    -41.7053750 -0.417054E+02  0.511E+00    2.18       0.0  T
   2    -41.7433204 -0.379454E-01  0.412E+00    0.90       1.0  T
   3    -41.8925269 -0.149207E+00  0.237E+00    1.87       1.0  T
   4    -41.9314869 -0.389599E-01  0.139E+00    1.19       1.0  T
   5    -41.9470790 -0.155921E-01  0.306E-01    1.10       1.0  T
   6    -41.9487439 -0.166494E-02  0.999E-02    1.22       1.0  T
   7    -41.9487472 -0.333283E-05  0.534E-02    1.25       1.0  T
   8    -41.9487706 -0.233690E-04  0.235E-02    1.25       1.0  T
   9    -41.9487775 -0.684851E-05  0.679E-03    1.24       3.3  T
  10    -41.9487776 -0.138848E-06  0.302E-03    1.24       7.4  T
  11    -41.9487776 -0.390021E-07  0.124E-03    1.24      18.0  T
  12    -41.9487776 -0.722532E-08  0.482E-04    1.24      46.4  T
  13    -41.9487776 -0.142180E-08  0.217E-04    1.24     103.1  T

   *** convergence criteria satisfied after 13 iterations ***

         #    Occupation            Energy/Eh            Energy/eV
      -------------------------------------------------------------
         1        2.0000           -0.7629697             -20.7615
       ...           ...                  ...                  ...
        30        2.0000           -0.4747733             -12.9192
        31        2.0000           -0.4585544             -12.4779
        32        2.0000           -0.4478972             -12.1879
        33        2.0000           -0.4348683             -11.8334
        34        2.0000           -0.4306378             -11.7183
        35        2.0000           -0.4265273             -11.6064
        36        2.0000           -0.4108566             -11.1800 (HOMO)
        37                         -0.3652538              -9.9391 (LUMO)
        38                         -0.2907880              -7.9127
        39                         -0.2638192              -7.1789
        40                         -0.2284744              -6.2171
        41                         -0.1901557              -5.1744
       ...                                ...                  ...
        62                          0.5605150              15.2524
      -------------------------------------------------------------
                  HL-Gap            0.0456027 Eh            1.2409 eV
             Fermi-level           -0.3880552 Eh          -10.5595 eV

 SCC (total)                   0 d,  0 h,  0 min,  0.016 sec
 SCC setup                      ...        0 min,  0.001 sec (  6.250%)
 Dispersion                     ...        0 min,  0.000 sec (  0.000%)
 classical contributions        ...        0 min,  0.000 sec (  0.000%)
 integral evaluation            ...        0 min,  0.001 sec (  6.250%)
 iterations                     ...        0 min,  0.011 sec ( 68.751%)
 molecular gradient             ...        0 min,  0.003 sec ( 18.750%)
 printout                       ...        0 min,  0.000 sec (  0.000%)

         :::::::::::::::::::::::::::::::::::::::::::::::::::::
         ::                     SUMMARY                     ::
         :::::::::::::::::::::::::::::::::::::::::::::::::::::
         :: total energy             -41.535371557409 Eh    ::
         :: gradient norm              0.220700105622 Eh/a0 ::
         :: HOMO-LUMO gap              1.240913773412 eV    ::
         ::.................................................::
         :: SCC energy               -41.948723082375 Eh    ::
         :: -> isotropic ES            0.089413859414 Eh    ::
         :: -> anisotropic ES          0.006042413805 Eh    ::
         :: -> anisotropic XC          0.023740780542 Eh    ::
         :: -> dispersion             -0.020009289496 Eh    ::
         :: repulsion energy           0.413351524967 Eh    ::
         :: add. restraining           0.000000000000 Eh    ::
         :: total charge              -0.000000000000 e     ::
         :::::::::::::::::::::::::::::::::::::::::::::::::::::

           -------------------------------------------------
          |                Property Printout                |
           -------------------------------------------------

    * Orbital Energies and Occupations

         #    Occupation            Energy/Eh            Energy/eV
      -------------------------------------------------------------
         1        2.0000           -0.7629697             -20.7615
       ...           ...                  ...                  ...
        24        2.0000           -0.5279759             -14.3670
        25        2.0000           -0.5231298             -14.2351
        26        2.0000           -0.5203695             -14.1600
        27        2.0000           -0.5045077             -13.7284
        28        2.0000           -0.4963090             -13.5053
        29        2.0000           -0.4833282             -13.1520
        30        2.0000           -0.4747733             -12.9192
        31        2.0000           -0.4585544             -12.4779
        32        2.0000           -0.4478972             -12.1879
        33        2.0000           -0.4348683             -11.8334
        34        2.0000           -0.4306378             -11.7183
        35        2.0000           -0.4265273             -11.6064
        36        2.0000           -0.4108566             -11.1800 (HOMO)
        37                         -0.3652538              -9.9391 (LUMO)
        38                         -0.2907880              -7.9127
        39                         -0.2638192              -7.1789
        40                         -0.2284744              -6.2171
        41                         -0.1901557              -5.1744
        42                         -0.1229228              -3.3449
        43                         -0.0447724              -1.2183
        44                         -0.0345331              -0.9397
        45                          0.0014501               0.0395
        46                          0.0572640               1.5582
        47                          0.0744486               2.0258
       ...                                ...                  ...
        62                          0.5605150              15.2524
      -------------------------------------------------------------
                  HL-Gap            0.0456027 Eh            1.2409 eV
             Fermi-level           -0.3880552 Eh          -10.5595 eV

     #   Z          covCN         q      C6AA      α(0)
     1   6 C        3.700    -0.057    21.761     6.671
     2   7 N        2.806     0.009    21.103     6.823
     3   6 C        2.716     0.327    21.443     7.580
     4   8 O        0.858    -0.421    22.111     6.304
     5   7 N        2.800    -0.093    23.062     7.132
     6   6 C        3.060     0.120    25.303     8.249
     7   7 N        1.882    -0.182    25.758     7.524
     8   6 C        3.113     0.046    26.826     8.484
     9   6 C        2.993     0.127    25.212     8.237
    10   7 N        1.895    -0.163    25.315     7.459
    11   7 N        1.974    -0.090    23.713     7.222
    12   6 C        2.753     0.278    22.298     7.732
    13   8 O        0.859    -0.409    21.852     6.267
    14   7 N        2.639    -0.264    26.854     7.696
    15   1 H        0.924     0.098     1.805     2.101
    16   1 H        0.922     0.084     1.943     2.180
    17   1 H        0.924     0.093     1.849     2.127
    18   1 H        0.926     0.092     1.858     2.132
    19   1 H        0.860     0.197     1.120     1.658
    20   1 H        0.859     0.209     1.062     1.614

 Mol. C6AA /au·bohr⁶  :       5711.945250
 Mol. C8AA /au·bohr⁸  :     132335.611570
 Mol. α(0) /au        :        115.193294


Wiberg/Mayer (AO) data.
largest (>0.10) Wiberg bond orders for each atom

 ---------------------------------------------------------------------------
     #   Z sym  total        # sym  WBO       # sym  WBO       # sym  WBO
 ---------------------------------------------------------------------------
     1   6 C    3.938 --     2 N    0.980    17 H    0.974    15 H    0.971
                            16 H    0.966
     2   7 N    3.614 --     3 C    1.196    11 N    1.113     1 C    0.980
                             4 O    0.133
     3   6 C    3.959 --     4 O    1.642     2 N    1.196     5 N    1.017
     4   8 O    2.019 --     3 C    1.642     2 N    0.133     5 N    0.105
     5   7 N    3.572 --     6 C    1.153     9 C    1.059     3 C    1.017
                             4 O    0.105
     6   6 C    3.947 --     7 N    1.616     5 N    1.153    18 H    0.956
     7   7 N    3.096 --     6 C    1.616     8 C    1.263
     8   6 C    3.960 --     9 C    1.301     7 N    1.263    12 C    1.036
                            11 N    0.138
     9   6 C    3.953 --    10 N    1.359     8 C    1.301     5 N    1.059
    10   7 N    3.102 --    11 N    1.480     9 C    1.359
    11   7 N    2.988 --    10 N    1.480     2 N    1.113     8 C    0.138
    12   6 C    3.962 --    13 O    1.640    14 N    1.244     8 C    1.036
    13   8 O    2.001 --    12 C    1.640    14 N    0.199
    14   7 N    3.365 --    12 C    1.244    20 H    0.935    19 H    0.933
                            13 O    0.199
    15   1 H    0.990 --     1 C    0.971
    16   1 H    0.989 --     1 C    0.966
    17   1 H    0.989 --     1 C    0.974
    18   1 H    0.991 --     6 C    0.956
    19   1 H    0.961 --    14 N    0.933
    20   1 H    0.956 --    14 N    0.935
 ---------------------------------------------------------------------------

Topologies differ in total number of bonds
Writing topology from bond orders to xtbtopo.mol

molecular dipole:
                 x           y           z       tot (Debye)
 q only:       -1.367       1.235       0.938
   full:       -1.849       1.037       1.177       6.162
molecular quadrupole (traceless):
                xx          xy          yy          xz          yz          zz
 q only:      -11.379       0.615      -9.170     -16.079      20.198      20.549
  q+dip:      -19.826       3.143     -11.441     -24.238      15.166      31.268
   full:      -20.151       3.233     -13.017     -23.479      15.609      33.168


           -------------------------------------------------
          | TOTAL ENERGY              -41.535371557409 Eh   |
          | GRADIENT NORM               0.220700105622 Eh/α |
          | HOMO-LUMO GAP               1.240913773412 eV   |
           -------------------------------------------------

------------------------------------------------------------------------
 * finished run on 2026/09/02 at 20:11:55.450     
------------------------------------------------------------------------
 total:
 * wall-time:     0 d,  0 h,  0 min,  0.042 sec
 *  cpu-time:     0 d,  0 h,  0 min,  0.109 sec
 * ratio c/w:     2.604 speedup
 SCF:
 * wall-time:     0 d,  0 h,  0 min,  0.017 sec
 *  cpu-time:     0 d,  0 h,  0 min,  0.047 sec
 * ratio c/w:     2.757 speedup

