      -----------------------------------------------------------      
     |                   =====================                   |     
     |                           x T B                           |     
     |                   =====================                   |     
     |                         S. Grimme                         |     
     |          Mulliken Center for Theoretical Chemistry        |     
     |                    University of Bonn                     |     
      -----------------------------------------------------------      

   * xtb version 6.7.1pre (5071a88) compiled by 'Marcel@Raven' on 2024-07-23

   xtb is free software: you can redistribute it and/or modify it under
   the terms of the GNU Lesser General Public License as published by
   the Free Software Foundation, either version 3 of the License, or
   (at your option) any later version.
   
   xtb is distributed in the hope that it will be useful,
   but WITHOUT ANY WARRANTY; without even the implied warranty of
   MERCHANTABILITY or FITNESS FOR A PARTICULAR PURPOSE.  See the
   GNU Lesser General Public License for more details.
   
   Cite this work as:
   * C. Bannwarth, E. Caldeweyher, S. Ehlert, A. Hansen, P. Pracht,
     J. Seibert, S. Spicher, S. Grimme, WIREs Comput. Mol. Sci., 2020, 11,
     e01493. DOI: 10.1002/wcms.1493
   
   for GFN2-xTB:
   * C. Bannwarth, S. Ehlert and S. Grimme., J. Chem. Theory Comput., 2019,
     15, 1652-1671. DOI: 10.1021/acs.jctc.8b01176
   for GFN1-xTB:
   * S. Grimme, C. Bannwarth, P. Shushkov, J. Chem. Theory Comput., 2017,
     13, 1989-2009. DOI: 10.1021/acs.jctc.7b00118
   for GFN0-xTB:
   * P. Pracht, E. Caldeweyher, S. Ehlert, S. Grimme, ChemRxiv, 2019, preprint.
     DOI: 10.26434/chemrxiv.8326202.v1
   for GFN-FF:
   * S. Spicher and S. Grimme, Angew. Chem. Int. Ed., 2020, 59, 15665-15673.
     DOI: 10.1002/anie.202004239
   
   for ALPB and GBSA implicit solvation:
   * S. Ehlert, M. Stahn, S. Spicher, S. Grimme, J. Chem. Theory Comput.,
     2021, 17, 4250-4261. DOI: 10.1021/acs.jctc.1c00471
   
   for ddCOSMO and CPCM-X implicit solvation:
   * M. Stahn, S. Ehlert, S. Grimme, J. Phys. Chem. A,
     2023, XX, XXXX-XXXX. DOI: 10.1021/acs.jpca.3c04382
   
   for DFT-D4:
   * E. Caldeweyher, C. Bannwarth and S. Grimme, J. Chem. Phys., 2017,
     147, 034112. DOI: 10.1063/1.4993215
   * E. Caldeweyher, S. Ehlert, A. Hansen, H. Neugebauer, S. Spicher,
     C. Bannwarth and S. Grimme, J. Chem. Phys., 2019, 150, 154122.
     DOI: 10.1063/1.5090222
   * E. Caldeweyher, J.-M. Mewes, S. Ehlert and S. Grimme, Phys. Chem. Chem. Phys.
     2020, 22, 8499-8512. DOI: 10.1039/D0CP00502A
   
   for sTDA-xTB:
   * S. Grimme and C. Bannwarth, J. Chem. Phys., 2016, 145, 054103.
     DOI: 10.1063/1.4959605
   
   in the mass-spec context:
   * V. Asgeirsson, C. Bauer and S. Grimme, Chem. Sci., 2017, 8, 4879.
     DOI: 10.1039/c7sc00601b
   * J. Koopman and S. Grimme, ACS Omega 2019, 4, 12, 15120-15133.
     DOI: 10.1021/acsomega.9b02011
   
   for metadynamics refer to:
   * S. Grimme, J. Chem. Theory Comput., 2019, 155, 2847-2862
     DOI: 10.1021/acs.jctc.9b00143
   
   for SPH calculations refer to:
   * S. Spicher and S. Grimme, J. Chem. Theory Comput., 2021, 17, 1701-1714
     DOI: 10.1021/acs.jctc.0c01306
   
   for ONIOM refer to:
   * C. Plett, A. Katbashev, S. Ehlert, S. Grimme, M. Bursch,
     Phys. Chem. Chem. Phys., 2023, 25, 17860-17868. DOI: 10.1039/D3CP02178E
   
   for DIPRO refer to:
   * J. Kohn, N. Gildemeister, S. Grimme, D. Fazzi, A. Hansen,
     J. Chem. Phys., 2023, just accepted.
   
   for PTB refer to:
   * S. Grimme, M. Mueller, A. Hansen, J. Chem. Phys., 2023, 158, 124111.
     DOI: 10.1063/5.0137838
   
   with help from (in alphabetical order)
   P. Atkinson, C. Bannwarth, F. Bohle, G. Brandenburg, E. Caldeweyher
   M. Checinski, S. Dohm, S. Ehlert, S. Ehrlich, I. Gerasimov, C. Hölzer
   A. Katbashev, J. Kohn, J. Koopman, C. Lavigne, S. Lehtola, F. März, M. Müller,
   F. Musil, H. Neugebauer, J. Pisarek, C. Plett, P. Pracht, F. Pultar,
   J. Seibert, P. Shushkov, S. Spicher, M. Stahn, M. Steiner, T. Strunk,
   J. Stückrath, T. Rose, and J. Unsleber
   
 * started run on 2026/08/31 at 21:31:35.289     
   ID    Z sym.   atoms
    1    6 C      1, 3, 6, 8, 9, 12, 33-39
    2    7 N      2, 5, 7, 10, 11, 14
    3    8 O      4, 13, 40-53
    4    1 H      15-20
    5   22 Ti     21-32

           -------------------------------------------------
          |                Calculation Setup                |
           -------------------------------------------------

          program call               : "c:\Users\Andre\Proyectos doctorado\kras-pancreatic-gC3N4-ai\tools\xtb\xtb-6.7.1\bin\xtb.exe" "c:\Users\Andre\Proyectos doctorado\mxene-glioblastoma-qsar-ai\calculations\gbm\Temozolomide\Temozolomide_Ti12C7O14_clean_complex.xyz" --sp --gfn 2 --chrg 0 --uhf 0 --etemp 300
          coordinate file            : c:\Users\Andre\Proyectos doctorado\mxene-glioblastoma-qsar-ai\calculations\gbm\Temozolomide\Temozolomide_Ti12C7O14_clean_complex.xyz
          omp threads                :                    16


molecular fragmentation (1/2 indicates fragments):
11111111111111111111222222222222222222222222222222222
# atoms in fragment 1/2:    20    33
 fragment masses (1/2) :      194.15      882.47
CMA distance (Bohr)    :  15.966
constraining FC (au)   :  0.0500

           -------------------------------------------------
          |                 G F N 2 - x T B                 |
           -------------------------------------------------

        Reference                      10.1021/acs.jctc.8b01176
      * Hamiltonian:
        H0-scaling (s, p, d)           1.850000    2.230000    2.230000
        zeta-weighting                 0.500000
      * Dispersion:
        s8                             2.700000
        a1                             0.520000
        a2                             5.000000
        s9                             5.000000
      * Repulsion:
        kExp                           1.500000    1.000000
        rExp                           1.000000
      * Coulomb:
        alpha                          2.000000
        third order                    shell-resolved
        anisotropic                    true
        a3                             3.000000
        a5                             4.000000
        cn-shift                       1.200000
        cn-exp                         4.000000
        max-rad                        5.000000


          ...................................................
          :                      SETUP                      :
          :.................................................:
          :  # basis functions                 266          :
          :  # atomic orbitals                 254          :
          :  # shells                          112          :
          :  # electrons                       232          :
          :  max. iterations                   250          :
          :  Hamiltonian                  GFN2-xTB          :
          :  restarted?                      false          :
          :  GBSA solvation                  false          :
          :  PC potential                    false          :
          :  electronic temp.          300.0000000     K    :
          :  accuracy                    1.0000000          :
          :  -> integral cutoff          0.2500000E+02      :
          :  -> integral neglect         0.1000000E-07      :
          :  -> SCF convergence          0.1000000E-05 Eh   :
          :  -> wf. convergence          0.1000000E-03 e    :
          :  Broyden damping             0.4000000          :
          :  net charge                          0          :
          :  unpaired electrons                  0          :
          ...................................................

 iter      E             dE          RMSdq      gap      omega  full diag
   1   -132.5103547 -0.132510E+03  0.161E+01    0.02       0.0  T
   2   -112.6952113  0.198151E+02  0.143E+01    0.02       1.0  T
   3    -25.0594596  0.876358E+02  0.308E+01    0.13       1.0  T
   4   -128.4456041 -0.103386E+03  0.128E+01    0.00       1.0  T
   5   -133.8372021 -0.539160E+01  0.794E+00    0.62       1.0  T
   6   -134.3050616 -0.467860E+00  0.629E+00    0.76       1.0  T
   7   -134.1954357  0.109626E+00  0.545E+00    0.02       1.0  T
   8   -134.2646424 -0.692067E-01  0.510E+00    0.69       1.0  T
   9   -134.3859639 -0.121321E+00  0.350E+00    0.10       1.0  T
  10   -132.8544252  0.153154E+01  0.572E+00    0.01       1.0  T
  11   -133.5772617 -0.722836E+00  0.471E+00    0.18       1.0  T
  12   -133.5021482  0.751136E-01  0.468E+00    0.12       1.0  T
  13   -133.3879746  0.114174E+00  0.450E+00    0.08       1.0  T
  14   -133.3983438 -0.103692E-01  0.558E+00    0.01       1.0  T
  15   -134.2079273 -0.809584E+00  0.368E+00    0.06       1.0  T
  16   -134.5728070 -0.364880E+00  0.319E+00    0.36       1.0  T
  17   -134.5919942 -0.191872E-01  0.289E+00    0.43       1.0  T
  18   -134.6098987 -0.179045E-01  0.246E+00    0.49       1.0  T
  19   -134.6563783 -0.464795E-01  0.199E+00    0.26       1.0  T
  20   -134.3564073  0.299971E+00  0.232E+00    0.04       1.0  T
  21   -134.6842272 -0.327820E+00  0.160E+00    0.13       1.0  T
  22   -134.6946271 -0.103999E-01  0.134E+00    0.11       1.0  T
  23   -134.7244944 -0.298673E-01  0.107E+00    0.22       1.0  T
  24   -134.7300837 -0.558928E-02  0.954E-01    0.35       1.0  T
  25   -134.7360739 -0.599023E-02  0.789E-01    0.57       1.0  T
  26   -134.7412722 -0.519830E-02  0.574E-01    0.68       1.0  T
  27   -134.7422709 -0.998695E-03  0.531E-01    0.71       1.0  T
  28   -134.7433595 -0.108854E-02  0.435E-01    0.63       1.0  T
  29   -134.7435043 -0.144854E-03  0.378E-01    0.58       1.0  T
  30   -134.7442758 -0.771471E-03  0.341E-01    0.47       1.0  T
  31   -134.7452467 -0.970895E-03  0.298E-01    0.31       1.0  T
  32   -134.7468750 -0.162833E-02  0.252E-01    0.21       1.0  T
  33   -134.7480845 -0.120950E-02  0.224E-01    0.17       1.0  T
  34   -134.7484801 -0.395585E-03  0.240E-01    0.14       1.0  T
  35   -134.7388737  0.960641E-02  0.427E-01    0.08       1.0  T
  36   -134.7370231  0.185062E-02  0.455E-01    0.08       1.0  T
  37   -134.7263568  0.106662E-01  0.572E-01    0.06       1.0  T
  38   -134.7455930 -0.192361E-01  0.274E-01    0.10       1.0  T
  39   -134.7485668 -0.297384E-02  0.166E-01    0.11       1.0  T
  40   -134.7496350 -0.106817E-02  0.883E-02    0.12       1.0  T
  41   -134.7496979 -0.629218E-04  0.641E-02    0.15       1.0  T
  42   -134.7493074  0.390492E-03  0.940E-02    0.16       1.0  T
  43   -134.7495797 -0.272241E-03  0.721E-02    0.15       1.0  T
  44   -134.7499080 -0.328365E-03  0.359E-02    0.14       1.0  T
  45   -134.7499966 -0.885346E-04  0.162E-02    0.13       1.0  T
  46   -134.7499957  0.875170E-06  0.145E-02    0.13       1.0  T
  47   -134.7500001 -0.439225E-05  0.121E-02    0.13       1.1  T
  48   -134.7499966  0.350762E-05  0.133E-02    0.13       1.0  T
  49   -134.7500002 -0.362207E-05  0.102E-02    0.13       1.3  T
  50   -134.7500018 -0.161596E-05  0.816E-03    0.13       1.7  T
  51   -134.7500020 -0.204909E-06  0.756E-03    0.13       1.8  T
  52   -134.7500017  0.318051E-06  0.728E-03    0.13       1.9  T
  53   -134.7500007  0.103409E-05  0.746E-03    0.13       1.8  T
  54   -134.7500005  0.110790E-06  0.657E-03    0.13       2.1  T
  55   -134.7500031 -0.251075E-05  0.238E-03    0.13       5.8  T
  56   -134.7500034 -0.292286E-06  0.110E-03    0.13      12.5  T
  57   -134.7500033  0.560626E-07  0.127E-03    0.13      10.8  T
  58   -134.7500034 -0.749183E-07  0.437E-04    0.13      31.4  T
  59   -134.7500034 -0.270856E-08  0.251E-04    0.13      54.7  T

   *** convergence criteria satisfied after 59 iterations ***

         #    Occupation            Energy/Eh            Energy/eV
      -------------------------------------------------------------
         1        2.0000           -0.8319595             -22.6388
       ...           ...                  ...                  ...
       110        2.0000           -0.3703174             -10.0769
       111        2.0000           -0.3615593              -9.8385
       112        2.0000           -0.3582015              -9.7472
       113        2.0000           -0.3545263              -9.6472
       114        2.0000           -0.3472691              -9.4497
       115        2.0000           -0.3371847              -9.1753
       116        1.8555           -0.3237931              -8.8109 (HOMO)
       117        0.1445           -0.3189425              -8.6789 (LUMO)
       118                         -0.2957619              -8.0481
       119                         -0.2941819              -8.0051
       120                         -0.2930863              -7.9753
       121                         -0.2925628              -7.9610
       ...                                ...                  ...
       254                         13.4131217             364.9896
      -------------------------------------------------------------
                  HL-Gap            0.0048506 Eh            0.1320 eV
             Fermi-level           -0.3213678 Eh           -8.7449 eV

 SCC (total)                   0 d,  0 h,  0 min,  0.655 sec
 SCC setup                      ...        0 min,  0.001 sec (  0.153%)
 Dispersion                     ...        0 min,  0.001 sec (  0.153%)
 classical contributions        ...        0 min,  0.000 sec (  0.000%)
 integral evaluation            ...        0 min,  0.006 sec (  0.916%)
 iterations                     ...        0 min,  0.635 sec ( 96.947%)
 molecular gradient             ...        0 min,  0.011 sec (  1.679%)
 printout                       ...        0 min,  0.001 sec (  0.153%)

         :::::::::::::::::::::::::::::::::::::::::::::::::::::
         ::                     SUMMARY                     ::
         :::::::::::::::::::::::::::::::::::::::::::::::::::::
         :: total energy            -133.629989085005 Eh    ::
         :: gradient norm              0.075444548679 Eh/a0 ::
         :: HOMO-LUMO gap              0.131992326283 eV    ::
         ::.................................................::
         :: SCC energy              -134.747570617027 Eh    ::
         :: -> isotropic ES            0.983771651328 Eh    ::
         :: -> anisotropic ES         -0.368788819711 Eh    ::
         :: -> anisotropic XC         -0.042589654310 Eh    ::
         :: -> dispersion             -0.111871674607 Eh    ::
         :: repulsion energy           1.117581532022 Eh    ::
         :: add. restraining           0.000000000000 Eh    ::
         :: total charge              -0.000000000000 e     ::
         :::::::::::::::::::::::::::::::::::::::::::::::::::::

           -------------------------------------------------
          |                Property Printout                |
           -------------------------------------------------

    * Orbital Energies and Occupations

         #    Occupation            Energy/Eh            Energy/eV
      -------------------------------------------------------------
         1        2.0000           -0.8319595             -22.6388
       ...           ...                  ...                  ...
       104        2.0000           -0.3970693             -10.8048
       105        2.0000           -0.3919735             -10.6661
       106        2.0000           -0.3892587             -10.5923
       107        2.0000           -0.3872347             -10.5372
       108        2.0000           -0.3809269             -10.3655
       109        2.0000           -0.3727186             -10.1422
       110        2.0000           -0.3703174             -10.0769
       111        2.0000           -0.3615593              -9.8385
       112        2.0000           -0.3582015              -9.7472
       113        2.0000           -0.3545263              -9.6472
       114        2.0000           -0.3472691              -9.4497
       115        2.0000           -0.3371847              -9.1753
       116        1.8555           -0.3237931              -8.8109 (HOMO)
       117        0.1445           -0.3189425              -8.6789 (LUMO)
       118                         -0.2957619              -8.0481
       119                         -0.2941819              -8.0051
       120                         -0.2930863              -7.9753
       121                         -0.2925628              -7.9610
       122                         -0.2917362              -7.9385
       123                         -0.2851181              -7.7585
       124                         -0.2843111              -7.7365
       125                         -0.2829381              -7.6991
       126                         -0.2815255              -7.6607
       127                         -0.2812172              -7.6523
       ...                                ...                  ...
       254                         13.4131217             364.9896
      -------------------------------------------------------------
                  HL-Gap            0.0048506 Eh            0.1320 eV
             Fermi-level           -0.3213678 Eh           -8.7449 eV

     #   Z          covCN         q      C6AA      α(0)
     1   6 C        3.695    -0.078    22.163     6.735
     2   7 N        2.827    -0.006    21.370     6.866
     3   6 C        2.704     0.312    21.702     7.625
     4   8 O        0.858    -0.415    21.987     6.287
     5   7 N        2.870    -0.043    22.077     6.979
     6   6 C        3.085     0.091    25.882     8.340
     7   7 N        1.892    -0.203    26.250     7.596
     8   6 C        3.159     0.026    27.114     8.513
     9   6 C        3.023     0.096    25.853     8.340
    10   7 N        1.911    -0.148    24.998     7.413
    11   7 N        2.010    -0.065    23.170     7.139
    12   6 C        2.746     0.275    22.346     7.740
    13   8 O        0.859    -0.408    21.834     6.265
    14   7 N        2.638    -0.279    27.212     7.747
    15   1 H        0.924     0.100     1.782     2.088
    16   1 H        0.924     0.086     1.914     2.164
    17   1 H        0.924     0.091     1.873     2.140
    18   1 H        0.925     0.085     1.925     2.169
    19   1 H        0.860     0.196     1.126     1.662
    20   1 H        0.860     0.205     1.081     1.629
    21  22 Ti       3.637     1.055   101.746    24.482
    22  22 Ti       6.855     1.554    84.027    14.883
    23  22 Ti       3.227     1.054   102.566    24.730
    24  22 Ti       5.860     1.381    85.658    15.026
    25  22 Ti       5.627     1.137    88.045    15.234
    26  22 Ti       3.541     1.033   102.557    24.682
    27  22 Ti       2.352     0.886   202.556    34.848
    28  22 Ti       6.011     1.350    85.955    15.052
    29  22 Ti       3.414     1.014   102.981    24.770
    30  22 Ti       5.519     1.110    88.321    15.258
    31  22 Ti       5.687     1.198    87.437    15.181
    32  22 Ti       3.581     1.032   102.402    24.634
    33   6 C        2.246    -0.256    37.588     9.933
    34   6 C        2.142    -0.253    38.258     9.998
    35   6 C        2.248    -0.018    30.574     8.959
    36   6 C        1.838    -0.208    37.245     9.859
    37   6 C        1.894    -0.219    37.582     9.901
    38   6 C        1.821    -0.340    41.910    10.460
    39   6 C        2.631    -0.398    39.698    10.306
    40   8 O        1.554    -0.847    31.987     7.631
    41   8 O        1.464    -0.882    33.248     7.772
    42   8 O        1.557    -0.956    35.603     8.050
    43   8 O        1.523    -1.009    37.552     8.265
    44   8 O        1.523    -0.913    34.179     7.886
    45   8 O        1.458    -0.823    31.421     7.555
    46   8 O        1.455    -0.797    30.629     7.459
    47   8 O        0.727    -0.631    26.981     6.960
    48   8 O        1.453    -0.863    32.676     7.704
    49   8 O        1.476    -0.800    30.674     7.466
    50   8 O        1.603    -0.945    35.155     8.002
    51   8 O        1.547    -0.971    36.135     8.110
    52   8 O        1.700    -0.816    30.957     7.512
    53   8 O        1.453    -0.780    30.136     7.398

 Mol. C6AA /au·bohr⁶  :      97805.365324
 Mol. C8AA /au·bohr⁸  :    4901227.472170
 Mol. α(0) /au        :        541.404363


Wiberg/Mayer (AO) data.
largest (>0.10) Wiberg bond orders for each atom

 ---------------------------------------------------------------------------
     #   Z sym  total        # sym  WBO       # sym  WBO       # sym  WBO
 ---------------------------------------------------------------------------
     1   6 C    3.943 --     2 N    0.986    15 H    0.973    17 H    0.970
                            16 H    0.961
     2   7 N    3.586 --     3 C    1.134    11 N    1.106     1 C    0.986
                             4 O    0.149    10 N    0.107
     3   6 C    3.954 --     4 O    1.661     2 N    1.134     5 N    1.057
     4   8 O    2.019 --     3 C    1.661     2 N    0.149
     5   7 N    3.638 --     6 C    1.190     9 C    1.090     3 C    1.057
     6   6 C    3.934 --     7 N    1.576     5 N    1.190    18 H    0.958
     7   7 N    3.044 --     6 C    1.576     8 C    1.269
     8   6 C    3.933 --     9 C    1.373     7 N    1.269    12 C    1.023
     9   6 C    3.942 --     8 C    1.373    10 N    1.224     5 N    1.090
    10   7 N    3.078 --    11 N    1.556     9 C    1.224     2 N    0.107
    11   7 N    2.965 --    10 N    1.556     2 N    1.106
    12   6 C    3.956 --    13 O    1.669    14 N    1.229     8 C    1.023
    13   8 O    1.992 --    12 C    1.669    14 N    0.207
    14   7 N    3.359 --    12 C    1.229    20 H    0.938    19 H    0.932
                            13 O    0.207
    15   1 H    0.990 --     1 C    0.973
    16   1 H    0.988 --     1 C    0.961
    17   1 H    0.987 --     1 C    0.970
    18   1 H    0.992 --     6 C    0.958
    19   1 H    0.961 --    14 N    0.932
    20   1 H    0.956 --    14 N    0.938
    21  22 Ti   2.827 --    40 O    0.845    41 O    0.812    27 Ti   0.330
                            22 Ti   0.203    24 Ti   0.200
    22  22 Ti   3.848 --    41 O    0.752    44 O    0.737    42 O    0.690
                            43 O    0.611    21 Ti   0.203    23 Ti   0.186
                            25 Ti   0.140    26 Ti   0.133
    23  22 Ti   2.716 --    49 O    0.958    42 O    0.599    29 Ti   0.371
                            22 Ti   0.186    27 Ti   0.140    44 O    0.109
    24  22 Ti   3.916 --    45 O    0.939    33 C    0.717    40 O    0.705
                            43 O    0.566    26 Ti   0.208    21 Ti   0.200
                            30 Ti   0.178    50 O    0.123
    25  22 Ti   4.042 --    39 C    0.858    46 O    0.784    37 C    0.746
                            44 O    0.610    31 Ti   0.277    26 Ti   0.176
                            34 C    0.153    38 C    0.141    22 Ti   0.140
    26  22 Ti   2.726 --    46 O    0.955    45 O    0.702    24 Ti   0.208
                            25 Ti   0.176    22 Ti   0.133    41 O    0.122
    27  22 Ti   3.773 --    47 O    1.999    28 Ti   0.611    21 Ti   0.330
                            42 O    0.153    40 O    0.147    23 Ti   0.140
                            50 O    0.111
    28  22 Ti   4.009 --    50 O    0.797    48 O    0.756    51 O    0.709
                            27 Ti   0.611    52 O    0.194    29 Ti   0.166
                            32 Ti   0.147    30 Ti   0.142
    29  22 Ti   2.742 --    48 O    0.832    49 O    0.765    23 Ti   0.371
                            32 Ti   0.220    28 Ti   0.166    31 Ti   0.132
    30  22 Ti   3.973 --    38 C    1.025    36 C    0.731    52 O    0.622
                            50 O    0.450    39 C    0.204    32 Ti   0.200
                            24 Ti   0.178    33 C    0.158    28 Ti   0.142
    31  22 Ti   4.064 --    53 O    0.973    34 C    0.671    39 C    0.637
                            51 O    0.446    25 Ti   0.277    32 Ti   0.211
                            38 C    0.133    29 Ti   0.132    49 O    0.116
    32  22 Ti   2.780 --    52 O    0.897    53 O    0.732    29 Ti   0.220
                            31 Ti   0.211    30 Ti   0.200    28 Ti   0.147
    33   6 C    3.839 --    36 C    2.739    24 Ti   0.717    30 Ti   0.158
    34   6 C    3.783 --    37 C    2.731    31 Ti   0.671    25 Ti   0.153
    35   6 C    3.978 --    38 C    2.008    39 C    1.609
    36   6 C    3.709 --    33 C    2.739    30 Ti   0.731
    37   6 C    3.749 --    34 C    2.731    25 Ti   0.746
    38   6 C    3.691 --    35 C    2.008    30 Ti   1.025    25 Ti   0.141
                            31 Ti   0.133
    39   6 C    3.738 --    35 C    1.609    25 Ti   0.858    31 Ti   0.637
                            30 Ti   0.204
    40   8 O    1.935 --    21 Ti   0.845    24 Ti   0.705    27 Ti   0.147
    41   8 O    1.890 --    21 Ti   0.812    22 Ti   0.752    26 Ti   0.122
    42   8 O    1.783 --    22 Ti   0.690    23 Ti   0.599    27 Ti   0.153
    43   8 O    1.714 --    22 Ti   0.611    24 Ti   0.566
    44   8 O    1.846 --    22 Ti   0.737    25 Ti   0.610    23 Ti   0.109
    45   8 O    1.970 --    24 Ti   0.939    26 Ti   0.702
    46   8 O    2.015 --    26 Ti   0.955    25 Ti   0.784
    47   8 O    2.175 --    27 Ti   1.999
    48   8 O    1.912 --    29 Ti   0.832    28 Ti   0.756
    49   8 O    2.008 --    23 Ti   0.958    29 Ti   0.765    31 Ti   0.116
    50   8 O    1.800 --    28 Ti   0.797    30 Ti   0.450    24 Ti   0.123
                            27 Ti   0.111
    51   8 O    1.769 --    28 Ti   0.709    31 Ti   0.446
    52   8 O    1.987 --    32 Ti   0.897    30 Ti   0.622    28 Ti   0.194
    53   8 O    2.033 --    31 Ti   0.973    32 Ti   0.732
 ---------------------------------------------------------------------------

Topologies differ in total number of bonds
Writing topology from bond orders to xtbtopo.mol

molecular dipole:
                 x           y           z       tot (Debye)
 q only:       -1.030       0.443      -3.438
   full:       -2.826       0.186      -2.812      10.144
molecular quadrupole (traceless):
                xx          xy          yy          xz          yz          zz
 q only:      -13.811      -0.093      27.033     -76.783      24.168     -13.222
  q+dip:       -3.822      -1.702      11.978     -61.026       8.585      -8.156
   full:       -2.515       0.197      12.925     -61.598      13.053     -10.410


           -------------------------------------------------
          | TOTAL ENERGY             -133.629989085005 Eh   |
          | GRADIENT NORM               0.075444548679 Eh/α |
          | HOMO-LUMO GAP               0.131992326283 eV   |
           -------------------------------------------------
########################################################################
[WARNING] Runtime exception occurred
-2- restart_readRestart: Dimension missmatch in restart file.
-1- restart_readRestart: Number of electron missmatch in restart file.
########################################################################

------------------------------------------------------------------------
 * finished run on 2026/08/31 at 21:31:35.986     
------------------------------------------------------------------------
 total:
 * wall-time:     0 d,  0 h,  0 min,  0.696 sec
 *  cpu-time:     0 d,  0 h,  0 min,  7.672 sec
 * ratio c/w:    11.023 speedup
 SCF:
 * wall-time:     0 d,  0 h,  0 min,  0.656 sec
 *  cpu-time:     0 d,  0 h,  0 min,  7.219 sec
 * ratio c/w:    11.004 speedup

