      -----------------------------------------------------------      
     |                   =====================                   |     
     |                           x T B                           |     
     |                   =====================                   |     
     |                         S. Grimme                         |     
     |          Mulliken Center for Theoretical Chemistry        |     
     |                    University of Bonn                     |     
      -----------------------------------------------------------      

   * xtb version 6.7.1pre (5071a88) compiled by 'Marcel@Raven' on 2024-07-23

   xtb is free software: you can redistribute it and/or modify it under
   the terms of the GNU Lesser General Public License as published by
   the Free Software Foundation, either version 3 of the License, or
   (at your option) any later version.
   
   xtb is distributed in the hope that it will be useful,
   but WITHOUT ANY WARRANTY; without even the implied warranty of
   MERCHANTABILITY or FITNESS FOR A PARTICULAR PURPOSE.  See the
   GNU Lesser General Public License for more details.
   
   Cite this work as:
   * C. Bannwarth, E. Caldeweyher, S. Ehlert, A. Hansen, P. Pracht,
     J. Seibert, S. Spicher, S. Grimme, WIREs Comput. Mol. Sci., 2020, 11,
     e01493. DOI: 10.1002/wcms.1493
   
   for GFN2-xTB:
   * C. Bannwarth, S. Ehlert and S. Grimme., J. Chem. Theory Comput., 2019,
     15, 1652-1671. DOI: 10.1021/acs.jctc.8b01176
   for GFN1-xTB:
   * S. Grimme, C. Bannwarth, P. Shushkov, J. Chem. Theory Comput., 2017,
     13, 1989-2009. DOI: 10.1021/acs.jctc.7b00118
   for GFN0-xTB:
   * P. Pracht, E. Caldeweyher, S. Ehlert, S. Grimme, ChemRxiv, 2019, preprint.
     DOI: 10.26434/chemrxiv.8326202.v1
   for GFN-FF:
   * S. Spicher and S. Grimme, Angew. Chem. Int. Ed., 2020, 59, 15665-15673.
     DOI: 10.1002/anie.202004239
   
   for ALPB and GBSA implicit solvation:
   * S. Ehlert, M. Stahn, S. Spicher, S. Grimme, J. Chem. Theory Comput.,
     2021, 17, 4250-4261. DOI: 10.1021/acs.jctc.1c00471
   
   for ddCOSMO and CPCM-X implicit solvation:
   * M. Stahn, S. Ehlert, S. Grimme, J. Phys. Chem. A,
     2023, XX, XXXX-XXXX. DOI: 10.1021/acs.jpca.3c04382
   
   for DFT-D4:
   * E. Caldeweyher, C. Bannwarth and S. Grimme, J. Chem. Phys., 2017,
     147, 034112. DOI: 10.1063/1.4993215
   * E. Caldeweyher, S. Ehlert, A. Hansen, H. Neugebauer, S. Spicher,
     C. Bannwarth and S. Grimme, J. Chem. Phys., 2019, 150, 154122.
     DOI: 10.1063/1.5090222
   * E. Caldeweyher, J.-M. Mewes, S. Ehlert and S. Grimme, Phys. Chem. Chem. Phys.
     2020, 22, 8499-8512. DOI: 10.1039/D0CP00502A
   
   for sTDA-xTB:
   * S. Grimme and C. Bannwarth, J. Chem. Phys., 2016, 145, 054103.
     DOI: 10.1063/1.4959605
   
   in the mass-spec context:
   * V. Asgeirsson, C. Bauer and S. Grimme, Chem. Sci., 2017, 8, 4879.
     DOI: 10.1039/c7sc00601b
   * J. Koopman and S. Grimme, ACS Omega 2019, 4, 12, 15120-15133.
     DOI: 10.1021/acsomega.9b02011
   
   for metadynamics refer to:
   * S. Grimme, J. Chem. Theory Comput., 2019, 155, 2847-2862
     DOI: 10.1021/acs.jctc.9b00143
   
   for SPH calculations refer to:
   * S. Spicher and S. Grimme, J. Chem. Theory Comput., 2021, 17, 1701-1714
     DOI: 10.1021/acs.jctc.0c01306
   
   for ONIOM refer to:
   * C. Plett, A. Katbashev, S. Ehlert, S. Grimme, M. Bursch,
     Phys. Chem. Chem. Phys., 2023, 25, 17860-17868. DOI: 10.1039/D3CP02178E
   
   for DIPRO refer to:
   * J. Kohn, N. Gildemeister, S. Grimme, D. Fazzi, A. Hansen,
     J. Chem. Phys., 2023, just accepted.
   
   for PTB refer to:
   * S. Grimme, M. Mueller, A. Hansen, J. Chem. Phys., 2023, 158, 124111.
     DOI: 10.1063/5.0137838
   
   with help from (in alphabetical order)
   P. Atkinson, C. Bannwarth, F. Bohle, G. Brandenburg, E. Caldeweyher
   M. Checinski, S. Dohm, S. Ehlert, S. Ehrlich, I. Gerasimov, C. Hölzer
   A. Katbashev, J. Kohn, J. Koopman, C. Lavigne, S. Lehtola, F. März, M. Müller,
   F. Musil, H. Neugebauer, J. Pisarek, C. Plett, P. Pracht, F. Pultar,
   J. Seibert, P. Shushkov, S. Spicher, M. Stahn, M. Steiner, T. Strunk,
   J. Stückrath, T. Rose, and J. Unsleber
   
 * started run on 2026/08/31 at 21:53:37.965     
   ID    Z sym.   atoms
    1    6 C      1, 3, 6, 8, 9, 12, 33-39
    2    7 N      2, 5, 7, 10, 11, 14
    3    8 O      4, 13, 40-53
    4    1 H      15-20
    5   22 Ti     21-32

           -------------------------------------------------
          |                Calculation Setup                |
           -------------------------------------------------

          program call               : "c:\Users\Andre\Proyectos doctorado\kras-pancreatic-gC3N4-ai\tools\xtb\xtb-6.7.1\bin\xtb.exe" "c:\Users\Andre\Proyectos doctorado\mxene-glioblastoma-qsar-ai\calculations\gbm\Temozolomide\Temozolomide_opt_orient_90deg.xyz" --opt vloose --gfn 2 --chrg 0 --uhf 0 --etemp 500 --acc 1.0 --iterations 500 --cycles 25 --norestart
          coordinate file            : c:\Users\Andre\Proyectos doctorado\mxene-glioblastoma-qsar-ai\calculations\gbm\Temozolomide\Temozolomide_opt_orient_90deg.xyz
          omp threads                :                    16


molecular fragmentation (1/2 indicates fragments):
11111111111111111111222222222222222222222222222222222
# atoms in fragment 1/2:    20    33
 fragment masses (1/2) :      194.15      882.47
CMA distance (Bohr)    :  16.033
constraining FC (au)   :  0.0500

           -------------------------------------------------
          |                 G F N 2 - x T B                 |
           -------------------------------------------------

        Reference                      10.1021/acs.jctc.8b01176
      * Hamiltonian:
        H0-scaling (s, p, d)           1.850000    2.230000    2.230000
        zeta-weighting                 0.500000
      * Dispersion:
        s8                             2.700000
        a1                             0.520000
        a2                             5.000000
        s9                             5.000000
      * Repulsion:
        kExp                           1.500000    1.000000
        rExp                           1.000000
      * Coulomb:
        alpha                          2.000000
        third order                    shell-resolved
        anisotropic                    true
        a3                             3.000000
        a5                             4.000000
        cn-shift                       1.200000
        cn-exp                         4.000000
        max-rad                        5.000000


          ...................................................
          :                      SETUP                      :
          :.................................................:
          :  # basis functions                 266          :
          :  # atomic orbitals                 254          :
          :  # shells                          112          :
          :  # electrons                       232          :
          :  max. iterations                   500          :
          :  Hamiltonian                  GFN2-xTB          :
          :  restarted?                      false          :
          :  GBSA solvation                  false          :
          :  PC potential                    false          :
          :  electronic temp.          500.0000000     K    :
          :  accuracy                    1.0000000          :
          :  -> integral cutoff          0.2500000E+02      :
          :  -> integral neglect         0.1000000E-07      :
          :  -> SCF convergence          0.1000000E-05 Eh   :
          :  -> wf. convergence          0.1000000E-03 e    :
          :  Broyden damping             0.4000000          :
          :  net charge                          0          :
          :  unpaired electrons                  0          :
          ...................................................

 iter      E             dE          RMSdq      gap      omega  full diag
   1   -132.4555415 -0.132456E+03  0.163E+01    0.02       0.0  T
   2   -110.8620763  0.215935E+02  0.157E+01    0.02       1.0  T
   3    -21.7311233  0.891310E+02  0.311E+01    0.04       1.0  T
   4   -128.3727144 -0.106642E+03  0.106E+01    0.19       1.0  T
   5   -128.2514614  0.121253E+00  0.882E+00    0.01       1.0  T
   6   -133.3695579 -0.511810E+01  0.700E+00    0.40       1.0  T
   7   -131.2390056  0.213055E+01  0.693E+00    0.12       1.0  T
   8   -133.5841329 -0.234513E+01  0.555E+00    0.36       1.0  T
   9   -134.4544994 -0.870367E+00  0.385E+00    0.37       1.0  T
  10   -134.4592441 -0.474469E-02  0.346E+00    0.15       1.0  T
  11   -134.3693216  0.899225E-01  0.323E+00    0.01       1.0  T
  12   -134.5551990 -0.185877E+00  0.274E+00    0.21       1.0  T
  13   -133.8929051  0.662294E+00  0.324E+00    0.23       1.0  T
  14   -134.6308851 -0.737980E+00  0.221E+00    0.33       1.0  T
  15   -134.6703394 -0.394543E-01  0.201E+00    0.66       1.0  T
  16   -134.6876254 -0.172860E-01  0.188E+00    0.74       1.0  T
  17   -134.6989254 -0.113000E-01  0.171E+00    0.78       1.0  T
  18   -134.7153534 -0.164280E-01  0.138E+00    0.71       1.0  T
  19   -134.7284544 -0.131010E-01  0.108E+00    0.52       1.0  T
  20   -134.7367803 -0.832595E-02  0.893E-01    0.49       1.0  T
  21   -134.7464018 -0.962144E-02  0.645E-01    0.26       1.0  T
  22   -134.7505999 -0.419812E-02  0.429E-01    0.23       1.0  T
  23   -134.7361395  0.144604E-01  0.513E-01    0.11       1.0  T
  24   -134.7294145  0.672496E-02  0.585E-01    0.10       1.0  T
  25   -134.7237471  0.566746E-02  0.582E-01    0.09       1.0  T
  26   -134.7523627 -0.286156E-01  0.120E-01    0.18       1.0  T
  27   -134.7526706 -0.307991E-03  0.875E-02    0.19       1.0  T
  28   -134.7529692 -0.298600E-03  0.624E-02    0.21       1.0  T
  29   -134.7528989  0.703759E-04  0.604E-02    0.21       1.0  T
  30   -134.7530228 -0.123958E-03  0.327E-02    0.20       1.0  T
  31   -134.7530343 -0.114216E-04  0.280E-02    0.20       1.0  T
  32   -134.7530172  0.170861E-04  0.329E-02    0.21       1.0  T
  33   -134.7529849  0.322182E-04  0.356E-02    0.21       1.0  T
  34   -134.7529897 -0.480380E-05  0.324E-02    0.21       1.0  T
  35   -134.7530138 -0.240203E-04  0.245E-02    0.21       1.0  T
  36   -134.7530535 -0.397728E-04  0.915E-03    0.21       1.5  T
  37   -134.7530563 -0.271821E-05  0.771E-03    0.20       1.8  T
  38   -134.7530591 -0.287281E-05  0.425E-03    0.20       3.2  T
  39   -134.7530586  0.488556E-06  0.450E-03    0.20       3.1  T
  40   -134.7530602 -0.157918E-05  0.172E-03    0.20       8.0  T
  41   -134.7530602  0.174848E-07  0.184E-03    0.20       7.5  T
  42   -134.7530600  0.164993E-06  0.217E-03    0.20       6.3  T
  43   -134.7530601 -0.405723E-07  0.184E-03    0.20       7.5  T
  44   -134.7530602 -0.152621E-06  0.999E-04    0.20      13.7  T
  45   -134.7530603 -0.729918E-07  0.187E-04    0.20      73.5  T

   *** convergence criteria satisfied after 45 iterations ***

         #    Occupation            Energy/Eh            Energy/eV
      -------------------------------------------------------------
         1        2.0000           -0.8332918             -22.6750
       ...           ...                  ...                  ...
       110        2.0000           -0.3715858             -10.1114
       111        2.0000           -0.3627486              -9.8709
       112        2.0000           -0.3580153              -9.7421
       113        2.0000           -0.3549486              -9.6586
       114        2.0000           -0.3485860              -9.4855
       115        2.0000           -0.3380409              -9.1986
       116        1.8266           -0.3249283              -8.8418 (HOMO)
       117        0.1735           -0.3174732              -8.6389 (LUMO)
       118        0.0000           -0.2970268              -8.0825
       119        0.0000           -0.2955951              -8.0436
       120                         -0.2945107              -8.0140
       121                         -0.2940647              -8.0019
       ...                                ...                  ...
       254                         13.3867924             364.2732
      -------------------------------------------------------------
                  HL-Gap            0.0074552 Eh            0.2029 eV
             Fermi-level           -0.3212005 Eh           -8.7403 eV

 SCC (total)                   0 d,  0 h,  0 min,  0.633 sec
 SCC setup                      ...        0 min,  0.001 sec (  0.158%)
 Dispersion                     ...        0 min,  0.001 sec (  0.158%)
 classical contributions        ...        0 min,  0.000 sec (  0.000%)
 integral evaluation            ...        0 min,  0.006 sec (  0.948%)
 iterations                     ...        0 min,  0.610 sec ( 96.367%)
 molecular gradient             ...        0 min,  0.014 sec (  2.212%)
 printout                       ...        0 min,  0.001 sec (  0.158%)

         :::::::::::::::::::::::::::::::::::::::::::::::::::::
         ::                     SUMMARY                     ::
         :::::::::::::::::::::::::::::::::::::::::::::::::::::
         :: total energy            -133.633051387039 Eh    ::
         :: gradient norm              0.075828101895 Eh/a0 ::
         :: HOMO-LUMO gap              0.202865619686 eV    ::
         ::.................................................::
         :: SCC energy              -134.750632919926 Eh    ::
         :: -> isotropic ES            0.984126384245 Eh    ::
         :: -> anisotropic ES         -0.369143330771 Eh    ::
         :: -> anisotropic XC         -0.042626867828 Eh    ::
         :: -> dispersion             -0.111754725676 Eh    ::
         :: repulsion energy           1.117581532887 Eh    ::
         :: add. restraining           0.000000000000 Eh    ::
         :: total charge               0.000000000001 e     ::
         :::::::::::::::::::::::::::::::::::::::::::::::::::::

      ----------------------------------------------------------- 
     |                   =====================                   |
     |                        A N C O P T                        |
     |                   =====================                   |
     |               Approximate Normal Coordinate               |
     |                Rational Function Optimizer                |
      ----------------------------------------------------------- 
      ----------------------------------------------------------- 
     |                   =====================                   |
     |                        A N C O P T                        |
     |                   =====================                   |
     |               Approximate Normal Coordinate               |
     |                Rational Function Optimizer                |
      ----------------------------------------------------------- 

          ...................................................
          :                      SETUP                      :
          :.................................................:
          :   optimization level            normal          :
          :   max. optcycles                    25          :
          :   ANC micro-cycles                  20          :
          :   degrees of freedom               153          :
          :.................................................:
          :   RF solver                   davidson          :
          :   write xtbopt.log                true          :
          :   linear?                        false          :
          :   energy convergence         0.5000000E-05 Eh   :
          :   grad. convergence          0.1000000E-02 Eh/α :
          :   maxmium RF displ.          1.0000000          :
          :   Hlow (freq-cutoff)         0.1000000E-01      :
          :   Hmax (freq-cutoff)         5.0000000          :
          :   S6 in model hess.         20.0000000          :
          ...................................................

generating ANC from exact Hessian ...
Using Lindh-Hessian (1995)
 Shifting diagonal of input Hessian by   1.791456857307752E-002
 Lowest  eigenvalues of input Hessian
    0.010000    0.017288    0.017392    0.017428    0.000000    0.000000
    0.000000    0.000000    0.000000    0.000000    0.018010    0.018016
    0.018167    0.018355    0.018853    0.019064    0.019812    0.020024
 Highest eigenvalues
    2.091554    2.197006    2.262054    2.328249    2.431799    2.548154
 

........................................................................
.............................. CYCLE    1 ..............................
........................................................................

 iter      E             dE          RMSdq      gap      omega  full diag
   1   -134.7530603 -0.134753E+03  0.167E-04    0.20       0.0  T
   2   -134.7530602  0.841700E-07  0.926E-04    0.20      14.8  T
   3   -134.7530603 -0.840524E-07  0.185E-04    0.20      74.3  T
     SCC iter.                  ...        0 min,  0.053 sec
     gradient                   ...        0 min,  0.014 sec
 * total energy  :  -133.6330514 Eh     change        0.2995648E-10 Eh
   gradient norm :     0.0758304 Eh/α   predicted     0.0000000E+00 (-100.00%)
   displ. norm   :     0.2881980 α      lambda       -0.8730866E-02
   maximum displ.:     0.0817144 α      in ANC's #7, #11, #70, ...

........................................................................
.............................. CYCLE    2 ..............................
........................................................................

 iter      E             dE          RMSdq      gap      omega  full diag
   1   -134.7617029 -0.134762E+03  0.438E-01    0.14       0.0  T
   2   -134.7427326  0.189702E-01  0.647E-01    0.92       1.0  T
   3   -134.7630228 -0.202901E-01  0.350E-01    0.36       1.0  T
   4   -134.7524863  0.105364E-01  0.414E-01    0.11       1.0  T
   5   -134.7621916 -0.970526E-02  0.271E-01    0.35       1.0  T
   6   -134.7659377 -0.374609E-02  0.174E-01    0.27       1.0  T
   7   -134.7681830 -0.224533E-02  0.622E-02    0.20       1.0  T
   8   -134.7681921 -0.908432E-05  0.415E-02    0.19       1.0  T
   9   -134.7681902  0.191540E-05  0.403E-02    0.19       1.0  T
  10   -134.7683002 -0.110053E-03  0.140E-02    0.19       1.0  T
  11   -134.7683117 -0.115113E-04  0.537E-03    0.20       2.6  T
  12   -134.7683106  0.114144E-05  0.552E-03    0.20       2.5  T
  13   -134.7683114 -0.839221E-06  0.396E-03    0.20       3.5  T
  14   -134.7683122 -0.738207E-06  0.179E-03    0.20       7.7  T
  15   -134.7683119  0.213137E-06  0.212E-03    0.20       6.5  T
  16   -134.7683122 -0.250264E-06  0.911E-04    0.20      15.1  T
  17   -134.7683122  0.542926E-08  0.712E-04    0.20      19.3  T
     SCC iter.                  ...        0 min,  0.262 sec
     gradient                   ...        0 min,  0.011 sec
 * total energy  :  -133.6388499 Eh     change       -0.5798547E-02 Eh
   gradient norm :     0.0332186 Eh/α   predicted    -0.4732196E-02 ( -18.39%)
   displ. norm   :     0.3994126 α      lambda       -0.5629040E-02
   maximum displ.:     0.1634555 α      in ANC's #5, #7, #15, ...

........................................................................
.............................. CYCLE    3 ..............................
........................................................................

 iter      E             dE          RMSdq      gap      omega  full diag
   1   -134.7825218 -0.134783E+03  0.379E-01    0.17       0.0  T
   2   -134.7710250  0.114968E-01  0.387E-01    0.50       1.0  T
   3   -134.4523229  0.318702E+00  0.181E+00    0.07       1.0  T
   4   -134.7794946 -0.327172E+00  0.302E-01    0.32       1.0  T
   5   -134.7776371  0.185753E-02  0.272E-01    0.35       1.0  T
   6   -134.7791785 -0.154146E-02  0.241E-01    0.32       1.0  T
   7   -134.7814042 -0.222566E-02  0.180E-01    0.27       1.0  T
   8   -134.7825584 -0.115417E-02  0.127E-01    0.24       1.0  T
   9   -134.7836988 -0.114045E-02  0.603E-02    0.22       1.0  T
  10   -134.7840098 -0.311040E-03  0.760E-03    0.20       1.8  T
  11   -134.7839910  0.188103E-04  0.159E-02    0.19       1.0  T
  12   -134.7839997 -0.863890E-05  0.121E-02    0.19       1.1  T
  13   -134.7840118 -0.121684E-04  0.335E-03    0.19       4.1  T
  14   -134.7840127 -0.827672E-06  0.149E-03    0.19       9.2  T
  15   -134.7840127 -0.664866E-07  0.102E-03    0.20      13.4  T
  16   -134.7840126  0.165767E-06  0.166E-03    0.20       8.3  T
  17   -134.7840128 -0.189338E-06  0.720E-04    0.20      19.1  T
  18   -134.7840128 -0.337917E-07  0.344E-04    0.20      39.9  T
     SCC iter.                  ...        0 min,  0.258 sec
     gradient                   ...        0 min,  0.011 sec
 * total energy  :  -133.6415055 Eh     change       -0.2655554E-02 Eh
   gradient norm :     0.0254078 Eh/α   predicted    -0.3263551E-02 (  22.90%)
   displ. norm   :     0.3715091 α      lambda       -0.2907551E-02
   maximum displ.:     0.1688786 α      in ANC's #7, #5, #1, ...

........................................................................
.............................. CYCLE    4 ..............................
........................................................................

 iter      E             dE          RMSdq      gap      omega  full diag
   1   -134.7760668 -0.134776E+03  0.435E-01    0.15       0.0  T
   2   -134.7604242  0.156426E-01  0.535E-01    0.64       1.0  T
   3   -134.7263292  0.340950E-01  0.723E-01    0.06       1.0  T
   4   -134.7685110 -0.421818E-01  0.360E-01    0.48       1.0  T
   5   -134.7717941 -0.328302E-02  0.284E-01    0.35       1.0  T
   6   -134.7770541 -0.526008E-02  0.158E-01    0.25       1.0  T
   7   -134.7768087  0.245478E-03  0.167E-01    0.15       1.0  T
   8   -134.7787407 -0.193206E-02  0.599E-02    0.17       1.0  T
   9   -134.7789961 -0.255367E-03  0.249E-02    0.19       1.0  T
  10   -134.7789874  0.865471E-05  0.218E-02    0.18       1.0  T
  11   -134.7789864  0.102314E-05  0.219E-02    0.20       1.0  T
  12   -134.7790240 -0.375962E-04  0.558E-03    0.19       2.5  T
  13   -134.7790258 -0.175668E-05  0.235E-03    0.19       5.9  T
  14   -134.7790249  0.838502E-06  0.347E-03    0.19       4.0  T
  15   -134.7790258 -0.873488E-06  0.118E-03    0.19      11.6  T
  16   -134.7790257  0.515082E-07  0.131E-03    0.19      10.5  T
  17   -134.7790258 -0.392444E-07  0.101E-03    0.19      13.5  T
  18   -134.7790259 -0.795480E-07  0.299E-04    0.19      45.9  T
  19   -134.7790259 -0.167486E-08  0.227E-04    0.19      60.6  T
     SCC iter.                  ...        0 min,  0.307 sec
     gradient                   ...        0 min,  0.013 sec
 * total energy  :  -133.6421010 Eh     change       -0.5955340E-03 Eh
   gradient norm :     0.0269628 Eh/α   predicted    -0.1654432E-02 ( 177.81%)
   displ. norm   :     0.4626506 α      lambda       -0.4187320E-02
   maximum displ.:     0.2355135 α      in ANC's #1, #7, #5, ...

........................................................................
.............................. CYCLE    5 ..............................
........................................................................

 iter      E             dE          RMSdq      gap      omega  full diag
   1   -134.7680115 -0.134768E+03  0.565E-01    0.17       0.0  T
   2   -134.7621280  0.588354E-02  0.335E-01    0.30       1.0  T
   3   -134.0498928  0.712235E+00  0.268E+00    0.36       1.0  T
   4   -134.7644018 -0.714509E+00  0.239E-01    0.27       1.0  T
   5   -134.7674069 -0.300517E-02  0.159E-01    0.22       1.0  T
   6   -134.7675044 -0.974409E-04  0.119E-01    0.22       1.0  T
   7   -134.7684955 -0.991073E-03  0.499E-02    0.17       1.0  T
   8   -134.7683602  0.135273E-03  0.626E-02    0.17       1.0  T
   9   -134.7684076 -0.474501E-04  0.518E-02    0.17       1.0  T
  10   -134.7686225 -0.214896E-03  0.150E-02    0.18       1.0  T
  11   -134.7686366 -0.140508E-04  0.614E-03    0.18       2.2  T
  12   -134.7686320  0.461970E-05  0.916E-03    0.19       1.5  T
  13   -134.7686325 -0.516537E-06  0.818E-03    0.19       1.7  T
  14   -134.7686366 -0.408351E-05  0.421E-03    0.18       3.3  T
  15   -134.7686379 -0.136994E-05  0.109E-03    0.18      12.6  T
  16   -134.7686378  0.881493E-07  0.124E-03    0.18      11.1  T
  17   -134.7686379 -0.490496E-08  0.116E-03    0.18      11.9  T
  18   -134.7686380 -0.991884E-07  0.455E-04    0.18      30.2  T
  19   -134.7686380 -0.137076E-07  0.164E-04    0.18      83.9  T
     SCC iter.                  ...        0 min,  0.338 sec
     gradient                   ...        0 min,  0.013 sec
 * total energy  :  -133.6430172 Eh     change       -0.9161432E-03 Eh
   gradient norm :     0.0252949 Eh/α   predicted    -0.2541801E-02 ( 177.45%)
   displ. norm   :     0.3451697 α      lambda       -0.4617272E-02
   maximum displ.:     0.1466682 α      in ANC's #1, #5, #7, ...

........................................................................
.............................. CYCLE    6 ..............................
........................................................................

 iter      E             dE          RMSdq      gap      omega  full diag
   1   -134.7668729 -0.134767E+03  0.535E-01    0.18       0.0  T
   2   -134.7616091  0.526380E-02  0.288E-01    0.13       1.0  T
   3   -134.7392092  0.223998E-01  0.628E-01    0.77       1.0  T
   4   -134.7571932 -0.179840E-01  0.350E-01    0.38       1.0  T
   5   -134.7662828 -0.908962E-02  0.128E-01    0.21       1.0  T
   6   -134.7669391 -0.656237E-03  0.813E-02    0.18       1.0  T
   7   -134.7666213  0.317724E-03  0.854E-02    0.16       1.0  T
   8   -134.7670576 -0.436285E-03  0.332E-02    0.19       1.0  T
   9   -134.7670890 -0.313398E-04  0.210E-02    0.18       1.0  T
  10   -134.7671101 -0.211590E-04  0.121E-02    0.18       1.1  T
  11   -134.7671151 -0.497069E-05  0.862E-03    0.18       1.6  T
  12   -134.7671190 -0.390311E-05  0.404E-03    0.18       3.4  T
  13   -134.7671191 -0.920129E-07  0.269E-03    0.18       5.1  T
  14   -134.7671188  0.273373E-06  0.279E-03    0.18       4.9  T
  15   -134.7671193 -0.483883E-06  0.129E-03    0.18      10.7  T
  16   -134.7671192  0.651478E-07  0.125E-03    0.18      11.0  T
  17   -134.7671193 -0.295032E-07  0.930E-04    0.18      14.8  T
  18   -134.7671193 -0.331505E-07  0.640E-04    0.18      21.5  T
     SCC iter.                  ...        0 min,  0.274 sec
     gradient                   ...        0 min,  0.012 sec
 * total energy  :  -133.6452851 Eh     change       -0.2267984E-02 Eh
   gradient norm :     0.0202690 Eh/α   predicted    -0.2583693E-02 (  13.92%)
   displ. norm   :     0.3713178 α      lambda       -0.2648613E-02
   maximum displ.:     0.2235839 α      in ANC's #5, #7, #15, ...

........................................................................
.............................. CYCLE    7 ..............................
........................................................................

 iter      E             dE          RMSdq      gap      omega  full diag
   1   -134.7725434 -0.134773E+03  0.305E-01    0.14       0.0  T
   2   -134.7516122  0.209311E-01  0.542E-01    0.64       1.0  T
   3   -134.7724103 -0.207980E-01  0.210E-01    0.15       1.0  T
   4   -134.7737520 -0.134174E-02  0.138E-01    0.22       1.0  T
   5   -134.7736925  0.594638E-04  0.132E-01    0.15       1.0  T
   6   -134.7743537 -0.661116E-03  0.108E-01    0.21       1.0  T
   7   -134.7752180 -0.864365E-03  0.265E-02    0.18       1.0  T
   8   -134.7751930  0.250622E-04  0.265E-02    0.17       1.0  T
   9   -134.7751944 -0.140113E-05  0.246E-02    0.17       1.0  T
  10   -134.7752421 -0.477385E-04  0.611E-03    0.18       2.2  T
  11   -134.7752417  0.380375E-06  0.606E-03    0.18       2.3  T
  12   -134.7752410  0.674532E-06  0.625E-03    0.18       2.2  T
  13   -134.7752430 -0.196365E-05  0.349E-03    0.18       3.9  T
  14   -134.7752438 -0.834942E-06  0.128E-03    0.18      10.7  T
  15   -134.7752438  0.447892E-07  0.134E-03    0.18      10.3  T
  16   -134.7752439 -0.105803E-06  0.537E-04    0.18      25.6  T
  17   -134.7752439 -0.101109E-07  0.237E-04    0.18      57.9  T
     SCC iter.                  ...        0 min,  0.227 sec
     gradient                   ...        0 min,  0.013 sec
 * total energy  :  -133.6470822 Eh     change       -0.1797002E-02 Eh
   gradient norm :     0.0108385 Eh/α   predicted    -0.1506903E-02 ( -16.14%)
   displ. norm   :     0.6511314 α      lambda       -0.2502392E-02
   maximum displ.:     0.4206698 α      in ANC's #5, #7, #15, ...

........................................................................
.............................. CYCLE    8 ..............................
........................................................................

 iter      E             dE          RMSdq      gap      omega  full diag
   1   -134.7755645 -0.134776E+03  0.348E-01    0.13       0.0  T
   2   -134.7532559  0.223086E-01  0.547E-01    0.61       1.0  T
   3   -134.7507735  0.248248E-02  0.526E-01    0.08       1.0  T
   4   -134.7636432 -0.128697E-01  0.401E-01    0.40       1.0  T
   5   -134.7693455 -0.570235E-02  0.312E-01    0.30       1.0  T
   6   -134.7711347 -0.178917E-02  0.275E-01    0.28       1.0  T
   7   -134.7780299 -0.689522E-02  0.270E-02    0.17       1.0  T
   8   -134.7775891  0.440809E-03  0.718E-02    0.15       1.0  T
   9   -134.7779124 -0.323288E-03  0.406E-02    0.18       1.0  T
  10   -134.7780188 -0.106340E-03  0.182E-02    0.17       1.0  T
  11   -134.7780448 -0.260391E-04  0.456E-03    0.17       3.0  T
  12   -134.7780408  0.398249E-05  0.728E-03    0.17       1.9  T
  13   -134.7780415 -0.723489E-06  0.686E-03    0.17       2.0  T
  14   -134.7780454 -0.383046E-05  0.110E-03    0.17      12.5  T
  15   -134.7780452  0.177443E-06  0.154E-03    0.17       8.9  T
  16   -134.7780453 -0.109442E-06  0.109E-03    0.17      12.6  T
  17   -134.7780452  0.112479E-06  0.151E-03    0.17       9.1  T
  18   -134.7780453 -0.163498E-06  0.682E-04    0.17      20.1  T
  19   -134.7780453  0.857951E-07  0.116E-03    0.17      11.9  T
  20   -134.7780454 -0.111344E-06  0.326E-04    0.17      42.2  T
     SCC iter.                  ...        0 min,  0.271 sec
     gradient                   ...        0 min,  0.011 sec
 * total energy  :  -133.6492431 Eh     change       -0.2160925E-02 Eh
   gradient norm :     0.0129187 Eh/α   predicted    -0.1781670E-02 ( -17.55%)
   displ. norm   :     0.7845075 α      lambda       -0.2942711E-02
   maximum displ.:     0.5276539 α      in ANC's #5, #7, #6, ...

........................................................................
.............................. CYCLE    9 ..............................
........................................................................

 iter      E             dE          RMSdq      gap      omega  full diag
   1   -134.7811109 -0.134781E+03  0.389E-01    0.16       0.0  T
   2   -134.7806679  0.443048E-03  0.157E-01    0.18       1.0  T
   3   -134.6162254  0.164442E+00  0.133E+00    0.03       1.0  T
   4   -134.7760548 -0.159829E+00  0.246E-01    0.22       1.0  T
   5   -134.7810821 -0.502732E-02  0.631E-02    0.16       1.0  T
   6   -134.7812037 -0.121543E-03  0.375E-02    0.16       1.0  T
   7   -134.7811925  0.112258E-04  0.348E-02    0.16       1.0  T
   8   -134.7812249 -0.324638E-04  0.241E-02    0.16       1.0  T
   9   -134.7812462 -0.212995E-04  0.173E-02    0.16       1.0  T
  10   -134.7812668 -0.205521E-04  0.769E-03    0.16       1.8  T
  11   -134.7812697 -0.295255E-05  0.293E-03    0.16       4.7  T
  12   -134.7812687  0.104309E-05  0.388E-03    0.16       3.5  T
  13   -134.7812697 -0.102469E-05  0.198E-03    0.16       6.9  T
  14   -134.7812699 -0.201571E-06  0.961E-04    0.16      14.3  T
  15   -134.7812699  0.203380E-08  0.702E-04    0.16      19.6  T
     SCC iter.                  ...        0 min,  0.195 sec
     gradient                   ...        0 min,  0.011 sec
 * total energy  :  -133.6516620 Eh     change       -0.2418926E-02 Eh
   gradient norm :     0.0130243 Eh/α   predicted    -0.2376909E-02 (  -1.74%)
   displ. norm   :     0.7555059 α      lambda       -0.2660317E-02
   maximum displ.:     0.5269177 α      in ANC's #5, #7, #6, ...

........................................................................
.............................. CYCLE   10 ..............................
........................................................................

 iter      E             dE          RMSdq      gap      omega  full diag
   1   -134.7841386 -0.134784E+03  0.359E-01    0.14       0.0  T
   2   -134.7679693  0.161693E-01  0.430E-01    0.34       1.0  T
   3   -134.2892064  0.478763E+00  0.224E+00    0.18       1.0  T
   4   -134.7825154 -0.493309E+00  0.212E-01    0.20       1.0  T
   5   -134.7811190  0.139644E-02  0.199E-01    0.21       1.0  T
   6   -134.7832575 -0.213851E-02  0.128E-01    0.19       1.0  T
   7   -134.7845459 -0.128839E-02  0.590E-02    0.17       1.0  T
   8   -134.7847117 -0.165777E-03  0.173E-02    0.16       1.0  T
   9   -134.7846396  0.720256E-04  0.315E-02    0.15       1.0  T
  10   -134.7846856 -0.459061E-04  0.196E-02    0.15       1.0  T
  11   -134.7847162 -0.306605E-04  0.650E-03    0.16       2.1  T
  12   -134.7847173 -0.112225E-05  0.381E-03    0.16       3.6  T
  13   -134.7847180 -0.656551E-06  0.235E-03    0.16       5.8  T
  14   -134.7847179  0.519027E-07  0.216E-03    0.16       6.4  T
  15   -134.7847182 -0.211432E-06  0.118E-03    0.16      11.6  T
  16   -134.7847182 -0.693689E-09  0.101E-03    0.16      13.6  T
  17   -134.7847181  0.121715E-07  0.103E-03    0.16      13.3  T
  18   -134.7847182 -0.412957E-07  0.741E-04    0.16      18.5  T
  19   -134.7847182 -0.356691E-07  0.269E-04    0.16      51.0  T
     SCC iter.                  ...        0 min,  0.283 sec
     gradient                   ...        0 min,  0.011 sec
 * total energy  :  -133.6537023 Eh     change       -0.2040285E-02 Eh
   gradient norm :     0.0137574 Eh/α   predicted    -0.2089397E-02 (   2.41%)
   displ. norm   :     0.7521774 α      lambda       -0.2095466E-02
   maximum displ.:     0.5171947 α      in ANC's #5, #7, #6, ...

........................................................................
.............................. CYCLE   11 ..............................
........................................................................

 iter      E             dE          RMSdq      gap      omega  full diag
   1   -134.7830077 -0.134783E+03  0.328E-01    0.16       0.0  T
   2   -134.7404990  0.425087E-01  0.670E-01    0.05       1.0  T
   3   -134.7620816 -0.215826E-01  0.482E-01    0.39       1.0  T
   4   -134.7770366 -0.149550E-01  0.275E-01    0.24       1.0  T
   5   -134.7800047 -0.296813E-02  0.191E-01    0.21       1.0  T
   6   -134.7821619 -0.215717E-02  0.111E-01    0.18       1.0  T
   7   -134.7832659 -0.110407E-02  0.263E-02    0.16       1.0  T
   8   -134.7831777  0.882216E-04  0.371E-02    0.15       1.0  T
   9   -134.7832454 -0.676397E-04  0.206E-02    0.15       1.0  T
  10   -134.7832752 -0.298672E-04  0.752E-03    0.15       1.8  T
  11   -134.7832773 -0.207215E-05  0.480E-03    0.16       2.9  T
  12   -134.7832760  0.128248E-05  0.533E-03    0.16       2.6  T
  13   -134.7832779 -0.187432E-05  0.210E-03    0.16       6.5  T
  14   -134.7832781 -0.212967E-06  0.908E-04    0.16      15.1  T
  15   -134.7832779  0.171722E-06  0.156E-03    0.16       8.8  T
  16   -134.7832781 -0.121582E-06  0.907E-04    0.16      15.1  T
     SCC iter.                  ...        0 min,  0.185 sec
     gradient                   ...        0 min,  0.011 sec
 * total energy  :  -133.6554089 Eh     change       -0.1706661E-02 Eh
   gradient norm :     0.0131284 Eh/α   predicted    -0.1640510E-02 (  -3.88%)
   displ. norm   :     0.7049677 α      lambda       -0.1921734E-02
   maximum displ.:     0.4952464 α      in ANC's #5, #7, #2, ...

........................................................................
.............................. CYCLE   12 ..............................
........................................................................

 iter      E             dE          RMSdq      gap      omega  full diag
   1   -134.7866259 -0.134787E+03  0.344E-01    0.23       0.0  T
   2   -134.1431783  0.643448E+00  0.256E+00    0.35       1.0  T
   3   -134.7890062 -0.645828E+00  0.179E-01    0.20       1.0  T
   4   -134.7902122 -0.120598E-02  0.114E-01    0.18       1.0  T
   5   -134.7911684 -0.956218E-03  0.534E-02    0.16       1.0  T
   6   -134.7912545 -0.860202E-04  0.219E-02    0.16       1.0  T
   7   -134.7912663 -0.117969E-04  0.109E-02    0.16       1.3  T
   8   -134.7912462  0.200252E-04  0.171E-02    0.16       1.0  T
   9   -134.7912654 -0.191464E-04  0.854E-03    0.16       1.6  T
  10   -134.7912680 -0.264901E-05  0.451E-03    0.16       3.0  T
  11   -134.7912684 -0.387564E-06  0.312E-03    0.16       4.4  T
  12   -134.7912682  0.189715E-06  0.275E-03    0.16       5.0  T
  13   -134.7912686 -0.420104E-06  0.130E-03    0.16      10.6  T
  14   -134.7912686  0.259492E-07  0.103E-03    0.16      13.3  T
  15   -134.7912686 -0.147411E-07  0.887E-04    0.16      15.5  T
  16   -134.7912686  0.234661E-08  0.804E-04    0.16      17.1  T
     SCC iter.                  ...        0 min,  0.313 sec
     gradient                   ...        0 min,  0.012 sec
 * total energy  :  -133.6568991 Eh     change       -0.1490102E-02 Eh
   gradient norm :     0.0145474 Eh/α   predicted    -0.1438401E-02 (  -3.47%)
   displ. norm   :     0.7376133 α      lambda       -0.1752748E-02
   maximum displ.:     0.4891837 α      in ANC's #5, #7, #2, ...

........................................................................
.............................. CYCLE   13 ..............................
........................................................................

 iter      E             dE          RMSdq      gap      omega  full diag
   1   -134.7857776 -0.134786E+03  0.297E-01    0.17       0.0  T
   2   -134.7856615  0.116052E-03  0.166E-01    0.17       1.0  T
   3   -134.7566226  0.290389E-01  0.567E-01    0.08       1.0  T
   4   -134.7740276 -0.174050E-01  0.350E-01    0.29       1.0  T
   5   -134.7858306 -0.118030E-01  0.773E-02    0.17       1.0  T
   6   -134.7857658  0.647988E-04  0.563E-02    0.17       1.0  T
   7   -134.7859934 -0.227603E-03  0.247E-02    0.16       1.0  T
   8   -134.7859824  0.110070E-04  0.207E-02    0.16       1.0  T
   9   -134.7860073 -0.248897E-04  0.728E-03    0.16       1.9  T
  10   -134.7860074 -0.185915E-06  0.592E-03    0.16       2.3  T
  11   -134.7860078 -0.379177E-06  0.405E-03    0.16       3.4  T
  12   -134.7860081 -0.242871E-06  0.266E-03    0.16       5.2  T
  13   -134.7860082 -0.988762E-07  0.152E-03    0.16       9.1  T
  14   -134.7860082  0.628066E-08  0.117E-03    0.16      11.8  T
  15   -134.7860082 -0.456760E-07  0.682E-04    0.16      20.1  T
  16   -134.7860082 -0.784456E-08  0.389E-04    0.16      35.3  T
     SCC iter.                  ...        0 min,  0.186 sec
     gradient                   ...        0 min,  0.012 sec
 * total energy  :  -133.6582808 Eh     change       -0.1381750E-02 Eh
   gradient norm :     0.0113771 Eh/α   predicted    -0.1353188E-02 (  -2.07%)
   displ. norm   :     0.6773706 α      lambda       -0.1617922E-02
   maximum displ.:     0.4262304 α      in ANC's #5, #7, #2, ...

........................................................................
.............................. CYCLE   14 ..............................
........................................................................

 iter      E             dE          RMSdq      gap      omega  full diag
   1   -134.7875231 -0.134788E+03  0.344E-01    0.22       0.0  T
   2   -134.2693588  0.518164E+00  0.232E+00    0.21       1.0  T
   3   -134.7775046 -0.508146E+00  0.380E-01    0.32       1.0  T
   4   -134.7878473 -0.103427E-01  0.206E-01    0.22       1.0  T
   5   -134.7868829  0.964421E-03  0.186E-01    0.23       1.0  T
   6   -134.7884471 -0.156417E-02  0.132E-01    0.21       1.0  T
   7   -134.7892448 -0.797708E-03  0.845E-02    0.19       1.0  T
   8   -134.7897455 -0.500727E-03  0.299E-02    0.18       1.0  T
   9   -134.7897789 -0.333603E-04  0.178E-02    0.18       1.0  T
  10   -134.7898017 -0.228062E-04  0.782E-03    0.17       1.8  T
  11   -134.7898022 -0.487625E-06  0.500E-03    0.17       2.7  T
  12   -134.7898016  0.580996E-06  0.514E-03    0.17       2.7  T
  13   -134.7898018 -0.187188E-06  0.447E-03    0.17       3.1  T
  14   -134.7898030 -0.124898E-05  0.217E-03    0.17       6.3  T
  15   -134.7898033 -0.310125E-06  0.741E-04    0.17      18.5  T
  16   -134.7898033  0.384441E-08  0.631E-04    0.17      21.8  T
     SCC iter.                  ...        0 min,  0.179 sec
     gradient                   ...        0 min,  0.013 sec
 * total energy  :  -133.6596266 Eh     change       -0.1345786E-02 Eh
   gradient norm :     0.0146323 Eh/α   predicted    -0.1180152E-02 ( -12.31%)
   displ. norm   :     0.7095516 α      lambda       -0.1632006E-02
   maximum displ.:     0.4269746 α      in ANC's #5, #7, #2, ...

........................................................................
.............................. CYCLE   15 ..............................
........................................................................

 iter      E             dE          RMSdq      gap      omega  full diag
   1   -134.7905462 -0.134791E+03  0.322E-01    0.23       0.0  T
   2   -134.4462944  0.344252E+00  0.191E+00    0.11       1.0  T
   3   -134.7794108 -0.333116E+00  0.405E-01    0.35       1.0  T
   4   -134.7899101 -0.104992E-01  0.209E-01    0.24       1.0  T
   5   -134.7887923  0.111774E-02  0.193E-01    0.25       1.0  T
   6   -134.7906712 -0.187885E-02  0.143E-01    0.22       1.0  T
   7   -134.7913815 -0.710293E-03  0.988E-02    0.21       1.0  T
   8   -134.7918339 -0.452454E-03  0.565E-02    0.20       1.0  T
   9   -134.7920478 -0.213874E-03  0.258E-02    0.19       1.0  T
  10   -134.7920904 -0.426052E-04  0.120E-02    0.19       1.1  T
  11   -134.7920977 -0.725707E-05  0.455E-03    0.18       3.0  T
  12   -134.7920959  0.173927E-05  0.576E-03    0.18       2.4  T
  13   -134.7920967 -0.804202E-06  0.478E-03    0.18       2.9  T
  14   -134.7920979 -0.121175E-05  0.261E-03    0.18       5.3  T
  15   -134.7920984 -0.426902E-06  0.955E-04    0.18      14.4  T
  16   -134.7920984 -0.865111E-08  0.749E-04    0.18      18.3  T
     SCC iter.                  ...        0 min,  0.223 sec
     gradient                   ...        0 min,  0.012 sec
 * total energy  :  -133.6610606 Eh     change       -0.1434001E-02 Eh
   gradient norm :     0.0161936 Eh/α   predicted    -0.1226829E-02 ( -14.45%)
   displ. norm   :     0.7310637 α      lambda       -0.1844876E-02
   maximum displ.:     0.4151368 α      in ANC's #5, #7, #2, ...

........................................................................
.............................. CYCLE   16 ..............................
........................................................................

 iter      E             dE          RMSdq      gap      omega  full diag
   1   -134.7945721 -0.134795E+03  0.328E-01    0.22       0.0  T
   2   -134.7910930  0.347908E-02  0.339E-01    0.15       1.0  T
   3   -134.7830995  0.799347E-02  0.380E-01    0.39       1.0  T
   4   -134.7904407 -0.734118E-02  0.241E-01    0.15       1.0  T
   5   -134.7925968 -0.215609E-02  0.181E-01    0.26       1.0  T
   6   -134.7948391 -0.224226E-02  0.815E-02    0.22       1.0  T
   7   -134.7953079 -0.468804E-03  0.333E-02    0.20       1.0  T
   8   -134.7952895  0.183782E-04  0.314E-02    0.19       1.0  T
   9   -134.7953312 -0.416913E-04  0.185E-02    0.19       1.0  T
  10   -134.7953424 -0.112093E-04  0.109E-02    0.20       1.3  T
  11   -134.7953480 -0.563738E-05  0.539E-03    0.20       2.5  T
  12   -134.7953473  0.757322E-06  0.556E-03    0.20       2.5  T
  13   -134.7953483 -0.106160E-05  0.258E-03    0.20       5.3  T
  14   -134.7953485 -0.195874E-06  0.156E-03    0.20       8.8  T
  15   -134.7953486 -0.627274E-07  0.949E-04    0.20      14.5  T
  16   -134.7953486  0.119602E-07  0.734E-04    0.20      18.7  T
     SCC iter.                  ...        0 min,  0.235 sec
     gradient                   ...        0 min,  0.011 sec
 * total energy  :  -133.6626568 Eh     change       -0.1596173E-02 Eh
   gradient norm :     0.0154153 Eh/α   predicted    -0.1415444E-02 ( -11.32%)
   displ. norm   :     0.7489652 α      lambda       -0.1855925E-02
   maximum displ.:     0.4477074 α      in ANC's #5, #2, #6, ...

........................................................................
.............................. CYCLE   17 ..............................
........................................................................

 iter      E             dE          RMSdq      gap      omega  full diag
   1   -134.7943754 -0.134794E+03  0.363E-01    0.21       0.0  T
   2   -134.7800818  0.142936E-01  0.672E-01    0.41       1.0  T
   3   -134.7699785  0.101032E-01  0.533E-01    0.11       1.0  T
   4   -134.7889904 -0.190119E-01  0.305E-01    0.35       1.0  T
   5   -134.7953385 -0.634806E-02  0.141E-01    0.26       1.0  T
   6   -134.7959146 -0.576150E-03  0.109E-01    0.24       1.0  T
   7   -134.7960704 -0.155830E-03  0.840E-02    0.24       1.0  T
   8   -134.7964193 -0.348849E-03  0.433E-02    0.22       1.0  T
   9   -134.7964975 -0.782659E-04  0.153E-02    0.21       1.0  T
  10   -134.7964973  0.230278E-06  0.118E-02    0.21       1.2  T
  11   -134.7965022 -0.485961E-05  0.713E-03    0.21       1.9  T
  12   -134.7965030 -0.844981E-06  0.464E-03    0.21       3.0  T
  13   -134.7965033 -0.252129E-06  0.351E-03    0.21       3.9  T
  14   -134.7965034 -0.145322E-06  0.249E-03    0.21       5.5  T
  15   -134.7965034 -0.158136E-07  0.162E-03    0.21       8.5  T
  16   -134.7965035 -0.497822E-07  0.121E-03    0.21      11.4  T
  17   -134.7965035 -0.215236E-07  0.657E-04    0.21      20.9  T
  18   -134.7965035 -0.416560E-08  0.424E-04    0.21      32.4  T
     SCC iter.                  ...        0 min,  0.213 sec
     gradient                   ...        0 min,  0.011 sec
 * total energy  :  -133.6642877 Eh     change       -0.1630938E-02 Eh
   gradient norm :     0.0162583 Eh/α   predicted    -0.1448509E-02 ( -11.19%)
   displ. norm   :     0.7642749 α      lambda       -0.2038235E-02
   maximum displ.:     0.4819772 α      in ANC's #5, #6, #2, ...

........................................................................
.............................. CYCLE   18 ..............................
........................................................................

 iter      E             dE          RMSdq      gap      omega  full diag
   1   -134.7895423 -0.134790E+03  0.503E-01    0.19       0.0  T
   2   -134.7556399  0.339024E-01  0.126E+00    0.77       1.0  T
   3   -134.7887148 -0.330749E-01  0.520E-01    0.37       1.0  T
   4   -134.7970574 -0.834261E-02  0.168E-01    0.19       1.0  T
   5   -134.7940135  0.304388E-02  0.232E-01    0.33       1.0  T
   6   -134.7947290 -0.715523E-03  0.207E-01    0.18       1.0  T
   7   -134.7981073 -0.337826E-02  0.610E-02    0.24       1.0  T
   8   -134.7980087  0.986037E-04  0.527E-02    0.24       1.0  T
   9   -134.7979622  0.465363E-04  0.626E-02    0.24       1.0  T
  10   -134.7981822 -0.220018E-03  0.168E-02    0.23       1.0  T
  11   -134.7981942 -0.120348E-04  0.852E-03    0.23       1.6  T
  12   -134.7981944 -0.236154E-06  0.655E-03    0.23       2.1  T
  13   -134.7981958 -0.135170E-05  0.393E-03    0.23       3.5  T
  14   -134.7981961 -0.312756E-06  0.275E-03    0.23       5.0  T
  15   -134.7981961  0.155932E-07  0.239E-03    0.23       5.7  T
  16   -134.7981962 -0.132127E-06  0.146E-03    0.23       9.4  T
  17   -134.7981962 -0.169450E-07  0.923E-04    0.23      14.9  T
  18   -134.7981963 -0.274934E-07  0.491E-04    0.23      28.0  T
     SCC iter.                  ...        0 min,  0.236 sec
     gradient                   ...        0 min,  0.015 sec
 * total energy  :  -133.6661561 Eh     change       -0.1868428E-02 Eh
   gradient norm :     0.0184521 Eh/α   predicted    -0.1614405E-02 ( -13.60%)
   displ. norm   :     0.7837049 α      lambda       -0.2592843E-02
   maximum displ.:     0.4989396 α      in ANC's #5, #6, #2, ...

........................................................................
.............................. CYCLE   19 ..............................
........................................................................

 iter      E             dE          RMSdq      gap      omega  full diag
   1   -134.7699847 -0.134770E+03  0.840E-01    0.18       0.0  T
   2   -134.6985829  0.714018E-01  0.231E+00    0.86       1.0  T
   3   -134.7618510 -0.632681E-01  0.128E+00    0.68       1.0  T
   4   -134.7907029 -0.288518E-01  0.427E-01    0.37       1.0  T
   5   -134.7270406  0.636623E-01  0.867E-01    0.09       1.0  T
   6   -134.7956363 -0.685957E-01  0.543E-01    0.25       1.0  T
   7   -134.7993088 -0.367256E-02  0.240E-01    0.27       1.0  T
   8   -134.7988971  0.411733E-03  0.138E-01    0.30       1.0  T
   9   -134.7986252  0.271872E-03  0.125E-01    0.29       1.0  T
  10   -134.7993500 -0.724779E-03  0.798E-02    0.28       1.0  T
  11   -134.7996805 -0.330448E-03  0.457E-02    0.26       1.0  T
  12   -134.7998278 -0.147333E-03  0.153E-02    0.25       1.0  T
  13   -134.7998300 -0.216167E-05  0.152E-02    0.24       1.0  T
  14   -134.7998350 -0.500935E-05  0.107E-02    0.24       1.3  T
  15   -134.7998389 -0.398218E-05  0.478E-03    0.24       2.9  T
  16   -134.7998392 -0.289178E-06  0.562E-03    0.24       2.4  T
  17   -134.7998392  0.158303E-07  0.414E-03    0.24       3.3  T
  18   -134.7998394 -0.137762E-06  0.194E-03    0.24       7.1  T
  19   -134.7998395 -0.176881E-06  0.150E-03    0.24       9.1  T
  20   -134.7998395  0.204513E-07  0.934E-04    0.24      14.7  T
  21   -134.7998396 -0.565758E-07  0.328E-04    0.24      41.8  T
     SCC iter.                  ...        0 min,  0.325 sec
     gradient                   ...        0 min,  0.012 sec
 * total energy  :  -133.6685747 Eh     change       -0.2418614E-02 Eh
   gradient norm :     0.0249279 Eh/α   predicted    -0.2092689E-02 ( -13.48%)
   displ. norm   :     0.8128680 α      lambda       -0.3417346E-02
   maximum displ.:     0.5110934 α      in ANC's #5, #6, #4, ...

........................................................................
.............................. CYCLE   20 ..............................
........................................................................

 iter      E             dE          RMSdq      gap      omega  full diag
   1   -134.7348374 -0.134735E+03  0.127E+00    0.18       0.0  T
   2   -134.5864882  0.148349E+00  0.364E+00    0.70       1.0  T
   3   -134.7161629 -0.129675E+00  0.220E+00    0.63       1.0  T
   4   -134.7621881 -0.460253E-01  0.116E+00    0.48       1.0  T
   5   -134.7640415 -0.185339E-02  0.706E-01    0.14       1.0  T
   6   -134.7882089 -0.241674E-01  0.108E+00    0.35       1.0  T
   7   -134.7954158 -0.720692E-02  0.637E-01    0.29       1.0  T
   8   -134.7964040 -0.988163E-03  0.528E-01    0.29       1.0  T
   9   -134.7975311 -0.112709E-02  0.318E-01    0.28       1.0  T
  10   -134.7980389 -0.507816E-03  0.955E-02    0.27       1.0  T
  11   -134.7982741 -0.235175E-03  0.398E-02    0.25       1.0  T
  12   -134.7981956  0.785089E-04  0.688E-02    0.24       1.0  T
  13   -134.7982402 -0.446848E-04  0.567E-02    0.25       1.0  T
  14   -134.7983016 -0.613536E-04  0.195E-02    0.25       1.0  T
  15   -134.7983051 -0.346835E-05  0.838E-03    0.25       1.6  T
  16   -134.7983055 -0.479828E-06  0.698E-03    0.25       2.0  T
  17   -134.7983051  0.471458E-06  0.812E-03    0.25       1.7  T
  18   -134.7983061 -0.107625E-05  0.444E-03    0.25       3.1  T
  19   -134.7983064 -0.256852E-06  0.128E-03    0.25      10.8  T
  20   -134.7983064  0.316748E-07  0.144E-03    0.25       9.5  T
  21   -134.7983064  0.660958E-08  0.144E-03    0.25       9.5  T
  22   -134.7983064 -0.663722E-07  0.378E-04    0.25      36.4  T
  23   -134.7983064  0.131933E-07  0.986E-04    0.25      13.9  T
     SCC iter.                  ...        0 min,  0.309 sec
     gradient                   ...        0 min,  0.012 sec
 * total energy  :  -133.6719582 Eh     change       -0.3383451E-02 Eh
   gradient norm :     0.0312783 Eh/α   predicted    -0.2837690E-02 ( -16.13%)
   displ. norm   :     0.8593801 α      lambda       -0.5227516E-02
   maximum displ.:     0.4851652 α      in ANC's #5, #6, #4, ...
 * RMSD in coord.:     1.4229886 α      energy gain  -0.3890680E-01 Eh

generating ANC from exact Hessian ...
Using Lindh-Hessian (1995)
 Shifting diagonal of input Hessian by   1.908918036353879E-002
 Lowest  eigenvalues of input Hessian
    0.010000    0.018566    0.018641    0.000000    0.000000    0.000000
    0.000000    0.000000    0.000000    0.019298    0.019476    0.019569
    0.019856    0.019970    0.020317    0.020727    0.021308    0.021532
 Highest eigenvalues
    2.023659    2.065002    2.252992    2.274426    2.416430    2.544547
 

........................................................................
.............................. CYCLE   21 ..............................
........................................................................

 iter      E             dE          RMSdq      gap      omega  full diag
   1   -134.6996540 -0.134700E+03  0.165E+00    0.19       0.0  T
   2   -134.4165644  0.283090E+00  0.470E+00    0.47       1.0  T
   3   -134.6363608 -0.219796E+00  0.294E+00    0.32       1.0  T
   4   -134.7429643 -0.106603E+00  0.150E+00    0.22       1.0  T
   5   -134.7693749 -0.264106E-01  0.111E+00    0.17       1.0  T
   6   -134.7689361  0.438772E-03  0.150E+00    0.23       1.0  T
   7   -134.7654050  0.353113E-02  0.121E+00    0.19       1.0  T
   8   -134.7875671 -0.221621E-01  0.768E-01    0.21       1.0  T
   9   -134.7784548  0.911229E-02  0.917E-01    0.20       1.0  T
  10   -134.7751074  0.334747E-02  0.107E+00    0.20       1.0  T
  11   -134.7923362 -0.172288E-01  0.151E-01    0.18       1.0  T
  12   -134.7926260 -0.289768E-03  0.321E-02    0.17       1.0  T
  13   -134.7926155  0.104272E-04  0.436E-02    0.17       1.0  T
  14   -134.7924799  0.135610E-03  0.956E-02    0.17       1.0  T
  15   -134.7925980 -0.118076E-03  0.547E-02    0.17       1.0  T
  16   -134.7926310 -0.330477E-04  0.285E-02    0.17       1.0  T
  17   -134.7926296  0.141641E-05  0.285E-02    0.17       1.0  T
  18   -134.7926365 -0.684274E-05  0.186E-02    0.17       1.0  T
  19   -134.7926368 -0.342953E-06  0.170E-02    0.17       1.0  T
  20   -134.7926375 -0.673738E-06  0.157E-02    0.17       1.0  T
  21   -134.7926412 -0.375046E-05  0.369E-03    0.17       3.7  T
  22   -134.7926412  0.180138E-07  0.357E-03    0.17       3.8  T
  23   -134.7926412  0.233363E-07  0.266E-03    0.17       5.2  T
  24   -134.7926410  0.184013E-06  0.534E-03    0.17       2.6  T
  25   -134.7926413 -0.290011E-06  0.193E-03    0.17       7.1  T
  26   -134.7926413 -0.181176E-07  0.497E-04    0.17      27.6  T
  27   -134.7926413  0.355016E-09  0.909E-04    0.17      15.1  T
     SCC iter.                  ...        0 min,  0.350 sec
     gradient                   ...        0 min,  0.015 sec
 * total energy  :  -133.6767734 Eh     change       -0.4815170E-02 Eh
   gradient norm :     0.0570481 Eh/α   predicted     0.0000000E+00 (-100.00%)
   displ. norm   :     0.3039859 α      lambda       -0.6860021E-02
   maximum displ.:     0.1256117 α      in ANC's #1, #5, #9, ...

........................................................................
.............................. CYCLE   22 ..............................
........................................................................

 iter      E             dE          RMSdq      gap      omega  full diag
   1   -134.7668168 -0.134767E+03  0.159E+00    0.24       0.0  T
   2   -134.4973073  0.269510E+00  0.499E+00    0.52       1.0  T
   3   -134.7669972 -0.269690E+00  0.163E+00    0.13       1.0  T
   4   -134.7981508 -0.311536E-01  0.249E-01    0.12       1.0  T
   5   -134.7905469  0.760390E-02  0.556E-01    0.13       1.0  T
   6   -134.7963737 -0.582678E-02  0.419E-01    0.14       1.0  T
   7   -134.7980640 -0.169030E-02  0.383E-01    0.14       1.0  T
   8   -134.7979819  0.821067E-04  0.326E-01    0.14       1.0  T
   9   -134.7992235 -0.124167E-02  0.149E-01    0.12       1.0  T
  10   -134.7991545  0.689918E-04  0.172E-01    0.12       1.0  T
  11   -134.7994629 -0.308375E-03  0.118E-02    0.13       1.2  T
  12   -134.7994522  0.106791E-04  0.375E-02    0.13       1.0  T
  13   -134.7994619 -0.962103E-05  0.190E-02    0.13       1.0  T
  14   -134.7994658 -0.392002E-05  0.388E-03    0.13       3.5  T
  15   -134.7994660 -0.213052E-06  0.257E-03    0.13       5.4  T
  16   -134.7994660 -0.944468E-08  0.283E-03    0.13       4.9  T
  17   -134.7994661 -0.127871E-06  0.974E-04    0.13      14.1  T
  18   -134.7994661  0.663473E-07  0.266E-03    0.13       5.2  T
  19   -134.7994661 -0.531593E-07  0.158E-03    0.13       8.7  T
  20   -134.7994661 -0.181729E-07  0.110E-03    0.13      12.5  T
  21   -134.7994661 -0.119487E-07  0.497E-04    0.13      27.7  T
     SCC iter.                  ...        0 min,  0.346 sec
     gradient                   ...        0 min,  0.030 sec
 * total energy  :  -133.6817001 Eh     change       -0.4926719E-02 Eh
   gradient norm :     0.0415211 Eh/α   predicted    -0.3748556E-02 ( -23.91%)
   displ. norm   :     0.7330091 α      lambda       -0.1751465E-01
   maximum displ.:     0.3042103 α      in ANC's #1, #5, #9, ...

........................................................................
.............................. CYCLE   23 ..............................
........................................................................

 iter      E             dE          RMSdq      gap      omega  full diag
   1   -134.7546219 -0.134755E+03  0.179E+00    0.37       0.0  T
   2   -134.4113403  0.343282E+00  0.544E+00    0.48       1.0  T
   3   -134.8009046 -0.389564E+00  0.603E-01    0.09       1.0  T
   4   -134.7847657  0.161389E-01  0.114E+00    0.33       1.0  T
   5   -134.8039462 -0.191805E-01  0.321E-01    0.11       1.0  T
   6   -134.8065735 -0.262728E-02  0.220E-01    0.14       1.0  T
   7   -134.8075301 -0.956556E-03  0.108E-01    0.14       1.0  T
   8   -134.8076843 -0.154273E-03  0.677E-02    0.13       1.0  T
   9   -134.8076847 -0.305881E-06  0.757E-02    0.13       1.0  T
  10   -134.8077162 -0.315315E-04  0.412E-02    0.13       1.0  T
  11   -134.8077410 -0.248016E-04  0.386E-02    0.14       1.0  T
  12   -134.8077630 -0.219959E-04  0.132E-02    0.13       1.0  T
  13   -134.8077449  0.180584E-04  0.337E-02    0.13       1.0  T
  14   -134.8077602 -0.152866E-04  0.155E-02    0.13       1.0  T
  15   -134.8077627 -0.252559E-05  0.133E-02    0.14       1.0  T
  16   -134.8077638 -0.105912E-05  0.104E-02    0.13       1.3  T
  17   -134.8077642 -0.374726E-06  0.912E-03    0.13       1.5  T
  18   -134.8077652 -0.105355E-05  0.272E-03    0.13       5.0  T
  19   -134.8077652  0.661838E-07  0.296E-03    0.13       4.6  T
  20   -134.8077652 -0.819500E-07  0.219E-03    0.13       6.3  T
  21   -134.8077653 -0.687718E-07  0.563E-04    0.13      24.4  T
  22   -134.8077653 -0.415980E-09  0.375E-04    0.13      36.6  T
     SCC iter.                  ...        0 min,  0.347 sec
     gradient                   ...        0 min,  0.012 sec
 * total energy  :  -133.6901214 Eh     change       -0.8421356E-02 Eh
   gradient norm :     0.0853247 Eh/α   predicted    -0.1346266E-01 (  59.86%)
   displ. norm   :     0.5757956 α      lambda       -0.1701421E-01
   maximum displ.:     0.1774797 α      in ANC's #5, #9, #69, ...

........................................................................
.............................. CYCLE   24 ..............................
........................................................................

 iter      E             dE          RMSdq      gap      omega  full diag
   1   -134.8019667 -0.134802E+03  0.107E+00    0.43       0.0  T
   2   -134.7029921  0.989746E-01  0.225E+00    0.17       1.0  T
   3   -134.8149939 -0.112002E+00  0.378E-01    0.47       1.0  T
   4   -134.8120064  0.298755E-02  0.357E-01    0.28       1.0  T
   5   -134.8140980 -0.209168E-02  0.265E-01    0.43       1.0  T
   6   -134.8160424 -0.194440E-02  0.118E-01    0.40       1.0  T
   7   -134.8164241 -0.381646E-03  0.505E-02    0.35       1.0  T
   8   -134.8164323 -0.820417E-05  0.319E-02    0.34       1.0  T
   9   -134.8164365 -0.418938E-05  0.237E-02    0.34       1.0  T
  10   -134.8164479 -0.114126E-04  0.132E-02    0.34       1.0  T
  11   -134.8164486 -0.714515E-06  0.107E-02    0.34       1.3  T
  12   -134.8164478  0.825600E-06  0.106E-02    0.34       1.3  T
  13   -134.8164493 -0.151939E-05  0.778E-03    0.34       1.8  T
  14   -134.8164502 -0.926270E-06  0.429E-03    0.34       3.2  T
  15   -134.8164504 -0.142693E-06  0.210E-03    0.34       6.5  T
  16   -134.8164504 -0.211144E-07  0.157E-03    0.34       8.7  T
  17   -134.8164504  0.433374E-09  0.154E-03    0.34       8.9  T
  18   -134.8164504 -0.234654E-07  0.127E-03    0.34      10.8  T
  19   -134.8164504 -0.136520E-07  0.710E-04    0.34      19.3  T
  20   -134.8164504 -0.474100E-08  0.322E-04    0.34      42.6  T
     SCC iter.                  ...        0 min,  0.399 sec
     gradient                   ...        0 min,  0.013 sec
 * total energy  :  -133.7048037 Eh     change       -0.1468228E-01 Eh
   gradient norm :     0.0893445 Eh/α   predicted    -0.1132760E-01 ( -22.85%)
   displ. norm   :     0.6012815 α      lambda       -0.2601721E-01
   maximum displ.:     0.1926939 α      in ANC's #1, #24, #39, ...

........................................................................
.............................. CYCLE   25 ..............................
........................................................................

 iter      E             dE          RMSdq      gap      omega  full diag
   1   -134.8330274 -0.134833E+03  0.136E+00    0.34       0.0  T
   2   -134.8321707  0.856695E-03  0.520E-01    0.40       1.0  T
   3   -134.7922682  0.399026E-01  0.949E-01    0.18       1.0  T
   4   -134.8313757 -0.391076E-01  0.364E-01    0.66       1.0  T
   5   -134.8351594 -0.378368E-02  0.171E-01    0.46       1.0  T
   6   -134.8357034 -0.544047E-03  0.108E-01    0.40       1.0  T
   7   -134.8358663 -0.162900E-03  0.770E-02    0.36       1.0  T
   8   -134.8358790 -0.126768E-04  0.586E-02    0.38       1.0  T
   9   -134.8359609 -0.819178E-04  0.336E-02    0.34       1.0  T
  10   -134.8359871 -0.261407E-04  0.187E-02    0.35       1.0  T
  11   -134.8359926 -0.556032E-05  0.108E-02    0.35       1.3  T
  12   -134.8359945 -0.181390E-05  0.686E-03    0.35       2.0  T
  13   -134.8359945 -0.663732E-08  0.534E-03    0.35       2.6  T
  14   -134.8359950 -0.566767E-06  0.383E-03    0.35       3.6  T
  15   -134.8359953 -0.283576E-06  0.221E-03    0.35       6.2  T
  16   -134.8359954 -0.798412E-07  0.126E-03    0.35      10.9  T
  17   -134.8359954  0.182725E-07  0.125E-03    0.35      11.0  T
  18   -134.8359954 -0.386250E-07  0.659E-04    0.35      20.8  T
  19   -134.8359954 -0.551512E-08  0.312E-04    0.35      44.0  T
     SCC iter.                  ...        0 min,  0.319 sec
     gradient                   ...        0 min,  0.034 sec
 * total energy  :  -133.7203610 Eh     change       -0.1555726E-01 Eh
   gradient norm :     0.0693393 Eh/α   predicted    -0.1771174E-01 (  13.85%)
   displ. norm   :     0.4209144 α      lambda       -0.1462410E-01
   maximum displ.:     0.1543348 α      in ANC's #24, #39, #23, ...

........................................................................
.............................. CYCLE   26 ..............................
........................................................................

 iter      E             dE          RMSdq      gap      omega  full diag
   1   -134.8409518 -0.134841E+03  0.445E-01    0.33       0.0  T
   2   -134.8413460 -0.394238E-03  0.185E-01    0.35       1.0  T
   3   -134.8400882  0.125780E-02  0.192E-01    0.28       1.0  T
   4   -134.8404738 -0.385591E-03  0.167E-01    0.43       1.0  T
   5   -134.8415732 -0.109938E-02  0.610E-02    0.34       1.0  T
   6   -134.8415975 -0.242974E-04  0.424E-02    0.34       1.0  T
   7   -134.8416277 -0.302231E-04  0.239E-02    0.33       1.0  T
   8   -134.8416309 -0.316113E-05  0.204E-02    0.34       1.0  T
   9   -134.8416408 -0.994424E-05  0.107E-02    0.33       1.3  T
  10   -134.8416424 -0.162731E-05  0.719E-03    0.34       1.9  T
  11   -134.8416428 -0.400379E-06  0.436E-03    0.34       3.1  T
  12   -134.8416433 -0.409326E-06  0.238E-03    0.33       5.8  T
  13   -134.8416433 -0.701588E-07  0.146E-03    0.33       9.4  T
  14   -134.8416434 -0.379882E-07  0.960E-04    0.34      14.3  T
  15   -134.8416434 -0.133488E-07  0.606E-04    0.33      22.7  T
     SCC iter.                  ...        0 min,  0.187 sec
     gradient                   ...        0 min,  0.013 sec
 * total energy  :  -133.7288738 Eh     change       -0.8512809E-02 Eh
   gradient norm :     0.0505006 Eh/α   predicted    -0.8607524E-02 (   1.11%)
   displ. norm   :     0.5384765 α      lambda       -0.1337877E-01
   maximum displ.:     0.1440975 α      in ANC's #42, #46, #36, ...

........................................................................
.............................. CYCLE   27 ..............................
........................................................................

 iter      E             dE          RMSdq      gap      omega  full diag
   1   -134.8570927 -0.134857E+03  0.584E-01    0.53       0.0  T
   2   -134.8520251  0.506766E-02  0.402E-01    0.25       1.0  T
   3   -134.8519854  0.396496E-04  0.464E-01    0.76       1.0  T
   4   -134.8577310 -0.574559E-02  0.190E-01    0.58       1.0  T
   5   -134.8583832 -0.652161E-03  0.118E-01    0.47       1.0  T
   6   -134.8584610 -0.778105E-04  0.105E-01    0.41       1.0  T
   7   -134.8585381 -0.771170E-04  0.673E-02    0.42       1.0  T
   8   -134.8586180 -0.799256E-04  0.347E-02    0.39       1.0  T
   9   -134.8586194 -0.139386E-05  0.302E-02    0.38       1.0  T
  10   -134.8586376 -0.181776E-04  0.183E-02    0.40       1.0  T
  11   -134.8586428 -0.516344E-05  0.119E-02    0.40       1.2  T
  12   -134.8586438 -0.101029E-05  0.870E-03    0.40       1.6  T
  13   -134.8586439 -0.162132E-06  0.708E-03    0.40       1.9  T
  14   -134.8586446 -0.675466E-06  0.479E-03    0.40       2.9  T
  15   -134.8586449 -0.269244E-06  0.311E-03    0.40       4.4  T
  16   -134.8586450 -0.104133E-06  0.192E-03    0.40       7.2  T
  17   -134.8586450 -0.167225E-08  0.136E-03    0.40      10.1  T
  18   -134.8586450 -0.358535E-07  0.715E-04    0.40      19.2  T
  19   -134.8586450 -0.400772E-08  0.495E-04    0.40      27.7  T
     SCC iter.                  ...        0 min,  0.232 sec
     gradient                   ...        0 min,  0.011 sec
 * total energy  :  -133.7359714 Eh     change       -0.7097581E-02 Eh
   gradient norm :     0.0428315 Eh/α   predicted    -0.8629019E-02 (  21.58%)
   displ. norm   :     0.5403547 α      lambda       -0.8232180E-02
   maximum displ.:     0.1957073 α      in ANC's #9, #1, #24, ...

........................................................................
.............................. CYCLE   28 ..............................
........................................................................

 iter      E             dE          RMSdq      gap      omega  full diag
   1   -134.8554576 -0.134855E+03  0.736E-01    0.33       0.0  T
   2   -134.8543795  0.107802E-02  0.387E-01    0.58       1.0  T
   3   -134.8371397  0.172398E-01  0.618E-01    0.21       1.0  T
   4   -134.8553521 -0.182124E-01  0.227E-01    0.61       1.0  T
   5   -134.8566721 -0.131995E-02  0.132E-01    0.50       1.0  T
   6   -134.8570430 -0.370897E-03  0.939E-02    0.45       1.0  T
   7   -134.8571469 -0.103905E-03  0.687E-02    0.42       1.0  T
   8   -134.8572092 -0.623524E-04  0.375E-02    0.39       1.0  T
   9   -134.8572089  0.335161E-06  0.328E-02    0.37       1.0  T
  10   -134.8572373 -0.283625E-04  0.173E-02    0.38       1.0  T
  11   -134.8572442 -0.697257E-05  0.751E-03    0.39       1.8  T
  12   -134.8572448 -0.533252E-06  0.476E-03    0.39       2.9  T
  13   -134.8572450 -0.225587E-06  0.306E-03    0.39       4.5  T
  14   -134.8572451 -0.111993E-06  0.173E-03    0.39       7.9  T
  15   -134.8572452 -0.781535E-07  0.888E-04    0.39      15.5  T
  16   -134.8572452 -0.697415E-08  0.568E-04    0.39      24.2  T
     SCC iter.                  ...        0 min,  0.182 sec
     gradient                   ...        0 min,  0.012 sec
 * total energy  :  -133.7362863 Eh     change       -0.3149286E-03 Eh
   gradient norm :     0.0549280 Eh/α   predicted    -0.5317964E-02 (1588.63%)
   displ. norm   :     0.3251162 α      lambda       -0.1198673E-01
   maximum displ.:     0.0937485 α      in ANC's #56, #65, #69, ...

........................................................................
.............................. CYCLE   29 ..............................
........................................................................

 iter      E             dE          RMSdq      gap      omega  full diag
   1   -134.8510107 -0.134851E+03  0.727E-01    0.44       0.0  T
   2   -134.8506669  0.343812E-03  0.276E-01    0.39       1.0  T
   3   -134.8469541  0.371273E-02  0.393E-01    0.49       1.0  T
   4   -134.8518060 -0.485189E-02  0.122E-01    0.42       1.0  T
   5   -134.8521650 -0.358993E-03  0.504E-02    0.42       1.0  T
   6   -134.8521216  0.434559E-04  0.500E-02    0.42       1.0  T
   7   -134.8521961 -0.745679E-04  0.206E-02    0.42       1.0  T
   8   -134.8522001 -0.396298E-05  0.122E-02    0.42       1.1  T
   9   -134.8521999  0.156958E-06  0.104E-02    0.42       1.3  T
  10   -134.8522019 -0.197494E-05  0.632E-03    0.42       2.2  T
  11   -134.8522025 -0.643144E-06  0.353E-03    0.42       3.9  T
  12   -134.8522026 -0.990514E-08  0.245E-03    0.42       5.6  T
  13   -134.8522026 -0.428679E-07  0.181E-03    0.42       7.6  T
  14   -134.8522027 -0.574047E-07  0.115E-03    0.42      11.9  T
  15   -134.8522027 -0.560934E-08  0.732E-04    0.42      18.8  T
  16   -134.8522027 -0.486222E-08  0.462E-04    0.42      29.7  T
     SCC iter.                  ...        0 min,  0.174 sec
     gradient                   ...        0 min,  0.012 sec
 * total energy  :  -133.7394766 Eh     change       -0.3190334E-02 Eh
   gradient norm :     0.0452201 Eh/α   predicted    -0.6626871E-02 ( 107.72%)
   displ. norm   :     0.2332201 α      lambda       -0.5414172E-02
   maximum displ.:     0.1204565 α      in ANC's #1, #26, #10, ...

........................................................................
.............................. CYCLE   30 ..............................
........................................................................

 iter      E             dE          RMSdq      gap      omega  full diag
   1   -134.8580039 -0.134858E+03  0.422E-01    0.43       0.0  T
   2   -134.8580696 -0.656935E-04  0.150E-01    0.43       1.0  T
   3   -134.8573015  0.768072E-03  0.177E-01    0.40       1.0  T
   4   -134.8581007 -0.799173E-03  0.822E-02    0.45       1.0  T
   5   -134.8581986 -0.979096E-04  0.507E-02    0.42       1.0  T
   6   -134.8581850  0.135714E-04  0.396E-02    0.42       1.0  T
   7   -134.8582306 -0.456163E-04  0.171E-02    0.43       1.0  T
   8   -134.8582314 -0.803603E-06  0.112E-02    0.43       1.2  T
   9   -134.8582341 -0.270656E-05  0.698E-03    0.43       2.0  T
  10   -134.8582350 -0.859437E-06  0.430E-03    0.43       3.2  T
  11   -134.8582350 -0.451428E-08  0.287E-03    0.43       4.8  T
  12   -134.8582351 -0.681572E-07  0.206E-03    0.43       6.7  T
  13   -134.8582352 -0.926916E-07  0.121E-03    0.43      11.3  T
  14   -134.8582352 -0.100281E-07  0.737E-04    0.43      18.6  T
  15   -134.8582352 -0.878629E-09  0.500E-04    0.43      27.5  T
     SCC iter.                  ...        0 min,  0.179 sec
     gradient                   ...        0 min,  0.013 sec
 * total energy  :  -133.7421742 Eh     change       -0.2697555E-02 Eh
   gradient norm :     0.0190183 Eh/α   predicted    -0.2854336E-02 (   5.81%)
   displ. norm   :     0.2742914 α      lambda       -0.1853137E-02
   maximum displ.:     0.1440207 α      in ANC's #9, #4, #3, ...

........................................................................
.............................. CYCLE   31 ..............................
........................................................................

 iter      E             dE          RMSdq      gap      omega  full diag
   1   -134.8615140 -0.134862E+03  0.261E-01    0.42       0.0  T
   2   -134.8614767  0.373199E-04  0.101E-01    0.46       1.0  T
   3   -134.8607878  0.688940E-03  0.147E-01    0.37       1.0  T
   4   -134.8615974 -0.809597E-03  0.318E-02    0.44       1.0  T
   5   -134.8616092 -0.118507E-04  0.241E-02    0.42       1.0  T
   6   -134.8616119 -0.272810E-05  0.165E-02    0.43       1.0  T
   7   -134.8616154 -0.348419E-05  0.107E-02    0.43       1.3  T
   8   -134.8616170 -0.154915E-05  0.709E-03    0.43       1.9  T
   9   -134.8616187 -0.169772E-05  0.380E-03    0.43       3.6  T
  10   -134.8616188 -0.167352E-06  0.231E-03    0.43       5.9  T
  11   -134.8616189 -0.104740E-06  0.119E-03    0.43      11.6  T
  12   -134.8616189  0.304269E-08  0.840E-04    0.43      16.4  T
  13   -134.8616190 -0.133614E-07  0.471E-04    0.43      29.2  T
     SCC iter.                  ...        0 min,  0.178 sec
     gradient                   ...        0 min,  0.012 sec
 * total energy  :  -133.7435606 Eh     change       -0.1386464E-02 Eh
   gradient norm :     0.0119808 Eh/α   predicted    -0.9963001E-03 ( -28.14%)
   displ. norm   :     0.5230435 α      lambda       -0.2346626E-02
   maximum displ.:     0.2730527 α      in ANC's #9, #4, #3, ...

........................................................................
.............................. CYCLE   32 ..............................
........................................................................

 iter      E             dE          RMSdq      gap      omega  full diag
   1   -134.8614263 -0.134861E+03  0.483E-01    0.44       0.0  T
   2   -134.8614157  0.105901E-04  0.204E-01    0.52       1.0  T
   3   -134.8599530  0.146274E-02  0.233E-01    0.39       1.0  T
   4   -134.8616417 -0.168870E-02  0.100E-01    0.50       1.0  T
   5   -134.8618774 -0.235757E-03  0.527E-02    0.47       1.0  T
   6   -134.8618930 -0.155892E-04  0.368E-02    0.46       1.0  T
   7   -134.8619114 -0.183805E-04  0.230E-02    0.46       1.0  T
   8   -134.8619233 -0.118596E-04  0.117E-02    0.46       1.2  T
   9   -134.8619251 -0.181664E-05  0.881E-03    0.47       1.6  T
  10   -134.8619266 -0.148357E-05  0.464E-03    0.47       3.0  T
  11   -134.8619267 -0.168274E-06  0.279E-03    0.47       4.9  T
  12   -134.8619268 -0.102819E-06  0.192E-03    0.46       7.1  T
  13   -134.8619269 -0.121742E-07  0.136E-03    0.46      10.1  T
  14   -134.8619269 -0.412296E-07  0.767E-04    0.46      17.9  T
  15   -134.8619269 -0.666077E-08  0.504E-04    0.47      27.2  T
     SCC iter.                  ...        0 min,  0.173 sec
     gradient                   ...        0 min,  0.012 sec
 * total energy  :  -133.7449482 Eh     change       -0.1387547E-02 Eh
   gradient norm :     0.0154732 Eh/α   predicted    -0.1494311E-02 (   7.69%)
   displ. norm   :     0.4548151 α      lambda       -0.1679975E-02
   maximum displ.:     0.2461645 α      in ANC's #4, #9, #3, ...

........................................................................
.............................. CYCLE   33 ..............................
........................................................................

 iter      E             dE          RMSdq      gap      omega  full diag
   1   -134.8634804 -0.134863E+03  0.296E-01    0.46       0.0  T
   2   -134.8633613  0.119088E-03  0.139E-01    0.50       1.0  T
   3   -134.8627731  0.588259E-03  0.166E-01    0.45       1.0  T
   4   -134.8636267 -0.853646E-03  0.531E-02    0.48       1.0  T
   5   -134.8636631 -0.363586E-04  0.382E-02    0.48       1.0  T
   6   -134.8636969 -0.337588E-04  0.290E-02    0.47       1.0  T
   7   -134.8637140 -0.171570E-04  0.117E-02    0.48       1.2  T
   8   -134.8637159 -0.189589E-05  0.738E-03    0.48       1.9  T
   9   -134.8637164 -0.468902E-06  0.523E-03    0.48       2.6  T
  10   -134.8637169 -0.509749E-06  0.288E-03    0.48       4.8  T
  11   -134.8637170 -0.106667E-06  0.152E-03    0.48       9.0  T
  12   -134.8637170 -0.367824E-07  0.827E-04    0.48      16.6  T
  13   -134.8637170 -0.427764E-08  0.584E-04    0.48      23.5  T
     SCC iter.                  ...        0 min,  0.203 sec
     gradient                   ...        0 min,  0.011 sec
 * total energy  :  -133.7461916 Eh     change       -0.1243425E-02 Eh
   gradient norm :     0.0163134 Eh/α   predicted    -0.1013751E-02 ( -18.47%)
   displ. norm   :     0.5067922 α      lambda       -0.1562077E-02
   maximum displ.:     0.3021670 α      in ANC's #4, #9, #5, ...

........................................................................
.............................. CYCLE   34 ..............................
........................................................................

 iter      E             dE          RMSdq      gap      omega  full diag
   1   -134.8635922 -0.134864E+03  0.269E-01    0.46       0.0  T
   2   -134.8635490  0.431774E-04  0.121E-01    0.51       1.0  T
   3   -134.8630917  0.457329E-03  0.143E-01    0.44       1.0  T
   4   -134.8636892 -0.597510E-03  0.478E-02    0.49       1.0  T
   5   -134.8637118 -0.226642E-04  0.333E-02    0.49       1.0  T
   6   -134.8637385 -0.266597E-04  0.282E-02    0.48       1.0  T
   7   -134.8637542 -0.156978E-04  0.107E-02    0.48       1.3  T
   8   -134.8637560 -0.183657E-05  0.661E-03    0.48       2.1  T
   9   -134.8637563 -0.239650E-06  0.444E-03    0.49       3.1  T
  10   -134.8637563 -0.843806E-07  0.329E-03    0.49       4.2  T
  11   -134.8637566 -0.270706E-06  0.141E-03    0.49       9.7  T
  12   -134.8637566 -0.131087E-07  0.952E-04    0.49      14.4  T
  13   -134.8637566  0.220206E-08  0.769E-04    0.49      17.9  T
     SCC iter.                  ...        0 min,  0.202 sec
     gradient                   ...        0 min,  0.013 sec
 * total energy  :  -133.7474053 Eh     change       -0.1213644E-02 Eh
   gradient norm :     0.0175745 Eh/α   predicted    -0.9816472E-03 ( -19.12%)
   displ. norm   :     0.6199499 α      lambda       -0.1904553E-02
   maximum displ.:     0.3845416 α      in ANC's #4, #9, #5, ...

........................................................................
.............................. CYCLE   35 ..............................
........................................................................

 iter      E             dE          RMSdq      gap      omega  full diag
   1   -134.8649100 -0.134865E+03  0.340E-01    0.52       0.0  T
   2   -134.8649982 -0.881834E-04  0.119E-01    0.51       1.0  T
   3   -134.8648909  0.107314E-03  0.837E-02    0.52       1.0  T
   4   -134.8649381 -0.471536E-04  0.645E-02    0.51       1.0  T
   5   -134.8650437 -0.105675E-03  0.326E-02    0.52       1.0  T
   6   -134.8650544 -0.106261E-04  0.237E-02    0.52       1.0  T
   7   -134.8650672 -0.128108E-04  0.107E-02    0.52       1.3  T
   8   -134.8650687 -0.154393E-05  0.669E-03    0.52       2.1  T
   9   -134.8650689 -0.206356E-06  0.480E-03    0.52       2.9  T
  10   -134.8650692 -0.310702E-06  0.313E-03    0.52       4.4  T
  11   -134.8650694 -0.144294E-06  0.169E-03    0.52       8.1  T
  12   -134.8650694 -0.137546E-07  0.115E-03    0.52      11.9  T
  13   -134.8650694  0.356877E-08  0.106E-03    0.52      13.0  T
  14   -134.8650694 -0.189559E-07  0.588E-04    0.52      23.4  T
  15   -134.8650694 -0.263714E-08  0.323E-04    0.52      42.6  T
     SCC iter.                  ...        0 min,  0.227 sec
     gradient                   ...        0 min,  0.013 sec
 * total energy  :  -133.7488397 Eh     change       -0.1434469E-02 Eh
   gradient norm :     0.0181790 Eh/α   predicted    -0.1318277E-02 (  -8.10%)
   displ. norm   :     0.6220169 α      lambda       -0.1845213E-02
   maximum displ.:     0.3945998 α      in ANC's #4, #5, #9, ...

........................................................................
.............................. CYCLE   36 ..............................
........................................................................

 iter      E             dE          RMSdq      gap      omega  full diag
   1   -134.8646955 -0.134865E+03  0.321E-01    0.50       0.0  T
   2   -134.8646421  0.534119E-04  0.122E-01    0.54       1.0  T
   3   -134.8637920  0.850110E-03  0.186E-01    0.47       1.0  T
   4   -134.8647640 -0.971995E-03  0.513E-02    0.52       1.0  T
   5   -134.8647850 -0.209683E-04  0.392E-02    0.53       1.0  T
   6   -134.8648093 -0.243608E-04  0.238E-02    0.52       1.0  T
   7   -134.8648196 -0.102990E-04  0.126E-02    0.52       1.1  T
   8   -134.8648205 -0.871525E-06  0.920E-03    0.52       1.5  T
   9   -134.8648216 -0.110367E-05  0.678E-03    0.52       2.0  T
  10   -134.8648221 -0.524103E-06  0.402E-03    0.52       3.4  T
  11   -134.8648223 -0.173611E-06  0.262E-03    0.52       5.2  T
  12   -134.8648224 -0.100035E-06  0.184E-03    0.52       7.5  T
  13   -134.8648225 -0.506418E-07  0.116E-03    0.52      11.8  T
  14   -134.8648225 -0.636709E-08  0.854E-04    0.52      16.1  T
  15   -134.8648225 -0.121280E-07  0.462E-04    0.52      29.7  T
     SCC iter.                  ...        0 min,  0.253 sec
     gradient                   ...        0 min,  0.012 sec
 * total energy  :  -133.7503435 Eh     change       -0.1503805E-02 Eh
   gradient norm :     0.0177176 Eh/α   predicted    -0.1279572E-02 ( -14.91%)
   displ. norm   :     0.6635357 α      lambda       -0.1876861E-02
   maximum displ.:     0.4267217 α      in ANC's #4, #5, #9, ...

........................................................................
.............................. CYCLE   37 ..............................
........................................................................

 iter      E             dE          RMSdq      gap      omega  full diag
   1   -134.8656099 -0.134866E+03  0.344E-01    0.53       0.0  T
   2   -134.8654651  0.144806E-03  0.131E-01    0.53       1.0  T
   3   -134.8639650  0.150012E-02  0.231E-01    0.52       1.0  T
   4   -134.8656871 -0.172207E-02  0.466E-02    0.53       1.0  T
   5   -134.8657140 -0.269866E-04  0.346E-02    0.52       1.0  T
   6   -134.8657236 -0.957379E-05  0.224E-02    0.53       1.0  T
   7   -134.8657301 -0.652244E-05  0.119E-02    0.53       1.2  T
   8   -134.8657307 -0.566026E-06  0.919E-03    0.53       1.5  T
   9   -134.8657322 -0.149706E-05  0.609E-03    0.53       2.3  T
  10   -134.8657323 -0.114196E-06  0.472E-03    0.53       2.9  T
  11   -134.8657328 -0.445257E-06  0.255E-03    0.53       5.4  T
  12   -134.8657328 -0.398886E-07  0.185E-03    0.53       7.4  T
  13   -134.8657328 -0.337496E-07  0.138E-03    0.53       9.9  T
  14   -134.8657329 -0.269513E-07  0.889E-04    0.53      15.4  T
  15   -134.8657329 -0.759078E-08  0.539E-04    0.53      25.5  T
     SCC iter.                  ...        0 min,  0.181 sec
     gradient                   ...        0 min,  0.012 sec
 * total energy  :  -133.7519361 Eh     change       -0.1592591E-02 Eh
   gradient norm :     0.0152736 Eh/α   predicted    -0.1351611E-02 ( -15.13%)
   displ. norm   :     0.7240158 α      lambda       -0.1843910E-02
   maximum displ.:     0.4667556 α      in ANC's #4, #5, #9, ...

........................................................................
.............................. CYCLE   38 ..............................
........................................................................

 iter      E             dE          RMSdq      gap      omega  full diag
   1   -134.8671521 -0.134867E+03  0.372E-01    0.53       0.0  T
   2   -134.8669795  0.172546E-03  0.139E-01    0.55       1.0  T
   3   -134.8650516  0.192793E-02  0.259E-01    0.50       1.0  T
   4   -134.8672639 -0.221228E-02  0.477E-02    0.54       1.0  T
   5   -134.8672821 -0.181993E-04  0.339E-02    0.53       1.0  T
   6   -134.8672863 -0.418364E-05  0.239E-02    0.53       1.0  T
   7   -134.8673000 -0.137505E-04  0.127E-02    0.53       1.1  T
   8   -134.8673010 -0.986796E-06  0.916E-03    0.53       1.5  T
   9   -134.8673016 -0.605887E-06  0.721E-03    0.54       1.9  T
  10   -134.8673021 -0.540017E-06  0.469E-03    0.53       2.9  T
  11   -134.8673024 -0.230230E-06  0.285E-03    0.53       4.8  T
  12   -134.8673024 -0.192543E-07  0.237E-03    0.53       5.8  T
  13   -134.8673025 -0.110778E-06  0.135E-03    0.53      10.2  T
  14   -134.8673025 -0.248735E-08  0.947E-04    0.53      14.5  T
  15   -134.8673025 -0.940850E-08  0.521E-04    0.53      26.3  T
     SCC iter.                  ...        0 min,  0.180 sec
     gradient                   ...        0 min,  0.012 sec
 * total energy  :  -133.7535063 Eh     change       -0.1570136E-02 Eh
   gradient norm :     0.0141785 Eh/α   predicted    -0.1405251E-02 ( -10.50%)
   displ. norm   :     0.7794969 α      lambda       -0.1719546E-02
   maximum displ.:     0.5045939 α      in ANC's #4, #9, #5, ...

........................................................................
.............................. CYCLE   39 ..............................
........................................................................

 iter      E             dE          RMSdq      gap      omega  full diag
   1   -134.8671218 -0.134867E+03  0.374E-01    0.54       0.0  T
   2   -134.8670416  0.801484E-04  0.141E-01    0.54       1.0  T
   3   -134.8658875  0.115415E-02  0.201E-01    0.53       1.0  T
   4   -134.8671070 -0.121952E-02  0.729E-02    0.55       1.0  T
   5   -134.8672322 -0.125183E-03  0.428E-02    0.53       1.0  T
   6   -134.8672585 -0.262598E-04  0.241E-02    0.54       1.0  T
   7   -134.8672682 -0.970419E-05  0.123E-02    0.54       1.1  T
   8   -134.8672697 -0.155476E-05  0.828E-03    0.54       1.7  T
   9   -134.8672703 -0.533104E-06  0.563E-03    0.54       2.4  T
  10   -134.8672700  0.208260E-06  0.435E-03    0.54       3.2  T
  11   -134.8672705 -0.447722E-06  0.253E-03    0.54       5.4  T
  12   -134.8672705 -0.488317E-07  0.180E-03    0.54       7.6  T
  13   -134.8672706 -0.214918E-07  0.137E-03    0.54      10.1  T
  14   -134.8672706 -0.793781E-08  0.957E-04    0.54      14.3  T
  15   -134.8672706 -0.920403E-08  0.579E-04    0.54      23.7  T
     SCC iter.                  ...        0 min,  0.205 sec
     gradient                   ...        0 min,  0.012 sec
 * total energy  :  -133.7550214 Eh     change       -0.1515120E-02 Eh
   gradient norm :     0.0159272 Eh/α   predicted    -0.1382190E-02 (  -8.77%)
   displ. norm   :     0.7763945 α      lambda       -0.1793641E-02
   maximum displ.:     0.4945949 α      in ANC's #4, #9, #5, ...

........................................................................
.............................. CYCLE   40 ..............................
........................................................................

 iter      E             dE          RMSdq      gap      omega  full diag
   1   -134.8709504 -0.134871E+03  0.357E-01    0.55       0.0  T
   2   -134.8709292  0.212721E-04  0.134E-01    0.55       1.0  T
   3   -134.8699721  0.957058E-03  0.183E-01    0.54       1.0  T
   4   -134.8709808 -0.100865E-02  0.699E-02    0.56       1.0  T
   5   -134.8710851 -0.104363E-03  0.431E-02    0.54       1.0  T
   6   -134.8711054 -0.202707E-04  0.259E-02    0.55       1.0  T
   7   -134.8711207 -0.152819E-04  0.125E-02    0.55       1.1  T
   8   -134.8711217 -0.105370E-05  0.873E-03    0.55       1.6  T
   9   -134.8711220 -0.232352E-06  0.700E-03    0.55       2.0  T
  10   -134.8711224 -0.446162E-06  0.504E-03    0.55       2.7  T
  11   -134.8711228 -0.343967E-06  0.280E-03    0.55       4.9  T
  12   -134.8711227  0.242854E-07  0.245E-03    0.55       5.6  T
  13   -134.8711229 -0.118944E-06  0.140E-03    0.55       9.8  T
  14   -134.8711229 -0.103259E-07  0.815E-04    0.55      16.8  T
  15   -134.8711229 -0.318073E-08  0.509E-04    0.55      27.0  T
     SCC iter.                  ...        0 min,  0.206 sec
     gradient                   ...        0 min,  0.013 sec
 * total energy  :  -133.7565703 Eh     change       -0.1548957E-02 Eh
   gradient norm :     0.0156404 Eh/α   predicted    -0.1437422E-02 (  -7.20%)
   displ. norm   :     0.8312481 α      lambda       -0.1786356E-02
   maximum displ.:     0.5208944 α      in ANC's #4, #9, #5, ...

........................................................................
.............................. CYCLE   41 ..............................
........................................................................

 iter      E             dE          RMSdq      gap      omega  full diag
   1   -134.8669771 -0.134867E+03  0.365E-01    0.55       0.0  T
   2   -134.8670090 -0.318483E-04  0.142E-01    0.56       1.0  T
   3   -134.8666830  0.325938E-03  0.119E-01    0.54       1.0  T
   4   -134.8669286 -0.245522E-03  0.760E-02    0.56       1.0  T
   5   -134.8670920 -0.163454E-03  0.454E-02    0.55       1.0  T
   6   -134.8671026 -0.106205E-04  0.322E-02    0.56       1.0  T
   7   -134.8671305 -0.278249E-04  0.136E-02    0.55       1.0  T
   8   -134.8671325 -0.199520E-05  0.919E-03    0.55       1.5  T
   9   -134.8671323  0.194916E-06  0.817E-03    0.56       1.7  T
  10   -134.8671334 -0.117747E-05  0.525E-03    0.55       2.6  T
  11   -134.8671337 -0.299915E-06  0.258E-03    0.55       5.3  T
  12   -134.8671337  0.139337E-08  0.199E-03    0.55       6.9  T
  13   -134.8671338 -0.373713E-07  0.145E-03    0.55       9.5  T
  14   -134.8671338 -0.113341E-07  0.967E-04    0.55      14.2  T
  15   -134.8671338 -0.192992E-07  0.541E-04    0.55      25.4  T
     SCC iter.                  ...        0 min,  0.233 sec
     gradient                   ...        0 min,  0.012 sec
 * total energy  :  -133.7581582 Eh     change       -0.1587903E-02 Eh
   gradient norm :     0.0148107 Eh/α   predicted    -0.1510336E-02 (  -4.88%)
   displ. norm   :     0.7066303 α      lambda       -0.2054827E-02
   maximum displ.:     0.3976070 α      in ANC's #4, #9, #5, ...

........................................................................
.............................. CYCLE   42 ..............................
........................................................................

 iter      E             dE          RMSdq      gap      omega  full diag
   1   -134.8789185 -0.134879E+03  0.334E-01    0.55       0.0  T
   2   -134.8789906 -0.721104E-04  0.147E-01    0.53       1.0  T
   3   -134.8786193  0.371299E-03  0.145E-01    0.58       1.0  T
   4   -134.8791275 -0.508244E-03  0.667E-02    0.53       1.0  T
   5   -134.8792005 -0.729313E-04  0.358E-02    0.55       1.0  T
   6   -134.8791923  0.817489E-05  0.306E-02    0.54       1.0  T
   7   -134.8792053 -0.130136E-04  0.202E-02    0.54       1.0  T
   8   -134.8792142 -0.890848E-05  0.113E-02    0.54       1.2  T
   9   -134.8792152 -0.103104E-05  0.850E-03    0.54       1.6  T
  10   -134.8792167 -0.145487E-05  0.512E-03    0.54       2.7  T
  11   -134.8792167  0.181662E-07  0.373E-03    0.54       3.7  T
  12   -134.8792170 -0.276112E-06  0.248E-03    0.54       5.5  T
  13   -134.8792170 -0.695897E-07  0.159E-03    0.54       8.6  T
  14   -134.8792170 -0.143671E-07  0.104E-03    0.54      13.3  T
  15   -134.8792171 -0.162438E-07  0.559E-04    0.54      24.6  T
  16   -134.8792171 -0.443907E-08  0.322E-04    0.54      42.6  T
     SCC iter.                  ...        0 min,  0.326 sec
     gradient                   ...        0 min,  0.016 sec
 * total energy  :  -133.7594050 Eh     change       -0.1246783E-02 Eh
   gradient norm :     0.0214492 Eh/α   predicted    -0.1540437E-02 (  23.55%)
   displ. norm   :     0.7780827 α      lambda       -0.1961870E-02
   maximum displ.:     0.4699192 α      in ANC's #4, #9, #5, ...

   *** FAILED TO CONVERGE GEOMETRY OPTIMIZATION IN 42 ITERATIONS ***


 ANCopt (total)                0 d,  0 h,  0 min, 11.159 sec
 optimizer setup                ...        0 min,  0.001 sec (  0.009%)
 model hessian                  ...        0 min,  0.023 sec (  0.206%)
 ANC generation                 ...        0 min,  0.009 sec (  0.081%)
 coordinate transformation      ...        0 min,  0.001 sec (  0.009%)
 single point calculation       ...        0 min, 11.047 sec ( 98.996%)
 optimization log               ...        0 min,  0.040 sec (  0.358%)
 hessian update                 ...        0 min,  0.021 sec (  0.188%)
 rational function              ...        0 min,  0.010 sec (  0.090%)

================
 final structure:
================
53
 xtb: 6.7.1pre (5071a88)
C            0.03708300478042       -3.46154497962529        6.51645280238519
N            0.10238740721090       -2.02103195624382        6.73060009458023
C            1.06651634912018       -1.55051374201457        7.57875833812991
O            1.98676923771313       -2.21288345580277        8.00522833975860
N            0.95323361969305       -0.16652501151505        7.79409124276540
C            1.96593269514644        0.69658051937399        8.21011750172966
N            1.78575534677249        1.89331272128098        7.77824326542341
C            0.62970028396364        1.88554612921757        7.01336305718080
C            0.07966694464222        0.60555432820446        7.03795383330189
N           -1.06481799078895        0.06899259307783        6.53473478359080
N           -1.17121807455399       -1.35166961826876        6.54306998144358
C            0.23538615303081        3.01762718879853        6.16350844911960
O            0.77531276156120        4.10270040149160        6.14389792354016
N           -0.77610186606696        2.70255574645754        5.26479069562056
H            0.80509459403626       -3.92104848408745        7.13969534346002
H            0.21492129413248       -3.70033909851702        5.46027582096711
H           -0.95238717024208       -3.81509192181056        6.82288052431138
H            2.76987884693367        0.35073453683336        8.82798861122674
H           -1.45180434089808        1.96569290420412        5.47004437051739
H           -1.10548221344195        3.49760163418270        4.72911978018432
Ti          -2.38899391299501       -2.91119328750019        2.88439308534015
Ti           0.09407698409320       -1.58877620341209        2.24799509870115
Ti           1.49463698570472       -3.08823756549531        0.00883119133177
Ti          -2.65509036899325       -0.10403340024029        2.21463928288188
Ti           1.87415563068785        0.52974560807012        3.16709892781495
Ti          -0.99103508054022       -0.59584522788149        4.79383329453069
Ti          -2.49431579732990       -2.93329831131536       -0.43804692561752
Ti          -0.79792734702875       -0.70797171637430       -1.05364703929768
Ti           1.62434148694560       -1.55372214790435       -2.62188994004333
Ti          -1.98110849266262        1.89560479359537       -0.33609663149998
Ti           2.24662329192894        0.51937454538854        0.16729534288195
Ti           0.70407068473764        1.87196959163414       -2.07891369505446
C           -3.74199789942328        1.49213124110783        1.56967373174677
C            3.94729702534413        0.56072804330760        1.35380049353860
C            0.31380936158277        2.40028703726957        1.24321463957139
C           -3.73777713794794        2.29905838614584        0.62758910168992
C            3.85037827325486        0.67186973953866        2.58659004974819
C           -0.71162072463954        2.94013322768724        0.69645945163481
C            1.41279074244393        1.83008731487303        1.70626707414035
O           -3.30932981267783       -1.75464417622969        1.90613149675615
O           -0.72485787188558       -2.54425822286425        3.54737582356007
O           -0.05243025925986       -2.71067628074506        0.93983553351837
O           -0.94392643886045       -0.26333511746159        1.92691530310142
O            1.73996101485302       -1.16297972882833        2.22319873966557
O           -2.48089818744992       -0.14194374530557        3.94574180625458
O            0.60107988858407       -0.08144463667404        4.29013500845255
O           -1.76165132194407       -4.32447255468587       -0.79852169290992
O           -0.14976160682305       -1.16235825952204       -2.59457490986236
O            2.48743733310368       -2.23792711449973       -1.15540286172086
O           -2.24340178465679       -0.18417484498575       -0.34794276322964
O            0.61880168297959       -0.27347815778737       -0.18367093129965
O           -1.01866177927601        1.59988804060967       -1.90891971831227
O            2.28950155540941        1.42764369524028       -1.32684912738672
 
 Bond Distances (Angstroems)
 ---------------------------
C1-N2=1.4578         C1-H15=1.0906        C1-H16=1.0973        C1-H17=1.0945        N2-C1=1.4578         N2-C3=1.3676         
N2-N11=1.4510        N2-Ti26=2.6416       C3-N2=1.3676         C3-O4=1.2114         C3-N5=1.4052         O4-C3=1.2114         
N5-C3=1.4052         N5-C6=1.3941         N5-C9=1.3896         C6-N5=1.3941         C6-N7=1.2850         C6-H18=1.0713        
N7-C6=1.2850         N7-C8=1.3862         C8-N7=1.3862         C8-C9=1.3934         C8-C12=1.4695        C9-N5=1.3896         
C9-C8=1.3934         C9-N10=1.3605        C9-Ti26=2.7615       N10-C9=1.3605        N10-N11=1.4247       N10-Ti26=1.8650      
N11-N2=1.4510        N11-N10=1.4247       N11-Ti26=1.9140      C12-C8=1.4695        C12-O13=1.2121       C12-N14=1.3893       
O13-C12=1.2121       N14-C12=1.3893       N14-H19=1.0206       N14-H20=1.0137       H15-C1=1.0906        H16-C1=1.0973        
H17-C1=1.0945        H18-C6=1.0713        H19-N14=1.0206       H20-N14=1.0137       Ti21-Ti22=2.8843     Ti21-Ti24=2.8982     
Ti21-Ti26=3.3108     Ti21-Ti27=3.3242     Ti21-O40=1.7725      Ti21-O41=1.8285      Ti22-Ti21=2.8843     Ti22-Ti23=3.0371     
Ti22-Ti24=3.1247     Ti22-Ti25=2.9157     Ti22-Ti26=2.9402     Ti22-Ti28=3.5316     Ti22-Ti31=3.6616     Ti22-O41=1.8089      
Ti22-O42=1.7296      Ti22-O43=1.7139      Ti22-O44=1.7003      Ti22-O46=2.5883      Ti23-Ti22=3.0371     Ti23-Ti28=3.4714     
Ti23-Ti29=3.0483     Ti23-Ti31=3.6886     Ti23-O42=1.8447      Ti23-O49=1.7505      Ti24-Ti21=2.8982     Ti24-Ti22=3.1247     
Ti24-Ti26=3.1086     Ti24-Ti28=3.8073     Ti24-Ti30=3.3104     Ti24-C33=2.0359      Ti24-O40=1.8021      Ti24-O43=1.7425      
Ti24-O45=1.7403      Ti24-O50=2.5967      Ti25-Ti22=2.9157     Ti25-Ti26=3.4817     Ti25-Ti31=3.0229     Ti25-C34=2.7544      
Ti25-C37=2.0646      Ti25-C39=2.0094      Ti25-O44=1.9427      Ti25-O46=1.8043      Ti26-N2=2.6416       Ti26-C9=2.7615       
Ti26-N10=1.8650      Ti26-N11=1.9140      Ti26-Ti21=3.3108     Ti26-Ti22=2.9402     Ti26-Ti24=3.1086     Ti26-Ti25=3.4817     
Ti26-O41=2.3283      Ti26-O45=1.7734      Ti26-O46=1.7473      Ti27-Ti21=3.3242     Ti27-Ti28=2.8651     Ti27-O40=2.7475      
Ti27-O47=1.6131      Ti28-Ti22=3.5316     Ti28-Ti23=3.4714     Ti28-Ti24=3.8073     Ti28-Ti27=2.8651     Ti28-Ti29=3.0070     
Ti28-Ti30=2.9485     Ti28-Ti31=3.5023     Ti28-Ti32=3.1565     Ti28-O48=1.7324      Ti28-O50=1.6917      Ti28-O51=1.7184      
Ti28-O52=2.4711      Ti29-Ti23=3.0483     Ti29-Ti28=3.0070     Ti29-Ti31=3.5305     Ti29-Ti32=3.5885     Ti29-O48=1.8170      
Ti29-O49=1.8340      Ti30-Ti24=3.3104     Ti30-Ti28=2.9485     Ti30-Ti32=3.2013     Ti30-C33=2.6259      Ti30-C35=2.8312      
Ti30-C36=2.0439      Ti30-C38=1.9413      Ti30-O50=2.0963      Ti30-O52=1.8675      Ti31-Ti22=3.6616     Ti31-Ti23=3.6886     
Ti31-Ti25=3.0229     Ti31-Ti28=3.5023     Ti31-Ti29=3.5305     Ti31-Ti32=3.0421     Ti31-C34=2.0741      Ti31-C39=2.1867      
Ti31-O44=2.7044      Ti31-O51=1.8443      Ti31-O53=1.7491      Ti32-Ti28=3.1565     Ti32-Ti29=3.5885     Ti32-Ti30=3.2013     
Ti32-Ti31=3.0421     Ti32-O52=1.7524      Ti32-O53=1.8101      C33-Ti24=2.0359      C33-Ti30=2.6259      C33-C36=1.2404       
C34-Ti25=2.7544      C34-Ti31=2.0741      C34-C37=1.2416       C35-Ti30=2.8312      C35-C38=1.2814       C35-C39=1.3219       
C36-Ti30=2.0439      C36-C33=1.2404       C37-Ti25=2.0646      C37-C34=1.2416       C38-Ti30=1.9413      C38-C35=1.2814       
C39-Ti25=2.0094      C39-Ti31=2.1867      C39-C35=1.3219       O40-Ti21=1.7725      O40-Ti24=1.8021      O40-Ti27=2.7475      
O41-Ti21=1.8285      O41-Ti22=1.8089      O41-Ti26=2.3283      O42-Ti22=1.7296      O42-Ti23=1.8447      O43-Ti22=1.7139      
O43-Ti24=1.7425      O44-Ti22=1.7003      O44-Ti25=1.9427      O44-Ti31=2.7044      O45-Ti24=1.7403      O45-Ti26=1.7734      
O46-Ti22=2.5883      O46-Ti25=1.8043      O46-Ti26=1.7473      O47-Ti27=1.6131      O48-Ti28=1.7324      O48-Ti29=1.8170      
O49-Ti23=1.7505      O49-Ti29=1.8340      O50-Ti24=2.5967      O50-Ti28=1.6917      O50-Ti30=2.0963      O51-Ti28=1.7184      
O51-Ti31=1.8443      O52-Ti28=2.4711      O52-Ti30=1.8675      O52-Ti32=1.7524      O53-Ti31=1.7491      O53-Ti32=1.8101      
 C  H  Rav=1.0884 sigma=0.0102  Rmin=1.0713  Rmax=1.0973     4
 C  C  Rav=1.3247 sigma=0.0832  Rmin=1.2404  Rmax=1.4695     6
 N  H  Rav=1.0171 sigma=0.0035  Rmin=1.0137  Rmax=1.0206     2
 N  C  Rav=1.3817 sigma=0.0430  Rmin=1.2850  Rmax=1.4578     9
 N  N  Rav=1.4378 sigma=0.0131  Rmin=1.4247  Rmax=1.4510     2
 O  C  Rav=1.2118 sigma=0.0004  Rmin=1.2114  Rmax=1.2121     2
 Ti C  Rav=2.3026 sigma=0.3405  Rmin=1.9413  Rmax=2.8312    11
 Ti N  Rav=2.1402 sigma=0.3551  Rmin=1.8650  Rmax=2.6416     3
 Ti O  Rav=1.9292 sigma=0.3195  Rmin=1.6131  Rmax=2.7475    33
 Ti Ti Rav=3.2374 sigma=0.2796  Rmin=2.8651  Rmax=3.8073    27
 
 selected bond angles (degree)
 --------------------
H15-C1-N2=107.51               H16-C1-N2=110.44               H16-C1-H15=110.13              H17-C1-N2=108.58               
H17-C1-H15=109.91              H17-C1-H16=110.22              C3-N2-C1=117.56                N11-N2-C1=113.42               
N11-N2-C3=122.70               Ti26-N2-C1=114.01              Ti26-N2-C3=124.12              Ti26-N2-N11= 45.01             
O4-C3-N2=124.46                N5-C3-N2=112.15                N5-C3-O4=123.08                C6-N5-C3=126.65                
C9-N5-C3=120.97                C9-N5-C6=105.97                N7-C6-N5=111.99                H18-C6-N5=121.16               
H18-C6-N7=126.85               C8-N7-C6=107.29                C9-C8-N7=108.94                C12-C8-N7=122.59               
C12-C8-C9=127.73               C8-C9-N5=105.77                N10-C9-N5=120.73               N10-C9-C8=133.46               
Ti26-C9-N5=116.37              Ti26-C9-C8=122.57              Ti26-C9-N10= 37.03             N11-N10-C9=117.00              
Ti26-N10-C9=116.91             Ti26-N10-N11= 69.69            
 
 selected dihedral angles (degree)
 ---------------------------------
C3-N2-C1-H15=  1.71           C3-N2-C1-H16=241.53           C3-N2-C1-H17=120.57           N11-N2-C1-H15=208.81          
N11-N2-C1-H16= 88.63          N11-N2-C1-H17=327.67          Ti26-N2-C1-H15=159.39         Ti26-N2-C1-H16= 39.21         
Ti26-N2-C1-H17=278.25         O4-C3-N2-C1= 11.51            O4-C3-N2-N11=161.73           O4-C3-N2-Ti26=216.29          
N5-C3-N2-C1=185.25            N5-C3-N2-N11=335.46           N5-C3-N2-Ti26= 30.02          C6-N5-C3-N2=202.78            
C6-N5-C3-O4= 16.62            C9-N5-C3-N2=350.59            C9-N5-C3-O4=164.42            N7-C6-N5-C3=151.46            
N7-C6-N5-C9=359.84            H18-C6-N5-C3=330.72           H18-C6-N5-C9=179.10           C8-N7-C6-N5=358.90            
C8-N7-C6-H18=179.69           C9-C8-N7-C6=  1.96            C12-C8-N7-C6=191.10           C8-C9-N5-C3=207.74            
C8-C9-N5-C6=  1.34            N10-C9-N5-C3= 29.71           N10-C9-N5-C6=183.31           Ti26-C9-N5-C3=347.60          
Ti26-C9-N5-C6=141.20          N5-C9-C8-N7=357.97            N5-C9-C8-C12=168.23           N10-C9-C8-N7=175.64           
N10-C9-C8-C12=345.89          Ti26-C9-C8-N7=221.23          Ti26-C9-C8-C12= 31.49         N11-N10-C9-N5=345.71          
N11-N10-C9-C8=168.32          N11-N10-C9-Ti26= 79.73        Ti26-N10-C9-N5=265.98         Ti26-N10-C9-C8= 88.59         
 
 CMA Distance (Angstroems)
 ---------------------------
R(CMA):  6.2177
           -------------------------------------------------
          |                Final Singlepoint                |
           -------------------------------------------------

          ...................................................
          :                      SETUP                      :
          :.................................................:
          :  # basis functions                 266          :
          :  # atomic orbitals                 254          :
          :  # shells                          112          :
          :  # electrons                       232          :
          :  max. iterations                   500          :
          :  Hamiltonian                  GFN2-xTB          :
          :  restarted?                      false          :
          :  GBSA solvation                  false          :
          :  PC potential                    false          :
          :  electronic temp.          500.0000000     K    :
          :  accuracy                    1.0000000          :
          :  -> integral cutoff          0.2500000E+02      :
          :  -> integral neglect         0.1000000E-07      :
          :  -> SCF convergence          0.1000000E-05 Eh   :
          :  -> wf. convergence          0.1000000E-03 e    :
          :  Broyden damping             0.4000000          :
          :  net charge                          0          :
          :  unpaired electrons                  0          :
          ...................................................

 iter      E             dE          RMSdq      gap      omega  full diag
   1   -134.8684861 -0.134868E+03  0.349E-01    0.55       0.0  T
   2   -134.8684607  0.253754E-04  0.129E-01    0.56       1.0  T
   3   -134.8674070  0.105371E-02  0.195E-01    0.52       1.0  T
   4   -134.8685728 -0.116579E-02  0.559E-02    0.55       1.0  T
   5   -134.8686041 -0.313085E-04  0.399E-02    0.55       1.0  T
   6   -134.8686115 -0.739335E-05  0.278E-02    0.55       1.0  T
   7   -134.8686273 -0.157791E-04  0.146E-02    0.55       1.0  T
   8   -134.8686301 -0.286863E-05  0.962E-03    0.55       1.4  T
   9   -134.8686307 -0.595672E-06  0.753E-03    0.55       1.8  T
  10   -134.8686312 -0.419874E-06  0.563E-03    0.55       2.4  T
  11   -134.8686318 -0.621409E-06  0.283E-03    0.55       4.9  T
  12   -134.8686318 -0.138519E-07  0.212E-03    0.55       6.5  T
  13   -134.8686318 -0.434485E-07  0.150E-03    0.55       9.2  T
  14   -134.8686318  0.207052E-09  0.112E-03    0.55      12.3  T
  15   -134.8686319 -0.307548E-07  0.532E-04    0.55      25.8  T
  16   -134.8686319 -0.574042E-08  0.287E-04    0.55      47.9  T

   *** convergence criteria satisfied after 16 iterations ***

         #    Occupation            Energy/Eh            Energy/eV
      -------------------------------------------------------------
         1        2.0000           -0.8456125             -23.0103
       ...           ...                  ...                  ...
       110        2.0000           -0.3757242             -10.2240
       111        2.0000           -0.3659545              -9.9581
       112        2.0000           -0.3616637              -9.8414
       113        2.0000           -0.3531465              -9.6096
       114        2.0000           -0.3434259              -9.3451
       115        2.0000           -0.3414144              -9.2904
       116        1.9959           -0.3272019              -8.9036 (HOMO)
       117        0.0028           -0.3069749              -8.3532 (LUMO)
       118        0.0011           -0.3055043              -8.3132
       119        0.0002           -0.3025055              -8.2316
       120        0.0001           -0.3007230              -8.1831
       121        0.0000           -0.2996462              -8.1538
       ...           ...                  ...                  ...
       254                         15.1355037             411.8580
      -------------------------------------------------------------
                  HL-Gap            0.0202270 Eh            0.5504 eV
             Fermi-level           -0.3174014 Eh           -8.6369 eV

 SCC (total)                   0 d,  0 h,  0 min,  0.336 sec
 SCC setup                      ...        0 min,  0.002 sec (  0.595%)
 Dispersion                     ...        0 min,  0.000 sec (  0.000%)
 classical contributions        ...        0 min,  0.001 sec (  0.298%)
 integral evaluation            ...        0 min,  0.007 sec (  2.083%)
 iterations                     ...        0 min,  0.291 sec ( 86.607%)
 molecular gradient             ...        0 min,  0.032 sec (  9.524%)
 printout                       ...        0 min,  0.003 sec (  0.893%)

         :::::::::::::::::::::::::::::::::::::::::::::::::::::
         ::                     SUMMARY                     ::
         :::::::::::::::::::::::::::::::::::::::::::::::::::::
         :: total energy            -133.760981991764 Eh    ::
         :: gradient norm              0.017464832782 Eh/a0 ::
         :: HOMO-LUMO gap              0.550405366847 eV    ::
         ::.................................................::
         :: SCC energy              -134.864928150971 Eh    ::
         :: -> isotropic ES            1.024008132700 Eh    ::
         :: -> anisotropic ES         -0.425590979990 Eh    ::
         :: -> anisotropic XC         -0.053029887459 Eh    ::
         :: -> dispersion             -0.127124623244 Eh    ::
         :: repulsion energy           1.103946159207 Eh    ::
         :: add. restraining           0.000000000000 Eh    ::
         :: total charge              -0.000000000083 e     ::
         :::::::::::::::::::::::::::::::::::::::::::::::::::::

           -------------------------------------------------
          |                Property Printout                |
           -------------------------------------------------

    * Orbital Energies and Occupations

         #    Occupation            Energy/Eh            Energy/eV
      -------------------------------------------------------------
         1        2.0000           -0.8456125             -23.0103
       ...           ...                  ...                  ...
       104        2.0000           -0.3968946             -10.8001
       105        2.0000           -0.3930629             -10.6958
       106        2.0000           -0.3912952             -10.6477
       107        2.0000           -0.3886624             -10.5760
       108        2.0000           -0.3883651             -10.5680
       109        2.0000           -0.3778988             -10.2832
       110        2.0000           -0.3757242             -10.2240
       111        2.0000           -0.3659545              -9.9581
       112        2.0000           -0.3616637              -9.8414
       113        2.0000           -0.3531465              -9.6096
       114        2.0000           -0.3434259              -9.3451
       115        2.0000           -0.3414144              -9.2904
       116        1.9959           -0.3272019              -8.9036 (HOMO)
       117        0.0028           -0.3069749              -8.3532 (LUMO)
       118        0.0011           -0.3055043              -8.3132
       119        0.0002           -0.3025055              -8.2316
       120        0.0001           -0.3007230              -8.1831
       121        0.0000           -0.2996462              -8.1538
       122        0.0000           -0.2925642              -7.9611
       123        0.0000           -0.2918071              -7.9405
       124                         -0.2904166              -7.9026
       125                         -0.2894961              -7.8776
       126                         -0.2890778              -7.8662
       127                         -0.2879811              -7.8364
       ...                                ...                  ...
       254                         15.1355037             411.8580
      -------------------------------------------------------------
                  HL-Gap            0.0202270 Eh            0.5504 eV
             Fermi-level           -0.3174014 Eh           -8.6369 eV

     #   Z          covCN         q      C6AA      α(0)
     1   6 C        3.696    -0.078    22.162     6.734
     2   7 N        3.108    -0.038    21.973     6.962
     3   6 C        2.704     0.319    21.571     7.602
     4   8 O        0.858    -0.410    21.888     6.273
     5   7 N        2.837    -0.071    22.621     7.064
     6   6 C        3.072     0.084    26.049     8.368
     7   7 N        1.892    -0.198    26.123     7.577
     8   6 C        3.145    -0.013    28.072     8.668
     9   6 C        3.222     0.131    24.472     8.041
    10   7 N        2.667    -0.261    26.773     7.685
    11   7 N        2.739    -0.263    26.818     7.691
    12   6 C        2.746     0.278    22.298     7.732
    13   8 O        0.858    -0.380    21.285     6.186
    14   7 N        2.639    -0.303    27.810     7.832
    15   1 H        0.924     0.122     1.600     1.978
    16   1 H        0.924     0.087     1.911     2.162
    17   1 H        0.924     0.099     1.791     2.093
    18   1 H        0.926     0.093     1.849     2.126
    19   1 H        0.860     0.217     1.023     1.585
    20   1 H        0.860     0.218     1.021     1.583
    21  22 Ti       4.015     1.072    88.907    17.902
    22  22 Ti       7.394     1.598    83.626    14.847
    23  22 Ti       3.274     1.070   102.377    24.706
    24  22 Ti       5.901     1.436    85.141    14.981
    25  22 Ti       5.217     1.164    87.782    15.211
    26  22 Ti       6.244     1.194    87.481    15.185
    27  22 Ti       2.251     0.869   205.192    35.072
    28  22 Ti       6.305     1.414    85.348    14.999
    29  22 Ti       3.289     1.024   102.915    24.771
    30  22 Ti       5.470     1.088    88.545    15.277
    31  22 Ti       5.471     1.218    87.240    15.164
    32  22 Ti       3.532     1.042   102.477    24.677
    33   6 C        2.234    -0.258    37.771     9.954
    34   6 C        2.064    -0.243    38.191     9.982
    35   6 C        2.267    -0.006    30.090     8.894
    36   6 C        1.842    -0.199    36.980     9.824
    37   6 C        1.919    -0.216    37.453     9.883
    38   6 C        1.822    -0.330    41.544    10.414
    39   6 C        2.624    -0.388    39.368    10.263
    40   8 O        1.535    -0.857    32.344     7.672
    41   8 O        1.977    -0.896    33.406     7.806
    42   8 O        1.524    -0.971    36.179     8.113
    43   8 O        1.488    -1.017    37.927     8.304
    44   8 O        1.571    -0.919    34.328     7.906
    45   8 O        1.464    -0.832    31.686     7.587
    46   8 O        1.671    -0.861    32.332     7.676
    47   8 O        0.727    -0.663    27.786     7.064
    48   8 O        1.453    -0.862    32.630     7.698
    49   8 O        1.455    -0.787    30.353     7.425
    50   8 O        1.697    -0.956    35.503     8.045
    51   8 O        1.562    -0.969    36.051     8.101
    52   8 O        1.808    -0.821    31.056     7.525
    53   8 O        1.452    -0.767    29.762     7.352

 Mol. C6AA /au·bohr⁶  :      98277.744589
 Mol. C8AA /au·bohr⁸  :    4901528.109453
 Mol. α(0) /au        :        526.222515


Wiberg/Mayer (AO) data.
largest (>0.10) Wiberg bond orders for each atom

 ---------------------------------------------------------------------------
     #   Z sym  total        # sym  WBO       # sym  WBO       # sym  WBO
 ---------------------------------------------------------------------------
     1   6 C    3.939 --     2 N    0.969    15 H    0.963    17 H    0.956
                            16 H    0.937
     2   7 N    3.510 --     3 C    1.171     1 C    0.969    11 N    0.941
                             4 O    0.177    26 Ti   0.135
     3   6 C    3.959 --     4 O    1.637     2 N    1.171     5 N    1.005
     4   8 O    2.017 --     3 C    1.637     2 N    0.177
     5   7 N    3.575 --     9 C    1.098     6 C    1.096     3 C    1.005
     6   6 C    3.937 --     7 N    1.673     5 N    1.096    18 H    0.956
     7   7 N    3.068 --     6 C    1.673     8 C    1.188
     8   6 C    3.943 --     9 C    1.361     7 N    1.188    12 C    1.031
     9   6 C    3.947 --     8 C    1.361    10 N    1.157     5 N    1.098
    10   7 N    3.234 --     9 C    1.157    11 N    1.009    26 Ti   0.729
    11   7 N    2.964 --    10 N    1.009     2 N    0.941    26 Ti   0.775
    12   6 C    3.954 --    13 O    1.695    14 N    1.139     8 C    1.031
    13   8 O    2.040 --    12 C    1.695    14 N    0.179
    14   7 N    3.321 --    12 C    1.139    20 H    0.928    19 H    0.866
                            13 O    0.179
    15   1 H    0.984 --     1 C    0.963
    16   1 H    0.991 --     1 C    0.937
    17   1 H    0.989 --     1 C    0.956
    18   1 H    0.989 --     6 C    0.956
    19   1 H    0.952 --    14 N    0.866
    20   1 H    0.952 --    14 N    0.928
    21  22 Ti   2.823 --    40 O    0.846    41 O    0.743    27 Ti   0.368
                            24 Ti   0.186    22 Ti   0.181    45 O    0.101
    22  22 Ti   3.784 --    44 O    0.777    42 O    0.714    41 O    0.625
                            43 O    0.598    23 Ti   0.199    21 Ti   0.181
                            25 Ti   0.132    46 O    0.121
    23  22 Ti   2.710 --    49 O    0.985    42 O    0.542    29 Ti   0.372
                            22 Ti   0.199    27 Ti   0.124    44 O    0.108
    24  22 Ti   3.839 --    45 O    0.902    33 C    0.717    40 O    0.716
                            43 O    0.597    21 Ti   0.186    30 Ti   0.175
                            50 O    0.148
    25  22 Ti   3.932 --    39 C    0.923    37 C    0.759    46 O    0.661
                            44 O    0.534    31 Ti   0.285    38 C    0.164
                            34 C    0.156    22 Ti   0.132
    26  22 Ti   4.190 --    46 O    0.790    11 N    0.775    10 N    0.729
                            45 O    0.649    41 O    0.211     2 N    0.135
    27  22 Ti   3.598 --    47 O    1.920    28 Ti   0.524    21 Ti   0.368
                            50 O    0.139    40 O    0.132    23 Ti   0.124
                            42 O    0.122
    28  22 Ti   3.953 --    50 O    0.805    48 O    0.776    51 O    0.679
                            27 Ti   0.524    52 O    0.244    29 Ti   0.158
                            30 Ti   0.137    32 Ti   0.132
    29  22 Ti   2.735 --    48 O    0.805    49 O    0.785    23 Ti   0.372
                            32 Ti   0.265    28 Ti   0.158    31 Ti   0.115
    30  22 Ti   3.971 --    38 C    1.094    36 C    0.730    52 O    0.587
                            50 O    0.360    39 C    0.245    32 Ti   0.203
                            24 Ti   0.175    33 C    0.155    28 Ti   0.137
                            35 C    0.105
    31  22 Ti   4.037 --    53 O    0.979    34 C    0.659    39 C    0.609
                            51 O    0.469    25 Ti   0.285    32 Ti   0.215
                            38 C    0.137    29 Ti   0.115
    32  22 Ti   2.794 --    52 O    0.859    53 O    0.752    29 Ti   0.265
                            31 Ti   0.215    30 Ti   0.203    28 Ti   0.132
    33   6 C    3.842 --    36 C    2.742    24 Ti   0.717    30 Ti   0.155
    34   6 C    3.782 --    37 C    2.738    31 Ti   0.659    25 Ti   0.156
    35   6 C    3.978 --    38 C    1.977    39 C    1.636    30 Ti   0.105
    36   6 C    3.725 --    33 C    2.742    30 Ti   0.730
    37   6 C    3.767 --    34 C    2.738    25 Ti   0.759
    38   6 C    3.771 --    35 C    1.977    30 Ti   1.094    25 Ti   0.164
                            31 Ti   0.137
    39   6 C    3.852 --    35 C    1.636    25 Ti   0.923    31 Ti   0.609
                            30 Ti   0.245
    40   8 O    1.921 --    21 Ti   0.846    24 Ti   0.716    27 Ti   0.132
    41   8 O    1.874 --    21 Ti   0.743    22 Ti   0.625    26 Ti   0.211
    42   8 O    1.765 --    22 Ti   0.714    23 Ti   0.542    27 Ti   0.122
    43   8 O    1.704 --    22 Ti   0.598    24 Ti   0.597
    44   8 O    1.830 --    22 Ti   0.777    25 Ti   0.534    23 Ti   0.108
    45   8 O    1.955 --    24 Ti   0.902    26 Ti   0.649    21 Ti   0.101
    46   8 O    1.923 --    26 Ti   0.790    25 Ti   0.661    22 Ti   0.121
    47   8 O    2.145 --    27 Ti   1.920
    48   8 O    1.911 --    29 Ti   0.805    28 Ti   0.776
    49   8 O    2.024 --    23 Ti   0.985    29 Ti   0.785
    50   8 O    1.782 --    28 Ti   0.805    30 Ti   0.360    24 Ti   0.148
                            27 Ti   0.139
    51   8 O    1.772 --    28 Ti   0.679    31 Ti   0.469
    52   8 O    1.983 --    32 Ti   0.859    30 Ti   0.587    28 Ti   0.244
    53   8 O    2.049 --    31 Ti   0.979    32 Ti   0.752
 ---------------------------------------------------------------------------

Topologies differ in total number of bonds
Writing topology from bond orders to xtbtopo.mol

molecular dipole:
                 x           y           z       tot (Debye)
 q only:       -0.654      -2.965      -5.001
   full:       -2.797      -3.478      -3.776      14.859
molecular quadrupole (traceless):
                xx          xy          yy          xz          yz          zz
 q only:       -0.407       2.306      23.605     -46.223     -44.886     -23.198
  q+dip:       21.745     -10.351       1.954     -31.517     -67.834     -23.699
   full:       24.869      -8.559       0.623     -33.793     -63.985     -25.492

           -------------------------------------------------
          |                Geometry Summary                 |
           -------------------------------------------------

      molecular mass/u    :     1076.6188487
   center of mass at/Å    :       -0.1202031      -0.4037830       1.9122169
  moments of inertia/u·Å² :        0.7259505E+04   0.1319228E+05   0.1407386E+05
rotational constants/cm⁻¹ :        0.2322146E-02   0.1277841E-02   0.1197797E-02

 * 55 selected distances

     #   Z          #   Z                                           value/Å
     1   6 C        2   7 N                                       1.4578072
     2   7 N        3   6 C                                       1.3675909
     3   6 C        4   8 O                                       1.2113942
     3   6 C        5   7 N                                       1.4052140
     5   7 N        6   6 C                                       1.3941265
     6   6 C        7   7 N                                       1.2849698
     7   7 N        8   6 C                                       1.3862055
     5   7 N        9   6 C                                       1.3895932
     8   6 C        9   6 C                                       1.3933846
     9   6 C       10   7 N                                       1.3605051
    12   6 C       13   8 O                                       1.2121425
    12   6 C       14   7 N                                       1.3892703
     1   6 C       15   1 H                                       1.0906038
     1   6 C       16   1 H                                       1.0973418
     1   6 C       17   1 H                                       1.0945067
     6   6 C       18   1 H                                       1.0713094
    14   7 N       19   1 H                                       1.0206223
    14   7 N       20   1 H                                       1.0136730 (min)
    21  22 Ti      22  22 Ti                                      2.8843426
    22  22 Ti      25  22 Ti                                      2.9157449
    10   7 N       26  22 Ti                                      1.8649911
    11   7 N       26  22 Ti                                      1.9140444
    22  22 Ti      26  22 Ti                                      2.9401826 (max)
    24  22 Ti      33   6 C                                       2.0359496
    33   6 C       36   6 C                                       1.2404326
    34   6 C       37   6 C                                       1.2415781
    30  22 Ti      38   6 C                                       1.9413427
    35   6 C       38   6 C                                       1.2813596
    25  22 Ti      39   6 C                                       2.0094219
    35   6 C       39   6 C                                       1.3218569
    21  22 Ti      40   8 O                                       1.7724617
    24  22 Ti      40   8 O                                       1.8021440
    21  22 Ti      41   8 O                                       1.8285341
    22  22 Ti      41   8 O                                       1.8088646
    22  22 Ti      42   8 O                                       1.7295682
    23  22 Ti      42   8 O                                       1.8446515
    22  22 Ti      43   8 O                                       1.7138664
    24  22 Ti      43   8 O                                       1.7424823
    22  22 Ti      44   8 O                                       1.7002507
    24  22 Ti      45   8 O                                       1.7402576
    26  22 Ti      45   8 O                                       1.7734087
    25  22 Ti      46   8 O                                       1.8042965
    26  22 Ti      46   8 O                                       1.7473267
    27  22 Ti      47   8 O                                       1.6131043
    28  22 Ti      48   8 O                                       1.7323525
    29  22 Ti      48   8 O                                       1.8169629
    23  22 Ti      49   8 O                                       1.7504633
    29  22 Ti      49   8 O                                       1.8340272
    28  22 Ti      50   8 O                                       1.6916792
    28  22 Ti      51   8 O                                       1.7183611
    31  22 Ti      51   8 O                                       1.8443418
    30  22 Ti      52   8 O                                       1.8674917
    32  22 Ti      52   8 O                                       1.7523510
    31  22 Ti      53   8 O                                       1.7490739
    32  22 Ti      53   8 O                                       1.8101432

 * 9 distinct bonds (by element types)

   Z      Z             #   av. dist./Å        max./Å        min./Å
   1 H    6 C           4     1.0884404     1.0973418     1.0713094
   6 C    6 C           5     1.2957223     1.3933846     1.2404326
   1 H    7 N           2     1.0171477     1.0206223     1.0136730
   6 C    7 N           9     1.3816981     1.4578072     1.2849698
   6 C    8 O           2     1.2117684     1.2121425     1.2113942
   6 C   22 Ti          3     1.9955714     2.0359496     1.9413427
   7 N   22 Ti          2     1.8895178     1.9140444     1.8649911
   8 O   22 Ti         25     1.7675386     1.8674917     1.6131043
  22 Ti  22 Ti          3     2.9134233     2.9401826     2.8843426


optimized geometry written to: xtbopt.xyz


           -------------------------------------------------
          | TOTAL ENERGY             -133.760981991764 Eh   |
          | GRADIENT NORM               0.017464832782 Eh/α |
          | HOMO-LUMO GAP               0.550405366847 eV   |
           -------------------------------------------------

------------------------------------------------------------------------
 * finished run on 2026/08/31 at 21:53:50.152     
------------------------------------------------------------------------
 total:
 * wall-time:     0 d,  0 h,  0 min, 12.185 sec
 *  cpu-time:     0 d,  0 h,  1 min, 38.344 sec
 * ratio c/w:     8.071 speedup
 SCF:
 * wall-time:     0 d,  0 h,  0 min,  0.633 sec
 *  cpu-time:     0 d,  0 h,  0 min,  4.875 sec
 * ratio c/w:     7.701 speedup
 ANC optimizer:
 * wall-time:     0 d,  0 h,  0 min, 11.504 sec
 *  cpu-time:     0 d,  0 h,  1 min, 33.266 sec
 * ratio c/w:     8.107 speedup

normal termination of xtb
