      -----------------------------------------------------------      
     |                   =====================                   |     
     |                           x T B                           |     
     |                   =====================                   |     
     |                         S. Grimme                         |     
     |          Mulliken Center for Theoretical Chemistry        |     
     |                    University of Bonn                     |     
      -----------------------------------------------------------      

   * xtb version 6.7.1pre (5071a88) compiled by 'Marcel@Raven' on 2024-07-23

   xtb is free software: you can redistribute it and/or modify it under
   the terms of the GNU Lesser General Public License as published by
   the Free Software Foundation, either version 3 of the License, or
   (at your option) any later version.
   
   xtb is distributed in the hope that it will be useful,
   but WITHOUT ANY WARRANTY; without even the implied warranty of
   MERCHANTABILITY or FITNESS FOR A PARTICULAR PURPOSE.  See the
   GNU Lesser General Public License for more details.
   
   Cite this work as:
   * C. Bannwarth, E. Caldeweyher, S. Ehlert, A. Hansen, P. Pracht,
     J. Seibert, S. Spicher, S. Grimme, WIREs Comput. Mol. Sci., 2020, 11,
     e01493. DOI: 10.1002/wcms.1493
   
   for GFN2-xTB:
   * C. Bannwarth, S. Ehlert and S. Grimme., J. Chem. Theory Comput., 2019,
     15, 1652-1671. DOI: 10.1021/acs.jctc.8b01176
   for GFN1-xTB:
   * S. Grimme, C. Bannwarth, P. Shushkov, J. Chem. Theory Comput., 2017,
     13, 1989-2009. DOI: 10.1021/acs.jctc.7b00118
   for GFN0-xTB:
   * P. Pracht, E. Caldeweyher, S. Ehlert, S. Grimme, ChemRxiv, 2019, preprint.
     DOI: 10.26434/chemrxiv.8326202.v1
   for GFN-FF:
   * S. Spicher and S. Grimme, Angew. Chem. Int. Ed., 2020, 59, 15665-15673.
     DOI: 10.1002/anie.202004239
   
   for ALPB and GBSA implicit solvation:
   * S. Ehlert, M. Stahn, S. Spicher, S. Grimme, J. Chem. Theory Comput.,
     2021, 17, 4250-4261. DOI: 10.1021/acs.jctc.1c00471
   
   for ddCOSMO and CPCM-X implicit solvation:
   * M. Stahn, S. Ehlert, S. Grimme, J. Phys. Chem. A,
     2023, XX, XXXX-XXXX. DOI: 10.1021/acs.jpca.3c04382
   
   for DFT-D4:
   * E. Caldeweyher, C. Bannwarth and S. Grimme, J. Chem. Phys., 2017,
     147, 034112. DOI: 10.1063/1.4993215
   * E. Caldeweyher, S. Ehlert, A. Hansen, H. Neugebauer, S. Spicher,
     C. Bannwarth and S. Grimme, J. Chem. Phys., 2019, 150, 154122.
     DOI: 10.1063/1.5090222
   * E. Caldeweyher, J.-M. Mewes, S. Ehlert and S. Grimme, Phys. Chem. Chem. Phys.
     2020, 22, 8499-8512. DOI: 10.1039/D0CP00502A
   
   for sTDA-xTB:
   * S. Grimme and C. Bannwarth, J. Chem. Phys., 2016, 145, 054103.
     DOI: 10.1063/1.4959605
   
   in the mass-spec context:
   * V. Asgeirsson, C. Bauer and S. Grimme, Chem. Sci., 2017, 8, 4879.
     DOI: 10.1039/c7sc00601b
   * J. Koopman and S. Grimme, ACS Omega 2019, 4, 12, 15120-15133.
     DOI: 10.1021/acsomega.9b02011
   
   for metadynamics refer to:
   * S. Grimme, J. Chem. Theory Comput., 2019, 155, 2847-2862
     DOI: 10.1021/acs.jctc.9b00143
   
   for SPH calculations refer to:
   * S. Spicher and S. Grimme, J. Chem. Theory Comput., 2021, 17, 1701-1714
     DOI: 10.1021/acs.jctc.0c01306
   
   for ONIOM refer to:
   * C. Plett, A. Katbashev, S. Ehlert, S. Grimme, M. Bursch,
     Phys. Chem. Chem. Phys., 2023, 25, 17860-17868. DOI: 10.1039/D3CP02178E
   
   for DIPRO refer to:
   * J. Kohn, N. Gildemeister, S. Grimme, D. Fazzi, A. Hansen,
     J. Chem. Phys., 2023, just accepted.
   
   for PTB refer to:
   * S. Grimme, M. Mueller, A. Hansen, J. Chem. Phys., 2023, 158, 124111.
     DOI: 10.1063/5.0137838
   
   with help from (in alphabetical order)
   P. Atkinson, C. Bannwarth, F. Bohle, G. Brandenburg, E. Caldeweyher
   M. Checinski, S. Dohm, S. Ehlert, S. Ehrlich, I. Gerasimov, C. Hölzer
   A. Katbashev, J. Kohn, J. Koopman, C. Lavigne, S. Lehtola, F. März, M. Müller,
   F. Musil, H. Neugebauer, J. Pisarek, C. Plett, P. Pracht, F. Pultar,
   J. Seibert, P. Shushkov, S. Spicher, M. Stahn, M. Steiner, T. Strunk,
   J. Stückrath, T. Rose, and J. Unsleber
   
 * started run on 2026/08/31 at 21:18:42.488     
   ID    Z sym.   atoms
    1    6 C      1, 3, 6, 8, 13, 32-38
    2    7 N      2, 5, 7, 10-12
    3    8 O      4, 9, 39-52
    4    1 H      14-19
    5   22 Ti     20-31

           -------------------------------------------------
          |                Calculation Setup                |
           -------------------------------------------------

          program call               : "c:\Users\Andre\Proyectos doctorado\kras-pancreatic-gC3N4-ai\tools\xtb\xtb-6.7.1\bin\xtb.exe" "c:\Users\Andre\Proyectos doctorado\mxene-glioblastoma-qsar-ai\calculations\gbm\Temozolomide\Temozolomide_Ti12C7O14_phys_complex.xyz" --gfn 2 --sp --chrg 0 --uhf 0 --etemp 300 --iterations 500 --norestart
          coordinate file            : c:\Users\Andre\Proyectos doctorado\mxene-glioblastoma-qsar-ai\calculations\gbm\Temozolomide\Temozolomide_Ti12C7O14_phys_complex.xyz
          omp threads                :                    16


molecular fragmentation (1/2 indicates fragments):
1111111111111111111222222222222222222222222222222222
# atoms in fragment 1/2:    19    33
 fragment masses (1/2) :      182.14      882.47
CMA distance (Bohr)    :  15.568
constraining FC (au)   :  0.0500

           -------------------------------------------------
          |                 G F N 2 - x T B                 |
           -------------------------------------------------

        Reference                      10.1021/acs.jctc.8b01176
      * Hamiltonian:
        H0-scaling (s, p, d)           1.850000    2.230000    2.230000
        zeta-weighting                 0.500000
      * Dispersion:
        s8                             2.700000
        a1                             0.520000
        a2                             5.000000
        s9                             5.000000
      * Repulsion:
        kExp                           1.500000    1.000000
        rExp                           1.000000
      * Coulomb:
        alpha                          2.000000
        third order                    shell-resolved
        anisotropic                    true
        a3                             3.000000
        a5                             4.000000
        cn-shift                       1.200000
        cn-exp                         4.000000
        max-rad                        5.000000


          ...................................................
          :                      SETUP                      :
          :.................................................:
          :  # basis functions                 262          :
          :  # atomic orbitals                 250          :
          :  # shells                          110          :
          :  # electrons                       228          :
          :  max. iterations                   500          :
          :  Hamiltonian                  GFN2-xTB          :
          :  restarted?                      false          :
          :  GBSA solvation                  false          :
          :  PC potential                    false          :
          :  electronic temp.          300.0000000     K    :
          :  accuracy                    1.0000000          :
          :  -> integral cutoff          0.2500000E+02      :
          :  -> integral neglect         0.1000000E-07      :
          :  -> SCF convergence          0.1000000E-05 Eh   :
          :  -> wf. convergence          0.1000000E-03 e    :
          :  Broyden damping             0.4000000          :
          :  net charge                          0          :
          :  unpaired electrons                  0          :
          ...................................................

 iter      E             dE          RMSdq      gap      omega  full diag
   1   -130.0860924 -0.130086E+03  0.166E+01    0.02       0.0  T
   2   -100.6762781  0.294098E+02  0.183E+01    0.05       1.0  T
   3    -36.1498385  0.645264E+02  0.303E+01    0.10       1.0  T
   4   -130.5945741 -0.944447E+02  0.100E+01    0.21       1.0  T
   5   -131.1417452 -0.547171E+00  0.800E+00    0.02       1.0  T
   6   -131.9497944 -0.808049E+00  0.649E+00    0.76       1.0  T
   7   -131.4241656  0.525629E+00  0.637E+00    0.09       1.0  T
   8   -132.0665967 -0.642431E+00  0.497E+00    0.47       1.0  T
   9   -132.2181261 -0.151529E+00  0.397E+00    0.34       1.0  T
  10   -131.7970908  0.421035E+00  0.475E+00    0.04       1.0  T
  11   -132.2088803 -0.411789E+00  0.323E+00    0.12       1.0  T
  12   -131.7551512  0.453729E+00  0.427E+00    0.08       1.0  T
  13   -131.9236494 -0.168498E+00  0.418E+00    0.09       1.0  T
  14   -132.2954376 -0.371788E+00  0.203E+00    0.09       1.0  T
  15   -132.4446145 -0.149177E+00  0.175E+00    0.50       1.0  T
  16   -132.4635466 -0.189321E-01  0.159E+00    0.64       1.0  T
  17   -132.4843035 -0.207569E-01  0.139E+00    0.76       1.0  T
  18   -132.5073456 -0.230420E-01  0.105E+00    0.90       1.0  T
  19   -132.5148442 -0.749868E-02  0.913E-01    0.85       1.0  T
  20   -132.5218461 -0.700191E-02  0.780E-01    0.80       1.0  T
  21   -132.5282229 -0.637673E-02  0.651E-01    0.75       1.0  T
  22   -132.5291524 -0.929557E-03  0.625E-01    0.58       1.0  T
  23   -132.5329851 -0.383268E-02  0.498E-01    0.30       1.0  T
  24   -132.5365462 -0.356104E-02  0.425E-01    0.20       1.0  T
  25   -132.5428311 -0.628490E-02  0.334E-01    0.12       1.0  T
  26   -132.5304737  0.123573E-01  0.556E-01    0.07       1.0  T
  27   -132.1428155  0.387658E+00  0.215E+00    0.06       1.0  T
  28   -132.2158276 -0.730120E-01  0.195E+00    0.05       1.0  T
  29   -132.3418271 -0.126000E+00  0.154E+00    0.02       1.0  T
  30   -132.4518111 -0.109984E+00  0.105E+00    0.02       1.0  T
  31   -132.4875447 -0.357336E-01  0.816E-01    0.03       1.0  T
  32   -132.5237510 -0.362063E-01  0.491E-01    0.05       1.0  T
  33   -132.5393243 -0.155733E-01  0.252E-01    0.08       1.0  T
  34   -132.5412816 -0.195731E-02  0.201E-01    0.08       1.0  T
  35   -132.5443973 -0.311571E-02  0.868E-02    0.10       1.0  T
  36   -132.5442847  0.112591E-03  0.984E-02    0.12       1.0  T
  37   -132.5441889  0.957976E-04  0.101E-01    0.12       1.0  T
  38   -132.5441392  0.497930E-04  0.972E-02    0.12       1.0  T
  39   -132.5441228  0.163527E-04  0.932E-02    0.12       1.0  T
  40   -132.5444333 -0.310523E-03  0.632E-02    0.12       1.0  T
  41   -132.5446244 -0.191061E-03  0.309E-02    0.11       1.0  T
  42   -132.5445464  0.779791E-04  0.381E-02    0.10       1.0  T
  43   -132.5446374 -0.910042E-04  0.145E-02    0.11       1.0  T
  44   -132.5446408 -0.343181E-05  0.836E-03    0.11       1.7  T
  45   -132.5446410 -0.173108E-06  0.466E-03    0.11       3.0  T
  46   -132.5446423 -0.128827E-05  0.326E-03    0.11       4.3  T
  47   -132.5446424 -0.927426E-07  0.240E-03    0.11       5.8  T
  48   -132.5446402  0.216480E-05  0.558E-03    0.11       2.5  T
  49   -132.5446417 -0.145094E-05  0.358E-03    0.11       3.9  T
  50   -132.5446423 -0.623104E-06  0.228E-03    0.11       6.1  T
  51   -132.5446427 -0.440203E-06  0.202E-04    0.11      68.7  T
  52   -132.5446427  0.137364E-07  0.453E-04    0.11      30.6  T

   *** convergence criteria satisfied after 52 iterations ***

         #    Occupation            Energy/Eh            Energy/eV
      -------------------------------------------------------------
         1        2.0000           -0.8325338             -22.6544
       ...           ...                  ...                  ...
       108        2.0000           -0.3721007             -10.1254
       109        2.0000           -0.3646660              -9.9231
       110        2.0000           -0.3588154              -9.7639
       111        2.0000           -0.3544966              -9.6463
       112        2.0000           -0.3481614              -9.4740
       113        2.0000           -0.3401701              -9.2565
       114        1.7834           -0.3273149              -8.9067 (HOMO)
       115        0.2166           -0.3233094              -8.7977 (LUMO)
       116                         -0.2968946              -8.0789
       117                         -0.2956515              -8.0451
       118                         -0.2944576              -8.0126
       119                         -0.2891526              -7.8682
       ...                                ...                  ...
       250                         13.3919070             364.4123
      -------------------------------------------------------------
                  HL-Gap            0.0040056 Eh            0.1090 eV
             Fermi-level           -0.3253122 Eh           -8.8522 eV

 SCC (total)                   0 d,  0 h,  0 min,  0.531 sec
 SCC setup                      ...        0 min,  0.001 sec (  0.188%)
 Dispersion                     ...        0 min,  0.000 sec (  0.000%)
 classical contributions        ...        0 min,  0.000 sec (  0.000%)
 integral evaluation            ...        0 min,  0.005 sec (  0.942%)
 iterations                     ...        0 min,  0.512 sec ( 96.422%)
 molecular gradient             ...        0 min,  0.011 sec (  2.072%)
 printout                       ...        0 min,  0.002 sec (  0.377%)

         :::::::::::::::::::::::::::::::::::::::::::::::::::::
         ::                     SUMMARY                     ::
         :::::::::::::::::::::::::::::::::::::::::::::::::::::
         :: total energy            -131.483932758407 Eh    ::
         :: gradient norm              0.117006689525 Eh/a0 ::
         :: HOMO-LUMO gap              0.108997727002 eV    ::
         ::.................................................::
         :: SCC energy              -132.541996887064 Eh    ::
         :: -> isotropic ES            0.981679075867 Eh    ::
         :: -> anisotropic ES         -0.365136506209 Eh    ::
         :: -> anisotropic XC         -0.043525556231 Eh    ::
         :: -> dispersion             -0.110403932332 Eh    ::
         :: repulsion energy           1.058064128657 Eh    ::
         :: add. restraining           0.000000000000 Eh    ::
         :: total charge              -0.000000000000 e     ::
         :::::::::::::::::::::::::::::::::::::::::::::::::::::

           -------------------------------------------------
          |                Property Printout                |
           -------------------------------------------------

    * Orbital Energies and Occupations

         #    Occupation            Energy/Eh            Energy/eV
      -------------------------------------------------------------
         1        2.0000           -0.8325338             -22.6544
       ...           ...                  ...                  ...
       102        2.0000           -0.4035437             -10.9810
       103        2.0000           -0.3989775             -10.8567
       104        2.0000           -0.3935927             -10.7102
       105        2.0000           -0.3863867             -10.5141
       106        2.0000           -0.3819530             -10.3935
       107        2.0000           -0.3749956             -10.2041
       108        2.0000           -0.3721007             -10.1254
       109        2.0000           -0.3646660              -9.9231
       110        2.0000           -0.3588154              -9.7639
       111        2.0000           -0.3544966              -9.6463
       112        2.0000           -0.3481614              -9.4740
       113        2.0000           -0.3401701              -9.2565
       114        1.7834           -0.3273149              -8.9067 (HOMO)
       115        0.2166           -0.3233094              -8.7977 (LUMO)
       116                         -0.2968946              -8.0789
       117                         -0.2956515              -8.0451
       118                         -0.2944576              -8.0126
       119                         -0.2891526              -7.8682
       120                         -0.2880181              -7.8374
       121                         -0.2859146              -7.7801
       122                         -0.2854368              -7.7671
       123                         -0.2847899              -7.7495
       124                         -0.2836783              -7.7193
       125                         -0.2827300              -7.6935
       ...                                ...                  ...
       250                         13.3919070             364.4123
      -------------------------------------------------------------
                  HL-Gap            0.0040056 Eh            0.1090 eV
             Fermi-level           -0.3253122 Eh           -8.8522 eV

     #   Z          covCN         q      C6AA      α(0)
     1   6 C        3.698    -0.056    21.756     6.671
     2   7 N        2.743    -0.110    23.397     7.184
     3   6 C        2.729     0.307    21.779     7.640
     4   8 O        0.858    -0.429    22.274     6.328
     5   7 N        2.895    -0.023    21.686     6.916
     6   6 C        3.091     0.225    23.198     7.895
     7   7 N        1.837    -0.304    28.714     7.941
     8   6 C        2.778     0.327    21.446     7.585
     9   8 O        0.859    -0.408    21.834     6.265
    10   7 N        1.990    -0.154    25.090     7.429
    11   7 N        2.129    -0.069    23.117     7.134
    12   7 N        3.043     0.061    20.169     6.670
    13   6 C        3.694    -0.071    22.039     6.717
    14   1 H        0.924     0.079     1.986     2.204
    15   1 H        0.924     0.099     1.797     2.097
    16   1 H        0.924     0.091     1.868     2.137
    17   1 H        0.924     0.071     2.072     2.251
    18   1 H        0.924     0.098     1.807     2.102
    19   1 H        0.924     0.097     1.811     2.104
    20  22 Ti       3.637     1.071   101.560    24.460
    21  22 Ti       6.855     1.555    84.022    14.882
    22  22 Ti       3.227     1.058   102.529    24.725
    23  22 Ti       5.860     1.384    85.630    15.024
    24  22 Ti       5.627     1.145    87.969    15.228
    25  22 Ti       3.541     1.044   102.424    24.666
    26  22 Ti       2.352     0.889   202.481    34.842
    27  22 Ti       6.011     1.350    85.962    15.053
    28  22 Ti       3.414     1.017   102.949    24.767
    29  22 Ti       5.519     1.118    88.242    15.251
    30  22 Ti       5.687     1.201    87.412    15.179
    31  22 Ti       3.581     1.035   102.369    24.630
    32   6 C        2.246    -0.252    37.464     9.917
    33   6 C        2.142    -0.252    38.226     9.994
    34   6 C        2.248    -0.017    30.544     8.955
    35   6 C        1.838    -0.206    37.206     9.854
    36   6 C        1.894    -0.219    37.574     9.900
    37   6 C        1.821    -0.335    41.747    10.439
    38   6 C        2.631    -0.394    39.573    10.290
    39   8 O        1.554    -0.846    31.977     7.629
    40   8 O        1.464    -0.878    33.133     7.759
    41   8 O        1.557    -0.956    35.592     8.049
    42   8 O        1.523    -1.011    37.646     8.276
    43   8 O        1.523    -0.912    34.152     7.882
    44   8 O        1.458    -0.821    31.340     7.545
    45   8 O        1.455    -0.799    30.703     7.468
    46   8 O        0.727    -0.628    26.885     6.948
    47   8 O        1.453    -0.862    32.620     7.697
    48   8 O        1.476    -0.799    30.646     7.463
    49   8 O        1.603    -0.944    35.148     8.001
    50   8 O        1.547    -0.972    36.197     8.117
    51   8 O        1.700    -0.815    30.916     7.507
    52   8 O        1.453    -0.778    30.087     7.392

 Mol. C6AA /au·bohr⁶  :      94245.203669
 Mol. C8AA /au·bohr⁸  :    4759824.906444
 Mol. α(0) /au        :        531.058634


Wiberg/Mayer (AO) data.
largest (>0.10) Wiberg bond orders for each atom

 ---------------------------------------------------------------------------
     #   Z sym  total        # sym  WBO       # sym  WBO       # sym  WBO
 ---------------------------------------------------------------------------
     1   6 C    3.936 --     2 N    0.978    16 H    0.975    15 H    0.970
                            14 H    0.958
     2   7 N    3.540 --     3 C    1.144     8 C    1.047     1 C    0.978
                             4 O    0.152     9 O    0.123
     3   6 C    3.953 --     4 O    1.620     2 N    1.144     5 N    1.069
     4   8 O    1.994 --     3 C    1.620     2 N    0.152     5 N    0.107
     5   7 N    3.555 --     6 C    1.102     3 C    1.069    12 N    1.013
                             4 O    0.107
     6   6 C    3.934 --     7 N    1.485    10 N    1.188     5 N    1.102
     7   7 N    3.030 --     6 C    1.485     8 C    1.147
     8   6 C    3.953 --     9 O    1.666     7 N    1.147     2 N    1.047
     9   8 O    2.005 --     8 C    1.666     2 N    0.123
    10   7 N    3.010 --    11 N    1.560     6 C    1.188    12 N    0.136
    11   7 N    2.893 --    10 N    1.560    12 N    1.169
    12   7 N    3.420 --    11 N    1.169     5 N    1.013    13 C    0.972
                            10 N    0.136
    13   6 C    3.937 --    19 H    0.974    18 H    0.973    12 N    0.972
                            17 H    0.972
    14   1 H    0.992 --     1 C    0.958
    15   1 H    0.989 --     1 C    0.970
    16   1 H    0.991 --     1 C    0.975
    17   1 H    0.991 --    13 C    0.972
    18   1 H    0.990 --    13 C    0.973
    19   1 H    0.989 --    13 C    0.974
    20  22 Ti   2.824 --    39 O    0.844    40 O    0.808    26 Ti   0.334
                            21 Ti   0.206    23 Ti   0.199
    21  22 Ti   3.847 --    40 O    0.759    43 O    0.733    41 O    0.690
                            42 O    0.606    20 Ti   0.206    22 Ti   0.186
                            24 Ti   0.141    25 Ti   0.133
    22  22 Ti   2.711 --    48 O    0.958    41 O    0.599    28 Ti   0.369
                            21 Ti   0.186    26 Ti   0.139    43 O    0.109
    23  22 Ti   3.914 --    44 O    0.943    32 C    0.715    39 O    0.706
                            42 O    0.563    25 Ti   0.209    20 Ti   0.199
                            29 Ti   0.179    49 O    0.123
    24  22 Ti   4.033 --    38 C    0.848    45 O    0.787    36 C    0.747
                            43 O    0.615    30 Ti   0.275    25 Ti   0.177
                            33 C    0.153    21 Ti   0.141    37 C    0.136
    25  22 Ti   2.687 --    45 O    0.954    44 O    0.705    23 Ti   0.209
                            24 Ti   0.177    21 Ti   0.133    40 O    0.123
    26  22 Ti   3.782 --    46 O    2.002    27 Ti   0.616    20 Ti   0.334
                            41 O    0.152    39 O    0.147    22 Ti   0.139
                            49 O    0.110
    27  22 Ti   4.006 --    49 O    0.793    47 O    0.759    50 O    0.704
                            26 Ti   0.616    51 O    0.192    28 Ti   0.166
                            31 Ti   0.145    29 Ti   0.142
    28  22 Ti   2.737 --    47 O    0.832    48 O    0.764    22 Ti   0.369
                            31 Ti   0.219    27 Ti   0.166    30 Ti   0.133
    29  22 Ti   3.952 --    37 C    1.006    35 C    0.734    51 O    0.626
                            49 O    0.455    31 Ti   0.200    38 C    0.189
                            23 Ti   0.179    32 C    0.160    27 Ti   0.142
    30  22 Ti   4.058 --    52 O    0.977    33 C    0.671    38 C    0.631
                            50 O    0.449    24 Ti   0.275    31 Ti   0.211
                            28 Ti   0.133    37 C    0.130    48 O    0.117
    31  22 Ti   2.772 --    51 O    0.896    52 O    0.730    28 Ti   0.219
                            30 Ti   0.211    29 Ti   0.200    27 Ti   0.145
    32   6 C    3.839 --    35 C    2.739    23 Ti   0.715    29 Ti   0.160
    33   6 C    3.783 --    36 C    2.731    30 Ti   0.671    24 Ti   0.153
    34   6 C    3.978 --    37 C    2.011    38 C    1.610
    35   6 C    3.713 --    32 C    2.739    29 Ti   0.734
    36   6 C    3.751 --    33 C    2.731    24 Ti   0.747
    37   6 C    3.658 --    34 C    2.011    29 Ti   1.006    24 Ti   0.136
                            30 Ti   0.130
    38   6 C    3.699 --    34 C    1.610    24 Ti   0.848    30 Ti   0.631
                            29 Ti   0.189
    39   8 O    1.935 --    20 Ti   0.844    23 Ti   0.706    26 Ti   0.147
    40   8 O    1.896 --    20 Ti   0.808    21 Ti   0.759    25 Ti   0.123
    41   8 O    1.783 --    21 Ti   0.690    22 Ti   0.599    26 Ti   0.152
    42   8 O    1.711 --    21 Ti   0.606    23 Ti   0.563
    43   8 O    1.847 --    21 Ti   0.733    24 Ti   0.615    22 Ti   0.109
    44   8 O    1.972 --    23 Ti   0.943    25 Ti   0.705
    45   8 O    2.010 --    25 Ti   0.954    24 Ti   0.787
    46   8 O    2.179 --    26 Ti   2.002
    47   8 O    1.915 --    28 Ti   0.832    27 Ti   0.759
    48   8 O    2.009 --    22 Ti   0.958    28 Ti   0.764    30 Ti   0.117
    49   8 O    1.800 --    27 Ti   0.793    29 Ti   0.455    23 Ti   0.123
                            26 Ti   0.110
    50   8 O    1.767 --    27 Ti   0.704    30 Ti   0.449
    51   8 O    1.989 --    31 Ti   0.896    29 Ti   0.626    27 Ti   0.192
    52   8 O    2.035 --    30 Ti   0.977    31 Ti   0.730
 ---------------------------------------------------------------------------

Topologies differ in total number of bonds
Writing topology from bond orders to xtbtopo.mol

molecular dipole:
                 x           y           z       tot (Debye)
 q only:        1.979       0.547      -3.012
   full:        0.556       0.934      -1.905       5.576
molecular quadrupole (traceless):
                xx          xy          yy          xz          yz          zz
 q only:      -15.137      -9.720      -4.026      -0.109      28.355      19.163
  q+dip:       -6.211     -14.186     -28.743      30.066      22.256      34.954
   full:       -4.473     -12.333     -28.530      29.816      25.064      33.003


           -------------------------------------------------
          | TOTAL ENERGY             -131.483932758407 Eh   |
          | GRADIENT NORM               0.117006689525 Eh/α |
          | HOMO-LUMO GAP               0.108997727002 eV   |
           -------------------------------------------------

------------------------------------------------------------------------
 * finished run on 2026/08/31 at 21:18:43.058     
------------------------------------------------------------------------
 total:
 * wall-time:     0 d,  0 h,  0 min,  0.569 sec
 *  cpu-time:     0 d,  0 h,  0 min,  5.766 sec
 * ratio c/w:    10.133 speedup
 SCF:
 * wall-time:     0 d,  0 h,  0 min,  0.531 sec
 *  cpu-time:     0 d,  0 h,  0 min,  5.422 sec
 * ratio c/w:    10.211 speedup

normal termination of xtb
