53
 energy: -133.924498382755 gnorm: 0.003663299782 xtb: 6.7.1pre (5071a88)
C           -1.10104861667996       -3.29079216744807        7.76788317389699
N           -0.52247146136356       -1.99216995653474        7.46498250740702
C            0.76522756144203       -1.93899005277584        7.04227850333880
O            1.54072850169793       -2.86630320427165        7.03536928940583
N            1.17340757207332       -0.61797036395751        6.73153876642537
C            2.36731638325532       -0.23594478284592        6.15860867785621
N            2.27192515299636        0.86662933189244        5.49428423048070
C            0.92746058046669        1.27534499689682        5.56507521448476
C            0.20320100064023        0.30892736383291        6.31359598051308
N           -1.08297918016399        0.14806113011164        6.49597666140769
N           -1.55382235737900       -1.05177510365032        7.04985970742129
C            0.52617260919926        2.27955541955312        4.66711563062516
O            1.45534496958731        2.87974484239486        4.00351299538667
N           -0.75963819244519        2.65462498885062        4.49076218437357
H           -0.29384265792035       -3.94903618737049        8.08738347203552
H           -1.60480855101493       -3.70414160170729        6.87620404196250
H           -1.82507330471278       -3.14708463250518        8.57167569511471
H            3.26712365650596       -0.80581083281333        6.30254302801638
H           -1.50247335789868        2.08652047446039        4.88471780442028
H           -0.95696518585517        3.20047673969822        3.64838933210499
Ti          -2.21513385005969       -2.97454115863968        3.01715045679008
Ti           0.34590885172464       -0.96394512571630        2.87863712497835
Ti           2.04679550054133       -2.56836901893541        0.90413956010409
Ti          -2.44562711183590       -0.07869644811102        2.44362053044080
Ti           2.30606978838825        1.52385057525349        3.06086026807804
Ti          -1.58214036050521       -1.30236572614802        5.16027391799163
Ti          -0.73158114152912       -4.13706551238867        0.31860309876227
Ti          -0.72684497776939       -0.74023552297376       -0.31915675835640
Ti           1.37219997318730       -1.54923069970871       -2.11672153810415
Ti          -1.95508976092305        2.05732690834088        0.12015349622480
Ti           2.22702953387671        0.80578965542724        0.07596095308460
Ti           0.34879640951935        2.02134783482598       -1.92677120991451
C           -3.71493498167697        1.42785715908327        1.90759596264428
C            4.09522215776747        0.86551067742202        0.97384161484624
C            0.46702119188120        2.82317944541260        1.24874247976738
C           -3.75715184976106        2.34842743300092        1.07554559188216
C            4.12371629207046        1.27077195748906        2.14838229951856
C           -0.74796745884351        3.20576657849855        1.19944958687109
C            1.73578222293577        2.41826824115719        1.31489233412060
O           -2.30900492989577       -1.76157235329821        1.77261001437312
O           -2.04431400205306       -2.98981960279497        4.73143832524414
O            0.65823564685492       -2.46211085604096        2.07083845352761
O           -0.76239572357221        0.32760566967637        2.53654970126666
O            1.85589559435503       -0.18125451462963        2.84308617834031
O           -2.68389898879129       -0.38956285363525        4.13016143263464
O           -0.00568654769693       -1.43260887272487        4.47353847759878
O           -0.75708257949334       -2.47312905883248       -0.31421578653977
O           -0.22993227988640       -0.71914785306569       -2.05439046855217
O            2.44984266217255       -2.07348827506948       -0.70965339532491
O           -2.05399525744839        0.24564197026641        0.02637484893463
O            0.68524872788896       -0.05519927416500        0.34835090893058
O           -1.28164455085397        2.38884027435366       -1.46971521978064
O            1.99187967702301        1.32229294485356       -1.55457713719510
