53
 energy: -133.917877358003 gnorm: 0.003651627844 xtb: 6.7.1pre (5071a88)
C           -3.55078173399409        0.05222305158704        6.28668073641450
N           -2.14519253577031       -0.02376969453209        6.64484961480406
C           -1.56971386715575       -1.22062874299523        6.75143162555659
O           -2.16278037716788       -2.28853267982471        6.55546853655843
N           -0.21135826827475       -1.20215970350694        7.15020430076315
C            0.71300669503722       -2.23658786016768        6.91138184193909
N            1.87273615652193       -1.80292274558297        6.56614183636581
C            1.82479888372167       -0.41982917396489        6.55295103307085
C            0.49780246344759       -0.02516124079934        6.85252896784393
N           -0.06214865875677        1.15266839765789        6.63338586579772
N           -1.45237286258437        1.22601953511871        6.46571415203914
C            2.67040865604656        0.48438767312603        5.82670695458754
O            3.37133385725527        0.16158955658801        4.83620586035609
N            2.67207205504161        1.78672283490617        6.23462596748058
H           -4.05574222051149       -0.81625269847992        6.71047084775296
H           -3.68139257353622        0.07422669891293        5.18768668691542
H           -3.93497682332396        0.98020670817131        6.71131623788666
H            0.46821444858612       -3.27019317350582        7.11298099484048
H            1.92952945254998        2.10157216357080        6.84652855679141
H            3.03166689723131        2.45341149295787        5.54621554361142
Ti          -1.33642794649127       -3.75884871142518        4.31214269647088
Ti           0.27712726714292       -1.19117565129623        2.78100417957778
Ti           1.58032748818633       -3.35263036639001        1.12555040911601
Ti          -2.34774439404031        0.15359482224869        2.40456533694129
Ti           2.36738355064753        0.81578715856659        3.09515685123618
Ti          -0.57070454305284        0.75110761806061        4.76219391197907
Ti          -2.30660294083866       -2.59015184088620        1.12802793249736
Ti          -0.42719670492574       -1.26504969801354       -0.69249998310642
Ti           1.77206754336300       -2.54896713972140       -1.92793253617981
Ti          -1.67330816488508        1.51183784685665       -0.58916816803338
Ti           2.49634090919818        0.22539575823889        0.07372139779042
Ti           0.85435232405815        1.24120995166585       -2.25920733342311
C           -3.56660739495534        1.32571100471001        1.26073012852510
C            4.27518385313748        0.37862303071377        1.05119940883219
C            0.65225305557694        2.31241462114072        0.91919077829641
C           -3.51817498198418        1.96919822632510        0.20275250949492
C            4.22296375157221        0.93496189683781        2.16278260298826
C           -0.47931399196159        2.71007879217303        0.47346783272860
C            1.80529125482487        1.82984320517234        1.34891767916537
O           -2.78545031415823       -1.60291388563558        2.50214154842680
O           -0.38305114363811       -1.02300391276993        4.39624648888952
O            0.31074699097538       -2.84669063680676        2.31729469511559
O           -0.70117881958383       -0.08446155573230        1.92363952307803
O            1.94932408603898       -0.85753752880853        2.65411113670808
O           -2.06605141160970        1.01969826135674        3.85168391951512
O            0.93847656951305        1.29684775942153        4.06970844224769
O           -0.98783744461614       -2.80713025164785       -0.03566020167886
O            0.23040093244095       -1.65292039608414       -2.27025316984087
O            2.43911430007552       -3.12043841784802       -0.36440653052982
O           -1.80875076100301       -0.28067678782540       -0.46485076181122
O            0.97604696863592       -0.67918408810228        0.09943687029604
O           -0.84212920608204        1.57937394275728       -2.14106260951468
O            2.42802167407371        0.73910257352241       -1.58674814729164
