53
 energy: -133.818509315595 gnorm: 0.035055100411 xtb: 6.7.1pre (5071a88)
C            0.37574143997870        3.47052263047751        6.87365706300558
N           -0.05861289699722        2.08157514752532        6.91251617688266
C           -0.76462102784113        1.60213664011242        7.95711239594646
O           -1.21807529313305        2.26053744481694        8.86700477684295
N           -0.94204893955259        0.20227807625528        7.86007313910530
C           -1.78799478954382       -0.64955694863372        8.56256412355529
N           -1.58413946940636       -1.88611490927756        8.26961287484272
C           -0.52201196990346       -1.91956847414015        7.37865845068694
C           -0.11199505249828       -0.61197185700504        7.10851791317344
N            0.89606073493094       -0.08238924723672        6.35758188525504
N            0.67326754078213        1.29188343060159        5.97999312290167
C           -0.05320303585545       -3.09187674337642        6.65432325034910
O           -0.79176195145647       -4.03345121166153        6.30353928718134
N            1.25136274815043       -3.04837789243232        6.26095752966604
H           -0.17395382983022        4.03184485067612        7.62459297302382
H            0.17202894518834        3.86255938062717        5.87350503564593
H            1.44755229908041        3.52816117747704        7.07501620977757
H           -2.51152306885627       -0.27906967081682        9.26499874380217
H            1.77764282520952       -2.17225688212209        6.31953502096531
H            1.51191535303534       -3.74900610763686        5.58264452924472
Ti          -1.67562439132462       -2.54613389240417        3.78011967799231
Ti           0.67082886657704       -1.62007335652639        2.20947749273178
Ti           1.53141937183567       -3.41443545994186        0.02556143430042
Ti          -2.06729594459319        0.01370649064640        2.43807495942096
Ti           2.61094346944052        0.57745017407582        2.11496318937641
Ti           0.21059581363644        0.16481597583791        4.56369048245729
Ti          -2.18282714478446       -3.30389336045534        0.51712368306226
Ti          -0.83093489172340       -1.05169728812563       -1.08461662710213
Ti           1.11080784895310       -2.17920642111912       -2.83876803009039
Ti          -2.03826105321849        1.50221374863047       -0.40456733323788
Ti           2.26039171292274        0.23194644426694       -0.82499438049928
Ti           0.19148732804844        1.43002983919424       -2.65158118312701
C           -3.36002029128671        1.41423025894335        1.71518269250128
C            4.18835500921489        0.26103414677039       -0.08108438878956
C            0.61070478153515        2.16753548973365        0.57716128299659
C           -3.62479458962830        2.11749453097263        0.72482626120689
C            4.41664665602611        0.54251463048365        1.10877479877876
C           -0.58187294637310        2.56126442753028        0.38003644261349
C            1.88099454253839        1.76610824673189        0.67443769569789
O           -2.79261605146802       -1.65781492148674        2.75135031078107
O            0.18238151788600       -2.02831010885243        3.91410922946357
O            0.42043664684991       -3.14661029910073        1.44987097233059
O           -0.55335442525610       -0.47749276473215        1.78183154004928
O            2.24014934988455       -1.21642202868272        1.72445365965555
O           -1.46586389147846        0.38510123006417        4.04148064204871
O            1.50463044626201        0.52584187574919        3.48670442267097
O           -1.06347392059768       -2.75765797002623       -0.74285475785922
O           -0.44056449981231       -1.27442429817722       -2.80562451092372
O            2.11443850815021       -2.85612999718119       -1.52206042262643
O           -2.20451740691201       -0.39185144213448       -0.23016473061690
O            0.70384144077743       -0.58172872574730       -0.47795782277163
O           -1.44502731694875        1.40302207855693       -2.06954258973737
O            1.89236189341217        0.93171091226960       -2.36446559472520
