21
Carmustine - ETKDG+MMFF conformer
O      1.412681     -0.355918      2.842695
N      0.519633     -0.307989      1.991075
N      0.957901      0.322995      0.703916
C      2.350512      0.731654      0.539291
C      3.313374     -0.437461      0.342098
Cl      3.018048     -1.313149     -1.180140
C      0.055365      0.472835     -0.345994
O      0.360148      0.976048     -1.427219
N     -1.221927      0.005721     -0.110801
C     -2.265884      0.202375     -1.103451
C     -3.505245     -0.639780     -0.826834
Cl     -4.244282     -0.196641      0.735841
H      2.641963      1.304498      1.427897
H      2.436344      1.423223     -0.307012
H      3.244938     -1.166204      1.154237
H      4.342707     -0.068326      0.304461
H     -1.527787      0.022353      0.854371
H     -1.861913     -0.056381     -2.088814
H     -2.512434      1.270418     -1.118990
H     -4.257744     -0.486002     -1.605367
H     -3.256399     -1.704270     -0.781260
