      -----------------------------------------------------------      
     |                   =====================                   |     
     |                           x T B                           |     
     |                   =====================                   |     
     |                         S. Grimme                         |     
     |          Mulliken Center for Theoretical Chemistry        |     
     |                    University of Bonn                     |     
      -----------------------------------------------------------      

   * xtb version 6.7.1pre (5071a88) compiled by 'Marcel@Raven' on 2024-07-23

   xtb is free software: you can redistribute it and/or modify it under
   the terms of the GNU Lesser General Public License as published by
   the Free Software Foundation, either version 3 of the License, or
   (at your option) any later version.
   
   xtb is distributed in the hope that it will be useful,
   but WITHOUT ANY WARRANTY; without even the implied warranty of
   MERCHANTABILITY or FITNESS FOR A PARTICULAR PURPOSE.  See the
   GNU Lesser General Public License for more details.
   
   Cite this work as:
   * C. Bannwarth, E. Caldeweyher, S. Ehlert, A. Hansen, P. Pracht,
     J. Seibert, S. Spicher, S. Grimme, WIREs Comput. Mol. Sci., 2020, 11,
     e01493. DOI: 10.1002/wcms.1493
   
   for GFN2-xTB:
   * C. Bannwarth, S. Ehlert and S. Grimme., J. Chem. Theory Comput., 2019,
     15, 1652-1671. DOI: 10.1021/acs.jctc.8b01176
   for GFN1-xTB:
   * S. Grimme, C. Bannwarth, P. Shushkov, J. Chem. Theory Comput., 2017,
     13, 1989-2009. DOI: 10.1021/acs.jctc.7b00118
   for GFN0-xTB:
   * P. Pracht, E. Caldeweyher, S. Ehlert, S. Grimme, ChemRxiv, 2019, preprint.
     DOI: 10.26434/chemrxiv.8326202.v1
   for GFN-FF:
   * S. Spicher and S. Grimme, Angew. Chem. Int. Ed., 2020, 59, 15665-15673.
     DOI: 10.1002/anie.202004239
   
   for ALPB and GBSA implicit solvation:
   * S. Ehlert, M. Stahn, S. Spicher, S. Grimme, J. Chem. Theory Comput.,
     2021, 17, 4250-4261. DOI: 10.1021/acs.jctc.1c00471
   
   for ddCOSMO and CPCM-X implicit solvation:
   * M. Stahn, S. Ehlert, S. Grimme, J. Phys. Chem. A,
     2023, XX, XXXX-XXXX. DOI: 10.1021/acs.jpca.3c04382
   
   for DFT-D4:
   * E. Caldeweyher, C. Bannwarth and S. Grimme, J. Chem. Phys., 2017,
     147, 034112. DOI: 10.1063/1.4993215
   * E. Caldeweyher, S. Ehlert, A. Hansen, H. Neugebauer, S. Spicher,
     C. Bannwarth and S. Grimme, J. Chem. Phys., 2019, 150, 154122.
     DOI: 10.1063/1.5090222
   * E. Caldeweyher, J.-M. Mewes, S. Ehlert and S. Grimme, Phys. Chem. Chem. Phys.
     2020, 22, 8499-8512. DOI: 10.1039/D0CP00502A
   
   for sTDA-xTB:
   * S. Grimme and C. Bannwarth, J. Chem. Phys., 2016, 145, 054103.
     DOI: 10.1063/1.4959605
   
   in the mass-spec context:
   * V. Asgeirsson, C. Bauer and S. Grimme, Chem. Sci., 2017, 8, 4879.
     DOI: 10.1039/c7sc00601b
   * J. Koopman and S. Grimme, ACS Omega 2019, 4, 12, 15120-15133.
     DOI: 10.1021/acsomega.9b02011
   
   for metadynamics refer to:
   * S. Grimme, J. Chem. Theory Comput., 2019, 155, 2847-2862
     DOI: 10.1021/acs.jctc.9b00143
   
   for SPH calculations refer to:
   * S. Spicher and S. Grimme, J. Chem. Theory Comput., 2021, 17, 1701-1714
     DOI: 10.1021/acs.jctc.0c01306
   
   for ONIOM refer to:
   * C. Plett, A. Katbashev, S. Ehlert, S. Grimme, M. Bursch,
     Phys. Chem. Chem. Phys., 2023, 25, 17860-17868. DOI: 10.1039/D3CP02178E
   
   for DIPRO refer to:
   * J. Kohn, N. Gildemeister, S. Grimme, D. Fazzi, A. Hansen,
     J. Chem. Phys., 2023, just accepted.
   
   for PTB refer to:
   * S. Grimme, M. Mueller, A. Hansen, J. Chem. Phys., 2023, 158, 124111.
     DOI: 10.1063/5.0137838
   
   with help from (in alphabetical order)
   P. Atkinson, C. Bannwarth, F. Bohle, G. Brandenburg, E. Caldeweyher
   M. Checinski, S. Dohm, S. Ehlert, S. Ehrlich, I. Gerasimov, C. Hölzer
   A. Katbashev, J. Kohn, J. Koopman, C. Lavigne, S. Lehtola, F. März, M. Müller,
   F. Musil, H. Neugebauer, J. Pisarek, C. Plett, P. Pracht, F. Pultar,
   J. Seibert, P. Shushkov, S. Spicher, M. Stahn, M. Steiner, T. Strunk,
   J. Stückrath, T. Rose, and J. Unsleber
   
 * started run on 2026/08/31 at 21:18:43.835     
   ID    Z sym.   atoms
    1    8 O      1, 8, 41-54
    2    7 N      2, 3, 9
    3    6 C      4, 5, 7, 10, 11, 34-40
    4   17 Cl     6, 12
    5    1 H      13-21
    6   22 Ti     22-33

           -------------------------------------------------
          |                Calculation Setup                |
           -------------------------------------------------

          program call               : "c:\Users\Andre\Proyectos doctorado\kras-pancreatic-gC3N4-ai\tools\xtb\xtb-6.7.1\bin\xtb.exe" "c:\Users\Andre\Proyectos doctorado\mxene-glioblastoma-qsar-ai\calculations\gbm\Carmustine\Carmustine_Ti12C7O14_phys_complex.xyz" --gfn 2 --sp --chrg 0 --uhf 0 --etemp 300 --iterations 500 --norestart
          coordinate file            : c:\Users\Andre\Proyectos doctorado\mxene-glioblastoma-qsar-ai\calculations\gbm\Carmustine\Carmustine_Ti12C7O14_phys_complex.xyz
          omp threads                :                    16


molecular fragmentation (1/2 indicates fragments):
111111111111111111111222222222222222222222222222222222
# atoms in fragment 1/2:    21    33
 fragment masses (1/2) :      214.05      882.47
CMA distance (Bohr)    :  17.883
constraining FC (au)   :  0.0500

           -------------------------------------------------
          |                 G F N 2 - x T B                 |
           -------------------------------------------------

        Reference                      10.1021/acs.jctc.8b01176
      * Hamiltonian:
        H0-scaling (s, p, d)           1.850000    2.230000    2.230000
        zeta-weighting                 0.500000
      * Dispersion:
        s8                             2.700000
        a1                             0.520000
        a2                             5.000000
        s9                             5.000000
      * Repulsion:
        kExp                           1.500000    1.000000
        rExp                           1.000000
      * Coulomb:
        alpha                          2.000000
        third order                    shell-resolved
        anisotropic                    true
        a3                             3.000000
        a5                             4.000000
        cn-shift                       1.200000
        cn-exp                         4.000000
        max-rad                        5.000000


          ...................................................
          :                      SETUP                      :
          :.................................................:
          :  # basis functions                 273          :
          :  # atomic orbitals                 259          :
          :  # shells                          113          :
          :  # electrons                       230          :
          :  max. iterations                   500          :
          :  Hamiltonian                  GFN2-xTB          :
          :  restarted?                      false          :
          :  GBSA solvation                  false          :
          :  PC potential                    false          :
          :  electronic temp.          300.0000000     K    :
          :  accuracy                    1.0000000          :
          :  -> integral cutoff          0.2500000E+02      :
          :  -> integral neglect         0.1000000E-07      :
          :  -> SCF convergence          0.1000000E-05 Eh   :
          :  -> wf. convergence          0.1000000E-03 e    :
          :  Broyden damping             0.4000000          :
          :  net charge                          0          :
          :  unpaired electrons                  0          :
          ...................................................

 iter      E             dE          RMSdq      gap      omega  full diag
   1   -130.8305997 -0.130831E+03  0.170E+01    0.11       0.0  T
   2    -91.1888681  0.396417E+02  0.191E+01    0.05       1.0  T
   3     13.5810207  0.104770E+03  0.337E+01    0.03       1.0  T
   4   -127.5113543 -0.141092E+03  0.130E+01    0.06       1.0  T
   5   -131.2687530 -0.375740E+01  0.967E+00    0.04       1.0  T
   6   -132.8606341 -0.159188E+01  0.806E+00    0.25       1.0  T
   7   -133.7650635 -0.904429E+00  0.675E+00    0.59       1.0  T
   8   -133.7798577 -0.147942E-01  0.614E+00    0.12       1.0  T
   9   -133.0707565  0.709101E+00  0.640E+00    0.21       1.0  T
  10   -133.3046181 -0.233862E+00  0.500E+00    0.03       1.0  T
  11   -133.8688143 -0.564196E+00  0.422E+00    0.56       1.0  T
  12   -133.9493674 -0.805531E-01  0.330E+00    0.13       1.0  T
  13   -133.2533709  0.695997E+00  0.488E+00    0.20       1.0  T
  14   -133.8055756 -0.552205E+00  0.337E+00    0.04       1.0  T
  15   -134.0612234 -0.255648E+00  0.240E+00    0.25       1.0  T
  16   -133.9270238  0.134200E+00  0.236E+00    0.02       1.0  T
  17   -134.1224783 -0.195454E+00  0.172E+00    0.33       1.0  T
  18   -134.1500486 -0.275703E-01  0.164E+00    0.38       1.0  T
  19   -134.1642832 -0.142346E-01  0.149E+00    0.30       1.0  T
  20   -134.1720452 -0.776203E-02  0.138E+00    0.27       1.0  T
  21   -134.1970667 -0.250215E-01  0.109E+00    0.14       1.0  T
  22   -134.2108110 -0.137443E-01  0.907E-01    0.12       1.0  T
  23   -134.1740126  0.367984E-01  0.976E-01    0.05       1.0  T
  24   -134.2193803 -0.453676E-01  0.659E-01    0.11       1.0  T
  25   -134.1710178  0.483624E-01  0.877E-01    0.04       1.0  T
  26   -134.1467201  0.242977E-01  0.945E-01    0.03       1.0  T
  27   -134.2321825 -0.854623E-01  0.264E-01    0.11       1.0  T
  28   -134.2319664  0.216051E-03  0.277E-01    0.13       1.0  T
  29   -134.2258545  0.611189E-02  0.408E-01    0.21       1.0  T
  30   -134.2234129  0.244163E-02  0.424E-01    0.27       1.0  T
  31   -134.2234341 -0.211658E-04  0.403E-01    0.31       1.0  T
  32   -134.2240855 -0.651410E-03  0.380E-01    0.30       1.0  T
  33   -134.2259596 -0.187410E-02  0.323E-01    0.26       1.0  T
  34   -134.2289669 -0.300737E-02  0.249E-01    0.20       1.0  T
  35   -134.2339699 -0.500297E-02  0.388E-02    0.12       1.0  T
  36   -134.2307667  0.320318E-02  0.188E-01    0.09       1.0  T
  37   -134.2339791 -0.321236E-02  0.291E-02    0.12       1.0  T
  38   -134.2339810 -0.186750E-05  0.190E-02    0.12       1.0  T
  39   -134.2339434  0.375367E-04  0.273E-02    0.13       1.0  T
  40   -134.2339518 -0.841786E-05  0.225E-02    0.13       1.0  T
  41   -134.2339741 -0.222366E-04  0.131E-02    0.12       1.0  T
  42   -134.2339820 -0.792644E-05  0.854E-03    0.12       1.6  T
  43   -134.2339865 -0.452136E-05  0.520E-03    0.12       2.6  T
  44   -134.2339850  0.155750E-05  0.659E-03    0.12       2.1  T
  45   -134.2339865 -0.153052E-05  0.421E-03    0.12       3.2  T
  46   -134.2339870 -0.467943E-06  0.210E-03    0.12       6.5  T
  47   -134.2339866  0.323576E-06  0.267E-03    0.12       5.1  T
  48   -134.2339869 -0.268671E-06  0.181E-03    0.12       7.5  T
  49   -134.2339871 -0.153262E-06  0.111E-03    0.12      12.2  T
  50   -134.2339872 -0.923657E-07  0.322E-04    0.12      42.3  T
  51   -134.2339872 -0.539546E-08  0.205E-04    0.12      66.5  T

   *** convergence criteria satisfied after 51 iterations ***

         #    Occupation            Energy/Eh            Energy/eV
      -------------------------------------------------------------
         1        2.0000           -1.0550485             -28.7093
       ...           ...                  ...                  ...
       109        2.0000           -0.3693807             -10.0514
       110        2.0000           -0.3600891              -9.7985
       111        2.0000           -0.3559380              -9.6856
       112        2.0000           -0.3527206              -9.5980
       113        2.0000           -0.3464560              -9.4275
       114        2.0000           -0.3356409              -9.1333
       115        1.8333           -0.3224100              -8.7732 (HOMO)
       116        0.1667           -0.3178544              -8.6493 (LUMO)
       117                         -0.2947507              -8.0206
       118                         -0.2936722              -7.9912
       119                         -0.2924295              -7.9574
       120                         -0.2913429              -7.9278
       ...                                ...                  ...
       259                         13.3915955             364.4039
      -------------------------------------------------------------
                  HL-Gap            0.0045555 Eh            0.1240 eV
             Fermi-level           -0.3201322 Eh           -8.7112 eV

 SCC (total)                   0 d,  0 h,  0 min,  0.596 sec
 SCC setup                      ...        0 min,  0.000 sec (  0.000%)
 Dispersion                     ...        0 min,  0.001 sec (  0.168%)
 classical contributions        ...        0 min,  0.000 sec (  0.000%)
 integral evaluation            ...        0 min,  0.005 sec (  0.839%)
 iterations                     ...        0 min,  0.577 sec ( 96.812%)
 molecular gradient             ...        0 min,  0.012 sec (  2.013%)
 printout                       ...        0 min,  0.001 sec (  0.168%)

         :::::::::::::::::::::::::::::::::::::::::::::::::::::
         ::                     SUMMARY                     ::
         :::::::::::::::::::::::::::::::::::::::::::::::::::::
         :: total energy            -133.268889131342 Eh    ::
         :: gradient norm              0.091433177725 Eh/a0 ::
         :: HOMO-LUMO gap              0.123961605370 eV    ::
         ::.................................................::
         :: SCC energy              -134.232173944807 Eh    ::
         :: -> isotropic ES            0.964987648333 Eh    ::
         :: -> anisotropic ES         -0.375890919482 Eh    ::
         :: -> anisotropic XC         -0.048544418844 Eh    ::
         :: -> dispersion             -0.109077330636 Eh    ::
         :: repulsion energy           0.963284813465 Eh    ::
         :: add. restraining           0.000000000000 Eh    ::
         :: total charge               0.000000000000 e     ::
         :::::::::::::::::::::::::::::::::::::::::::::::::::::

           -------------------------------------------------
          |                Property Printout                |
           -------------------------------------------------

    * Orbital Energies and Occupations

         #    Occupation            Energy/Eh            Energy/eV
      -------------------------------------------------------------
         1        2.0000           -1.0550485             -28.7093
       ...           ...                  ...                  ...
       103        2.0000           -0.3961236             -10.7791
       104        2.0000           -0.3912973             -10.6477
       105        2.0000           -0.3905936             -10.6286
       106        2.0000           -0.3861072             -10.5065
       107        2.0000           -0.3794173             -10.3245
       108        2.0000           -0.3713968             -10.1062
       109        2.0000           -0.3693807             -10.0514
       110        2.0000           -0.3600891              -9.7985
       111        2.0000           -0.3559380              -9.6856
       112        2.0000           -0.3527206              -9.5980
       113        2.0000           -0.3464560              -9.4275
       114        2.0000           -0.3356409              -9.1333
       115        1.8333           -0.3224100              -8.7732 (HOMO)
       116        0.1667           -0.3178544              -8.6493 (LUMO)
       117                         -0.2947507              -8.0206
       118                         -0.2936722              -7.9912
       119                         -0.2924295              -7.9574
       120                         -0.2913429              -7.9278
       121                         -0.2905442              -7.9061
       122                         -0.2841822              -7.7330
       123                         -0.2834564              -7.7132
       124                         -0.2818895              -7.6706
       125                         -0.2806059              -7.6357
       126                         -0.2803788              -7.6295
       ...                                ...                  ...
       259                         13.3915955             364.4039
      -------------------------------------------------------------
                  HL-Gap            0.0045555 Eh            0.1240 eV
             Fermi-level           -0.3201322 Eh           -8.7112 eV

     #   Z          covCN         q      C6AA      α(0)
     1   8 O        0.924    -0.290    19.581     5.934
     2   7 N        1.892     0.061    20.839     6.767
     3   7 N        2.792    -0.074    22.679     7.073
     4   6 C        3.757     0.004    20.556     6.464
     5   6 C        3.712     0.020    20.374     6.450
     6  17 Cl       0.909    -0.195   105.266    15.696
     7   6 C        2.689     0.316    21.635     7.612
     8   8 O        0.858    -0.445    22.602     6.374
     9   7 N        2.686    -0.195    25.223     7.459
    10   6 C        3.765    -0.005    20.707     6.486
    11   6 C        3.712     0.009    20.553     6.478
    12  17 Cl       0.915    -0.185   104.966    15.674
    13   1 H        0.924     0.078     2.000     2.212
    14   1 H        0.924     0.089     1.885     2.147
    15   1 H        0.924     0.087     1.906     2.159
    16   1 H        0.924     0.075     2.031     2.229
    17   1 H        0.860     0.203     1.091     1.636
    18   1 H        0.924     0.091     1.866     2.136
    19   1 H        0.924     0.073     2.055     2.242
    20   1 H        0.924     0.079     1.990     2.206
    21   1 H        0.924     0.083     1.953     2.185
    22  22 Ti       3.637     1.055   101.745    24.482
    23  22 Ti       6.855     1.554    84.030    14.883
    24  22 Ti       3.227     1.054   102.567    24.730
    25  22 Ti       5.860     1.380    85.669    15.027
    26  22 Ti       5.627     1.144    87.975    15.228
    27  22 Ti       3.541     1.047   102.388    24.661
    28  22 Ti       2.352     0.886   202.554    34.848
    29  22 Ti       6.011     1.350    85.956    15.052
    30  22 Ti       3.414     1.014   102.981    24.770
    31  22 Ti       5.519     1.110    88.320    15.258
    32  22 Ti       5.687     1.197    87.448    15.182
    33  22 Ti       3.581     1.032   102.400    24.633
    34   6 C        2.246    -0.255    37.554     9.929
    35   6 C        2.142    -0.254    38.289    10.002
    36   6 C        2.248    -0.017    30.553     8.956
    37   6 C        1.838    -0.207    37.236     9.858
    38   6 C        1.894    -0.219    37.569     9.899
    39   6 C        1.821    -0.338    41.854    10.453
    40   6 C        2.631    -0.396    39.633    10.298
    41   8 O        1.554    -0.846    31.982     7.630
    42   8 O        1.464    -0.879    33.156     7.761
    43   8 O        1.557    -0.955    35.583     8.048
    44   8 O        1.523    -1.009    37.569     8.267
    45   8 O        1.523    -0.913    34.173     7.885
    46   8 O        1.458    -0.822    31.381     7.550
    47   8 O        1.455    -0.788    30.359     7.426
    48   8 O        0.727    -0.631    26.969     6.959
    49   8 O        1.453    -0.863    32.656     7.702
    50   8 O        1.476    -0.799    30.658     7.464
    51   8 O        1.603    -0.944    35.152     8.002
    52   8 O        1.547    -0.971    36.152     8.112
    53   8 O        1.700    -0.816    30.944     7.510
    54   8 O        1.453    -0.779    30.124     7.397

 Mol. C6AA /au·bohr⁶  :      99704.639132
 Mol. C8AA /au·bohr⁸  :    5077044.667869
 Mol. α(0) /au        :        543.485788


Wiberg/Mayer (AO) data.
largest (>0.10) Wiberg bond orders for each atom

 ---------------------------------------------------------------------------
     #   Z sym  total        # sym  WBO       # sym  WBO       # sym  WBO
 ---------------------------------------------------------------------------
     1   8 O    1.997 --     2 N    1.710     3 N    0.214
     2   7 N    2.866 --     1 O    1.710     3 N    1.060
     3   7 N    3.527 --     7 C    1.097     2 N    1.060     4 C    0.988
                             1 O    0.214     8 O    0.101
     4   6 C    3.966 --     5 C    1.003     3 N    0.988    14 H    0.959
                            13 H    0.954
     5   6 C    3.939 --     4 C    1.003    16 H    0.974    15 H    0.974
                             6 Cl   0.956
     6  17 Cl   1.002 --     5 C    0.956
     7   6 C    3.952 --     8 O    1.615     9 N    1.185     3 N    1.097
     8   8 O    1.999 --     7 C    1.615     9 N    0.161     3 N    0.101
     9   7 N    3.361 --     7 C    1.185    10 C    1.001    17 H    0.921
                             8 O    0.161
    10   6 C    3.965 --    11 C    1.016     9 N    1.001    19 H    0.960
                            18 H    0.919
    11   6 C    3.943 --    10 C    1.016    21 H    0.975    20 H    0.974
                            12 Cl   0.956
    12  17 Cl   1.008 --    11 C    0.956
    13   1 H    0.993 --     4 C    0.954
    14   1 H    0.992 --     4 C    0.959
    15   1 H    0.992 --     5 C    0.974
    16   1 H    0.994 --     5 C    0.974
    17   1 H    0.957 --     9 N    0.921
    18   1 H    0.991 --    10 C    0.919
    19   1 H    0.994 --    10 C    0.960
    20   1 H    0.992 --    11 C    0.974
    21   1 H    0.993 --    11 C    0.975
    22  22 Ti   2.827 --    41 O    0.845    42 O    0.813    28 Ti   0.331
                            23 Ti   0.203    25 Ti   0.198    27 Ti   0.101
    23  22 Ti   3.848 --    42 O    0.754    45 O    0.735    43 O    0.691
                            44 O    0.608    22 Ti   0.203    24 Ti   0.187
                            26 Ti   0.140    27 Ti   0.135
    24  22 Ti   2.715 --    50 O    0.959    43 O    0.599    30 Ti   0.370
                            23 Ti   0.187    28 Ti   0.140    45 O    0.109
    25  22 Ti   3.919 --    46 O    0.941    34 C    0.718    41 O    0.705
                            44 O    0.564    27 Ti   0.210    22 Ti   0.198
                            31 Ti   0.179    51 O    0.124
    26  22 Ti   4.041 --    40 C    0.850    47 O    0.799    38 C    0.744
                            45 O    0.611    32 Ti   0.277    27 Ti   0.176
                            35 C    0.152    23 Ti   0.140    39 C    0.137
    27  22 Ti   2.711 --    47 O    0.955    46 O    0.702    25 Ti   0.210
                            26 Ti   0.176    23 Ti   0.135    42 O    0.124
                            22 Ti   0.101
    28  22 Ti   3.772 --    48 O    2.000    29 Ti   0.610    22 Ti   0.331
                            43 O    0.152    41 O    0.147    24 Ti   0.140
                            51 O    0.110
    29  22 Ti   4.009 --    51 O    0.797    49 O    0.757    52 O    0.709
                            28 Ti   0.610    53 O    0.194    30 Ti   0.166
                            33 Ti   0.147    31 Ti   0.141
    30  22 Ti   2.741 --    49 O    0.832    50 O    0.764    24 Ti   0.370
                            33 Ti   0.220    29 Ti   0.166    32 Ti   0.132
    31  22 Ti   3.969 --    39 C    1.023    37 C    0.731    53 O    0.622
                            51 O    0.449    40 C    0.203    33 Ti   0.200
                            25 Ti   0.179    34 C    0.158    29 Ti   0.141
    32  22 Ti   4.064 --    54 O    0.973    35 C    0.673    40 C    0.638
                            52 O    0.445    26 Ti   0.277    33 Ti   0.211
                            39 C    0.133    30 Ti   0.132    50 O    0.116
    33  22 Ti   2.780 --    53 O    0.896    54 O    0.732    30 Ti   0.220
                            32 Ti   0.211    31 Ti   0.200    29 Ti   0.147
    34   6 C    3.840 --    37 C    2.739    25 Ti   0.718    31 Ti   0.158
    35   6 C    3.784 --    38 C    2.731    32 Ti   0.673    26 Ti   0.152
    36   6 C    3.978 --    39 C    2.007    40 C    1.612
    37   6 C    3.709 --    34 C    2.739    31 Ti   0.731
    38   6 C    3.748 --    35 C    2.731    26 Ti   0.744
    39   6 C    3.682 --    36 C    2.007    31 Ti   1.023    26 Ti   0.137
                            32 Ti   0.133
    40   6 C    3.727 --    36 C    1.612    26 Ti   0.850    32 Ti   0.638
                            31 Ti   0.203
    41   8 O    1.935 --    22 Ti   0.845    25 Ti   0.705    28 Ti   0.147
    42   8 O    1.895 --    22 Ti   0.813    23 Ti   0.754    27 Ti   0.124
    43   8 O    1.783 --    23 Ti   0.691    24 Ti   0.599    28 Ti   0.152
    44   8 O    1.713 --    23 Ti   0.608    25 Ti   0.564
    45   8 O    1.846 --    23 Ti   0.735    26 Ti   0.611    24 Ti   0.109
    46   8 O    1.971 --    25 Ti   0.941    27 Ti   0.702
    47   8 O    2.026 --    27 Ti   0.955    26 Ti   0.799
    48   8 O    2.176 --    28 Ti   2.000
    49   8 O    1.913 --    30 Ti   0.832    29 Ti   0.757
    50   8 O    2.008 --    24 Ti   0.959    30 Ti   0.764    32 Ti   0.116
    51   8 O    1.800 --    29 Ti   0.797    31 Ti   0.449    25 Ti   0.124
                            28 Ti   0.110
    52   8 O    1.769 --    29 Ti   0.709    32 Ti   0.445
    53   8 O    1.987 --    33 Ti   0.896    31 Ti   0.622    29 Ti   0.194
    54   8 O    2.033 --    32 Ti   0.973    33 Ti   0.732
 ---------------------------------------------------------------------------

Topologies differ in total number of bonds
Writing topology from bond orders to xtbtopo.mol

molecular dipole:
                 x           y           z       tot (Debye)
 q only:        0.175      -0.817      -3.557
   full:       -0.966      -0.753      -2.771       7.700
molecular quadrupole (traceless):
                xx          xy          yy          xz          yz          zz
 q only:        2.967       3.673      25.537     -37.847      -1.829     -28.504
  q+dip:       18.360      -1.514       9.641      -3.984     -13.670     -28.002
   full:       20.120      -0.090      10.819      -4.649      -9.482     -30.939


           -------------------------------------------------
          | TOTAL ENERGY             -133.268889131342 Eh   |
          | GRADIENT NORM               0.091433177725 Eh/α |
          | HOMO-LUMO GAP               0.123961605370 eV   |
           -------------------------------------------------

------------------------------------------------------------------------
 * finished run on 2026/08/31 at 21:18:44.479     
------------------------------------------------------------------------
 total:
 * wall-time:     0 d,  0 h,  0 min,  0.643 sec
 *  cpu-time:     0 d,  0 h,  0 min,  5.984 sec
 * ratio c/w:     9.307 speedup
 SCF:
 * wall-time:     0 d,  0 h,  0 min,  0.597 sec
 *  cpu-time:     0 d,  0 h,  0 min,  5.656 sec
 * ratio c/w:     9.474 speedup

normal termination of xtb
