      -----------------------------------------------------------      
     |                   =====================                   |     
     |                           x T B                           |     
     |                   =====================                   |     
     |                         S. Grimme                         |     
     |          Mulliken Center for Theoretical Chemistry        |     
     |                    University of Bonn                     |     
      -----------------------------------------------------------      

   * xtb version 6.7.1pre (5071a88) compiled by 'Marcel@Raven' on 2024-07-23

   xtb is free software: you can redistribute it and/or modify it under
   the terms of the GNU Lesser General Public License as published by
   the Free Software Foundation, either version 3 of the License, or
   (at your option) any later version.
   
   xtb is distributed in the hope that it will be useful,
   but WITHOUT ANY WARRANTY; without even the implied warranty of
   MERCHANTABILITY or FITNESS FOR A PARTICULAR PURPOSE.  See the
   GNU Lesser General Public License for more details.
   
   Cite this work as:
   * C. Bannwarth, E. Caldeweyher, S. Ehlert, A. Hansen, P. Pracht,
     J. Seibert, S. Spicher, S. Grimme, WIREs Comput. Mol. Sci., 2020, 11,
     e01493. DOI: 10.1002/wcms.1493
   
   for GFN2-xTB:
   * C. Bannwarth, S. Ehlert and S. Grimme., J. Chem. Theory Comput., 2019,
     15, 1652-1671. DOI: 10.1021/acs.jctc.8b01176
   for GFN1-xTB:
   * S. Grimme, C. Bannwarth, P. Shushkov, J. Chem. Theory Comput., 2017,
     13, 1989-2009. DOI: 10.1021/acs.jctc.7b00118
   for GFN0-xTB:
   * P. Pracht, E. Caldeweyher, S. Ehlert, S. Grimme, ChemRxiv, 2019, preprint.
     DOI: 10.26434/chemrxiv.8326202.v1
   for GFN-FF:
   * S. Spicher and S. Grimme, Angew. Chem. Int. Ed., 2020, 59, 15665-15673.
     DOI: 10.1002/anie.202004239
   
   for ALPB and GBSA implicit solvation:
   * S. Ehlert, M. Stahn, S. Spicher, S. Grimme, J. Chem. Theory Comput.,
     2021, 17, 4250-4261. DOI: 10.1021/acs.jctc.1c00471
   
   for ddCOSMO and CPCM-X implicit solvation:
   * M. Stahn, S. Ehlert, S. Grimme, J. Phys. Chem. A,
     2023, XX, XXXX-XXXX. DOI: 10.1021/acs.jpca.3c04382
   
   for DFT-D4:
   * E. Caldeweyher, C. Bannwarth and S. Grimme, J. Chem. Phys., 2017,
     147, 034112. DOI: 10.1063/1.4993215
   * E. Caldeweyher, S. Ehlert, A. Hansen, H. Neugebauer, S. Spicher,
     C. Bannwarth and S. Grimme, J. Chem. Phys., 2019, 150, 154122.
     DOI: 10.1063/1.5090222
   * E. Caldeweyher, J.-M. Mewes, S. Ehlert and S. Grimme, Phys. Chem. Chem. Phys.
     2020, 22, 8499-8512. DOI: 10.1039/D0CP00502A
   
   for sTDA-xTB:
   * S. Grimme and C. Bannwarth, J. Chem. Phys., 2016, 145, 054103.
     DOI: 10.1063/1.4959605
   
   in the mass-spec context:
   * V. Asgeirsson, C. Bauer and S. Grimme, Chem. Sci., 2017, 8, 4879.
     DOI: 10.1039/c7sc00601b
   * J. Koopman and S. Grimme, ACS Omega 2019, 4, 12, 15120-15133.
     DOI: 10.1021/acsomega.9b02011
   
   for metadynamics refer to:
   * S. Grimme, J. Chem. Theory Comput., 2019, 155, 2847-2862
     DOI: 10.1021/acs.jctc.9b00143
   
   for SPH calculations refer to:
   * S. Spicher and S. Grimme, J. Chem. Theory Comput., 2021, 17, 1701-1714
     DOI: 10.1021/acs.jctc.0c01306
   
   for ONIOM refer to:
   * C. Plett, A. Katbashev, S. Ehlert, S. Grimme, M. Bursch,
     Phys. Chem. Chem. Phys., 2023, 25, 17860-17868. DOI: 10.1039/D3CP02178E
   
   for DIPRO refer to:
   * J. Kohn, N. Gildemeister, S. Grimme, D. Fazzi, A. Hansen,
     J. Chem. Phys., 2023, just accepted.
   
   for PTB refer to:
   * S. Grimme, M. Mueller, A. Hansen, J. Chem. Phys., 2023, 158, 124111.
     DOI: 10.1063/5.0137838
   
   with help from (in alphabetical order)
   P. Atkinson, C. Bannwarth, F. Bohle, G. Brandenburg, E. Caldeweyher
   M. Checinski, S. Dohm, S. Ehlert, S. Ehrlich, I. Gerasimov, C. Hölzer
   A. Katbashev, J. Kohn, J. Koopman, C. Lavigne, S. Lehtola, F. März, M. Müller,
   F. Musil, H. Neugebauer, J. Pisarek, C. Plett, P. Pracht, F. Pultar,
   J. Seibert, P. Shushkov, S. Spicher, M. Stahn, M. Steiner, T. Strunk,
   J. Stückrath, T. Rose, and J. Unsleber
   
 * started run on 2026/08/31 at 20:29:54.689     
   ID    Z sym.   atoms
    1    8 O      1, 8, 41-54
    2    7 N      2, 3, 9
    3    6 C      4, 5, 7, 10, 11, 34-40
    4   17 Cl     6, 12
    5    1 H      13-21
    6   22 Ti     22-33

           -------------------------------------------------
          |                Calculation Setup                |
           -------------------------------------------------

          program call               : "c:\Users\Andre\Proyectos doctorado\kras-pancreatic-gC3N4-ai\tools\xtb\xtb-6.7.1\bin\xtb.exe" "c:\Users\Andre\Proyectos doctorado\mxene-glioblastoma-qsar-ai\calculations\gbm\Carmustine\Carmustine_Ti3C2O2_complex.xyz" --gfn 2 --sp --chrg 0 --uhf 0 --iterations 500 --norestart
          coordinate file            : c:\Users\Andre\Proyectos doctorado\mxene-glioblastoma-qsar-ai\calculations\gbm\Carmustine\Carmustine_Ti3C2O2_complex.xyz
          omp threads                :                    16


molecular fragmentation (1/2 indicates fragments):
111111111111111111111111111111111221221122222222222222
# atoms in fragment 1/2:    36    18
 fragment masses (1/2) :      824.48      272.03
CMA distance (Bohr)    :   2.766
constraining FC (au)   :  0.0500

           -------------------------------------------------
          |                 G F N 2 - x T B                 |
           -------------------------------------------------

        Reference                      10.1021/acs.jctc.8b01176
      * Hamiltonian:
        H0-scaling (s, p, d)           1.850000    2.230000    2.230000
        zeta-weighting                 0.500000
      * Dispersion:
        s8                             2.700000
        a1                             0.520000
        a2                             5.000000
        s9                             5.000000
      * Repulsion:
        kExp                           1.500000    1.000000
        rExp                           1.000000
      * Coulomb:
        alpha                          2.000000
        third order                    shell-resolved
        anisotropic                    true
        a3                             3.000000
        a5                             4.000000
        cn-shift                       1.200000
        cn-exp                         4.000000
        max-rad                        5.000000


          ...................................................
          :                      SETUP                      :
          :.................................................:
          :  # basis functions                 273          :
          :  # atomic orbitals                 259          :
          :  # shells                          113          :
          :  # electrons                       230          :
          :  max. iterations                   500          :
          :  Hamiltonian                  GFN2-xTB          :
          :  restarted?                      false          :
          :  GBSA solvation                  false          :
          :  PC potential                    false          :
          :  electronic temp.          300.0000000     K    :
          :  accuracy                    1.0000000          :
          :  -> integral cutoff          0.2500000E+02      :
          :  -> integral neglect         0.1000000E-07      :
          :  -> SCF convergence          0.1000000E-05 Eh   :
          :  -> wf. convergence          0.1000000E-03 e    :
          :  Broyden damping             0.4000000          :
          :  net charge                          0          :
          :  unpaired electrons                  0          :
          ...................................................

 iter      E             dE          RMSdq      gap      omega  full diag
   1   -129.3330748 -0.129333E+03  0.153E+01    0.05       0.0  T
   2    -80.4312000  0.489019E+02  0.222E+01    0.06       1.0  T
   3    -22.1168164  0.583144E+02  0.295E+01    0.16       1.0  T
   4   -122.5898440 -0.100473E+03  0.123E+01    0.39       1.0  T
   5   -121.5645525  0.102529E+01  0.131E+01    0.00       1.0  T
   6   -125.9362596 -0.437171E+01  0.964E+00    0.16       1.0  T
   7   -120.4880753  0.544818E+01  0.105E+01    0.11       1.0  T
   8   -125.9137997 -0.542572E+01  0.918E+00    0.03       1.0  T
   9   -129.2744368 -0.336064E+01  0.734E+00    0.08       1.0  T
  10   -131.0223996 -0.174796E+01  0.591E+00    0.17       1.0  T
  11   -131.3290250 -0.306625E+00  0.553E+00    0.07       1.0  T
  12   -131.5067973 -0.177772E+00  0.550E+00    0.16       1.0  T
  13   -132.5621604 -0.105536E+01  0.441E+00    0.05       1.0  T
  14   -132.5189297  0.432307E-01  0.383E+00    0.03       1.0  T
  15   -132.7470574 -0.228128E+00  0.344E+00    0.06       1.0  T
  16   -132.8204703 -0.734129E-01  0.302E+00    0.05       1.0  T
  17   -132.9101883 -0.897179E-01  0.260E+00    0.05       1.0  T
  18   -133.0807299 -0.170542E+00  0.187E+00    0.09       1.0  T
  19   -133.0114886  0.692413E-01  0.192E+00    0.09       1.0  T
  20   -133.0324404 -0.209518E-01  0.182E+00    0.22       1.0  T
  21   -133.1342039 -0.101764E+00  0.134E+00    0.17       1.0  T
  22   -133.1613964 -0.271925E-01  0.132E+00    0.13       1.0  T
  23   -133.1588437  0.255276E-02  0.132E+00    0.13       1.0  T
  24   -133.1468641  0.119795E-01  0.144E+00    0.11       1.0  T
  25   -133.1787174 -0.318533E-01  0.105E+00    0.12       1.0  T
  26   -133.1934992 -0.147817E-01  0.756E-01    0.07       1.0  T
  27   -133.2239236 -0.304244E-01  0.598E-01    0.11       1.0  T
  28   -133.2216945  0.222915E-02  0.532E-01    0.11       1.0  T
  29   -133.2153092  0.638530E-02  0.593E-01    0.07       1.0  T
  30   -133.2184015 -0.309236E-02  0.516E-01    0.07       1.0  T
  31   -133.2343355 -0.159340E-01  0.289E-01    0.09       1.0  T
  32   -133.2344154 -0.798214E-04  0.245E-01    0.10       1.0  T
  33   -133.2343455  0.698283E-04  0.206E-01    0.10       1.0  T
  34   -133.2367023 -0.235678E-02  0.152E-01    0.09       1.0  T
  35   -133.2373918 -0.689508E-03  0.946E-02    0.09       1.0  T
  36   -133.2361695  0.122227E-02  0.153E-01    0.08       1.0  T
  37   -133.2372225 -0.105298E-02  0.807E-02    0.09       1.0  T
  38   -133.2374312 -0.208646E-03  0.750E-02    0.09       1.0  T
  39   -133.2375122 -0.810051E-04  0.637E-02    0.09       1.0  T
  40   -133.2374752  0.369333E-04  0.556E-02    0.10       1.0  T
  41   -133.2375324 -0.571871E-04  0.442E-02    0.09       1.0  T
  42   -133.2376307 -0.982447E-04  0.291E-02    0.09       1.0  T
  43   -133.2376477 -0.170420E-04  0.195E-02    0.09       1.0  T
  44   -133.2376671 -0.193656E-04  0.924E-03    0.09       1.5  T
  45   -133.2376689 -0.182921E-05  0.740E-03    0.09       1.8  T
  46   -133.2376673  0.157696E-05  0.725E-03    0.09       1.9  T
  47   -133.2376674 -0.718318E-07  0.633E-03    0.09       2.1  T
  48   -133.2376699 -0.245652E-05  0.252E-03    0.09       5.4  T
  49   -133.2376699 -0.577560E-07  0.191E-03    0.09       7.1  T
  50   -133.2376699  0.224362E-07  0.199E-03    0.09       6.8  T
  51   -133.2376699  0.855388E-08  0.150E-03    0.09       9.1  T
  52   -133.2376700 -0.775912E-07  0.103E-03    0.09      13.2  T
  53   -133.2376700 -0.145027E-07  0.828E-04    0.09      16.4  T
  54   -133.2376700 -0.862758E-08  0.538E-04    0.09      25.3  T

   *** convergence criteria satisfied after 54 iterations ***

         #    Occupation            Energy/Eh            Energy/eV
      -------------------------------------------------------------
         1        2.0000           -1.0690396             -29.0900
       ...           ...                  ...                  ...
       109        2.0000           -0.4084670             -11.1150
       110        2.0000           -0.4034293             -10.9779
       111        2.0000           -0.4008059             -10.9065
       112        2.0000           -0.3979914             -10.8299
       113        1.9999           -0.3940485             -10.7226
       114        1.9986           -0.3911791             -10.6445
       115        1.6496           -0.3857347             -10.4964 (HOMO)
       116        0.2336           -0.3823408             -10.4040 (LUMO)
       117        0.1038           -0.3815029             -10.3812
       118        0.0144           -0.3795819             -10.3289
       119                         -0.3665429              -9.9741
       120                         -0.3609223              -9.8212
       ...                                ...                  ...
       259                         18.1627571             494.2338
      -------------------------------------------------------------
                  HL-Gap            0.0033939 Eh            0.0924 eV
             Fermi-level           -0.3842628 Eh          -10.4563 eV

 SCC (total)                   0 d,  0 h,  0 min,  1.297 sec
 SCC setup                      ...        0 min,  0.001 sec (  0.077%)
 Dispersion                     ...        0 min,  0.002 sec (  0.154%)
 classical contributions        ...        0 min,  0.000 sec (  0.000%)
 integral evaluation            ...        0 min,  0.009 sec (  0.694%)
 iterations                     ...        0 min,  1.267 sec ( 97.687%)
 molecular gradient             ...        0 min,  0.016 sec (  1.234%)
 printout                       ...        0 min,  0.002 sec (  0.154%)

         :::::::::::::::::::::::::::::::::::::::::::::::::::::
         ::                     SUMMARY                     ::
         :::::::::::::::::::::::::::::::::::::::::::::::::::::
         :: total energy            -128.126938220725 Eh    ::
         :: gradient norm              5.367331718627 Eh/a0 ::
         :: HOMO-LUMO gap              0.092352959629 eV    ::
         ::.................................................::
         :: SCC energy              -133.234141467461 Eh    ::
         :: -> isotropic ES            0.784424209267 Eh    ::
         :: -> anisotropic ES         -0.019146225742 Eh    ::
         :: -> anisotropic XC         -0.099722268174 Eh    ::
         :: -> dispersion             -0.121999923157 Eh    ::
         :: repulsion energy           5.107203246736 Eh    ::
         :: add. restraining           0.000000000000 Eh    ::
         :: total charge              -0.000000000000 e     ::
         :::::::::::::::::::::::::::::::::::::::::::::::::::::

           -------------------------------------------------
          |                Property Printout                |
           -------------------------------------------------

    * Orbital Energies and Occupations

         #    Occupation            Energy/Eh            Energy/eV
      -------------------------------------------------------------
         1        2.0000           -1.0690396             -29.0900
       ...           ...                  ...                  ...
       103        2.0000           -0.4169332             -11.3453
       104        2.0000           -0.4159162             -11.3177
       105        2.0000           -0.4140086             -11.2657
       106        2.0000           -0.4130988             -11.2410
       107        2.0000           -0.4118539             -11.2071
       108        2.0000           -0.4102920             -11.1646
       109        2.0000           -0.4084670             -11.1150
       110        2.0000           -0.4034293             -10.9779
       111        2.0000           -0.4008059             -10.9065
       112        2.0000           -0.3979914             -10.8299
       113        1.9999           -0.3940485             -10.7226
       114        1.9986           -0.3911791             -10.6445
       115        1.6496           -0.3857347             -10.4964 (HOMO)
       116        0.2336           -0.3823408             -10.4040 (LUMO)
       117        0.1038           -0.3815029             -10.3812
       118        0.0144           -0.3795819             -10.3289
       119                         -0.3665429              -9.9741
       120                         -0.3609223              -9.8212
       121                         -0.3592807              -9.7765
       122                         -0.3583117              -9.7502
       123                         -0.3516502              -9.5689
       124                         -0.3500818              -9.5262
       125                         -0.3498187              -9.5191
       126                         -0.3491835              -9.5018
       ...                                ...                  ...
       259                         18.1627571             494.2338
      -------------------------------------------------------------
                  HL-Gap            0.0033939 Eh            0.0924 eV
             Fermi-level           -0.3842628 Eh          -10.4563 eV

     #   Z          covCN         q      C6AA      α(0)
     1   8 O        0.924    -0.245    18.792     5.814
     2   7 N        1.892     0.100    20.148     6.654
     3   7 N        2.792    -0.029    21.806     6.935
     4   6 C        3.757    -0.029    21.139     6.555
     5   6 C        3.712    -0.021    21.087     6.562
     6  17 Cl       1.256    -0.017    99.742    15.279
     7   6 C        2.689     0.315    21.641     7.613
     8   8 O        0.859    -0.337    20.454     6.064
     9   7 N        2.686    -0.172    24.723     7.385
    10   6 C        3.826    -0.067    21.755     6.637
    11   6 C        3.712    -0.013    20.931     6.537
    12  17 Cl       0.915    -0.143   103.614    15.573
    13   1 H        0.924     0.106     1.728     2.056
    14   1 H        0.924     0.129     1.541     1.941
    15   1 H        0.924     0.118     1.626     1.994
    16   1 H        0.924     0.110     1.697     2.037
    17   1 H        0.860     0.236     0.939     1.518
    18   1 H        1.925     0.405     0.464     1.064
    19   1 H        0.924     0.128     1.548     1.946
    20   1 H        0.924     0.107     1.726     2.054
    21   1 H        0.924     0.127     1.554     1.950
    22  22 Ti       4.151     0.772    91.606    16.224
    23  22 Ti       6.350     0.739    92.173    15.587
    24  22 Ti       4.215     0.802    91.378    15.848
    25  22 Ti       7.665     0.977    89.673    15.374
    26  22 Ti       7.454     1.036    89.068    15.322
    27  22 Ti       6.519     1.077    88.646    15.286
    28  22 Ti       4.151     0.806    91.246    16.192
    29  22 Ti       6.350     0.765    91.893    15.564
    30  22 Ti       4.151     0.814    91.157    16.184
    31  22 Ti       7.449     1.069    88.730    15.293
    32  22 Ti       7.449     1.059    88.833    15.302
    33  22 Ti       6.519     1.079    88.632    15.285
    34   6 C        5.128    -0.743    40.208     9.005
    35   6 C        5.128    -0.734    39.831     8.963
    36   6 C        5.649    -0.577    34.281     8.315
    37   6 C        2.445    -0.418    41.029    10.451
    38   6 C        2.445    -0.407    40.595    10.396
    39   6 C        2.445    -0.337    38.104    10.072
    40   6 C        2.445    -0.330    37.859    10.039
    41   8 O        0.728    -0.576    25.612     6.782
    42   8 O        0.729    -0.596    26.103     6.846
    43   8 O        1.005    -0.553    24.906     6.695
    44   8 O        1.576    -0.640    26.203     6.907
    45   8 O        0.731    -0.638    27.139     6.981
    46   8 O        0.753    -0.628    26.877     6.948
    47   8 O        0.753    -0.567    25.374     6.751
    48   8 O        0.728    -0.528    24.476     6.630
    49   8 O        0.729    -0.568    25.416     6.756
    50   8 O        0.728    -0.536    24.675     6.656
    51   8 O        0.729    -0.640    27.200     6.989
    52   8 O        0.729    -0.657    27.635     7.044
    53   8 O        0.753    -0.566    25.362     6.749
    54   8 O        0.753    -0.567    25.385     6.752

 Mol. C6AA /au·bohr⁶  :      92812.667489
 Mol. C8AA /au·bohr⁸  :    4785144.124470
 Mol. α(0) /au        :        464.357755


Wiberg/Mayer (AO) data.
largest (>0.10) Wiberg bond orders for each atom

 ---------------------------------------------------------------------------
     #   Z sym  total        # sym  WBO       # sym  WBO       # sym  WBO
 ---------------------------------------------------------------------------
     1   8 O    2.122 --     2 N    1.782     3 N    0.247
     2   7 N    3.013 --     1 O    1.782     3 N    1.108
     3   7 N    3.591 --     2 N    1.108     7 C    1.095     4 C    0.984
                             1 O    0.247
     4   6 C    3.947 --     5 C    0.999     3 N    0.984    13 H    0.947
                            14 H    0.943
     5   6 C    3.919 --     4 C    0.999    16 H    0.966    15 H    0.966
                             6 Cl   0.921
     6  17 Cl   1.341 --     5 C    0.921    24 Ti   0.167    26 Ti   0.121
     7   6 C    3.952 --     8 O    1.608     9 N    1.164     3 N    1.095
     8   8 O    2.201 --     7 C    1.608     9 N    0.145
     9   7 N    3.360 --     7 C    1.164    10 C    1.033    17 H    0.895
                             8 O    0.145
    10   6 C    3.713 --     9 N    1.033    11 C    1.028    19 H    0.918
                            18 H    0.371    25 Ti   0.122
    11   6 C    3.937 --    10 C    1.028    21 H    0.944    20 H    0.934
                            12 Cl   0.932
    12  17 Cl   0.978 --    11 C    0.932
    13   1 H    0.987 --     4 C    0.947
    14   1 H    0.983 --     4 C    0.943
    15   1 H    0.983 --     5 C    0.966
    16   1 H    0.986 --     5 C    0.966
    17   1 H    0.926 --     9 N    0.895
    18   1 H    0.816 --    10 C    0.371    44 O    0.362
    19   1 H    0.974 --    10 C    0.918
    20   1 H    0.987 --    11 C    0.934
    21   1 H    0.982 --    11 C    0.944
    22  22 Ti   3.998 --    41 O    1.983    28 Ti   0.567    23 Ti   0.318
                            34 C    0.273    25 Ti   0.207    37 C    0.176
    23  22 Ti   4.445 --    42 O    1.897    29 Ti   0.381    22 Ti   0.318
                            24 Ti   0.295    35 C    0.259    34 C    0.259
                            25 Ti   0.136    26 Ti   0.121    28 Ti   0.110
                            30 Ti   0.107
    24  22 Ti   4.007 --    43 O    1.967    30 Ti   0.571    23 Ti   0.295
                            35 C    0.272    26 Ti   0.191     6 Cl   0.167
                            38 C    0.164    29 Ti   0.101
    25  22 Ti   4.567 --    44 O    1.287    37 C    0.762    34 C    0.656
                            31 Ti   0.208    22 Ti   0.207    46 O    0.198
                            36 C    0.174    27 Ti   0.145    23 Ti   0.136
                            10 C    0.122
    26  22 Ti   4.449 --    45 O    1.775    38 C    0.612    35 C    0.473
                            47 O    0.219    24 Ti   0.191    27 Ti   0.143
                            32 Ti   0.136    36 C    0.126    23 Ti   0.121
                             6 Cl   0.121
    27  22 Ti   4.438 --    46 O    1.120    47 O    1.115    36 C    0.483
                            39 C    0.411    40 C    0.398    33 Ti   0.255
                            25 Ti   0.145    26 Ti   0.143
    28  22 Ti   3.966 --    48 O    2.033    22 Ti   0.567    29 Ti   0.310
                            34 C    0.268    31 Ti   0.185    37 C    0.177
                            23 Ti   0.110
    29  22 Ti   4.427 --    49 O    1.920    23 Ti   0.381    30 Ti   0.345
                            28 Ti   0.310    35 C    0.264    34 C    0.250
                            32 Ti   0.127    31 Ti   0.125    24 Ti   0.101
    30  22 Ti   4.022 --    50 O    2.017    24 Ti   0.571    29 Ti   0.345
                            35 C    0.300    32 Ti   0.207    38 C    0.188
                            23 Ti   0.107
    31  22 Ti   4.411 --    51 O    1.768    37 C    0.596    34 C    0.489
                            53 O    0.238    25 Ti   0.208    28 Ti   0.185
                            36 C    0.164    33 Ti   0.157    29 Ti   0.125
    32  22 Ti   4.405 --    52 O    1.726    38 C    0.667    35 C    0.505
                            54 O    0.222    30 Ti   0.207    36 C    0.166
                            33 Ti   0.157    26 Ti   0.136    29 Ti   0.127
    33  22 Ti   4.434 --    54 O    1.116    53 O    1.087    36 C    0.499
                            40 C    0.439    39 C    0.435    27 Ti   0.255
                            32 Ti   0.157    31 Ti   0.157
    34   6 C    3.673 --    37 C    0.828    25 Ti   0.656    31 Ti   0.489
                            22 Ti   0.273    28 Ti   0.268    23 Ti   0.259
                            29 Ti   0.250
    35   6 C    3.634 --    38 C    0.875    32 Ti   0.505    26 Ti   0.473
                            30 Ti   0.300    24 Ti   0.272    29 Ti   0.264
                            23 Ti   0.259
    36   6 C    3.798 --    39 C    0.822    40 C    0.816    33 Ti   0.499
                            27 Ti   0.483    25 Ti   0.174    32 Ti   0.166
                            31 Ti   0.164    26 Ti   0.126
    37   6 C    3.358 --    34 C    0.828    25 Ti   0.762    31 Ti   0.596
                            39 C    0.192    28 Ti   0.177    22 Ti   0.176
    38   6 C    3.324 --    35 C    0.875    32 Ti   0.667    26 Ti   0.612
                            40 C    0.267    30 Ti   0.188    24 Ti   0.164
    39   6 C    3.295 --    36 C    0.822    33 Ti   0.435    27 Ti   0.411
                            53 O    0.409    46 O    0.356    37 C    0.192
                            40 C    0.137
    40   6 C    3.316 --    36 C    0.816    33 Ti   0.439    27 Ti   0.398
                            54 O    0.392    47 O    0.382    38 C    0.267
                            39 C    0.137
    41   8 O    2.227 --    22 Ti   1.983
    42   8 O    2.209 --    23 Ti   1.897
    43   8 O    2.248 --    24 Ti   1.967
    44   8 O    2.149 --    25 Ti   1.287    18 H    0.362
    45   8 O    2.144 --    26 Ti   1.775
    46   8 O    2.093 --    27 Ti   1.120    39 C    0.356    25 Ti   0.198
                            53 O    0.128
    47   8 O    2.156 --    27 Ti   1.115    40 C    0.382    26 Ti   0.219
                            54 O    0.140
    48   8 O    2.276 --    28 Ti   2.033
    49   8 O    2.239 --    29 Ti   1.920
    50   8 O    2.266 --    30 Ti   2.017
    51   8 O    2.143 --    31 Ti   1.768
    52   8 O    2.120 --    32 Ti   1.726
    53   8 O    2.158 --    33 Ti   1.087    39 C    0.409    31 Ti   0.238
                            46 O    0.128
    54   8 O    2.167 --    33 Ti   1.116    40 C    0.392    32 Ti   0.222
                            47 O    0.140
 ---------------------------------------------------------------------------

Topologies differ in total number of bonds
Writing topology from bond orders to xtbtopo.mol

molecular dipole:
                 x           y           z       tot (Debye)
 q only:       -0.167      -8.583       5.600
   full:       -0.291      -3.499       2.957      11.668
molecular quadrupole (traceless):
                xx          xy          yy          xz          yz          zz
 q only:       35.535       3.427      31.707       7.137       4.679     -67.242
  q+dip:       41.765       0.338      57.171      -6.305      10.458     -98.937
   full:       39.809      -0.057      63.697      -6.853      11.736    -103.506


           -------------------------------------------------
          | TOTAL ENERGY             -128.126938220725 Eh   |
          | GRADIENT NORM               5.367331718627 Eh/α |
          | HOMO-LUMO GAP               0.092352959629 eV   |
           -------------------------------------------------

------------------------------------------------------------------------
 * finished run on 2026/08/31 at 20:29:56.051     
------------------------------------------------------------------------
 total:
 * wall-time:     0 d,  0 h,  0 min,  1.360 sec
 *  cpu-time:     0 d,  0 h,  0 min,  6.375 sec
 * ratio c/w:     4.687 speedup
 SCF:
 * wall-time:     0 d,  0 h,  0 min,  1.298 sec
 *  cpu-time:     0 d,  0 h,  0 min,  6.156 sec
 * ratio c/w:     4.743 speedup

normal termination of xtb
