101
slab (render)
C 1.5150 0.8747 14.4500
C 3.0300 1.7494 12.1500
Ti 3.0300 1.7494 15.6300
Ti 1.5150 0.8747 10.9700
Ti 1.5150 2.6241 13.3000
C 3.0300 3.4987 14.4500
C 4.5450 4.3734 12.1500
Ti 4.5450 4.3734 15.6300
Ti 3.0300 3.4987 10.9700
O 1.5150 2.6241 10.0000
Ti 3.0300 5.2481 13.3000
C 4.5450 6.1228 14.4500
C 6.0600 6.9975 12.1500
Ti 6.0600 6.9975 15.6300
Ti 4.5450 6.1228 10.9700
O 3.0300 5.2481 10.0000
Ti 4.5450 7.8722 13.3000
C 6.0600 8.7469 14.4500
C 7.5750 9.6215 12.1500
Ti 7.5750 9.6215 15.6300
Ti 6.0600 8.7469 10.9700
O 4.5450 7.8722 10.0000
Ti 3.0300 0.0000 13.3000
C 4.5450 0.8747 14.4500
C 6.0600 1.7494 12.1500
Ti 6.0600 1.7494 15.6300
Ti 4.5450 0.8747 10.9700
O 3.0300 0.0000 10.0000
Ti 4.5450 2.6241 13.3000
C 6.0600 3.4987 14.4500
C 7.5750 4.3734 12.1500
Ti 7.5750 4.3734 15.6300
Ti 6.0600 3.4987 10.9700
O 4.5450 2.6241 16.6000
O 4.5450 2.6241 10.0000
Ti 6.0600 5.2481 13.3000
C 7.5750 6.1228 14.4500
C 9.0900 6.9975 12.1500
Ti 9.0900 6.9975 15.6300
Ti 7.5750 6.1228 10.9700
O 6.0600 5.2481 16.6000
O 6.0600 5.2481 10.0000
Ti 7.5750 7.8722 13.3000
C 9.0900 8.7469 14.4500
C 10.6050 9.6215 12.1500
Ti 10.6050 9.6215 15.6300
Ti 9.0900 8.7469 10.9700
O 7.5750 7.8722 16.6000
O 7.5750 7.8722 10.0000
Ti 6.0600 0.0000 13.3000
C 7.5750 0.8747 14.4500
C 9.0900 1.7494 12.1500
Ti 9.0900 1.7494 15.6300
Ti 7.5750 0.8747 10.9700
O 6.0600 0.0000 10.0000
Ti 7.5750 2.6241 13.3000
C 9.0900 3.4987 14.4500
C 10.6050 4.3734 12.1500
Ti 10.6050 4.3734 15.6300
Ti 9.0900 3.4987 10.9700
O 7.5750 2.6241 16.6000
O 7.5750 2.6241 10.0000
Ti 9.0900 5.2481 13.3000
C 10.6050 6.1228 14.4500
C 12.1200 6.9975 12.1500
Ti 12.1200 6.9975 15.6300
Ti 10.6050 6.1228 10.9700
O 9.0900 5.2481 16.6000
O 9.0900 5.2481 10.0000
Ti 10.6050 7.8722 13.3000
C 12.1200 8.7469 14.4500
C 13.6350 9.6215 12.1500
Ti 13.6350 9.6215 15.6300
Ti 12.1200 8.7469 10.9700
O 10.6050 7.8722 16.6000
O 10.6050 7.8722 10.0000
Ti 9.0900 0.0000 13.3000
C 10.6050 0.8747 14.4500
C 12.1200 1.7494 12.1500
Ti 12.1200 1.7494 15.6300
Ti 10.6050 0.8747 10.9700
O 9.0900 0.0000 10.0000
Ti 10.6050 2.6241 13.3000
C 12.1200 3.4987 14.4500
C 13.6350 4.3734 12.1500
Ti 13.6350 4.3734 15.6300
Ti 12.1200 3.4987 10.9700
O 10.6050 2.6241 16.6000
O 10.6050 2.6241 10.0000
Ti 12.1200 5.2481 13.3000
C 13.6350 6.1228 14.4500
C 15.1500 6.9975 12.1500
Ti 15.1500 6.9975 15.6300
Ti 13.6350 6.1228 10.9700
O 12.1200 5.2481 16.6000
O 12.1200 5.2481 10.0000
Ti 13.6350 7.8722 13.3000
C 15.1500 8.7469 14.4500
Ti 15.1500 8.7469 10.9700
O 13.6350 7.8722 16.6000
O 13.6350 7.8722 10.0000
