93
Drug@Ti12C7O14 non-overlapping complex
C     -6.703269      2.458960      9.722087
C     -6.067651      1.157387     10.145709
O     -6.785702      0.189848     10.389748
C     -4.612513      1.114216     10.249333
C     -3.753667      2.103950     10.745232
C     -4.125326      3.431119     11.315642
C     -2.423040      1.606327     10.646791
C     -1.147710      2.066883     10.951045
N     -0.074611      1.278695     10.719387
C     -0.252713      0.048599     10.199947
N      0.826656     -0.782122      9.952343
C      2.194577     -0.686569     10.114118
C      2.851536      0.420542     10.628933
C      4.248500      0.417459     10.749059
C      5.000745     -0.686242     10.355728
N      6.392806     -0.762427     10.442255
C      7.150778      0.179951     11.287628
C      7.911908      1.211536     10.428367
N      8.876728      0.631237      9.472458
C      8.565317     -0.782763      9.184021
C      7.055474     -1.114692      9.159384
C      4.241696     -1.748610      9.857382
N      2.888837     -1.775021      9.725271
N     -1.446467     -0.475782      9.879391
C     -2.490793      0.334648     10.119537
N     -3.815858      0.033215      9.879813
C     -4.217482     -1.238375      9.297115
C     -4.809889     -2.238447     10.294052
C     -5.602721     -3.188208      9.409052
C     -6.228218     -2.274421      8.365508
C     -5.179096     -1.196006      8.095219
H     -6.068356      2.987705      9.006029
H     -6.895199      3.084146     10.596718
H     -7.654889      2.246235      9.224924
H     -3.294207      3.874899     11.872858
H     -4.401989      4.126861     10.517792
H     -4.964673      3.333557     12.011159
H     -0.946339      3.043390     11.374045
H      0.543207     -1.668156      9.566657
H      2.306777      1.303802     10.939910
H      4.716054      1.318343     11.130348
H      6.530277      0.683317     12.035952
H      7.877384     -0.402626     11.869398
H      7.189265      1.805140      9.855684
H      8.444044      1.910756     11.083054
H      9.818217      0.682436      9.859738
H      9.053846     -1.410872      9.940044
H      9.011266     -1.045477      8.218709
H      6.592038     -0.565387      8.328566
H      6.939709     -2.187334      8.965785
H      4.724175     -2.672096      9.549489
H     -3.300109     -1.699579      8.904914
H     -4.029954     -2.763671     10.855567
H     -5.465585     -1.759531     11.027025
H     -4.928189     -3.904860      8.925566
H     -6.352818     -3.751752      9.971145
H     -6.503573     -2.816640      7.455825
H     -7.140550     -1.819239      8.766116
H     -5.643825     -0.223656      7.913281
H     -4.624838     -1.444595      7.181230
Ti     -2.141866     -3.008818      2.119748
Ti      0.288991     -1.694759      1.432425
Ti      1.903098     -3.067749     -0.729322
Ti     -2.521502     -0.251928      1.303687
Ti      2.142050      0.499533      2.204434
Ti     -0.681448      0.189635      3.681230
Ti     -2.036770     -3.077740     -1.200512
Ti     -0.605340     -0.770900     -2.035132
Ti      1.945488     -1.587317     -3.412400
Ti     -1.878170      1.746573     -1.240030
Ti      2.412512      0.454231     -0.774247
Ti      0.817742      1.838452     -2.940004
C     -3.678414      1.281398      0.600737
C      4.128193      0.482847      0.387293
C      0.455479      2.267202      0.349695
C     -3.666709      2.118834     -0.313920
C      4.115962      0.632239      1.621354
C     -0.635167      2.741046     -0.118921
C      1.630072      1.780996      0.734224
O     -3.093456     -1.956907      1.037949
O     -0.487250     -2.605849      2.701203
O      0.314079     -2.888890      0.145001
O     -0.800785     -0.435934      0.971227
O      1.902865     -1.158331      1.469449
O     -2.322673     -0.113878      3.024800
O      1.013786      0.441598      3.568761
O     -1.772019     -4.587905     -1.652810
O      0.190605     -1.189189     -3.534030
O      2.831420     -2.170248     -1.918042
O     -2.054558     -0.224445     -1.337505
O      0.768511     -0.390574     -1.063664
O     -0.900039      1.649313     -2.818565
O      2.415313      1.357463     -2.264115
