93
Drug@Ti3C2O2 complex
C     -6.703269      2.458960      5.246051
C     -6.067651      1.157387      5.669673
O     -6.785702      0.189848      5.913712
C     -4.612513      1.114216      5.773297
C     -3.753667      2.103950      6.269196
C     -4.125326      3.431119      6.839606
C     -2.423040      1.606327      6.170755
C     -1.147710      2.066883      6.475009
N     -0.074611      1.278695      6.243351
C     -0.252713      0.048599      5.723911
N      0.826656     -0.782122      5.476307
C      2.194577     -0.686569      5.638082
C      2.851536      0.420542      6.152897
C      4.248500      0.417459      6.273023
C      5.000745     -0.686242      5.879692
N      6.392806     -0.762427      5.966219
C      7.150778      0.179951      6.811592
C      7.911908      1.211536      5.952331
N      8.876728      0.631237      4.996422
C      8.565317     -0.782763      4.707985
C      7.055474     -1.114692      4.683348
C      4.241696     -1.748610      5.381346
N      2.888837     -1.775021      5.249235
N     -1.446467     -0.475782      5.403355
C     -2.490793      0.334648      5.643501
N     -3.815858      0.033215      5.403777
C     -4.217482     -1.238375      4.821079
C     -4.809889     -2.238447      5.818016
C     -5.602721     -3.188208      4.933016
C     -6.228218     -2.274421      3.889472
C     -5.179096     -1.196006      3.619183
H     -6.068356      2.987705      4.529993
H     -6.895199      3.084146      6.120682
H     -7.654889      2.246235      4.748888
H     -3.294207      3.874899      7.396822
H     -4.401989      4.126861      6.041756
H     -4.964673      3.333557      7.535123
H     -0.946339      3.043390      6.898009
H      0.543207     -1.668156      5.090621
H      2.306777      1.303802      6.463874
H      4.716054      1.318343      6.654312
H      6.530277      0.683317      7.559916
H      7.877384     -0.402626      7.393362
H      7.189265      1.805140      5.379648
H      8.444044      1.910756      6.607018
H      9.818217      0.682436      5.383702
H      9.053846     -1.410872      5.464008
H      9.011266     -1.045477      3.742673
H      6.592038     -0.565387      3.852530
H      6.939709     -2.187334      4.489749
H      4.724175     -2.672096      5.073453
H     -3.300109     -1.699579      4.428878
H     -4.029954     -2.763671      6.379531
H     -5.465585     -1.759531      6.550989
H     -4.928189     -3.904860      4.449530
H     -6.352818     -3.751752      5.495109
H     -6.503573     -2.816640      2.979789
H     -7.140550     -1.819239      4.290080
H     -5.643825     -0.223656      3.437245
H     -4.624838     -1.444595      2.705194
Ti     -3.000000     -2.600000      1.250000
Ti      0.000000     -2.600000      1.250000
Ti      3.000000     -2.600000      1.250000
Ti     -1.500000      0.000000      1.250000
Ti      1.500000      0.000000      1.250000
Ti      0.000000      2.600000      1.250000
Ti     -3.000000     -2.600000     -1.250000
Ti      0.000000     -2.600000     -1.250000
Ti      3.000000     -2.600000     -1.250000
Ti     -1.500000      0.000000     -1.250000
Ti      1.500000      0.000000     -1.250000
Ti      0.000000      2.600000     -1.250000
C     -1.500000     -1.300000      0.000000
C      1.500000     -1.300000      0.000000
C      0.000000      1.300000      0.000000
C     -3.000000      0.000000      0.000000
C      3.000000      0.000000      0.000000
C     -1.500000      2.600000      0.000000
C      1.500000      2.600000      0.000000
O     -3.000000     -2.600000      2.450000
O      0.000000     -2.600000      2.450000
O      3.000000     -2.600000      2.450000
O     -1.500000      0.000000      2.450000
O      1.500000      0.000000      2.450000
O     -1.500000      2.600000      2.450000
O      1.500000      2.600000      2.450000
O     -3.000000     -2.600000     -2.450000
O      0.000000     -2.600000     -2.450000
O      3.000000     -2.600000     -2.450000
O     -1.500000      0.000000     -2.450000
O      1.500000      0.000000     -2.450000
O     -1.500000      2.600000     -2.450000
O      1.500000      2.600000     -2.450000
