93
Drug@Ti12C7O14 clean complex
C     -6.623970     -2.278029     11.346831
C     -5.876531     -0.995867     11.072823
O     -6.497109      0.065488     11.050328
C     -4.436912     -1.081803     10.845811
C     -3.510400     -1.915320     11.486239
C     -3.766277     -2.893706     12.582772
C     -2.229735     -1.646860     10.924053
C     -0.933632     -2.118622     11.097662
N      0.072287     -1.604010     10.360739
C     -0.186951     -0.613286      9.487167
N      0.831081     -0.082993      8.692674
C      2.145064      0.204023      9.094969
C      3.055161      0.587623      8.114558
C      4.380333      0.885191      8.460020
C      4.817643      0.801236      9.781014
N      6.116667      1.084207     10.188976
C      6.667693      0.262021     11.292327
C      8.214952      0.279520     11.318558
N      8.854142     -0.064235     10.033615
C      8.176205      0.605603      8.900392
C      7.127460      1.668526      9.291220
C      3.816737      0.420482     10.682792
N      2.525042      0.124319     10.379547
N     -1.408750     -0.110561      9.234752
C     -2.386750     -0.651292      9.982692
N     -3.721586     -0.303226      9.938150
C     -4.219431      0.708941      9.020117
C     -4.672343      2.027642      9.666565
C     -5.939565      2.442127      8.917456
C     -5.944472      1.614889      7.639327
C     -5.342978      0.284254      8.068113
H     -6.610047     -2.499003     12.416200
H     -6.195610     -3.107760     10.778166
H     -7.663724     -2.160685     11.025488
H     -4.409220     -2.455125     13.352161
H     -2.836556     -3.197141     13.074478
H     -4.244802     -3.795086     12.188290
H     -0.663277     -2.896485     11.800853
H      0.421271      0.682387      8.177368
H      2.749743      0.640431      7.074450
H      5.051762      1.151903      7.652289
H      6.295898      0.637304     12.252710
H      6.345075     -0.781791     11.181245
H      8.571836     -0.416775     12.085947
H      8.564193      1.273466     11.625062
H      8.774396     -1.071450      9.889880
H      8.942599      1.067096      8.268539
H      7.684499     -0.164375      8.292664
H      6.703286      2.133011      8.396638
H      7.624679      2.489949      9.823864
H      4.023420      0.351420     11.746854
H     -3.377380      0.973928      8.365328
H     -4.852003      1.955979     10.743554
H     -3.892435      2.787501      9.533035
H     -5.962512      3.516620      8.711863
H     -6.824013      2.203088      9.518561
H     -5.310198      2.089580      6.881230
H     -6.948907      1.502131      7.221444
H     -4.959314     -0.283156      7.213682
H     -6.105733     -0.333243      8.548383
Ti     -2.141866     -3.008818      2.119748
Ti      0.288991     -1.694759      1.432425
Ti      1.903098     -3.067749     -0.729322
Ti     -2.521502     -0.251928      1.303687
Ti      2.142050      0.499533      2.204434
Ti     -0.681448      0.189635      3.681230
Ti     -2.036770     -3.077740     -1.200512
Ti     -0.605340     -0.770900     -2.035132
Ti      1.945488     -1.587317     -3.412400
Ti     -1.878170      1.746573     -1.240030
Ti      2.412512      0.454231     -0.774247
Ti      0.817742      1.838452     -2.940004
C     -3.678414      1.281398      0.600737
C      4.128193      0.482847      0.387293
C      0.455479      2.267202      0.349695
C     -3.666709      2.118834     -0.313920
C      4.115962      0.632239      1.621354
C     -0.635167      2.741046     -0.118921
C      1.630072      1.780996      0.734224
O     -3.093456     -1.956907      1.037949
O     -0.487250     -2.605849      2.701203
O      0.314079     -2.888890      0.145001
O     -0.800785     -0.435934      0.971227
O      1.902865     -1.158331      1.469449
O     -2.322673     -0.113878      3.024800
O      1.013786      0.441598      3.568761
O     -1.772019     -4.587905     -1.652810
O      0.190605     -1.189189     -3.534030
O      2.831420     -2.170248     -1.918042
O     -2.054558     -0.224445     -1.337505
O      0.768511     -0.390574     -1.063664
O     -0.900039      1.649313     -2.818565
O      2.415313      1.357463     -2.264115
