      -----------------------------------------------------------      
     |                   =====================                   |     
     |                           x T B                           |     
     |                   =====================                   |     
     |                         S. Grimme                         |     
     |          Mulliken Center for Theoretical Chemistry        |     
     |                    University of Bonn                     |     
      -----------------------------------------------------------      

   * xtb version 6.7.1pre (5071a88) compiled by 'Marcel@Raven' on 2024-07-23

   xtb is free software: you can redistribute it and/or modify it under
   the terms of the GNU Lesser General Public License as published by
   the Free Software Foundation, either version 3 of the License, or
   (at your option) any later version.
   
   xtb is distributed in the hope that it will be useful,
   but WITHOUT ANY WARRANTY; without even the implied warranty of
   MERCHANTABILITY or FITNESS FOR A PARTICULAR PURPOSE.  See the
   GNU Lesser General Public License for more details.
   
   Cite this work as:
   * C. Bannwarth, E. Caldeweyher, S. Ehlert, A. Hansen, P. Pracht,
     J. Seibert, S. Spicher, S. Grimme, WIREs Comput. Mol. Sci., 2020, 11,
     e01493. DOI: 10.1002/wcms.1493
   
   for GFN2-xTB:
   * C. Bannwarth, S. Ehlert and S. Grimme., J. Chem. Theory Comput., 2019,
     15, 1652-1671. DOI: 10.1021/acs.jctc.8b01176
   for GFN1-xTB:
   * S. Grimme, C. Bannwarth, P. Shushkov, J. Chem. Theory Comput., 2017,
     13, 1989-2009. DOI: 10.1021/acs.jctc.7b00118
   for GFN0-xTB:
   * P. Pracht, E. Caldeweyher, S. Ehlert, S. Grimme, ChemRxiv, 2019, preprint.
     DOI: 10.26434/chemrxiv.8326202.v1
   for GFN-FF:
   * S. Spicher and S. Grimme, Angew. Chem. Int. Ed., 2020, 59, 15665-15673.
     DOI: 10.1002/anie.202004239
   
   for ALPB and GBSA implicit solvation:
   * S. Ehlert, M. Stahn, S. Spicher, S. Grimme, J. Chem. Theory Comput.,
     2021, 17, 4250-4261. DOI: 10.1021/acs.jctc.1c00471
   
   for ddCOSMO and CPCM-X implicit solvation:
   * M. Stahn, S. Ehlert, S. Grimme, J. Phys. Chem. A,
     2023, XX, XXXX-XXXX. DOI: 10.1021/acs.jpca.3c04382
   
   for DFT-D4:
   * E. Caldeweyher, C. Bannwarth and S. Grimme, J. Chem. Phys., 2017,
     147, 034112. DOI: 10.1063/1.4993215
   * E. Caldeweyher, S. Ehlert, A. Hansen, H. Neugebauer, S. Spicher,
     C. Bannwarth and S. Grimme, J. Chem. Phys., 2019, 150, 154122.
     DOI: 10.1063/1.5090222
   * E. Caldeweyher, J.-M. Mewes, S. Ehlert and S. Grimme, Phys. Chem. Chem. Phys.
     2020, 22, 8499-8512. DOI: 10.1039/D0CP00502A
   
   for sTDA-xTB:
   * S. Grimme and C. Bannwarth, J. Chem. Phys., 2016, 145, 054103.
     DOI: 10.1063/1.4959605
   
   in the mass-spec context:
   * V. Asgeirsson, C. Bauer and S. Grimme, Chem. Sci., 2017, 8, 4879.
     DOI: 10.1039/c7sc00601b
   * J. Koopman and S. Grimme, ACS Omega 2019, 4, 12, 15120-15133.
     DOI: 10.1021/acsomega.9b02011
   
   for metadynamics refer to:
   * S. Grimme, J. Chem. Theory Comput., 2019, 155, 2847-2862
     DOI: 10.1021/acs.jctc.9b00143
   
   for SPH calculations refer to:
   * S. Spicher and S. Grimme, J. Chem. Theory Comput., 2021, 17, 1701-1714
     DOI: 10.1021/acs.jctc.0c01306
   
   for ONIOM refer to:
   * C. Plett, A. Katbashev, S. Ehlert, S. Grimme, M. Bursch,
     Phys. Chem. Chem. Phys., 2023, 25, 17860-17868. DOI: 10.1039/D3CP02178E
   
   for DIPRO refer to:
   * J. Kohn, N. Gildemeister, S. Grimme, D. Fazzi, A. Hansen,
     J. Chem. Phys., 2023, just accepted.
   
   for PTB refer to:
   * S. Grimme, M. Mueller, A. Hansen, J. Chem. Phys., 2023, 158, 124111.
     DOI: 10.1063/5.0137838
   
   with help from (in alphabetical order)
   P. Atkinson, C. Bannwarth, F. Bohle, G. Brandenburg, E. Caldeweyher
   M. Checinski, S. Dohm, S. Ehlert, S. Ehrlich, I. Gerasimov, C. Hölzer
   A. Katbashev, J. Kohn, J. Koopman, C. Lavigne, S. Lehtola, F. März, M. Müller,
   F. Musil, H. Neugebauer, J. Pisarek, C. Plett, P. Pracht, F. Pultar,
   J. Seibert, P. Shushkov, S. Spicher, M. Stahn, M. Steiner, T. Strunk,
   J. Stückrath, T. Rose, and J. Unsleber
   
 * started run on 2026/08/31 at 20:39:23.561     
   ID    Z sym.   atoms
    1    6 C      1, 2, 4-8, 10, 12-15, 17, 18, 20-22, 25, 27-31
    2    8 O      3
    3    7 N      9, 11, 16, 19, 23, 24, 26
    4    1 H      32-60

           -------------------------------------------------
          |                Calculation Setup                |
           -------------------------------------------------

          program call               : "c:\Users\Andre\Proyectos doctorado\kras-pancreatic-gC3N4-ai\tools\xtb\xtb-6.7.1\bin\xtb.exe" "c:\Users\Andre\Proyectos doctorado\mxene-glioblastoma-qsar-ai\calculations\gbm\Palbociclib\Palbociclib_drug.xyz" --gfn 2 --sp --chrg 0 --uhf 0 --iterations 500 --norestart
          coordinate file            : c:\Users\Andre\Proyectos doctorado\mxene-glioblastoma-qsar-ai\calculations\gbm\Palbociclib\Palbociclib_drug.xyz
          omp threads                :                    16


           -------------------------------------------------
          |                 G F N 2 - x T B                 |
           -------------------------------------------------

        Reference                      10.1021/acs.jctc.8b01176
      * Hamiltonian:
        H0-scaling (s, p, d)           1.850000    2.230000    2.230000
        zeta-weighting                 0.500000
      * Dispersion:
        s8                             2.700000
        a1                             0.520000
        a2                             5.000000
        s9                             5.000000
      * Repulsion:
        kExp                           1.500000    1.000000
        rExp                           1.000000
      * Coulomb:
        alpha                          2.000000
        third order                    shell-resolved
        anisotropic                    true
        a3                             3.000000
        a5                             4.000000
        cn-shift                       1.200000
        cn-exp                         4.000000
        max-rad                        5.000000


          ...................................................
          :                      SETUP                      :
          :.................................................:
          :  # basis functions                 153          :
          :  # atomic orbitals                 153          :
          :  # shells                           91          :
          :  # electrons                       162          :
          :  max. iterations                   500          :
          :  Hamiltonian                  GFN2-xTB          :
          :  restarted?                      false          :
          :  GBSA solvation                  false          :
          :  PC potential                    false          :
          :  electronic temp.          300.0000000     K    :
          :  accuracy                    1.0000000          :
          :  -> integral cutoff          0.2500000E+02      :
          :  -> integral neglect         0.1000000E-07      :
          :  -> SCF convergence          0.1000000E-05 Eh   :
          :  -> wf. convergence          0.1000000E-03 e    :
          :  Broyden damping             0.4000000          :
          :  net charge                          0          :
          :  unpaired electrons                  0          :
          ...................................................

 iter      E             dE          RMSdq      gap      omega  full diag
   1    -89.6801513 -0.896802E+02  0.354E+00    1.71       0.0  T
   2    -89.8048839 -0.124733E+00  0.218E+00    1.72       1.0  T
   3    -89.8088597 -0.397578E-02  0.113E+00    1.70       1.0  T
   4    -89.8171052 -0.824551E-02  0.470E-01    1.53       1.0  T
   5    -89.8282473 -0.111421E-01  0.135E-01    1.55       1.0  T
   6    -89.8289120 -0.664745E-03  0.564E-02    1.58       1.0  T
   7    -89.8289752 -0.631946E-04  0.213E-02    1.58       1.0  T
   8    -89.8289796 -0.433767E-05  0.103E-02    1.58       1.2  T
   9    -89.8289815 -0.198147E-05  0.346E-03    1.58       3.7  T
  10    -89.8289818 -0.270588E-06  0.127E-03    1.58      10.2  T
  11    -89.8289819 -0.459502E-07  0.576E-04    1.58      22.4  T
  12    -89.8289819 -0.399297E-08  0.270E-04    1.58      47.8  T

   *** convergence criteria satisfied after 12 iterations ***

         #    Occupation            Energy/Eh            Energy/eV
      -------------------------------------------------------------
         1        2.0000           -0.7010521             -19.0766
       ...           ...                  ...                  ...
        75        2.0000           -0.3941594             -10.7256
        76        2.0000           -0.3899641             -10.6115
        77        2.0000           -0.3732650             -10.1571
        78        2.0000           -0.3658154              -9.9543
        79        2.0000           -0.3629025              -9.8751
        80        2.0000           -0.3616570              -9.8412
        81        2.0000           -0.3409642              -9.2781 (HOMO)
        82                         -0.2828665              -7.6972 (LUMO)
        83                         -0.2485998              -6.7647
        84                         -0.2412273              -6.5641
        85                         -0.2252577              -6.1296
        86                         -0.1894254              -5.1545
       ...                                ...                  ...
       153                          0.6914193              18.8145
      -------------------------------------------------------------
                  HL-Gap            0.0580977 Eh            1.5809 eV
             Fermi-level           -0.3119153 Eh           -8.4876 eV

 SCC (total)                   0 d,  0 h,  0 min,  0.113 sec
 SCC setup                      ...        0 min,  0.001 sec (  0.885%)
 Dispersion                     ...        0 min,  0.001 sec (  0.885%)
 classical contributions        ...        0 min,  0.000 sec (  0.000%)
 integral evaluation            ...        0 min,  0.003 sec (  2.655%)
 iterations                     ...        0 min,  0.101 sec ( 89.381%)
 molecular gradient             ...        0 min,  0.007 sec (  6.195%)
 printout                       ...        0 min,  0.000 sec (  0.000%)

         :::::::::::::::::::::::::::::::::::::::::::::::::::::
         ::                     SUMMARY                     ::
         :::::::::::::::::::::::::::::::::::::::::::::::::::::
         :: total energy             -88.632190110280 Eh    ::
         :: gradient norm              0.115405546878 Eh/a0 ::
         :: HOMO-LUMO gap              1.580919120494 eV    ::
         ::.................................................::
         :: SCC energy               -89.829267177680 Eh    ::
         :: -> isotropic ES            0.080137434282 Eh    ::
         :: -> anisotropic ES          0.011489763448 Eh    ::
         :: -> anisotropic XC          0.056140559619 Eh    ::
         :: -> dispersion             -0.066463639301 Eh    ::
         :: repulsion energy           1.197077067400 Eh    ::
         :: add. restraining           0.000000000000 Eh    ::
         :: total charge               0.000000000000 e     ::
         :::::::::::::::::::::::::::::::::::::::::::::::::::::

           -------------------------------------------------
          |                Property Printout                |
           -------------------------------------------------

    * Orbital Energies and Occupations

         #    Occupation            Energy/Eh            Energy/eV
      -------------------------------------------------------------
         1        2.0000           -0.7010521             -19.0766
       ...           ...                  ...                  ...
        69        2.0000           -0.4352774             -11.8445
        70        2.0000           -0.4203192             -11.4375
        71        2.0000           -0.4190762             -11.4036
        72        2.0000           -0.4161922             -11.3252
        73        2.0000           -0.4087684             -11.1232
        74        2.0000           -0.4044908             -11.0068
        75        2.0000           -0.3941594             -10.7256
        76        2.0000           -0.3899641             -10.6115
        77        2.0000           -0.3732650             -10.1571
        78        2.0000           -0.3658154              -9.9543
        79        2.0000           -0.3629025              -9.8751
        80        2.0000           -0.3616570              -9.8412
        81        2.0000           -0.3409642              -9.2781 (HOMO)
        82                         -0.2828665              -7.6972 (LUMO)
        83                         -0.2485998              -6.7647
        84                         -0.2412273              -6.5641
        85                         -0.2252577              -6.1296
        86                         -0.1894254              -5.1545
        87                         -0.1651624              -4.4943
        88                         -0.1022758              -2.7831
        89                         -0.0883509              -2.4041
        90                         -0.0282103              -0.7676
        91                         -0.0234666              -0.6386
        92                          0.0085216               0.2319
       ...                                ...                  ...
       153                          0.6914193              18.8145
      -------------------------------------------------------------
                  HL-Gap            0.0580977 Eh            1.5809 eV
             Fermi-level           -0.3119153 Eh           -8.4876 eV

     #   Z          covCN         q      C6AA      α(0)
     1   6 C        3.752    -0.132    23.091     6.853
     2   6 C        2.812     0.233    23.120     7.878
     3   8 O        0.858    -0.380    21.281     6.185
     4   6 C        3.021     0.005    27.885     8.662
     5   6 C        3.067    -0.021    28.461     8.748
     6   6 C        3.751    -0.103    22.538     6.770
     7   6 C        3.075    -0.045    29.032     8.834
     8   6 C        2.888     0.072    26.382     8.421
     9   7 N        1.836    -0.284    28.202     7.870
    10   6 C        2.854     0.234    23.106     7.879
    11   7 N        2.709    -0.145    24.139     7.297
    12   6 C        2.858     0.149    24.759     8.156
    13   6 C        2.908    -0.062    29.541     8.912
    14   6 C        2.935    -0.039    28.977     8.828
    15   6 C        2.900     0.052    26.839     8.494
    16   7 N        2.728    -0.143    24.097     7.291
    17   6 C        3.736     0.002    20.630     6.482
    18   6 C        3.738     0.009    20.506     6.462
    19   7 N        2.672    -0.265    26.860     7.697
    20   6 C        3.737     0.015    20.400     6.445
    21   6 C        3.743     0.006    20.549     6.467
    22   6 C        2.896     0.032    27.273     8.563
    23   7 N        1.842    -0.266    27.751     7.807
    24   7 N        1.841    -0.322    29.190     8.007
    25   6 C        3.083     0.145    24.754     8.156
    26   7 N        2.829    -0.045    22.106     6.983
    27   6 C        3.812     0.037    19.936     6.355
    28   6 C        3.824    -0.063    21.683     6.626
    29   6 C        3.829    -0.055    21.539     6.604
    30   6 C        3.825    -0.057    21.587     6.611
    31   6 C        3.816    -0.055    21.552     6.607
    32   1 H        0.924     0.050     2.321     2.382
    33   1 H        0.924     0.073     2.054     2.241
    34   1 H        0.924     0.068     2.104     2.268
    35   1 H        0.924     0.047     2.356     2.401
    36   1 H        0.924     0.049     2.329     2.386
    37   1 H        0.924     0.045     2.379     2.412
    38   1 H        0.925     0.042     2.425     2.435
    39   1 H        0.860     0.206     1.076     1.625
    40   1 H        0.925     0.060     2.201     2.320
    41   1 H        0.925     0.031     2.578     2.511
    42   1 H        0.924     0.042     2.428     2.437
    43   1 H        0.923     0.034     2.525     2.485
    44   1 H        0.924     0.039     2.456     2.451
    45   1 H        0.924     0.026     2.640     2.541
    46   1 H        0.860     0.135     1.509     1.924
    47   1 H        0.924     0.018     2.765     2.600
    48   1 H        0.924     0.040     2.447     2.446
    49   1 H        0.923     0.036     2.505     2.475
    50   1 H        0.924     0.042     2.416     2.431
    51   1 H        0.925     0.037     2.490     2.468
    52   1 H        0.923     0.063     2.167     2.302
    53   1 H        0.924     0.032     2.564     2.504
    54   1 H        0.924     0.061     2.188     2.313
    55   1 H        0.924     0.031     2.576     2.510
    56   1 H        0.924     0.037     2.487     2.466
    57   1 H        0.924     0.029     2.598     2.521
    58   1 H        0.924     0.052     2.294     2.369
    59   1 H        0.924     0.033     2.548     2.496
    60   1 H        0.924     0.030     2.592     2.518

 Mol. C6AA /au·bohr⁶  :      38768.629652
 Mol. C8AA /au·bohr⁸  :     896026.123457
 Mol. α(0) /au        :        302.189533


Wiberg/Mayer (AO) data.
largest (>0.10) Wiberg bond orders for each atom

 ---------------------------------------------------------------------------
     #   Z sym  total        # sym  WBO       # sym  WBO       # sym  WBO
 ---------------------------------------------------------------------------
     1   6 C    3.993 --     2 C    0.999    32 H    0.979    34 H    0.977
                            33 H    0.952
     2   6 C    3.930 --     3 O    1.783     4 C    1.063     1 C    0.999
     3   8 O    2.024 --     2 C    1.783
     4   6 C    3.938 --     5 C    1.482    26 N    1.136     2 C    1.063
     5   6 C    3.977 --     4 C    1.482     7 C    1.212     6 C    1.034
     6   6 C    3.996 --     5 C    1.034    35 H    0.983    37 H    0.974
                            36 H    0.966
     7   6 C    3.974 --     8 C    1.339    25 C    1.219     5 C    1.212
     8   6 C    3.967 --     9 N    1.469     7 C    1.339    38 H    0.963
     9   7 N    3.034 --     8 C    1.469    10 C    1.294
    10   6 C    3.950 --    24 N    1.343     9 N    1.294    11 N    1.168
    11   7 N    3.480 --    10 C    1.168    12 C    1.112    39 H    0.924
    12   6 C    3.959 --    23 N    1.346    13 C    1.345    11 N    1.112
    13   6 C    3.981 --    14 C    1.461    12 C    1.345    40 H    0.963
                            22 C    0.110
    14   6 C    3.990 --    13 C    1.461    15 C    1.353    41 H    0.965
    15   6 C    3.959 --    14 C    1.353    22 C    1.352    16 N    1.102
    16   7 N    3.268 --    15 C    1.102    17 C    0.995    21 C    0.974
    17   6 C    3.983 --    16 N    0.995    18 C    0.990    43 H    0.969
                            42 H    0.969
    18   6 C    3.986 --    19 N    1.009    17 C    0.990    45 H    0.978
                            44 H    0.973
    19   7 N    3.046 --    18 C    1.009    20 C    1.006    46 H    0.963
    20   6 C    3.988 --    19 N    1.006    21 C    1.005    47 H    0.975
                            48 H    0.972
    21   6 C    3.980 --    20 C    1.005    16 N    0.974    49 H    0.973
                            50 H    0.970
    22   6 C    3.980 --    23 N    1.434    15 C    1.352    51 H    0.963
                            13 C    0.110
    23   7 N    3.029 --    22 C    1.434    12 C    1.346
    24   7 N    3.009 --    10 C    1.343    25 C    1.328
    25   6 C    3.965 --    24 N    1.328     7 C    1.219    26 N    1.200
    26   7 N    3.589 --    25 C    1.200     4 C    1.136    27 C    0.974
    27   6 C    3.960 --    28 C    0.981    31 C    0.981    26 N    0.974
                            52 H    0.962
    28   6 C    3.992 --    29 C    1.007    27 C    0.981    53 H    0.979
                            54 H    0.973
    29   6 C    3.997 --    30 C    1.007    28 C    1.007    55 H    0.980
                            56 H    0.979
    30   6 C    3.995 --    29 C    1.007    31 C    1.005    57 H    0.980
                            58 H    0.977
    31   6 C    3.995 --    30 C    1.005    60 H    0.983    27 C    0.981
                            59 H    0.977
    32   1 H    0.997 --     1 C    0.979
    33   1 H    0.994 --     1 C    0.952
    34   1 H    0.995 --     1 C    0.977
    35   1 H    0.997 --     6 C    0.983
    36   1 H    0.997 --     6 C    0.966
    37   1 H    0.997 --     6 C    0.974
    38   1 H    0.998 --     8 C    0.963
    39   1 H    0.957 --    11 N    0.924
    40   1 H    0.996 --    13 C    0.963
    41   1 H    0.999 --    14 C    0.965
    42   1 H    0.998 --    17 C    0.969
    43   1 H    0.997 --    17 C    0.969
    44   1 H    0.998 --    18 C    0.973
    45   1 H    0.999 --    18 C    0.978
    46   1 H    0.982 --    19 N    0.963
    47   1 H    1.000 --    20 C    0.975
    48   1 H    0.998 --    20 C    0.972
    49   1 H    0.998 --    21 C    0.973
    50   1 H    0.998 --    21 C    0.970
    51   1 H    0.998 --    22 C    0.963
    52   1 H    0.995 --    27 C    0.962
    53   1 H    0.999 --    28 C    0.979
    54   1 H    0.996 --    28 C    0.973
    55   1 H    0.999 --    29 C    0.980
    56   1 H    0.998 --    29 C    0.979
    57   1 H    0.999 --    30 C    0.980
    58   1 H    0.997 --    30 C    0.977
    59   1 H    0.999 --    31 C    0.977
    60   1 H    0.999 --    31 C    0.983
 ---------------------------------------------------------------------------

Topologies differ in total number of bonds
Writing topology from bond orders to xtbtopo.mol

molecular dipole:
                 x           y           z       tot (Debye)
 q only:        0.870       0.534      -0.243
   full:        0.893       1.130       0.111       3.672
molecular quadrupole (traceless):
                xx          xy          yy          xz          yz          zz
 q only:        8.369     -10.757       1.379       9.737       5.055      -9.748
  q+dip:       13.046     -17.639      -1.065      17.212       7.939     -11.981
   full:       10.600     -17.187      -2.517      16.467       5.892      -8.083


           -------------------------------------------------
          | TOTAL ENERGY              -88.632190110280 Eh   |
          | GRADIENT NORM               0.115405546878 Eh/α |
          | HOMO-LUMO GAP               1.580919120494 eV   |
           -------------------------------------------------

------------------------------------------------------------------------
 * finished run on 2026/08/31 at 20:39:23.713     
------------------------------------------------------------------------
 total:
 * wall-time:     0 d,  0 h,  0 min,  0.150 sec
 *  cpu-time:     0 d,  0 h,  0 min,  1.234 sec
 * ratio c/w:     8.229 speedup
 SCF:
 * wall-time:     0 d,  0 h,  0 min,  0.114 sec
 *  cpu-time:     0 d,  0 h,  0 min,  1.062 sec
 * ratio c/w:     9.320 speedup

normal termination of xtb
