55
Frozen drug extracted from genuine optimized complex (angle 180 deg)
C      1.039425     -4.960210      5.706924
O      0.937653     -4.157859      6.870545
C     -0.301546     -3.682498      7.216181
C     -1.510101     -4.075811      6.649567
C     -2.671164     -3.331787      6.925922
N     -3.762834     -3.545951      6.141164
C     -4.828945     -2.791279      6.411139
N     -4.913002     -1.830809      7.297843
C     -3.837739     -1.551710      8.041243
N     -3.937044     -0.442814      8.876678
C     -4.292709      0.813091      8.416120
C     -4.270171      1.913106      9.279317
C     -4.556096      3.179797      8.807842
C     -4.823838      3.379564      7.463533
F     -5.035644      4.628066      7.009734
C     -4.844156      2.295349      6.596954
Cl     -4.931845      2.483317      4.893668
C     -4.631621      1.016411      7.075758
C     -2.658985     -2.343069      7.955021
C     -1.462974     -2.097203      8.663193
C     -0.285258     -2.683678      8.210098
O      1.005198     -2.193199      8.460173
C      1.260883     -1.474617      9.673417
C      1.350371      0.042081      9.439658
C      2.609114      0.709423     10.052716
N      3.843010      0.720495      9.308324
C      3.849781      1.565568      8.116316
C      4.859477      1.058516      7.087792
O      4.578776     -0.282431      6.678890
C      4.420792     -1.188090      7.791911
C      4.601773     -0.498095      9.150775
H      0.665178     -4.418100      4.824781
H      2.105420     -5.152626      5.589675
H      0.501896     -5.906475      5.835932
H     -1.571754     -4.835880      5.877486
H     -5.723147     -2.994349      5.827731
H     -3.339747     -0.444590      9.690196
H     -4.009637      1.779055     10.318149
H     -4.534279      4.033835      9.465300
H     -4.658932      0.181422      6.385998
H     -1.415883     -1.282410      9.369269
H      2.225043     -1.862368     10.024824
H      0.498128     -1.729427     10.417753
H      0.468814      0.537865      9.848660
H      1.335255      0.199449      8.346688
H      2.819237      0.249037     11.023092
H      2.368087      1.760251     10.233113
H      2.867132      1.586630      7.626242
H      4.116001      2.587052      8.414999
H      5.883596      1.111186      7.483935
H      4.791654      1.658090      6.172140
H      3.416479     -1.631842      7.694383
H      5.175803     -1.976882      7.671268
H      4.338305     -1.197832      9.944412
H      5.662881     -0.246382      9.283518
