      -----------------------------------------------------------      
     |                   =====================                   |     
     |                           x T B                           |     
     |                   =====================                   |     
     |                         S. Grimme                         |     
     |          Mulliken Center for Theoretical Chemistry        |     
     |                    University of Bonn                     |     
      -----------------------------------------------------------      

   * xtb version 6.7.1pre (5071a88) compiled by 'Marcel@Raven' on 2024-07-23

   xtb is free software: you can redistribute it and/or modify it under
   the terms of the GNU Lesser General Public License as published by
   the Free Software Foundation, either version 3 of the License, or
   (at your option) any later version.
   
   xtb is distributed in the hope that it will be useful,
   but WITHOUT ANY WARRANTY; without even the implied warranty of
   MERCHANTABILITY or FITNESS FOR A PARTICULAR PURPOSE.  See the
   GNU Lesser General Public License for more details.
   
   Cite this work as:
   * C. Bannwarth, E. Caldeweyher, S. Ehlert, A. Hansen, P. Pracht,
     J. Seibert, S. Spicher, S. Grimme, WIREs Comput. Mol. Sci., 2020, 11,
     e01493. DOI: 10.1002/wcms.1493
   
   for GFN2-xTB:
   * C. Bannwarth, S. Ehlert and S. Grimme., J. Chem. Theory Comput., 2019,
     15, 1652-1671. DOI: 10.1021/acs.jctc.8b01176
   for GFN1-xTB:
   * S. Grimme, C. Bannwarth, P. Shushkov, J. Chem. Theory Comput., 2017,
     13, 1989-2009. DOI: 10.1021/acs.jctc.7b00118
   for GFN0-xTB:
   * P. Pracht, E. Caldeweyher, S. Ehlert, S. Grimme, ChemRxiv, 2019, preprint.
     DOI: 10.26434/chemrxiv.8326202.v1
   for GFN-FF:
   * S. Spicher and S. Grimme, Angew. Chem. Int. Ed., 2020, 59, 15665-15673.
     DOI: 10.1002/anie.202004239
   
   for ALPB and GBSA implicit solvation:
   * S. Ehlert, M. Stahn, S. Spicher, S. Grimme, J. Chem. Theory Comput.,
     2021, 17, 4250-4261. DOI: 10.1021/acs.jctc.1c00471
   
   for ddCOSMO and CPCM-X implicit solvation:
   * M. Stahn, S. Ehlert, S. Grimme, J. Phys. Chem. A,
     2023, XX, XXXX-XXXX. DOI: 10.1021/acs.jpca.3c04382
   
   for DFT-D4:
   * E. Caldeweyher, C. Bannwarth and S. Grimme, J. Chem. Phys., 2017,
     147, 034112. DOI: 10.1063/1.4993215
   * E. Caldeweyher, S. Ehlert, A. Hansen, H. Neugebauer, S. Spicher,
     C. Bannwarth and S. Grimme, J. Chem. Phys., 2019, 150, 154122.
     DOI: 10.1063/1.5090222
   * E. Caldeweyher, J.-M. Mewes, S. Ehlert and S. Grimme, Phys. Chem. Chem. Phys.
     2020, 22, 8499-8512. DOI: 10.1039/D0CP00502A
   
   for sTDA-xTB:
   * S. Grimme and C. Bannwarth, J. Chem. Phys., 2016, 145, 054103.
     DOI: 10.1063/1.4959605
   
   in the mass-spec context:
   * V. Asgeirsson, C. Bauer and S. Grimme, Chem. Sci., 2017, 8, 4879.
     DOI: 10.1039/c7sc00601b
   * J. Koopman and S. Grimme, ACS Omega 2019, 4, 12, 15120-15133.
     DOI: 10.1021/acsomega.9b02011
   
   for metadynamics refer to:
   * S. Grimme, J. Chem. Theory Comput., 2019, 155, 2847-2862
     DOI: 10.1021/acs.jctc.9b00143
   
   for SPH calculations refer to:
   * S. Spicher and S. Grimme, J. Chem. Theory Comput., 2021, 17, 1701-1714
     DOI: 10.1021/acs.jctc.0c01306
   
   for ONIOM refer to:
   * C. Plett, A. Katbashev, S. Ehlert, S. Grimme, M. Bursch,
     Phys. Chem. Chem. Phys., 2023, 25, 17860-17868. DOI: 10.1039/D3CP02178E
   
   for DIPRO refer to:
   * J. Kohn, N. Gildemeister, S. Grimme, D. Fazzi, A. Hansen,
     J. Chem. Phys., 2023, just accepted.
   
   for PTB refer to:
   * S. Grimme, M. Mueller, A. Hansen, J. Chem. Phys., 2023, 158, 124111.
     DOI: 10.1063/5.0137838
   
   with help from (in alphabetical order)
   P. Atkinson, C. Bannwarth, F. Bohle, G. Brandenburg, E. Caldeweyher
   M. Checinski, S. Dohm, S. Ehlert, S. Ehrlich, I. Gerasimov, C. Hölzer
   A. Katbashev, J. Kohn, J. Koopman, C. Lavigne, S. Lehtola, F. März, M. Müller,
   F. Musil, H. Neugebauer, J. Pisarek, C. Plett, P. Pracht, F. Pultar,
   J. Seibert, P. Shushkov, S. Spicher, M. Stahn, M. Steiner, T. Strunk,
   J. Stückrath, T. Rose, and J. Unsleber
   
 * started run on 2026/09/01 at 17:04:36.624     
   ID    Z sym.   atoms
    1    6 C      1, 3-5, 7, 9, 11-14, 16, 18-21, 23-25, 27, 28, 30, 31
    2    8 O      2, 22, 29
    3    7 N      6, 8, 10, 26
    4    9 F      15
    5   17 Cl     17
    6    1 H      32-55

           -------------------------------------------------
          |                Calculation Setup                |
           -------------------------------------------------

          program call               : "c:\Users\Andre\Proyectos doctorado\nano-qsar-ai-papers\kras-pancreatic-gC3N4-ai\tools\xtb\xtb-6.7.1\bin\xtb.exe" "c:\Users\Andre\Proyectos doctorado\nano-qsar-ai-papers\mxene-glioblastoma-qsar-ai\calculations\gbm\Gefitinib\Gefitinib_drug_frozen_from_opt.xyz" --gfn 2 --sp --chrg 0 --uhf 0 --norestart
          coordinate file            : c:\Users\Andre\Proyectos doctorado\nano-qsar-ai-papers\mxene-glioblastoma-qsar-ai\calculations\gbm\Gefitinib\Gefitinib_drug_frozen_from_opt.xyz
          omp threads                :                    16


           -------------------------------------------------
          |                 G F N 2 - x T B                 |
           -------------------------------------------------

        Reference                      10.1021/acs.jctc.8b01176
      * Hamiltonian:
        H0-scaling (s, p, d)           1.850000    2.230000    2.230000
        zeta-weighting                 0.500000
      * Dispersion:
        s8                             2.700000
        a1                             0.520000
        a2                             5.000000
        s9                             5.000000
      * Repulsion:
        kExp                           1.500000    1.000000
        rExp                           1.000000
      * Coulomb:
        alpha                          2.000000
        third order                    shell-resolved
        anisotropic                    true
        a3                             3.000000
        a5                             4.000000
        cn-shift                       1.200000
        cn-exp                         4.000000
        max-rad                        5.000000


          ...................................................
          :                      SETUP                      :
          :.................................................:
          :  # basis functions                 154          :
          :  # atomic orbitals                 153          :
          :  # shells                           87          :
          :  # electrons                       164          :
          :  max. iterations                   250          :
          :  Hamiltonian                  GFN2-xTB          :
          :  restarted?                      false          :
          :  GBSA solvation                  false          :
          :  PC potential                    false          :
          :  electronic temp.          300.0000000     K    :
          :  accuracy                    1.0000000          :
          :  -> integral cutoff          0.2500000E+02      :
          :  -> integral neglect         0.1000000E-07      :
          :  -> SCF convergence          0.1000000E-05 Eh   :
          :  -> wf. convergence          0.1000000E-03 e    :
          :  Broyden damping             0.4000000          :
          :  net charge                          0          :
          :  unpaired electrons                  0          :
          ...................................................

 iter      E             dE          RMSdq      gap      omega  full diag
   1    -93.5507007 -0.935507E+02  0.403E+00    2.39       0.0  T
   2    -93.6665711 -0.115870E+00  0.242E+00    2.37       1.0  T
   3    -93.6547623  0.118087E-01  0.108E+00    2.24       1.0  T
   4    -93.6778244 -0.230621E-01  0.418E-01    2.14       1.0  T
   5    -93.6852720 -0.744761E-02  0.104E-01    2.08       1.0  T
   6    -93.6854532 -0.181217E-03  0.567E-02    2.10       1.0  T
   7    -93.6854915 -0.382999E-04  0.274E-02    2.12       1.0  T
   8    -93.6854991 -0.762753E-05  0.175E-02    2.12       1.0  T
   9    -93.6855041 -0.496413E-05  0.129E-02    2.12       1.0  T
  10    -93.6855072 -0.308598E-05  0.855E-03    2.12       1.6  T
  11    -93.6855086 -0.146163E-05  0.483E-03    2.12       2.8  T
  12    -93.6855093 -0.700690E-06  0.176E-03    2.12       7.7  T
  13    -93.6855094 -0.578330E-07  0.877E-04    2.12      15.4  T
  14    -93.6855094 -0.107028E-07  0.394E-04    2.12      34.2  T

   *** convergence criteria satisfied after 14 iterations ***

         #    Occupation            Energy/Eh            Energy/eV
      -------------------------------------------------------------
         1        2.0000           -1.0554018             -28.7189
       ...           ...                  ...                  ...
        76        2.0000           -0.4023958             -10.9497
        77        2.0000           -0.4006646             -10.9026
        78        2.0000           -0.3974326             -10.8147
        79        2.0000           -0.3958477             -10.7716
        80        2.0000           -0.3787640             -10.3067
        81        2.0000           -0.3636781              -9.8962
        82        2.0000           -0.3556622              -9.6781 (HOMO)
        83                         -0.2777342              -7.5575 (LUMO)
        84                         -0.2509491              -6.8287
        85                         -0.2465053              -6.7078
        86                         -0.2350972              -6.3973
        87                         -0.2034921              -5.5373
       ...                                ...                  ...
       153                          0.6935730              18.8731
      -------------------------------------------------------------
                  HL-Gap            0.0779280 Eh            2.1205 eV
             Fermi-level           -0.3166982 Eh           -8.6178 eV

 SCC (total)                   0 d,  0 h,  0 min,  0.865 sec
 SCC setup                      ...        0 min,  0.024 sec (  2.775%)
 Dispersion                     ...        0 min,  0.012 sec (  1.387%)
 classical contributions        ...        0 min,  0.012 sec (  1.387%)
 integral evaluation            ...        0 min,  0.008 sec (  0.925%)
 iterations                     ...        0 min,  0.800 sec ( 92.486%)
 molecular gradient             ...        0 min,  0.007 sec (  0.809%)
 printout                       ...        0 min,  0.002 sec (  0.231%)

         :::::::::::::::::::::::::::::::::::::::::::::::::::::
         ::                     SUMMARY                     ::
         :::::::::::::::::::::::::::::::::::::::::::::::::::::
         :: total energy             -92.554109713287 Eh    ::
         :: gradient norm              0.012779224323 Eh/a0 ::
         :: HOMO-LUMO gap              2.120529991471 eV    ::
         ::.................................................::
         :: SCC energy               -93.685755272597 Eh    ::
         :: -> isotropic ES            0.091821518784 Eh    ::
         :: -> anisotropic ES          0.010205713941 Eh    ::
         :: -> anisotropic XC          0.030613514952 Eh    ::
         :: -> dispersion             -0.060799047937 Eh    ::
         :: repulsion energy           1.131645559309 Eh    ::
         :: add. restraining           0.000000000000 Eh    ::
         :: total charge               0.000000000000 e     ::
         :::::::::::::::::::::::::::::::::::::::::::::::::::::

           -------------------------------------------------
          |                Property Printout                |
           -------------------------------------------------

    * Orbital Energies and Occupations

         #    Occupation            Energy/Eh            Energy/eV
      -------------------------------------------------------------
         1        2.0000           -1.0554018             -28.7189
       ...           ...                  ...                  ...
        70        2.0000           -0.4525691             -12.3150
        71        2.0000           -0.4488415             -12.2136
        72        2.0000           -0.4437607             -12.0753
        73        2.0000           -0.4408662             -11.9966
        74        2.0000           -0.4197615             -11.4223
        75        2.0000           -0.4112005             -11.1893
        76        2.0000           -0.4023958             -10.9497
        77        2.0000           -0.4006646             -10.9026
        78        2.0000           -0.3974326             -10.8147
        79        2.0000           -0.3958477             -10.7716
        80        2.0000           -0.3787640             -10.3067
        81        2.0000           -0.3636781              -9.8962
        82        2.0000           -0.3556622              -9.6781 (HOMO)
        83                         -0.2777342              -7.5575 (LUMO)
        84                         -0.2509491              -6.8287
        85                         -0.2465053              -6.7078
        86                         -0.2350972              -6.3973
        87                         -0.2034921              -5.5373
        88                         -0.1617446              -4.4013
        89                         -0.1409055              -3.8342
        90                         -0.1149614              -3.1283
        91                         -0.0757840              -2.0622
        92                         -0.0175694              -0.4781
        93                         -0.0114750              -0.3123
       ...                                ...                  ...
       153                          0.6935730              18.8731
      -------------------------------------------------------------
                  HL-Gap            0.0779280 Eh            2.1205 eV
             Fermi-level           -0.3166982 Eh           -8.6178 eV

     #   Z          covCN         q      C6AA      α(0)
     1   6 C        3.645     0.029    20.413     6.493
     2   8 O        1.706    -0.239    17.955     5.721
     3   6 C        2.864     0.134    25.065     8.206
     4   6 C        2.917    -0.087    30.192     9.011
     5   6 C        2.994     0.094    25.901     8.348
     6   7 N        1.838    -0.267    27.782     7.811
     7   6 C        2.903     0.149    24.775     8.161
     8   7 N        1.840    -0.286    28.257     7.878
     9   6 C        2.894     0.163    24.475     8.111
    10   7 N        2.704    -0.131    23.851     7.253
    11   6 C        2.903     0.075    26.327     8.413
    12   6 C        2.929    -0.062    29.547     8.914
    13   6 C        2.918    -0.049    29.211     8.863
    14   6 C        2.816     0.154    24.663     8.137
    15   9 F        0.787    -0.208    11.321     3.975
    16   6 C        2.883     0.084    26.135     8.381
    17  17 Cl       0.966    -0.138   103.474    15.562
    18   6 C        2.961    -0.066    29.630     8.928
    19   6 C        2.977    -0.045    29.105     8.849
    20   6 C        2.910    -0.084    30.100     8.996
    21   6 C        2.858     0.129    25.172     8.223
    22   8 O        1.706    -0.254    18.212     5.762
    23   6 C        3.691     0.083    19.374     6.298
    24   6 C        3.795    -0.076    21.963     6.673
    25   6 C        3.742    -0.000    20.655     6.484
    26   7 N        2.731    -0.179    24.878     7.408
    27   6 C        3.750     0.006    20.546     6.465
    28   6 C        3.703     0.075    19.469     6.309
    29   8 O        1.700    -0.317    19.297     5.931
    30   6 C        3.699     0.081    19.382     6.297
    31   6 C        3.745    -0.002    20.678     6.487
    32   1 H        0.923     0.049     2.338     2.391
    33   1 H        0.925     0.071     2.079     2.255
    34   1 H        0.924     0.050     2.321     2.383
    35   1 H        0.926     0.066     2.126     2.280
    36   1 H        0.925     0.041     2.432     2.439
    37   1 H        0.860     0.178     1.223     1.733
    38   1 H        0.926     0.044     2.393     2.419
    39   1 H        0.926     0.071     2.076     2.253
    40   1 H        0.926     0.108     1.718     2.049
    41   1 H        0.926     0.030     2.589     2.516
    42   1 H        0.924     0.054     2.266     2.354
    43   1 H        0.923     0.023     2.687     2.564
    44   1 H        0.923     0.040     2.453     2.449
    45   1 H        0.924     0.048     2.346     2.395
    46   1 H        0.924     0.035     2.523     2.484
    47   1 H        0.924     0.044     2.394     2.420
    48   1 H        0.923     0.021     2.716     2.577
    49   1 H        0.924     0.039     2.458     2.452
    50   1 H        0.923     0.040     2.455     2.450
    51   1 H        0.924     0.047     2.358     2.401
    52   1 H        0.923     0.020     2.727     2.582
    53   1 H        0.924     0.048     2.349     2.397
    54   1 H        0.924     0.026     2.647     2.544
    55   1 H        0.923     0.042     2.418     2.432

 Mol. C6AA /au·bohr⁶  :      36861.874107
 Mol. C8AA /au·bohr⁸  :     892664.012667
 Mol. α(0) /au        :        295.568475


Wiberg/Mayer (AO) data.
largest (>0.10) Wiberg bond orders for each atom

 ---------------------------------------------------------------------------
     #   Z sym  total        # sym  WBO       # sym  WBO       # sym  WBO
 ---------------------------------------------------------------------------
     1   6 C    3.938 --    33 H    0.979     2 O    0.978    32 H    0.976
                            34 H    0.975
     2   8 O    2.265 --     3 C    1.095     1 C    0.978
     3   6 C    3.939 --     4 C    1.488    21 C    1.169     2 O    1.095
     4   6 C    3.980 --     3 C    1.488     5 C    1.265    35 H    0.961
     5   6 C    3.979 --     6 N    1.268     4 C    1.265    19 C    1.257
     6   7 N    3.045 --     7 C    1.525     5 C    1.268
     7   6 C    3.961 --     6 N    1.525     8 N    1.338    36 H    0.956
     8   7 N    3.050 --     9 C    1.402     7 C    1.338
     9   6 C    3.961 --     8 N    1.402    19 C    1.196    10 N    1.174
    10   7 N    3.498 --     9 C    1.174    11 C    1.112    37 H    0.925
    11   6 C    3.968 --    18 C    1.355    12 C    1.348    10 N    1.112
    12   6 C    3.977 --    13 C    1.455    11 C    1.348    38 H    0.966
    13   6 C    3.987 --    12 C    1.455    14 C    1.389    39 H    0.965
    14   6 C    3.881 --    13 C    1.389    16 C    1.345    15 F    0.969
    15   9 F    1.099 --    14 C    0.969
    16   6 C    3.927 --    18 C    1.417    14 C    1.345    17 Cl   0.996
    17  17 Cl   1.142 --    16 C    0.996
    18   6 C    3.973 --    16 C    1.417    11 C    1.355    40 H    0.946
    19   6 C    3.983 --    20 C    1.273     5 C    1.257     9 C    1.196
    20   6 C    3.981 --    21 C    1.490    19 C    1.273    41 H    0.952
    21   6 C    3.935 --    20 C    1.490     3 C    1.169    22 O    1.079
    22   8 O    2.252 --    21 C    1.079    23 C    0.968
    23   6 C    3.943 --    24 C    0.996    22 O    0.968    42 H    0.965
                            43 H    0.962
    24   6 C    3.991 --    23 C    0.996    25 C    0.984    45 H    0.975
                            44 H    0.973
    25   6 C    3.987 --    26 N    1.018    24 C    0.984    46 H    0.972
                            47 H    0.968
    26   7 N    3.146 --    25 C    1.018    27 C    1.005    31 C    0.999
    27   6 C    3.988 --    26 N    1.005    28 C    1.001    49 H    0.971
                            48 H    0.962
    28   6 C    3.957 --    27 C    1.001    29 O    0.979    51 H    0.971
                            50 H    0.968
    29   8 O    2.067 --    30 C    0.989    28 C    0.979
    30   6 C    3.960 --    31 C    0.996    29 O    0.989    53 H    0.970
                            52 H    0.964
    31   6 C    3.988 --    26 N    0.999    30 C    0.996    54 H    0.971
                            55 H    0.969
    32   1 H    0.997 --     1 C    0.976
    33   1 H    0.995 --     1 C    0.979
    34   1 H    0.997 --     1 C    0.975
    35   1 H    0.994 --     4 C    0.961
    36   1 H    0.998 --     7 C    0.956
    37   1 H    0.968 --    10 N    0.925
    38   1 H    0.998 --    12 C    0.966
    39   1 H    0.994 --    13 C    0.965
    40   1 H    0.988 --    18 C    0.946
    41   1 H    0.998 --    20 C    0.952
    42   1 H    0.996 --    23 C    0.965
    43   1 H    0.999 --    23 C    0.962
    44   1 H    0.998 --    24 C    0.973
    45   1 H    0.998 --    24 C    0.975
    46   1 H    0.999 --    25 C    0.972
    47   1 H    0.998 --    25 C    0.968
    48   1 H    1.000 --    27 C    0.962
    49   1 H    0.998 --    27 C    0.971
    50   1 H    0.998 --    28 C    0.968
    51   1 H    0.997 --    28 C    0.971
    52   1 H    1.000 --    30 C    0.964
    53   1 H    0.997 --    30 C    0.970
    54   1 H    0.999 --    31 C    0.971
    55   1 H    0.998 --    31 C    0.969
 ---------------------------------------------------------------------------

Topologies differ in total number of bonds
Writing topology from bond orders to xtbtopo.mol

molecular dipole:
                 x           y           z       tot (Debye)
 q only:        0.434       2.030      -0.412
   full:        0.519       2.043      -0.446       5.475
molecular quadrupole (traceless):
                xx          xy          yy          xz          yz          zz
 q only:       25.899     -20.305     -35.068      10.937      54.749       9.169
  q+dip:       25.978     -15.564     -37.199      13.323      54.001      11.221
   full:       24.917     -16.078     -38.748      16.978      53.564      13.831


           -------------------------------------------------
          | TOTAL ENERGY              -92.554109713287 Eh   |
          | GRADIENT NORM               0.012779224323 Eh/α |
          | HOMO-LUMO GAP               2.120529991471 eV   |
           -------------------------------------------------

------------------------------------------------------------------------
 * finished run on 2026/09/01 at 17:04:37.698     
------------------------------------------------------------------------
 total:
 * wall-time:     0 d,  0 h,  0 min,  1.072 sec
 *  cpu-time:     0 d,  0 h,  0 min,  3.938 sec
 * ratio c/w:     3.673 speedup
 SCF:
 * wall-time:     0 d,  0 h,  0 min,  0.866 sec
 *  cpu-time:     0 d,  0 h,  0 min,  3.359 sec
 * ratio c/w:     3.879 speedup

