88
Drug@Ti3C2O2 complex
C      1.017185      4.250414      4.489517
O      0.983503      2.868328      4.821936
C     -0.245906      2.295136      5.007860
C     -1.471081      2.916175      4.751411
C     -2.686365      2.276751      4.981571
N     -3.810929      2.939476      4.702056
C     -4.961647      2.299135      4.933277
N     -5.092521      1.065160      5.426389
C     -3.958696      0.404770      5.720918
N     -4.037528     -0.898813      6.284966
C     -5.158764     -1.755465      6.361709
C     -6.183142     -1.747072      5.403517
C     -7.245172     -2.653869      5.472143
C     -7.277900     -3.598018      6.489746
F     -8.302566     -4.461769      6.538191
C     -6.255086     -3.650439      7.430587
Cl     -6.273162     -4.832604      8.683081
C     -5.194422     -2.742715      7.360461
C     -2.687835      0.972957      5.497787
C     -1.453840      0.327844      5.745046
C     -0.253176      0.980948      5.481832
O      0.905914      0.315986      5.784872
C      1.529264     -0.193408      4.599256
C      2.992126     -0.513014      4.909157
C      3.788990      0.759861      5.213838
N      5.213791      0.616528      5.514800
C      5.533568     -0.007743      6.805440
C      5.788891     -1.522427      6.756406
O      6.752475     -1.860552      5.752753
C      6.298364     -1.426370      4.466624
C      6.056900      0.091915      4.433795
H      0.515649      4.855091      5.252392
H      0.586337      4.425295      3.498408
H      2.066218      4.559864      4.455466
H     -1.515248      3.928153      4.359940
H     -5.876286      2.833873      4.700610
H     -3.492742     -0.912352      7.142174
H     -6.164186     -1.034110      4.582645
H     -8.039031     -2.630405      4.732292
H     -4.395546     -2.806891      8.094522
H     -1.419988     -0.688414      6.127992
H      1.013510     -1.116767      4.308649
H      1.474445      0.508935      3.758016
H      3.417086     -1.029830      4.044009
H      3.026624     -1.186929      5.770298
H      3.695005      1.442723      4.359018
H      3.317503      1.294075      6.048616
H      4.772704      0.222236      7.560457
H      6.458042      0.468518      7.157460
H      6.189690     -1.855780      7.719347
H      4.870361     -2.088905      6.575456
H      7.075361     -1.687170      3.740477
H      5.401437     -1.991975      4.196480
H      7.034384      0.580333      4.540202
H      5.677440      0.393324      3.450417
Ti     -3.000000     -2.600000      1.250000
Ti      0.000000     -2.600000      1.250000
Ti      3.000000     -2.600000      1.250000
Ti     -1.500000      0.000000      1.250000
Ti      1.500000      0.000000      1.250000
Ti      0.000000      2.600000      1.250000
Ti     -3.000000     -2.600000     -1.250000
Ti      0.000000     -2.600000     -1.250000
Ti      3.000000     -2.600000     -1.250000
Ti     -1.500000      0.000000     -1.250000
Ti      1.500000      0.000000     -1.250000
Ti      0.000000      2.600000     -1.250000
C     -1.500000     -1.300000      0.000000
C      1.500000     -1.300000      0.000000
C      0.000000      1.300000      0.000000
C     -3.000000      0.000000      0.000000
C      3.000000      0.000000      0.000000
C     -1.500000      2.600000      0.000000
C      1.500000      2.600000      0.000000
O     -3.000000     -2.600000      2.450000
O      0.000000     -2.600000      2.450000
O      3.000000     -2.600000      2.450000
O     -1.500000      0.000000      2.450000
O      1.500000      0.000000      2.450000
O     -1.500000      2.600000      2.450000
O      1.500000      2.600000      2.450000
O     -3.000000     -2.600000     -2.450000
O      0.000000     -2.600000     -2.450000
O      3.000000     -2.600000     -2.450000
O     -1.500000      0.000000     -2.450000
O      1.500000      0.000000     -2.450000
O     -1.500000      2.600000     -2.450000
O      1.500000      2.600000     -2.450000
