      -----------------------------------------------------------      
     |                   =====================                   |     
     |                           x T B                           |     
     |                   =====================                   |     
     |                         S. Grimme                         |     
     |          Mulliken Center for Theoretical Chemistry        |     
     |                    University of Bonn                     |     
      -----------------------------------------------------------      

   * xtb version 6.7.1pre (5071a88) compiled by 'Marcel@Raven' on 2024-07-23

   xtb is free software: you can redistribute it and/or modify it under
   the terms of the GNU Lesser General Public License as published by
   the Free Software Foundation, either version 3 of the License, or
   (at your option) any later version.
   
   xtb is distributed in the hope that it will be useful,
   but WITHOUT ANY WARRANTY; without even the implied warranty of
   MERCHANTABILITY or FITNESS FOR A PARTICULAR PURPOSE.  See the
   GNU Lesser General Public License for more details.
   
   Cite this work as:
   * C. Bannwarth, E. Caldeweyher, S. Ehlert, A. Hansen, P. Pracht,
     J. Seibert, S. Spicher, S. Grimme, WIREs Comput. Mol. Sci., 2020, 11,
     e01493. DOI: 10.1002/wcms.1493
   
   for GFN2-xTB:
   * C. Bannwarth, S. Ehlert and S. Grimme., J. Chem. Theory Comput., 2019,
     15, 1652-1671. DOI: 10.1021/acs.jctc.8b01176
   for GFN1-xTB:
   * S. Grimme, C. Bannwarth, P. Shushkov, J. Chem. Theory Comput., 2017,
     13, 1989-2009. DOI: 10.1021/acs.jctc.7b00118
   for GFN0-xTB:
   * P. Pracht, E. Caldeweyher, S. Ehlert, S. Grimme, ChemRxiv, 2019, preprint.
     DOI: 10.26434/chemrxiv.8326202.v1
   for GFN-FF:
   * S. Spicher and S. Grimme, Angew. Chem. Int. Ed., 2020, 59, 15665-15673.
     DOI: 10.1002/anie.202004239
   
   for ALPB and GBSA implicit solvation:
   * S. Ehlert, M. Stahn, S. Spicher, S. Grimme, J. Chem. Theory Comput.,
     2021, 17, 4250-4261. DOI: 10.1021/acs.jctc.1c00471
   
   for ddCOSMO and CPCM-X implicit solvation:
   * M. Stahn, S. Ehlert, S. Grimme, J. Phys. Chem. A,
     2023, XX, XXXX-XXXX. DOI: 10.1021/acs.jpca.3c04382
   
   for DFT-D4:
   * E. Caldeweyher, C. Bannwarth and S. Grimme, J. Chem. Phys., 2017,
     147, 034112. DOI: 10.1063/1.4993215
   * E. Caldeweyher, S. Ehlert, A. Hansen, H. Neugebauer, S. Spicher,
     C. Bannwarth and S. Grimme, J. Chem. Phys., 2019, 150, 154122.
     DOI: 10.1063/1.5090222
   * E. Caldeweyher, J.-M. Mewes, S. Ehlert and S. Grimme, Phys. Chem. Chem. Phys.
     2020, 22, 8499-8512. DOI: 10.1039/D0CP00502A
   
   for sTDA-xTB:
   * S. Grimme and C. Bannwarth, J. Chem. Phys., 2016, 145, 054103.
     DOI: 10.1063/1.4959605
   
   in the mass-spec context:
   * V. Asgeirsson, C. Bauer and S. Grimme, Chem. Sci., 2017, 8, 4879.
     DOI: 10.1039/c7sc00601b
   * J. Koopman and S. Grimme, ACS Omega 2019, 4, 12, 15120-15133.
     DOI: 10.1021/acsomega.9b02011
   
   for metadynamics refer to:
   * S. Grimme, J. Chem. Theory Comput., 2019, 155, 2847-2862
     DOI: 10.1021/acs.jctc.9b00143
   
   for SPH calculations refer to:
   * S. Spicher and S. Grimme, J. Chem. Theory Comput., 2021, 17, 1701-1714
     DOI: 10.1021/acs.jctc.0c01306
   
   for ONIOM refer to:
   * C. Plett, A. Katbashev, S. Ehlert, S. Grimme, M. Bursch,
     Phys. Chem. Chem. Phys., 2023, 25, 17860-17868. DOI: 10.1039/D3CP02178E
   
   for DIPRO refer to:
   * J. Kohn, N. Gildemeister, S. Grimme, D. Fazzi, A. Hansen,
     J. Chem. Phys., 2023, just accepted.
   
   for PTB refer to:
   * S. Grimme, M. Mueller, A. Hansen, J. Chem. Phys., 2023, 158, 124111.
     DOI: 10.1063/5.0137838
   
   with help from (in alphabetical order)
   P. Atkinson, C. Bannwarth, F. Bohle, G. Brandenburg, E. Caldeweyher
   M. Checinski, S. Dohm, S. Ehlert, S. Ehrlich, I. Gerasimov, C. Hölzer
   A. Katbashev, J. Kohn, J. Koopman, C. Lavigne, S. Lehtola, F. März, M. Müller,
   F. Musil, H. Neugebauer, J. Pisarek, C. Plett, P. Pracht, F. Pultar,
   J. Seibert, P. Shushkov, S. Spicher, M. Stahn, M. Steiner, T. Strunk,
   J. Stückrath, T. Rose, and J. Unsleber
   
 * started run on 2026/08/31 at 20:31:26.344     
   ID    Z sym.   atoms
    1    6 C      1, 3-5, 7, 9, 11-14, 16, 18-21, 23-25, 27, 28, 30, 31, 68-74
    2    8 O      2, 22, 29, 75-88
    3    7 N      6, 8, 10, 26
    4    9 F      15
    5   17 Cl     17
    6    1 H      32-55
    7   22 Ti     56-67

           -------------------------------------------------
          |                Calculation Setup                |
           -------------------------------------------------

          program call               : "c:\Users\Andre\Proyectos doctorado\kras-pancreatic-gC3N4-ai\tools\xtb\xtb-6.7.1\bin\xtb.exe" "c:\Users\Andre\Proyectos doctorado\mxene-glioblastoma-qsar-ai\calculations\gbm\Gefitinib\Gefitinib_Ti3C2O2_complex.xyz" --gfn 2 --sp --chrg 0 --uhf 0 --iterations 500 --norestart
          coordinate file            : c:\Users\Andre\Proyectos doctorado\mxene-glioblastoma-qsar-ai\calculations\gbm\Gefitinib\Gefitinib_Ti3C2O2_complex.xyz
          omp threads                :                    16


molecular fragmentation (1/2 indicates fragments):
111111111111111111111111111111111111111111111111111111122222222222222222
2222222222222222
# atoms in fragment 1/2:    55    33
 fragment masses (1/2) :      446.90      882.47
CMA distance (Bohr)    :  11.255
constraining FC (au)   :  0.0500

           -------------------------------------------------
          |                 G F N 2 - x T B                 |
           -------------------------------------------------

        Reference                      10.1021/acs.jctc.8b01176
      * Hamiltonian:
        H0-scaling (s, p, d)           1.850000    2.230000    2.230000
        zeta-weighting                 0.500000
      * Dispersion:
        s8                             2.700000
        a1                             0.520000
        a2                             5.000000
        s9                             5.000000
      * Repulsion:
        kExp                           1.500000    1.000000
        rExp                           1.000000
      * Coulomb:
        alpha                          2.000000
        third order                    shell-resolved
        anisotropic                    true
        a3                             3.000000
        a5                             4.000000
        cn-shift                       1.200000
        cn-exp                         4.000000
        max-rad                        5.000000


          ...................................................
          :                      SETUP                      :
          :.................................................:
          :  # basis functions                 358          :
          :  # atomic orbitals                 345          :
          :  # shells                          165          :
          :  # electrons                       324          :
          :  max. iterations                   500          :
          :  Hamiltonian                  GFN2-xTB          :
          :  restarted?                      false          :
          :  GBSA solvation                  false          :
          :  PC potential                    false          :
          :  electronic temp.          300.0000000     K    :
          :  accuracy                    1.0000000          :
          :  -> integral cutoff          0.2500000E+02      :
          :  -> integral neglect         0.1000000E-07      :
          :  -> SCF convergence          0.1000000E-05 Eh   :
          :  -> wf. convergence          0.1000000E-03 e    :
          :  Broyden damping             0.4000000          :
          :  net charge                          0          :
          :  unpaired electrons                  0          :
          ...................................................

 iter      E             dE          RMSdq      gap      omega  full diag
   1   -181.2333913 -0.181233E+03  0.124E+01    0.03       0.0  T
   2   -118.3709175  0.628625E+02  0.188E+01    0.04       1.0  T
   3    -64.3495447  0.540214E+02  0.229E+01    0.02       1.0  T
   4   -168.9734774 -0.104624E+03  0.112E+01    0.02       1.0  T
   5   -172.9272758 -0.395380E+01  0.111E+01    0.06       1.0  T
   6   -174.6933169 -0.176604E+01  0.915E+00    0.22       1.0  T
   7   -179.0773839 -0.438407E+01  0.795E+00    0.12       1.0  T
   8   -179.9942285 -0.916845E+00  0.737E+00    0.09       1.0  T
   9   -181.9034757 -0.190925E+01  0.604E+00    0.02       1.0  T
  10   -182.7027132 -0.799237E+00  0.595E+00    0.04       1.0  T
  11   -181.8305357  0.872178E+00  0.512E+00    0.14       1.0  T
  12   -184.2259010 -0.239537E+01  0.420E+00    0.18       1.0  T
  13   -183.9475239  0.278377E+00  0.403E+00    0.02       1.0  T
  14   -184.9976254 -0.105010E+01  0.299E+00    0.12       1.0  T
  15   -184.7474312  0.250194E+00  0.328E+00    0.04       1.0  T
  16   -185.0668822 -0.319451E+00  0.256E+00    0.05       1.0  T
  17   -185.1222407 -0.553585E-01  0.225E+00    0.10       1.0  T
  18   -185.2106783 -0.884376E-01  0.191E+00    0.10       1.0  T
  19   -185.2677640 -0.570857E-01  0.142E+00    0.15       1.0  T
  20   -184.6363012  0.631463E+00  0.187E+00    0.08       1.0  T
  21   -185.3171413 -0.680840E+00  0.117E+00    0.13       1.0  T
  22   -185.3123830  0.475829E-02  0.111E+00    0.16       1.0  T
  23   -185.3350695 -0.226865E-01  0.101E+00    0.18       1.0  T
  24   -185.3487775 -0.137080E-01  0.965E-01    0.18       1.0  T
  25   -185.3474842  0.129324E-02  0.916E-01    0.17       1.0  T
  26   -185.3578636 -0.103794E-01  0.730E-01    0.18       1.0  T
  27   -185.3652436 -0.738002E-02  0.682E-01    0.17       1.0  T
  28   -185.3723110 -0.706737E-02  0.619E-01    0.17       1.0  T
  29   -185.3770398 -0.472881E-02  0.555E-01    0.17       1.0  T
  30   -185.3809388 -0.389900E-02  0.501E-01    0.16       1.0  T
  31   -185.3873564 -0.641757E-02  0.431E-01    0.15       1.0  T
  32   -185.3854878  0.186862E-02  0.427E-01    0.16       1.0  T
  33   -185.3953500 -0.986223E-02  0.382E-01    0.10       1.0  T
  34   -185.3954444 -0.943818E-04  0.344E-01    0.13       1.0  T
  35   -185.3975799 -0.213553E-02  0.319E-01    0.11       1.0  T
  36   -185.3994735 -0.189357E-02  0.277E-01    0.11       1.0  T
  37   -185.4008893 -0.141586E-02  0.235E-01    0.12       1.0  T
  38   -185.4016964 -0.807089E-03  0.211E-01    0.12       1.0  T
  39   -185.4026974 -0.100093E-02  0.185E-01    0.11       1.0  T
  40   -185.4036599 -0.962547E-03  0.161E-01    0.11       1.0  T
  41   -185.4044831 -0.823185E-03  0.139E-01    0.12       1.0  T
  42   -185.4051056 -0.622479E-03  0.122E-01    0.12       1.0  T
  43   -185.4059723 -0.866713E-03  0.102E-01    0.12       1.0  T
  44   -185.4070003 -0.102799E-02  0.738E-02    0.11       1.0  T
  45   -185.4073958 -0.395554E-03  0.614E-02    0.11       1.0  T
  46   -185.4077724 -0.376564E-03  0.451E-02    0.11       1.0  T
  47   -185.4078731 -0.100684E-03  0.386E-02    0.10       1.0  T
  48   -185.4079597 -0.866754E-04  0.287E-02    0.11       1.0  T
  49   -185.4056979  0.226188E-02  0.105E-01    0.09       1.0  T
  50   -185.4078802 -0.218234E-02  0.298E-02    0.10       1.0  T
  51   -185.4079373 -0.570817E-04  0.225E-02    0.10       1.0  T
  52   -185.4077331  0.204199E-03  0.383E-02    0.11       1.0  T
  53   -185.4079771 -0.243967E-03  0.165E-02    0.11       1.0  T
  54   -185.4079804 -0.330927E-05  0.153E-02    0.11       1.0  T
  55   -185.4079959 -0.155720E-04  0.119E-02    0.11       1.0  T
  56   -185.4080214 -0.254311E-04  0.451E-03    0.10       2.4  T
  57   -185.4080246 -0.320087E-05  0.220E-03    0.11       4.9  T
  58   -185.4080240  0.608554E-06  0.263E-03    0.11       4.1  T
  59   -185.4080245 -0.519018E-06  0.216E-03    0.11       4.9  T
  60   -185.4080248 -0.272848E-06  0.184E-03    0.11       5.8  T
  61   -185.4080239  0.882264E-06  0.266E-03    0.11       4.0  T
  62   -185.4080253 -0.143284E-05  0.750E-04    0.11      14.2  T
  63   -185.4080253 -0.231956E-07  0.481E-04    0.11      22.2  T
  64   -185.4080254 -0.348814E-07  0.187E-04    0.11      57.2  T

   *** convergence criteria satisfied after 64 iterations ***

         #    Occupation            Energy/Eh            Energy/eV
      -------------------------------------------------------------
         1        2.0000           -1.0591620             -28.8213
       ...           ...                  ...                  ...
       156        2.0000           -0.3869080             -10.5283
       157        2.0000           -0.3847818             -10.4704
       158        2.0000           -0.3837418             -10.4421
       159        1.9961           -0.3795238             -10.3274
       160        1.9622           -0.3773483             -10.2682
       161        1.9284           -0.3767263             -10.2512
       162        1.7556           -0.3754707             -10.2171 (HOMO)
       163        0.2166           -0.3715944             -10.1116 (LUMO)
       164        0.1033           -0.3708327             -10.0909
       165        0.0379           -0.3698471             -10.0641
       166                         -0.3552650              -9.6673
       167                         -0.3510809              -9.5534
       ...                                ...                  ...
       345                         18.3157434             498.3967
      -------------------------------------------------------------
                  HL-Gap            0.0038763 Eh            0.1055 eV
             Fermi-level           -0.3735974 Eh          -10.1661 eV

 SCC (total)                   0 d,  0 h,  0 min,  2.053 sec
 SCC setup                      ...        0 min,  0.001 sec (  0.049%)
 Dispersion                     ...        0 min,  0.004 sec (  0.195%)
 classical contributions        ...        0 min,  0.000 sec (  0.000%)
 integral evaluation            ...        0 min,  0.010 sec (  0.487%)
 iterations                     ...        0 min,  2.013 sec ( 98.052%)
 molecular gradient             ...        0 min,  0.023 sec (  1.120%)
 printout                       ...        0 min,  0.002 sec (  0.097%)

         :::::::::::::::::::::::::::::::::::::::::::::::::::::
         ::                     SUMMARY                     ::
         :::::::::::::::::::::::::::::::::::::::::::::::::::::
         :: total energy            -179.508496391497 Eh    ::
         :: gradient norm              5.378672827880 Eh/a0 ::
         :: HOMO-LUMO gap              0.105479439849 eV    ::
         ::.................................................::
         :: SCC energy              -185.402226801110 Eh    ::
         :: -> isotropic ES            0.834035107100 Eh    ::
         :: -> anisotropic ES         -0.016764979443 Eh    ::
         :: -> anisotropic XC         -0.068514596240 Eh    ::
         :: -> dispersion             -0.168346383034 Eh    ::
         :: repulsion energy           5.893730409613 Eh    ::
         :: add. restraining           0.000000000000 Eh    ::
         :: total charge              -0.000000000037 e     ::
         :::::::::::::::::::::::::::::::::::::::::::::::::::::

           -------------------------------------------------
          |                Property Printout                |
           -------------------------------------------------

    * Orbital Energies and Occupations

         #    Occupation            Energy/Eh            Energy/eV
      -------------------------------------------------------------
         1        2.0000           -1.0591620             -28.8213
       ...           ...                  ...                  ...
       150        2.0000           -0.4037474             -10.9865
       151        2.0000           -0.4019982             -10.9389
       152        2.0000           -0.4000327             -10.8854
       153        2.0000           -0.3979726             -10.8294
       154        2.0000           -0.3938575             -10.7174
       155        2.0000           -0.3891411             -10.5891
       156        2.0000           -0.3869080             -10.5283
       157        2.0000           -0.3847818             -10.4704
       158        2.0000           -0.3837418             -10.4421
       159        1.9961           -0.3795238             -10.3274
       160        1.9622           -0.3773483             -10.2682
       161        1.9284           -0.3767263             -10.2512
       162        1.7556           -0.3754707             -10.2171 (HOMO)
       163        0.2166           -0.3715944             -10.1116 (LUMO)
       164        0.1033           -0.3708327             -10.0909
       165        0.0379           -0.3698471             -10.0641
       166                         -0.3552650              -9.6673
       167                         -0.3510809              -9.5534
       168                         -0.3483187              -9.4782
       169                         -0.3473734              -9.4525
       170                         -0.3408392              -9.2747
       171                         -0.3389190              -9.2225
       172                         -0.3382227              -9.2035
       173                         -0.3374459              -9.1824
       ...                                ...                  ...
       345                         18.3157434             498.3967
      -------------------------------------------------------------
                  HL-Gap            0.0038763 Eh            0.1055 eV
             Fermi-level           -0.3735974 Eh          -10.1661 eV

     #   Z          covCN         q      C6AA      α(0)
     1   6 C        3.641     0.013    20.717     6.545
     2   8 O        1.703    -0.189    17.158     5.593
     3   6 C        2.855     0.141    24.922     8.182
     4   6 C        2.933    -0.038    28.948     8.824
     5   6 C        2.983     0.122    25.313     8.253
     6   7 N        1.844    -0.214    26.497     7.629
     7   6 C        2.881     0.133    25.083     8.210
     8   7 N        1.831    -0.246    27.254     7.736
     9   6 C        2.890     0.163    24.483     8.112
    10   7 N        2.689    -0.152    24.299     7.321
    11   6 C        2.891     0.079    26.232     8.397
    12   6 C        2.917    -0.048    29.186     8.859
    13   6 C        2.911    -0.051    29.268     8.871
    14   6 C        2.806     0.155    24.625     8.130
    15   9 F        0.787    -0.206    11.294     3.970
    16   6 C        2.877     0.079    26.226     8.395
    17  17 Cl       0.962    -0.139   103.495    15.564
    18   6 C        2.955    -0.068    29.701     8.939
    19   6 C        2.980    -0.016    28.414     8.744
    20   6 C        2.913    -0.054    29.348     8.883
    21   6 C        2.891     0.131    25.143     8.221
    22   8 O        1.702    -0.261    18.328     5.780
    23   6 C        3.751     0.014    20.394     6.440
    24   6 C        3.798    -0.088    22.178     6.705
    25   6 C        3.740    -0.033    21.246     6.576
    26   7 N        2.721    -0.107    23.335     7.175
    27   6 C        3.744    -0.022    21.046     6.544
    28   6 C        3.702     0.061    19.698     6.346
    29   8 O        1.696    -0.302    19.026     5.889
    30   6 C        3.702     0.058    19.756     6.355
    31   6 C        3.743    -0.026    21.112     6.555
    32   1 H        0.924     0.068     2.106     2.269
    33   1 H        0.924     0.101     1.780     2.086
    34   1 H        0.924     0.101     1.774     2.083
    35   1 H        0.925     0.114     1.659     2.014
    36   1 H        0.925     0.066     2.124     2.279
    37   1 H        0.860     0.190     1.156     1.684
    38   1 H        0.925     0.079     1.985     2.203
    39   1 H        0.925     0.077     2.014     2.219
    40   1 H        0.925     0.067     2.122     2.278
    41   1 H        0.925     0.089     1.885     2.147
    42   1 H        0.924     0.099     1.798     2.097
    43   1 H        1.029     0.243     0.901     1.482
    44   1 H        0.924     0.107     1.726     2.055
    45   1 H        0.924     0.083     1.949     2.183
    46   1 H        0.923     0.086     1.923     2.169
    47   1 H        0.924     0.086     1.918     2.166
    48   1 H        0.924     0.061     2.192     2.316
    49   1 H        0.924     0.066     2.125     2.279
    50   1 H        0.924     0.064     2.158     2.297
    51   1 H        0.924     0.042     2.416     2.431
    52   1 H        0.924     0.064     2.148     2.292
    53   1 H        0.924     0.057     2.233     2.337
    54   1 H        0.924     0.073     2.050     2.239
    55   1 H        0.924     0.064     2.156     2.296
    56  22 Ti       4.151     0.786    91.457    16.211
    57  22 Ti       6.350     0.738    92.186    15.588
    58  22 Ti       4.151     0.759    91.739    16.236
    59  22 Ti       7.449     1.041    89.014    15.318
    60  22 Ti       7.455     1.024    89.186    15.333
    61  22 Ti       6.519     1.032    89.106    15.326
    62  22 Ti       4.151     0.803    91.278    16.195
    63  22 Ti       6.350     0.766    91.892    15.563
    64  22 Ti       4.151     0.800    91.303    16.197
    65  22 Ti       7.449     1.060    88.822    15.301
    66  22 Ti       7.449     1.062    88.805    15.300
    67  22 Ti       6.519     1.070    88.720    15.292
    68   6 C        5.128    -0.731    39.709     8.949
    69   6 C        5.128    -0.736    39.924     8.973
    70   6 C        5.649    -0.572    34.109     8.294
    71   6 C        2.445    -0.414    40.852    10.428
    72   6 C        2.445    -0.418    41.008    10.448
    73   6 C        2.445    -0.340    38.198    10.084
    74   6 C        2.445    -0.339    38.179    10.081
    75   8 O        0.728    -0.548    24.936     6.692
    76   8 O        0.729    -0.593    26.026     6.836
    77   8 O        0.728    -0.552    25.038     6.705
    78   8 O        0.729    -0.674    28.084     7.101
    79   8 O        0.859    -0.702    28.755     7.189
    80   8 O        0.755    -0.608    26.376     6.883
    81   8 O        0.753    -0.626    26.835     6.942
    82   8 O        0.728    -0.544    24.846     6.680
    83   8 O        0.729    -0.578    25.660     6.788
    84   8 O        0.728    -0.538    24.708     6.661
    85   8 O        0.729    -0.658    27.671     7.049
    86   8 O        0.729    -0.656    27.626     7.043
    87   8 O        0.753    -0.580    25.679     6.791
    88   8 O        0.753    -0.575    25.561     6.776

 Mol. C6AA /au·bohr⁶  :     173666.271091
 Mol. C8AA /au·bohr⁸  :    7424434.633808
 Mol. α(0) /au        :        640.904110


Wiberg/Mayer (AO) data.
largest (>0.10) Wiberg bond orders for each atom

 ---------------------------------------------------------------------------
     #   Z sym  total        # sym  WBO       # sym  WBO       # sym  WBO
 ---------------------------------------------------------------------------
     1   6 C    3.926 --     2 O    0.974    32 H    0.972    34 H    0.970
                            33 H    0.886
     2   8 O    2.298 --     3 C    1.099     1 C    0.974
     3   6 C    3.918 --     4 C    1.358    21 C    1.235     2 O    1.099
     4   6 C    3.938 --     3 C    1.358     5 C    1.250    35 H    0.926
     5   6 C    3.969 --     6 N    1.305     4 C    1.250    19 C    1.219
     6   7 N    3.021 --     7 C    1.471     5 C    1.305
     7   6 C    3.945 --     6 N    1.471     8 N    1.372    36 H    0.956
     8   7 N    3.017 --     9 C    1.394     7 C    1.372
     9   6 C    3.954 --     8 N    1.394    19 C    1.244    10 N    1.107
    10   7 N    3.400 --     9 C    1.107    11 C    1.105    37 H    0.923
    11   6 C    3.966 --    18 C    1.360    12 C    1.356    10 N    1.105
    12   6 C    3.969 --    13 C    1.449    11 C    1.356    38 H    0.957
    13   6 C    3.984 --    12 C    1.449    14 C    1.387    39 H    0.964
                            18 C    0.101
    14   6 C    3.883 --    13 C    1.387    16 C    1.350    15 F    0.971
    15   9 F    1.103 --    14 C    0.971
    16   6 C    3.925 --    18 C    1.408    14 C    1.350    17 Cl   0.995
    17  17 Cl   1.139 --    16 C    0.995
    18   6 C    3.973 --    16 C    1.408    11 C    1.360    40 H    0.963
                            13 C    0.101
    19   6 C    3.967 --    20 C    1.268     9 C    1.244     5 C    1.219
    20   6 C    3.942 --    21 C    1.475    19 C    1.268    41 H    0.957
    21   6 C    3.946 --    20 C    1.475     3 C    1.235    22 O    1.029
    22   8 O    2.110 --    21 C    1.029    23 C    0.934
    23   6 C    3.849 --    24 C    1.000    22 O    0.934    42 H    0.907
                            43 H    0.738
    24   6 C    3.958 --    23 C    1.000    25 C    0.976    45 H    0.960
                            44 H    0.899
    25   6 C    3.955 --    26 N    1.010    24 C    0.976    47 H    0.960
                            46 H    0.948
    26   7 N    3.110 --    25 C    1.010    31 C    1.009    27 C    1.005
    27   6 C    3.968 --    26 N    1.005    28 C    0.979    48 H    0.970
                            49 H    0.964
    28   6 C    3.933 --    29 O    0.983    27 C    0.979    50 H    0.968
                            51 H    0.962
    29   8 O    2.063 --    30 C    0.990    28 C    0.983
    30   6 C    3.930 --    29 O    0.990    31 C    0.977    52 H    0.964
                            53 H    0.931
    31   6 C    3.965 --    26 N    1.009    30 C    0.977    54 H    0.962
                            55 H    0.960
    32   1 H    0.992 --     1 C    0.972
    33   1 H    0.988 --     1 C    0.886
    34   1 H    0.989 --     1 C    0.970
    35   1 H    0.983 --     4 C    0.926
    36   1 H    0.995 --     7 C    0.956
    37   1 H    0.963 --    10 N    0.923
    38   1 H    0.992 --    12 C    0.957
    39   1 H    0.993 --    13 C    0.964
    40   1 H    0.996 --    18 C    0.963
    41   1 H    0.989 --    20 C    0.957
    42   1 H    0.979 --    23 C    0.907
    43   1 H    0.917 --    23 C    0.738
    44   1 H    0.986 --    24 C    0.899
    45   1 H    0.985 --    24 C    0.960
    46   1 H    0.989 --    25 C    0.948
    47   1 H    0.987 --    25 C    0.960
    48   1 H    0.996 --    27 C    0.970
    49   1 H    0.986 --    27 C    0.964
    50   1 H    0.995 --    28 C    0.968
    51   1 H    0.994 --    28 C    0.962
    52   1 H    0.995 --    30 C    0.964
    53   1 H    0.992 --    30 C    0.931
    54   1 H    0.984 --    31 C    0.962
    55   1 H    0.996 --    31 C    0.960
    56  22 Ti   4.018 --    75 O    2.014    62 Ti   0.604    57 Ti   0.314
                            68 C    0.289    59 Ti   0.193    71 C    0.183
                            63 Ti   0.110
    57  22 Ti   4.451 --    76 O    1.897    63 Ti   0.375    56 Ti   0.314
                            58 Ti   0.299    69 C    0.270    68 C    0.256
                            60 Ti   0.129    59 Ti   0.120    64 Ti   0.115
                            62 Ti   0.111
    58  22 Ti   3.989 --    77 O    2.003    64 Ti   0.565    57 Ti   0.299
                            69 C    0.252    60 Ti   0.199    72 C    0.169
    59  22 Ti   4.456 --    78 O    1.736    71 C    0.650    68 C    0.503
                            80 O    0.216    56 Ti   0.193    65 Ti   0.175
                            70 C    0.166    61 Ti   0.150    57 Ti   0.120
    60  22 Ti   4.477 --    79 O    1.574    72 C    0.683    69 C    0.538
                            81 O    0.199    58 Ti   0.199    66 Ti   0.165
                            61 Ti   0.138    70 C    0.133    57 Ti   0.129
    61  22 Ti   4.503 --    81 O    1.130    80 O    1.049    70 C    0.446
                            74 C    0.407    73 C    0.380    67 Ti   0.234
                            59 Ti   0.150    60 Ti   0.138
    62  22 Ti   4.044 --    82 O    2.018    56 Ti   0.604    63 Ti   0.327
                            68 C    0.297    65 Ti   0.188    71 C    0.187
                            57 Ti   0.111
    63  22 Ti   4.464 --    83 O    1.907    57 Ti   0.375    64 Ti   0.342
                            62 Ti   0.327    69 C    0.277    68 C    0.262
                            66 Ti   0.130    65 Ti   0.124    56 Ti   0.110
    64  22 Ti   4.024 --    84 O    2.022    58 Ti   0.565    63 Ti   0.342
                            69 C    0.285    66 Ti   0.189    72 C    0.185
                            57 Ti   0.115
    65  22 Ti   4.434 --    85 O    1.734    71 C    0.629    68 C    0.494
                            87 O    0.239    62 Ti   0.188    70 C    0.180
                            59 Ti   0.175    67 Ti   0.170    63 Ti   0.124
    66  22 Ti   4.416 --    86 O    1.736    72 C    0.639    69 C    0.497
                            88 O    0.233    64 Ti   0.189    70 C    0.173
                            60 Ti   0.165    67 Ti   0.164    63 Ti   0.130
    67  22 Ti   4.430 --    87 O    1.085    88 O    1.078    70 C    0.505
                            73 C    0.458    74 C    0.457    61 Ti   0.234
                            65 Ti   0.170    66 Ti   0.164
    68   6 C    3.673 --    71 C    0.871    59 Ti   0.503    65 Ti   0.494
                            62 Ti   0.297    56 Ti   0.289    63 Ti   0.262
                            57 Ti   0.256
    69   6 C    3.677 --    72 C    0.859    60 Ti   0.538    66 Ti   0.497
                            64 Ti   0.285    63 Ti   0.277    57 Ti   0.270
                            58 Ti   0.252
    70   6 C    3.802 --    74 C    0.827    73 C    0.824    67 Ti   0.505
                            61 Ti   0.446    65 Ti   0.180    66 Ti   0.173
                            59 Ti   0.166    60 Ti   0.133
    71   6 C    3.318 --    68 C    0.871    59 Ti   0.650    65 Ti   0.629
                            73 C    0.249    62 Ti   0.187    56 Ti   0.183
    72   6 C    3.307 --    69 C    0.859    60 Ti   0.683    66 Ti   0.639
                            74 C    0.205    64 Ti   0.185    58 Ti   0.169
    73   6 C    3.318 --    70 C    0.824    67 Ti   0.458    61 Ti   0.380
                            87 O    0.372    80 O    0.330    71 C    0.249
                            74 C    0.148
    74   6 C    3.306 --    70 C    0.827    67 Ti   0.457    88 O    0.408
                            61 Ti   0.407    81 O    0.335    72 C    0.205
                            73 C    0.148
    75   8 O    2.258 --    56 Ti   2.014
    76   8 O    2.212 --    57 Ti   1.897
    77   8 O    2.254 --    58 Ti   2.003
    78   8 O    2.105 --    59 Ti   1.736
    79   8 O    2.080 --    60 Ti   1.574
    80   8 O    2.101 --    61 Ti   1.049    73 C    0.330    59 Ti   0.216
                            87 O    0.103
    81   8 O    2.102 --    61 Ti   1.130    74 C    0.335    60 Ti   0.199
                            88 O    0.121
    82   8 O    2.261 --    62 Ti   2.018
    83   8 O    2.228 --    63 Ti   1.907
    84   8 O    2.265 --    64 Ti   2.022
    85   8 O    2.121 --    65 Ti   1.734
    86   8 O    2.122 --    66 Ti   1.736
    87   8 O    2.105 --    67 Ti   1.085    73 C    0.372    65 Ti   0.239
                            80 O    0.103
    88   8 O    2.138 --    67 Ti   1.078    74 C    0.408    66 Ti   0.233
                            81 O    0.121
 ---------------------------------------------------------------------------

Topologies differ in total number of bonds
Writing topology from bond orders to xtbtopo.mol

molecular dipole:
                 x           y           z       tot (Debye)
 q only:        3.381      -5.391       7.190
   full:        2.049      -1.911       4.232      12.900
molecular quadrupole (traceless):
                xx          xy          yy          xz          yz          zz
 q only:       13.795     -17.581      33.454      57.911      54.621     -47.249
  q+dip:        7.484      -9.895      50.203      48.856      39.990     -57.687
   full:        3.750     -11.747      56.819      46.754      41.755     -60.569


           -------------------------------------------------
          | TOTAL ENERGY             -179.508496391497 Eh   |
          | GRADIENT NORM               5.378672827880 Eh/α |
          | HOMO-LUMO GAP               0.105479439849 eV   |
           -------------------------------------------------

------------------------------------------------------------------------
 * finished run on 2026/08/31 at 20:31:28.457     
------------------------------------------------------------------------
 total:
 * wall-time:     0 d,  0 h,  0 min,  2.111 sec
 *  cpu-time:     0 d,  0 h,  0 min, 14.469 sec
 * ratio c/w:     6.854 speedup
 SCF:
 * wall-time:     0 d,  0 h,  0 min,  2.054 sec
 *  cpu-time:     0 d,  0 h,  0 min, 14.078 sec
 * ratio c/w:     6.854 speedup

normal termination of xtb
