      -----------------------------------------------------------      
     |                   =====================                   |     
     |                           x T B                           |     
     |                   =====================                   |     
     |                         S. Grimme                         |     
     |          Mulliken Center for Theoretical Chemistry        |     
     |                    University of Bonn                     |     
      -----------------------------------------------------------      

   * xtb version 6.7.1pre (5071a88) compiled by 'Marcel@Raven' on 2024-07-23

   xtb is free software: you can redistribute it and/or modify it under
   the terms of the GNU Lesser General Public License as published by
   the Free Software Foundation, either version 3 of the License, or
   (at your option) any later version.
   
   xtb is distributed in the hope that it will be useful,
   but WITHOUT ANY WARRANTY; without even the implied warranty of
   MERCHANTABILITY or FITNESS FOR A PARTICULAR PURPOSE.  See the
   GNU Lesser General Public License for more details.
   
   Cite this work as:
   * C. Bannwarth, E. Caldeweyher, S. Ehlert, A. Hansen, P. Pracht,
     J. Seibert, S. Spicher, S. Grimme, WIREs Comput. Mol. Sci., 2020, 11,
     e01493. DOI: 10.1002/wcms.1493
   
   for GFN2-xTB:
   * C. Bannwarth, S. Ehlert and S. Grimme., J. Chem. Theory Comput., 2019,
     15, 1652-1671. DOI: 10.1021/acs.jctc.8b01176
   for GFN1-xTB:
   * S. Grimme, C. Bannwarth, P. Shushkov, J. Chem. Theory Comput., 2017,
     13, 1989-2009. DOI: 10.1021/acs.jctc.7b00118
   for GFN0-xTB:
   * P. Pracht, E. Caldeweyher, S. Ehlert, S. Grimme, ChemRxiv, 2019, preprint.
     DOI: 10.26434/chemrxiv.8326202.v1
   for GFN-FF:
   * S. Spicher and S. Grimme, Angew. Chem. Int. Ed., 2020, 59, 15665-15673.
     DOI: 10.1002/anie.202004239
   
   for ALPB and GBSA implicit solvation:
   * S. Ehlert, M. Stahn, S. Spicher, S. Grimme, J. Chem. Theory Comput.,
     2021, 17, 4250-4261. DOI: 10.1021/acs.jctc.1c00471
   
   for ddCOSMO and CPCM-X implicit solvation:
   * M. Stahn, S. Ehlert, S. Grimme, J. Phys. Chem. A,
     2023, XX, XXXX-XXXX. DOI: 10.1021/acs.jpca.3c04382
   
   for DFT-D4:
   * E. Caldeweyher, C. Bannwarth and S. Grimme, J. Chem. Phys., 2017,
     147, 034112. DOI: 10.1063/1.4993215
   * E. Caldeweyher, S. Ehlert, A. Hansen, H. Neugebauer, S. Spicher,
     C. Bannwarth and S. Grimme, J. Chem. Phys., 2019, 150, 154122.
     DOI: 10.1063/1.5090222
   * E. Caldeweyher, J.-M. Mewes, S. Ehlert and S. Grimme, Phys. Chem. Chem. Phys.
     2020, 22, 8499-8512. DOI: 10.1039/D0CP00502A
   
   for sTDA-xTB:
   * S. Grimme and C. Bannwarth, J. Chem. Phys., 2016, 145, 054103.
     DOI: 10.1063/1.4959605
   
   in the mass-spec context:
   * V. Asgeirsson, C. Bauer and S. Grimme, Chem. Sci., 2017, 8, 4879.
     DOI: 10.1039/c7sc00601b
   * J. Koopman and S. Grimme, ACS Omega 2019, 4, 12, 15120-15133.
     DOI: 10.1021/acsomega.9b02011
   
   for metadynamics refer to:
   * S. Grimme, J. Chem. Theory Comput., 2019, 155, 2847-2862
     DOI: 10.1021/acs.jctc.9b00143
   
   for SPH calculations refer to:
   * S. Spicher and S. Grimme, J. Chem. Theory Comput., 2021, 17, 1701-1714
     DOI: 10.1021/acs.jctc.0c01306
   
   for ONIOM refer to:
   * C. Plett, A. Katbashev, S. Ehlert, S. Grimme, M. Bursch,
     Phys. Chem. Chem. Phys., 2023, 25, 17860-17868. DOI: 10.1039/D3CP02178E
   
   for DIPRO refer to:
   * J. Kohn, N. Gildemeister, S. Grimme, D. Fazzi, A. Hansen,
     J. Chem. Phys., 2023, just accepted.
   
   for PTB refer to:
   * S. Grimme, M. Mueller, A. Hansen, J. Chem. Phys., 2023, 158, 124111.
     DOI: 10.1063/5.0137838
   
   with help from (in alphabetical order)
   P. Atkinson, C. Bannwarth, F. Bohle, G. Brandenburg, E. Caldeweyher
   M. Checinski, S. Dohm, S. Ehlert, S. Ehrlich, I. Gerasimov, C. Hölzer
   A. Katbashev, J. Kohn, J. Koopman, C. Lavigne, S. Lehtola, F. März, M. Müller,
   F. Musil, H. Neugebauer, J. Pisarek, C. Plett, P. Pracht, F. Pultar,
   J. Seibert, P. Shushkov, S. Spicher, M. Stahn, M. Steiner, T. Strunk,
   J. Stückrath, T. Rose, and J. Unsleber
   
 * started run on 2026/08/31 at 21:31:36.252     
   ID    Z sym.   atoms
    1    6 C      1, 3-5, 7, 9, 11-14, 16, 18-21, 23-25, 27, 28, 30, 31, 68-74
    2    8 O      2, 22, 29, 75-88
    3    7 N      6, 8, 10, 26
    4    9 F      15
    5   17 Cl     17
    6    1 H      32-55
    7   22 Ti     56-67

           -------------------------------------------------
          |                Calculation Setup                |
           -------------------------------------------------

          program call               : "c:\Users\Andre\Proyectos doctorado\kras-pancreatic-gC3N4-ai\tools\xtb\xtb-6.7.1\bin\xtb.exe" "c:\Users\Andre\Proyectos doctorado\mxene-glioblastoma-qsar-ai\calculations\gbm\Gefitinib\Gefitinib_Ti12C7O14_clean_complex.xyz" --sp --gfn 2 --chrg 0 --uhf 0 --etemp 300
          coordinate file            : c:\Users\Andre\Proyectos doctorado\mxene-glioblastoma-qsar-ai\calculations\gbm\Gefitinib\Gefitinib_Ti12C7O14_clean_complex.xyz
          omp threads                :                    16


molecular fragmentation (1/2 indicates fragments):
111111111111111111111111111111111111111111111111111111122222222222222222
2222222222222222
# atoms in fragment 1/2:    55    33
 fragment masses (1/2) :      446.90      882.47
CMA distance (Bohr)    :  17.433
constraining FC (au)   :  0.0500

           -------------------------------------------------
          |                 G F N 2 - x T B                 |
           -------------------------------------------------

        Reference                      10.1021/acs.jctc.8b01176
      * Hamiltonian:
        H0-scaling (s, p, d)           1.850000    2.230000    2.230000
        zeta-weighting                 0.500000
      * Dispersion:
        s8                             2.700000
        a1                             0.520000
        a2                             5.000000
        s9                             5.000000
      * Repulsion:
        kExp                           1.500000    1.000000
        rExp                           1.000000
      * Coulomb:
        alpha                          2.000000
        third order                    shell-resolved
        anisotropic                    true
        a3                             3.000000
        a5                             4.000000
        cn-shift                       1.200000
        cn-exp                         4.000000
        max-rad                        5.000000


          ...................................................
          :                      SETUP                      :
          :.................................................:
          :  # basis functions                 358          :
          :  # atomic orbitals                 345          :
          :  # shells                          165          :
          :  # electrons                       324          :
          :  max. iterations                   250          :
          :  Hamiltonian                  GFN2-xTB          :
          :  restarted?                      false          :
          :  GBSA solvation                  false          :
          :  PC potential                    false          :
          :  electronic temp.          300.0000000     K    :
          :  accuracy                    1.0000000          :
          :  -> integral cutoff          0.2500000E+02      :
          :  -> integral neglect         0.1000000E-07      :
          :  -> SCF convergence          0.1000000E-05 Eh   :
          :  -> wf. convergence          0.1000000E-03 e    :
          :  Broyden damping             0.4000000          :
          :  net charge                          0          :
          :  unpaired electrons                  0          :
          ...................................................

 iter      E             dE          RMSdq      gap      omega  full diag
   1   -183.3040826 -0.183304E+03  0.136E+01    0.11       0.0  T
   2   -142.5557279  0.407484E+02  0.142E+01    0.03       1.0  T
   3      6.9843408  0.149540E+03  0.276E+01    0.06       1.0  T
   4   -148.1471834 -0.155132E+03  0.141E+01    0.06       1.0  T
   5    -84.5251306  0.636221E+02  0.172E+01    0.01       1.0  T
   6   -183.9163813 -0.993913E+02  0.742E+00    0.09       1.0  T
   7   -179.9136583  0.400272E+01  0.678E+00    0.05       1.0  T
   8   -181.2268539 -0.131320E+01  0.615E+00    0.08       1.0  T
   9   -184.9287735 -0.370192E+01  0.551E+00    0.04       1.0  T
  10   -184.9555220 -0.267485E-01  0.644E+00    0.30       1.0  T
  11   -184.9423862  0.131359E-01  0.623E+00    0.48       1.0  T
  12   -184.9534573 -0.110712E-01  0.610E+00    0.21       1.0  T
  13   -185.0461462 -0.926889E-01  0.565E+00    0.38       1.0  T
  14   -185.1080611 -0.619149E-01  0.535E+00    0.18       1.0  T
  15   -183.8412108  0.126685E+01  0.517E+00    0.10       1.0  T
  16   -185.1548217 -0.131361E+01  0.448E+00    0.24       1.0  T
  17   -181.3791466  0.377568E+01  0.506E+00    0.06       1.0  T
  18   -182.3546386 -0.975492E+00  0.846E+00    0.05       1.0  T
  19   -181.3154026  0.103924E+01  0.117E+01    0.31       1.0  T
  20   -181.4368959 -0.121493E+00  0.118E+01    0.25       1.0  T
  21   -181.1052546  0.331641E+00  0.105E+01    0.04       1.0  T
  22   -180.6651448  0.440110E+00  0.518E+00    0.15       1.0  T
  23   -182.6059182 -0.194077E+01  0.506E+00    0.04       1.0  T
  24   -183.6646501 -0.105873E+01  0.530E+00    0.06       1.0  T
  25   -183.9960377 -0.331388E+00  0.607E+00    0.06       1.0  T
  26   -185.1675441 -0.117151E+01  0.627E+00    0.06       1.0  T
  27   -185.1143824  0.531617E-01  0.671E+00    0.10       1.0  T
  28   -185.0991902  0.151922E-01  0.682E+00    0.12       1.0  T
  29   -185.0164202  0.827700E-01  0.696E+00    0.15       1.0  T
  30   -185.0165081 -0.879335E-04  0.696E+00    0.15       1.0  T
  31   -185.1119963 -0.954882E-01  0.659E+00    0.11       1.0  T
  32   -185.1492988 -0.373025E-01  0.570E+00    0.02       1.0  T
  33   -185.5056157 -0.356317E+00  0.543E+00    0.03       1.0  T
  34   -186.1921365 -0.686521E+00  0.354E+00    0.41       1.0  T
  35   -186.1973650 -0.522849E-02  0.329E+00    0.31       1.0  T
  36   -185.2912383  0.906127E+00  0.444E+00    0.10       1.0  T
  37   -185.4279203 -0.136682E+00  0.393E+00    0.08       1.0  T
  38   -185.1601068  0.267813E+00  0.446E+00    0.17       1.0  T
  39   -185.1620792 -0.197243E-02  0.464E+00    0.17       1.0  T
  40   -185.4264461 -0.264367E+00  0.428E+00    0.08       1.0  T
  41   -186.2221390 -0.795693E+00  0.260E+00    0.22       1.0  T
  42   -186.2322909 -0.101520E-01  0.301E+00    0.16       1.0  T
  43   -186.2558170 -0.235261E-01  0.325E+00    0.20       1.0  T
  44   -186.2904259 -0.346089E-01  0.256E+00    0.18       1.0  T
  45   -186.2746194  0.158066E-01  0.182E+00    0.05       1.0  T
  46   -186.3108774 -0.362580E-01  0.170E+00    0.13       1.0  T
  47   -186.3244360 -0.135586E-01  0.116E+00    0.21       1.0  T
  48   -186.3315774 -0.714138E-02  0.881E-01    0.26       1.0  T
  49   -186.3364965 -0.491915E-02  0.783E-01    0.23       1.0  T
  50   -186.3399809 -0.348437E-02  0.634E-01    0.25       1.0  T
  51   -186.3416505 -0.166966E-02  0.441E-01    0.28       1.0  T
  52   -186.3450807 -0.343016E-02  0.390E-01    0.24       1.0  T
  53   -186.3442417  0.839024E-03  0.535E-01    0.16       1.0  T
  54   -186.3405520  0.368967E-02  0.580E-01    0.12       1.0  T
  55   -186.3114717  0.290803E-01  0.569E-01    0.07       1.0  T
  56   -186.3427594 -0.312877E-01  0.355E-01    0.13       1.0  T
  57   -186.3440792 -0.131980E-02  0.361E-01    0.15       1.0  T
  58   -186.3428047  0.127450E-02  0.375E-01    0.14       1.0  T
  59   -186.3452513 -0.244661E-02  0.251E-01    0.15       1.0  T
  60   -186.3463441 -0.109281E-02  0.169E-01    0.15       1.0  T
  61   -186.3448520  0.149206E-02  0.175E-01    0.13       1.0  T
  62   -186.3465418 -0.168975E-02  0.147E-01    0.15       1.0  T
  63   -186.3479394 -0.139760E-02  0.121E-01    0.17       1.0  T
  64   -186.3487343 -0.794866E-03  0.114E-01    0.19       1.0  T
  65   -186.3489568 -0.222511E-03  0.856E-02    0.19       1.0  T
  66   -186.3490696 -0.112787E-03  0.812E-02    0.20       1.0  T
  67   -186.3491245 -0.549913E-04  0.792E-02    0.19       1.0  T
  68   -186.3492275 -0.102963E-03  0.667E-02    0.19       1.0  T
  69   -186.3494384 -0.210939E-03  0.521E-02    0.21       1.0  T
  70   -186.3495369 -0.984786E-04  0.432E-02    0.22       1.0  T
  71   -186.3495856 -0.486346E-04  0.388E-02    0.22       1.0  T
  72   -186.3496125 -0.269726E-04  0.342E-02    0.23       1.0  T
  73   -186.3496273 -0.147538E-04  0.303E-02    0.23       1.0  T
  74   -186.3496331 -0.584715E-05  0.281E-02    0.23       1.0  T
  75   -186.3496427 -0.952868E-05  0.259E-02    0.23       1.0  T
  76   -186.3496697 -0.270817E-04  0.221E-02    0.24       1.0  T
  77   -186.3496881 -0.183733E-04  0.202E-02    0.25       1.0  T
  78   -186.3496996 -0.114788E-04  0.195E-02    0.25       1.0  T
  79   -186.3497042 -0.464382E-05  0.188E-02    0.26       1.0  T
  80   -186.3497086 -0.434095E-05  0.171E-02    0.26       1.0  T
  81   -186.3497131 -0.455415E-05  0.142E-02    0.27       1.0  T
  82   -186.3497156 -0.249220E-05  0.116E-02    0.27       1.0  T
  83   -186.3497174 -0.176205E-05  0.876E-03    0.27       1.2  T
  84   -186.3497190 -0.162638E-05  0.623E-03    0.27       1.7  T
  85   -186.3497196 -0.603665E-06  0.483E-03    0.27       2.2  T
  86   -186.3497201 -0.455437E-06  0.372E-03    0.28       2.9  T
  87   -186.3497202 -0.126668E-06  0.285E-03    0.28       3.7  T
  88   -186.3497204 -0.185182E-06  0.264E-03    0.28       4.0  T
  89   -186.3497205 -0.129893E-06  0.255E-03    0.28       4.2  T
  90   -186.3497206 -0.834508E-07  0.226E-03    0.28       4.7  T
  91   -186.3497207 -0.731279E-07  0.179E-03    0.28       6.0  T
  92   -186.3497207 -0.435543E-07  0.125E-03    0.27       8.5  T
  93   -186.3497207 -0.250558E-07  0.730E-04    0.28      14.6  T
  94   -186.3497207 -0.717824E-08  0.531E-04    0.28      20.1  T

   *** convergence criteria satisfied after 94 iterations ***

         #    Occupation            Energy/Eh            Energy/eV
      -------------------------------------------------------------
         1        2.0000           -1.0532551             -28.6605
       ...           ...                  ...                  ...
       156        2.0000           -0.3577567              -9.7351
       157        2.0000           -0.3502466              -9.5307
       158        2.0000           -0.3449942              -9.3878
       159        2.0000           -0.3404189              -9.2633
       160        2.0000           -0.3354336              -9.1276
       161        2.0000           -0.3216835              -8.7535
       162        1.9903           -0.3074375              -8.3658 (HOMO)
       163        0.0097           -0.2973293              -8.0907 (LUMO)
       164                         -0.2842201              -7.7340
       165                         -0.2837508              -7.7213
       166                         -0.2825843              -7.6895
       167                         -0.2819111              -7.6712
       ...                                ...                  ...
       345                         13.4486631             365.9567
      -------------------------------------------------------------
                  HL-Gap            0.0101082 Eh            0.2751 eV
             Fermi-level           -0.3023834 Eh           -8.2283 eV

 SCC (total)                   0 d,  0 h,  0 min,  2.025 sec
 SCC setup                      ...        0 min,  0.001 sec (  0.049%)
 Dispersion                     ...        0 min,  0.002 sec (  0.099%)
 classical contributions        ...        0 min,  0.000 sec (  0.000%)
 integral evaluation            ...        0 min,  0.009 sec (  0.444%)
 iterations                     ...        0 min,  1.989 sec ( 98.222%)
 molecular gradient             ...        0 min,  0.022 sec (  1.086%)
 printout                       ...        0 min,  0.001 sec (  0.049%)

         :::::::::::::::::::::::::::::::::::::::::::::::::::::
         ::                     SUMMARY                     ::
         :::::::::::::::::::::::::::::::::::::::::::::::::::::
         :: total energy            -184.591805871303 Eh    ::
         :: gradient norm              0.099917855825 Eh/a0 ::
         :: HOMO-LUMO gap              0.275058741347 eV    ::
         ::.................................................::
         :: SCC energy              -186.347177147648 Eh    ::
         :: -> isotropic ES            1.009620086934 Eh    ::
         :: -> anisotropic ES         -0.382162744670 Eh    ::
         :: -> anisotropic XC         -0.030330394110 Eh    ::
         :: -> dispersion             -0.151722035269 Eh    ::
         :: repulsion energy           1.755371276345 Eh    ::
         :: add. restraining           0.000000000000 Eh    ::
         :: total charge               0.000000000006 e     ::
         :::::::::::::::::::::::::::::::::::::::::::::::::::::

           -------------------------------------------------
          |                Property Printout                |
           -------------------------------------------------

    * Orbital Energies and Occupations

         #    Occupation            Energy/Eh            Energy/eV
      -------------------------------------------------------------
         1        2.0000           -1.0532551             -28.6605
       ...           ...                  ...                  ...
       150        2.0000           -0.3804228             -10.3518
       151        2.0000           -0.3762148             -10.2373
       152        2.0000           -0.3736299             -10.1670
       153        2.0000           -0.3677559             -10.0071
       154        2.0000           -0.3608661              -9.8197
       155        2.0000           -0.3598946              -9.7932
       156        2.0000           -0.3577567              -9.7351
       157        2.0000           -0.3502466              -9.5307
       158        2.0000           -0.3449942              -9.3878
       159        2.0000           -0.3404189              -9.2633
       160        2.0000           -0.3354336              -9.1276
       161        2.0000           -0.3216835              -8.7535
       162        1.9903           -0.3074375              -8.3658 (HOMO)
       163        0.0097           -0.2973293              -8.0907 (LUMO)
       164                         -0.2842201              -7.7340
       165                         -0.2837508              -7.7213
       166                         -0.2825843              -7.6895
       167                         -0.2819111              -7.6712
       168                         -0.2784777              -7.5778
       169                         -0.2737182              -7.4483
       170                         -0.2728033              -7.4234
       171                         -0.2708301              -7.3697
       172                         -0.2704921              -7.3605
       173                         -0.2696801              -7.3384
       ...                                ...                  ...
       345                         13.4486631             365.9567
      -------------------------------------------------------------
                  HL-Gap            0.0101082 Eh            0.2751 eV
             Fermi-level           -0.3023834 Eh           -8.2283 eV

     #   Z          covCN         q      C6AA      α(0)
     1   6 C        3.641     0.016    20.658     6.536
     2   8 O        1.703    -0.249    18.119     5.747
     3   6 C        2.855     0.130    25.158     8.221
     4   6 C        2.931    -0.089    30.238     9.018
     5   6 C        2.983     0.105    25.673     8.311
     6   7 N        1.844    -0.261    27.636     7.791
     7   6 C        2.881     0.141    24.926     8.185
     8   7 N        1.831    -0.265    27.730     7.803
     9   6 C        2.890     0.161    24.523     8.119
    10   7 N        2.689    -0.168    24.627     7.370
    11   6 C        2.891     0.077    26.278     8.404
    12   6 C        2.918    -0.061    29.513     8.909
    13   6 C        2.911    -0.050    29.236     8.866
    14   6 C        2.807     0.156    24.610     8.127
    15   9 F        0.787    -0.205    11.285     3.968
    16   6 C        2.877     0.080    26.206     8.392
    17  17 Cl       0.961    -0.136   103.409    15.557
    18   6 C        2.952    -0.056    29.399     8.893
    19   6 C        2.980    -0.032    28.792     8.802
    20   6 C        2.913    -0.068    29.686     8.934
    21   6 C        2.892     0.121    25.347     8.254
    22   8 O        1.702    -0.282    18.689     5.837
    23   6 C        3.721     0.066    19.574     6.319
    24   6 C        3.798    -0.081    22.042     6.685
    25   6 C        3.748     0.001    20.623     6.477
    26   7 N        2.720    -0.190    25.113     7.443
    27   6 C        3.750    -0.000    20.646     6.480
    28   6 C        3.689     0.074    19.521     6.324
    29   8 O        1.695    -0.327    19.477     5.958
    30   6 C        3.688     0.074    19.530     6.325
    31   6 C        3.744    -0.010    20.824     6.510
    32   1 H        0.924     0.060     2.201     2.320
    33   1 H        0.924     0.056     2.250     2.346
    34   1 H        0.924     0.073     2.056     2.243
    35   1 H        0.925     0.075     2.036     2.231
    36   1 H        0.925     0.056     2.251     2.346
    37   1 H        0.860     0.187     1.173     1.697
    38   1 H        0.925     0.054     2.273     2.357
    39   1 H        0.925     0.076     2.022     2.224
    40   1 H        0.925     0.086     1.920     2.167
    41   1 H        0.925     0.071     2.072     2.251
    42   1 H        0.924     0.047     2.358     2.401
    43   1 H        0.924     0.065     2.137     2.286
    44   1 H        0.924     0.064     2.147     2.292
    45   1 H        0.924     0.063     2.164     2.301
    46   1 H        0.924     0.026     2.640     2.541
    47   1 H        0.923     0.044     2.392     2.419
    48   1 H        0.924     0.040     2.450     2.448
    49   1 H        0.923     0.028     2.621     2.532
    50   1 H        0.924     0.039     2.469     2.457
    51   1 H        0.924     0.049     2.328     2.386
    52   1 H        0.924     0.047     2.363     2.404
    53   1 H        0.924     0.029     2.608     2.525
    54   1 H        0.924     0.048     2.350     2.398
    55   1 H        0.924     0.043     2.415     2.430
    56  22 Ti       3.637     1.046   101.849    24.495
    57  22 Ti       6.855     1.551    84.053    14.885
    58  22 Ti       3.227     1.044   102.684    24.744
    59  22 Ti       5.860     1.376    85.713    15.031
    60  22 Ti       5.627     1.112    88.303    15.256
    61  22 Ti       3.541     1.026   102.635    24.691
    62  22 Ti       2.352     0.879   202.712    34.861
    63  22 Ti       6.011     1.347    85.983    15.055
    64  22 Ti       3.414     1.005   103.095    24.784
    65  22 Ti       5.519     1.095    88.472    15.271
    66  22 Ti       5.687     1.188    87.537    15.190
    67  22 Ti       3.581     1.022   102.513    24.647
    68   6 C        2.246    -0.259    37.697     9.948
    69   6 C        2.142    -0.256    38.362    10.012
    70   6 C        2.248    -0.019    30.610     8.964
    71   6 C        1.838    -0.212    37.400     9.880
    72   6 C        1.894    -0.229    37.915     9.945
    73   6 C        1.821    -0.346    42.164    10.492
    74   6 C        2.631    -0.404    39.929    10.336
    75   8 O        1.554    -0.851    32.111     7.645
    76   8 O        1.464    -0.885    33.340     7.783
    77   8 O        1.557    -0.958    35.676     8.059
    78   8 O        1.523    -1.006    37.441     8.253
    79   8 O        1.523    -0.916    34.285     7.898
    80   8 O        1.458    -0.824    31.436     7.557
    81   8 O        1.455    -0.803    30.815     7.482
    82   8 O        0.727    -0.639    27.167     6.984
    83   8 O        1.453    -0.866    32.752     7.713
    84   8 O        1.476    -0.801    30.722     7.472
    85   8 O        1.603    -0.945    35.175     8.004
    86   8 O        1.547    -0.967    36.013     8.096
    87   8 O        1.700    -0.818    31.012     7.519
    88   8 O        1.453    -0.783    30.228     7.410

 Mol. C6AA /au·bohr⁶  :     183525.840471
 Mol. C8AA /au·bohr⁸  :    7781580.351082
 Mol. α(0) /au        :        720.928446


Wiberg/Mayer (AO) data.
largest (>0.10) Wiberg bond orders for each atom

 ---------------------------------------------------------------------------
     #   Z sym  total        # sym  WBO       # sym  WBO       # sym  WBO
 ---------------------------------------------------------------------------
     1   6 C    3.932 --    34 H    0.977    32 H    0.976    33 H    0.975
                             2 O    0.975
     2   8 O    2.250 --     3 C    1.080     1 C    0.975
     3   6 C    3.938 --     4 C    1.433    21 C    1.240     2 O    1.080
     4   6 C    3.975 --     3 C    1.433     5 C    1.290    35 H    0.960
                            20 C    0.110
     5   6 C    3.983 --     6 N    1.296     4 C    1.290    19 C    1.226
     6   7 N    3.037 --     7 C    1.482     5 C    1.296
     7   6 C    3.959 --     6 N    1.482     8 N    1.371    36 H    0.957
     8   7 N    3.042 --     9 C    1.405     7 C    1.371
     9   6 C    3.956 --     8 N    1.405    19 C    1.241    10 N    1.104
    10   7 N    3.392 --     9 C    1.104    11 C    1.099    37 H    0.922
    11   6 C    3.969 --    18 C    1.366    12 C    1.356    10 N    1.099
    12   6 C    3.978 --    13 C    1.450    11 C    1.356    38 H    0.966
    13   6 C    3.986 --    12 C    1.450    14 C    1.387    39 H    0.964
                            18 C    0.102
    14   6 C    3.885 --    13 C    1.387    16 C    1.350    15 F    0.972
    15   9 F    1.105 --    14 C    0.972
    16   6 C    3.927 --    18 C    1.408    14 C    1.350    17 Cl   0.997
    17  17 Cl   1.143 --    16 C    0.997
    18   6 C    3.975 --    16 C    1.408    11 C    1.366    40 H    0.960
                            13 C    0.102
    19   6 C    3.986 --    20 C    1.284     9 C    1.241     5 C    1.226
    20   6 C    3.979 --    21 C    1.477    19 C    1.284    41 H    0.956
                             4 C    0.110
    21   6 C    3.939 --    20 C    1.477     3 C    1.240    22 O    1.007
    22   8 O    2.190 --    21 C    1.007    23 C    0.927    61 Ti   0.106
    23   6 C    3.925 --    24 C    1.004    42 H    0.969    43 H    0.967
                            22 O    0.927
    24   6 C    3.987 --    23 C    1.004    25 C    1.002    45 H    0.961
                            44 H    0.959
    25   6 C    3.985 --    26 N    1.002    24 C    1.002    47 H    0.972
                            46 H    0.966
    26   7 N    3.098 --    25 C    1.002    31 C    0.997    27 C    0.994
    27   6 C    3.987 --    28 C    1.003    26 N    0.994    48 H    0.972
                            49 H    0.968
    28   6 C    3.957 --    27 C    1.003    29 O    0.979    51 H    0.970
                            50 H    0.970
    29   8 O    2.051 --    28 C    0.979    30 C    0.979
    30   6 C    3.957 --    31 C    0.996    29 O    0.979    52 H    0.970
                            53 H    0.970
    31   6 C    3.986 --    26 N    0.997    30 C    0.996    54 H    0.971
                            55 H    0.969
    32   1 H    0.996 --     1 C    0.976
    33   1 H    0.995 --     1 C    0.975
    34   1 H    0.993 --     1 C    0.977
    35   1 H    0.994 --     4 C    0.960
    36   1 H    0.996 --     7 C    0.957
    37   1 H    0.963 --    10 N    0.922
    38   1 H    0.996 --    12 C    0.966
    39   1 H    0.994 --    13 C    0.964
    40   1 H    0.993 --    18 C    0.960
    41   1 H    0.994 --    20 C    0.956
    42   1 H    0.995 --    23 C    0.969
    43   1 H    0.993 --    23 C    0.967
    44   1 H    0.995 --    24 C    0.959
    45   1 H    0.996 --    24 C    0.961
    46   1 H    0.999 --    25 C    0.966
    47   1 H    0.998 --    25 C    0.972
    48   1 H    0.998 --    27 C    0.972
    49   1 H    0.999 --    27 C    0.968
    50   1 H    0.999 --    28 C    0.970
    51   1 H    0.997 --    28 C    0.970
    52   1 H    0.998 --    30 C    0.970
    53   1 H    0.999 --    30 C    0.970
    54   1 H    0.998 --    31 C    0.971
    55   1 H    0.998 --    31 C    0.969
    56  22 Ti   2.830 --    75 O    0.846    76 O    0.816    62 Ti   0.333
                            57 Ti   0.200    59 Ti   0.197    61 Ti   0.102
    57  22 Ti   3.854 --    76 O    0.748    79 O    0.744    77 O    0.683
                            78 O    0.617    56 Ti   0.200    58 Ti   0.186
                            60 Ti   0.138    61 Ti   0.136
    58  22 Ti   2.726 --    84 O    0.959    77 O    0.604    64 Ti   0.373
                            57 Ti   0.186    62 Ti   0.141    79 O    0.111
    59  22 Ti   3.929 --    80 O    0.949    68 C    0.718    75 O    0.698
                            78 O    0.569    61 Ti   0.212    56 Ti   0.197
                            65 Ti   0.179    85 O    0.122
    60  22 Ti   4.084 --    74 C    0.890    81 O    0.786    72 C    0.741
                            79 O    0.598    66 Ti   0.282    61 Ti   0.179
                            73 C    0.160    69 C    0.151    57 Ti   0.138
    61  22 Ti   2.775 --    81 O    0.943    80 O    0.689    59 Ti   0.212
                            60 Ti   0.179    57 Ti   0.136    76 O    0.120
                            22 O    0.106    56 Ti   0.102
    62  22 Ti   3.770 --    82 O    1.993    63 Ti   0.608    56 Ti   0.333
                            77 O    0.153    75 O    0.148    58 Ti   0.141
                            85 O    0.112
    63  22 Ti   4.019 --    85 O    0.804    83 O    0.749    86 O    0.716
                            62 Ti   0.608    87 O    0.195    64 Ti   0.166
                            67 Ti   0.148    65 Ti   0.141
    64  22 Ti   2.751 --    83 O    0.836    84 O    0.765    58 Ti   0.373
                            67 Ti   0.222    63 Ti   0.166    66 Ti   0.130
    65  22 Ti   4.012 --    73 C    1.055    71 C    0.729    87 O    0.613
                            85 O    0.442    74 C    0.230    67 Ti   0.199
                            59 Ti   0.179    68 C    0.157    63 Ti   0.141
    66  22 Ti   4.082 --    88 O    0.965    69 C    0.670    74 C    0.656
                            86 O    0.443    60 Ti   0.282    67 Ti   0.210
                            73 C    0.141    64 Ti   0.130    84 O    0.113
    67  22 Ti   2.793 --    87 O    0.902    88 O    0.734    64 Ti   0.222
                            66 Ti   0.210    65 Ti   0.199    63 Ti   0.148
    68   6 C    3.838 --    71 C    2.739    59 Ti   0.718    65 Ti   0.157
    69   6 C    3.780 --    72 C    2.733    66 Ti   0.670    60 Ti   0.151
    70   6 C    3.978 --    73 C    2.010    74 C    1.605
    71   6 C    3.705 --    68 C    2.739    65 Ti   0.729
    72   6 C    3.745 --    69 C    2.733    60 Ti   0.741
    73   6 C    3.763 --    70 C    2.010    65 Ti   1.055    60 Ti   0.160
                            66 Ti   0.141
    74   6 C    3.822 --    70 C    1.605    60 Ti   0.890    66 Ti   0.656
                            65 Ti   0.230
    75   8 O    1.929 --    56 Ti   0.846    59 Ti   0.698    62 Ti   0.148
    76   8 O    1.887 --    56 Ti   0.816    57 Ti   0.748    61 Ti   0.120
    77   8 O    1.780 --    57 Ti   0.683    58 Ti   0.604    62 Ti   0.153
    78   8 O    1.718 --    57 Ti   0.617    59 Ti   0.569
    79   8 O    1.841 --    57 Ti   0.744    60 Ti   0.598    58 Ti   0.111
    80   8 O    1.968 --    59 Ti   0.949    61 Ti   0.689
    81   8 O    2.005 --    61 Ti   0.943    60 Ti   0.786
    82   8 O    2.167 --    62 Ti   1.993
    83   8 O    1.909 --    64 Ti   0.836    63 Ti   0.749
    84   8 O    2.006 --    58 Ti   0.959    64 Ti   0.765    66 Ti   0.113
    85   8 O    1.800 --    63 Ti   0.804    65 Ti   0.442    59 Ti   0.122
                            62 Ti   0.112
    86   8 O    1.775 --    63 Ti   0.716    66 Ti   0.443
    87   8 O    1.985 --    67 Ti   0.902    65 Ti   0.613    63 Ti   0.195
    88   8 O    2.029 --    66 Ti   0.965    67 Ti   0.734
 ---------------------------------------------------------------------------

Topologies differ in total number of bonds
Writing topology from bond orders to xtbtopo.mol

molecular dipole:
                 x           y           z       tot (Debye)
 q only:       -1.011      -1.215      -0.787
   full:       -2.474      -1.280      -0.602       7.243
molecular quadrupole (traceless):
                xx          xy          yy          xz          yz          zz
 q only:      -66.587     -13.994      30.106     -88.957     -23.424      36.481
  q+dip:      -49.134     -21.985      18.661     -57.724     -34.537      30.474
   full:      -47.106     -21.132      16.975     -60.625     -29.398      30.131


           -------------------------------------------------
          | TOTAL ENERGY             -184.591805871303 Eh   |
          | GRADIENT NORM               0.099917855825 Eh/α |
          | HOMO-LUMO GAP               0.275058741347 eV   |
           -------------------------------------------------
########################################################################
[WARNING] Runtime exception occurred
-2- restart_readRestart: Dimension missmatch in restart file.
-1- restart_readRestart: Number of electron missmatch in restart file.
########################################################################

------------------------------------------------------------------------
 * finished run on 2026/08/31 at 21:31:38.345     
------------------------------------------------------------------------
 total:
 * wall-time:     0 d,  0 h,  0 min,  2.091 sec
 *  cpu-time:     0 d,  0 h,  0 min, 22.516 sec
 * ratio c/w:    10.768 speedup
 SCF:
 * wall-time:     0 d,  0 h,  0 min,  2.025 sec
 *  cpu-time:     0 d,  0 h,  0 min, 21.812 sec
 * ratio c/w:    10.772 speedup

