88
 energy: -184.575988199473 gnorm: 0.002810952639 xtb: 6.7.1pre (5071a88)
C            4.71311057270655        0.27522788555662        5.88938542897995
O            3.44013223026216        0.56198307930899        6.46565625990152
C            2.79467449056457       -0.47015940816825        7.10829539488426
C            3.28989567915723       -1.72326699280126        7.37774369159181
C            2.43683086032400       -2.70840305288616        7.94345088771762
N            2.93977210729935       -3.93726093034285        8.11810953412787
C            2.12537113309350       -4.85025748523687        8.59859972994389
N            0.87677223958255       -4.67375901647588        8.99337918344544
C            0.34594304098288       -3.46344843739215        8.87429385769336
N           -0.91844191578066       -3.23761589849419        9.35978325737271
C           -1.71540127018531       -4.06870445580143       10.13126584135283
C           -2.73355836443651       -3.48413727968277       10.89127670953883
C           -3.54263784362014       -4.25930912532557       11.69634603560281
C           -3.35097258445408       -5.62839834849808       11.74578745959211
F           -4.13998111287629       -6.37227209886279       12.54302726904934
C           -2.35657057847335       -6.22857184011786       10.98068253325202
Cl          -2.13593334227121       -7.93493128462729       11.02848327577451
C           -1.54361000232499       -5.45219563345296       10.17438853902433
C            1.08782888748555       -2.38833592254930        8.28411606680772
C            0.59562238414676       -1.08782453960097        8.03403408371352
C            1.44998123634483       -0.15437880182431        7.43697266365584
O            1.07649397562863        1.16973673207501        7.07455283003969
C            0.27069523876745        1.89986747038816        8.03151625585657
C           -1.07694052173761        2.29658351226369        7.43319949442497
C           -2.14323688273648        2.67049737891096        8.49469897621353
N           -1.89515858992074        3.79832236209367        9.34966828857584
C           -1.68709734133046        5.07264861038142        8.69337535775196
C           -1.52609924901843        6.14075909364863        9.76938089996868
O           -0.35629987533683        5.95103844422296       10.54714174924529
C            0.07647470472319        4.60978923648113       10.60700413595498
C           -1.08821952641690        3.62017240735496       10.54808805085024
H            4.63954830885375       -0.56195781991740        5.16883389209497
H            5.00044711214981        1.18726635398913        5.35950561710559
H            5.43882689238767        0.04548250715714        6.67666580993551
H            4.28509623224948       -2.03444032871958        7.11011594751344
H            2.52077894124516       -5.85081016193432        8.70724052804273
H           -1.23344217812750       -2.27931285459698        9.32210988853146
H           -2.88542894040444       -2.41558649460686       10.85977447851085
H           -4.32073073371785       -3.81805426283215       12.29829654798385
H           -0.76209084583040       -5.90312232553712        9.58876845311687
H           -0.44160227707106       -0.82115613030227        8.20390040178276
H            0.86029911554823        2.78662811065064        8.30144099327584
H            0.13889906615287        1.27290213890143        8.92122386508192
H           -1.46989171124835        1.44566629297072        6.85537464077421
H           -0.93233424377839        3.12297137194201        6.73194292937621
H           -2.32729640883077        1.80875312137813        9.14088954852099
H           -3.06766761253288        2.88032070518971        7.94727541999727
H           -0.80229326350037        5.08863336420858        8.03762617558754
H           -2.56732794854379        5.29376347146757        8.08519195112661
H           -2.40841583726822        6.12361350035660       10.42416901148046
H           -1.43866379900972        7.13374876859829        9.32229918765103
H            0.78151313770631        4.40996509156549        9.78513564538783
H            0.61689010223567        4.50492085499525       11.55098159761681
H           -0.69993175359371        2.60262062200692       10.61512942171411
H           -1.72904869039794        3.79404233187401       11.42418064752671
Ti          -1.42518171005132       -2.67615879161337        5.06279579401237
Ti           0.44809373490121       -2.21065173627601        2.87975049408793
Ti           1.56403314476225       -2.52060007237064       -0.67896704770942
Ti          -1.77350608562195       -0.08849809699411        3.80843953288106
Ti           2.59923866624404       -0.20575761376010        2.98454810290831
Ti           0.97649581821786        0.30137170539404        5.27376544088804
Ti          -2.44536727950062       -2.78590620435253        1.57619547885953
Ti          -0.56481014062350       -0.74650645357821        0.09535139443582
Ti           0.60598237843467       -0.63233441963201       -2.50209577709773
Ti          -1.45509949802644        1.89942741619063        1.03211156540510
Ti           2.40961410040921        0.21926494999284       -0.26150051809975
Ti           0.36782301684368        1.94540680354617       -1.59941006827805
C           -2.94444101014304        1.49808627777441        3.28449858777226
C            3.88840206667243        0.65889376535871        1.09313217233666
C            0.78936639171048        2.08596616843686        2.99500273472282
C           -2.97851990233774        2.30576972530237        2.34694719906936
C            4.35507345630471        0.47321171547390        2.22652196093891
C           -0.02993695810429        2.63816020144556        2.19774802664221
C            1.69677276473249        1.51500209551556        3.80757443808930
O           -2.68640539304281       -1.43105826827529        4.38588072645054
O            0.24646781216510       -2.84066224858382        4.56787525647413
O           -0.03146615249818       -2.41719700902317        0.10063434334959
O           -0.42641829079416       -0.70998793680668        2.88356012961627
O            1.90658381160163       -1.86668190237753        2.04256289767824
O           -0.76780277465662        0.24850180090674        5.25155569175727
O            2.05661869762499       -0.86611183526885        4.49438612814404
O           -0.90582448464975       -3.26611324237055        2.33246512335109
O           -0.90537914335174       -0.62059800831491       -1.64605685830253
O            2.88328080867756       -1.40669224282489       -0.79977971151038
O           -1.88376804832496       -0.01442610033544        0.90725947020879
O            0.88374650133170        0.18016669332886        0.61770721050042
O           -1.02643402288270        2.33582001619138       -0.63442405577781
O            2.06719827937223        1.54063595861381       -1.37732620498001
