      -----------------------------------------------------------      
     |                   =====================                   |     
     |                           x T B                           |     
     |                   =====================                   |     
     |                         S. Grimme                         |     
     |          Mulliken Center for Theoretical Chemistry        |     
     |                    University of Bonn                     |     
      -----------------------------------------------------------      

   * xtb version 6.7.1pre (5071a88) compiled by 'Marcel@Raven' on 2024-07-23

   xtb is free software: you can redistribute it and/or modify it under
   the terms of the GNU Lesser General Public License as published by
   the Free Software Foundation, either version 3 of the License, or
   (at your option) any later version.
   
   xtb is distributed in the hope that it will be useful,
   but WITHOUT ANY WARRANTY; without even the implied warranty of
   MERCHANTABILITY or FITNESS FOR A PARTICULAR PURPOSE.  See the
   GNU Lesser General Public License for more details.
   
   Cite this work as:
   * C. Bannwarth, E. Caldeweyher, S. Ehlert, A. Hansen, P. Pracht,
     J. Seibert, S. Spicher, S. Grimme, WIREs Comput. Mol. Sci., 2020, 11,
     e01493. DOI: 10.1002/wcms.1493
   
   for GFN2-xTB:
   * C. Bannwarth, S. Ehlert and S. Grimme., J. Chem. Theory Comput., 2019,
     15, 1652-1671. DOI: 10.1021/acs.jctc.8b01176
   for GFN1-xTB:
   * S. Grimme, C. Bannwarth, P. Shushkov, J. Chem. Theory Comput., 2017,
     13, 1989-2009. DOI: 10.1021/acs.jctc.7b00118
   for GFN0-xTB:
   * P. Pracht, E. Caldeweyher, S. Ehlert, S. Grimme, ChemRxiv, 2019, preprint.
     DOI: 10.26434/chemrxiv.8326202.v1
   for GFN-FF:
   * S. Spicher and S. Grimme, Angew. Chem. Int. Ed., 2020, 59, 15665-15673.
     DOI: 10.1002/anie.202004239
   
   for ALPB and GBSA implicit solvation:
   * S. Ehlert, M. Stahn, S. Spicher, S. Grimme, J. Chem. Theory Comput.,
     2021, 17, 4250-4261. DOI: 10.1021/acs.jctc.1c00471
   
   for ddCOSMO and CPCM-X implicit solvation:
   * M. Stahn, S. Ehlert, S. Grimme, J. Phys. Chem. A,
     2023, XX, XXXX-XXXX. DOI: 10.1021/acs.jpca.3c04382
   
   for DFT-D4:
   * E. Caldeweyher, C. Bannwarth and S. Grimme, J. Chem. Phys., 2017,
     147, 034112. DOI: 10.1063/1.4993215
   * E. Caldeweyher, S. Ehlert, A. Hansen, H. Neugebauer, S. Spicher,
     C. Bannwarth and S. Grimme, J. Chem. Phys., 2019, 150, 154122.
     DOI: 10.1063/1.5090222
   * E. Caldeweyher, J.-M. Mewes, S. Ehlert and S. Grimme, Phys. Chem. Chem. Phys.
     2020, 22, 8499-8512. DOI: 10.1039/D0CP00502A
   
   for sTDA-xTB:
   * S. Grimme and C. Bannwarth, J. Chem. Phys., 2016, 145, 054103.
     DOI: 10.1063/1.4959605
   
   in the mass-spec context:
   * V. Asgeirsson, C. Bauer and S. Grimme, Chem. Sci., 2017, 8, 4879.
     DOI: 10.1039/c7sc00601b
   * J. Koopman and S. Grimme, ACS Omega 2019, 4, 12, 15120-15133.
     DOI: 10.1021/acsomega.9b02011
   
   for metadynamics refer to:
   * S. Grimme, J. Chem. Theory Comput., 2019, 155, 2847-2862
     DOI: 10.1021/acs.jctc.9b00143
   
   for SPH calculations refer to:
   * S. Spicher and S. Grimme, J. Chem. Theory Comput., 2021, 17, 1701-1714
     DOI: 10.1021/acs.jctc.0c01306
   
   for ONIOM refer to:
   * C. Plett, A. Katbashev, S. Ehlert, S. Grimme, M. Bursch,
     Phys. Chem. Chem. Phys., 2023, 25, 17860-17868. DOI: 10.1039/D3CP02178E
   
   for DIPRO refer to:
   * J. Kohn, N. Gildemeister, S. Grimme, D. Fazzi, A. Hansen,
     J. Chem. Phys., 2023, just accepted.
   
   for PTB refer to:
   * S. Grimme, M. Mueller, A. Hansen, J. Chem. Phys., 2023, 158, 124111.
     DOI: 10.1063/5.0137838
   
   with help from (in alphabetical order)
   P. Atkinson, C. Bannwarth, F. Bohle, G. Brandenburg, E. Caldeweyher
   M. Checinski, S. Dohm, S. Ehlert, S. Ehrlich, I. Gerasimov, C. Hölzer
   A. Katbashev, J. Kohn, J. Koopman, C. Lavigne, S. Lehtola, F. März, M. Müller,
   F. Musil, H. Neugebauer, J. Pisarek, C. Plett, P. Pracht, F. Pultar,
   J. Seibert, P. Shushkov, S. Spicher, M. Stahn, M. Steiner, T. Strunk,
   J. Stückrath, T. Rose, and J. Unsleber
   
 * started run on 2026/08/31 at 21:18:48.093     
   ID    Z sym.   atoms
    1    6 C      1, 3-5, 7, 9, 11-14, 16, 18-21, 23-25, 27, 28, 30, 31, 68-74
    2    8 O      2, 22, 29, 75-88
    3    7 N      6, 8, 10, 26
    4    9 F      15
    5   17 Cl     17
    6    1 H      32-55
    7   22 Ti     56-67

           -------------------------------------------------
          |                Calculation Setup                |
           -------------------------------------------------

          program call               : "c:\Users\Andre\Proyectos doctorado\kras-pancreatic-gC3N4-ai\tools\xtb\xtb-6.7.1\bin\xtb.exe" "c:\Users\Andre\Proyectos doctorado\mxene-glioblastoma-qsar-ai\calculations\gbm\Gefitinib\Gefitinib_Ti12C7O14_phys_complex.xyz" --gfn 2 --sp --chrg 0 --uhf 0 --etemp 300 --iterations 500 --norestart
          coordinate file            : c:\Users\Andre\Proyectos doctorado\mxene-glioblastoma-qsar-ai\calculations\gbm\Gefitinib\Gefitinib_Ti12C7O14_phys_complex.xyz
          omp threads                :                    16


molecular fragmentation (1/2 indicates fragments):
111111111111111111111111111111111111111111111111111111122222222222222222
2222222222222222
# atoms in fragment 1/2:    55    33
 fragment masses (1/2) :      446.90      882.47
CMA distance (Bohr)    :  18.328
constraining FC (au)   :  0.0500

           -------------------------------------------------
          |                 G F N 2 - x T B                 |
           -------------------------------------------------

        Reference                      10.1021/acs.jctc.8b01176
      * Hamiltonian:
        H0-scaling (s, p, d)           1.850000    2.230000    2.230000
        zeta-weighting                 0.500000
      * Dispersion:
        s8                             2.700000
        a1                             0.520000
        a2                             5.000000
        s9                             5.000000
      * Repulsion:
        kExp                           1.500000    1.000000
        rExp                           1.000000
      * Coulomb:
        alpha                          2.000000
        third order                    shell-resolved
        anisotropic                    true
        a3                             3.000000
        a5                             4.000000
        cn-shift                       1.200000
        cn-exp                         4.000000
        max-rad                        5.000000


          ...................................................
          :                      SETUP                      :
          :.................................................:
          :  # basis functions                 358          :
          :  # atomic orbitals                 345          :
          :  # shells                          165          :
          :  # electrons                       324          :
          :  max. iterations                   500          :
          :  Hamiltonian                  GFN2-xTB          :
          :  restarted?                      false          :
          :  GBSA solvation                  false          :
          :  PC potential                    false          :
          :  electronic temp.          300.0000000     K    :
          :  accuracy                    1.0000000          :
          :  -> integral cutoff          0.2500000E+02      :
          :  -> integral neglect         0.1000000E-07      :
          :  -> SCF convergence          0.1000000E-05 Eh   :
          :  -> wf. convergence          0.1000000E-03 e    :
          :  Broyden damping             0.4000000          :
          :  net charge                          0          :
          :  unpaired electrons                  0          :
          ...................................................

 iter      E             dE          RMSdq      gap      omega  full diag
   1   -182.8036469 -0.182804E+03  0.137E+01    0.03       0.0  T
   2   -135.1777099  0.476259E+02  0.153E+01    0.09       1.0  T
   3     53.9013719  0.189079E+03  0.284E+01    0.04       1.0  T
   4   -151.6345262 -0.205536E+03  0.130E+01    0.20       1.0  T
   5    -61.4579370  0.901766E+02  0.175E+01    0.03       1.0  T
   6   -184.0335030 -0.122576E+03  0.764E+00    0.07       1.0  T
   7   -181.5576506  0.247585E+01  0.702E+00    0.11       1.0  T
   8   -182.0339212 -0.476271E+00  0.684E+00    0.17       1.0  T
   9   -183.7376884 -0.170377E+01  0.613E+00    0.07       1.0  T
  10   -182.9572716  0.780417E+00  0.624E+00    0.09       1.0  T
  11   -182.6553606  0.301911E+00  0.634E+00    0.07       1.0  T
  12   -182.6902416 -0.348810E-01  0.628E+00    0.08       1.0  T
  13   -182.2531955  0.437046E+00  0.707E+00    0.42       1.0  T
  14   -184.8720993 -0.261890E+01  0.607E+00    0.13       1.0  T
  15   -182.6017547  0.227034E+01  0.685E+00    0.11       1.0  T
  16   -184.9726111 -0.237086E+01  0.571E+00    0.27       1.0  T
  17   -184.9576123  0.149989E-01  0.542E+00    0.52       1.0  T
  18   -184.6609276  0.296685E+00  0.456E+00    0.16       1.0  T
  19   -183.0363525  0.162458E+01  0.621E+00    0.15       1.0  T
  20   -184.3977808 -0.136143E+01  0.446E+00    0.07       1.0  T
  21   -184.9211387 -0.523358E+00  0.479E+00    0.08       1.0  T
  22   -184.8425169  0.786218E-01  0.480E+00    0.11       1.0  T
  23   -184.8750391 -0.325222E-01  0.476E+00    0.07       1.0  T
  24   -184.8996880 -0.246489E-01  0.471E+00    0.06       1.0  T
  25   -185.7166075 -0.816919E+00  0.510E+00    0.17       1.0  T
  26   -185.7033467  0.132607E-01  0.456E+00    0.27       1.0  T
  27   -185.7273124 -0.239657E-01  0.436E+00    0.24       1.0  T
  28   -185.7860524 -0.587400E-01  0.435E+00    0.21       1.0  T
  29   -185.8877760 -0.101724E+00  0.404E+00    0.20       1.0  T
  30   -185.4549451  0.432831E+00  0.398E+00    0.08       1.0  T
  31   -185.9871555 -0.532210E+00  0.364E+00    0.09       1.0  T
  32   -185.4162121  0.570943E+00  0.392E+00    0.10       1.0  T
  33   -185.3359709  0.802412E-01  0.373E+00    0.12       1.0  T
  34   -186.1193157 -0.783345E+00  0.389E+00    0.12       1.0  T
  35   -186.0592968  0.600189E-01  0.351E+00    0.07       1.0  T
  36   -185.9901790  0.691178E-01  0.338E+00    0.05       1.0  T
  37   -186.0322814 -0.421024E-01  0.216E+00    0.07       1.0  T
  38   -185.9969737  0.353077E-01  0.213E+00    0.08       1.0  T
  39   -185.9874705  0.950323E-02  0.212E+00    0.08       1.0  T
  40   -185.9593082  0.281623E-01  0.186E+00    0.06       1.0  T
  41   -186.0384028 -0.790946E-01  0.223E+00    0.08       1.0  T
  42   -186.0416488 -0.324593E-02  0.213E+00    0.07       1.0  T
  43   -186.0428622 -0.121344E-02  0.209E+00    0.07       1.0  T
  44   -186.0445836 -0.172146E-02  0.208E+00    0.06       1.0  T
  45   -186.0350633  0.952030E-02  0.139E+00    0.02       1.0  T
  46   -186.0435540 -0.849069E-02  0.122E+00    0.02       1.0  T
  47   -186.0375428  0.601124E-02  0.166E+00    0.07       1.0  T
  48   -186.0434881 -0.594529E-02  0.166E+00    0.07       1.0  T
  49   -186.0512273 -0.773918E-02  0.141E+00    0.07       1.0  T
  50   -186.0620099 -0.107827E-01  0.110E+00    0.07       1.0  T
  51   -186.0653131 -0.330314E-02  0.108E+00    0.07       1.0  T
  52   -186.0704095 -0.509639E-02  0.104E+00    0.06       1.0  T
  53   -186.0531985  0.172109E-01  0.534E-01    0.04       1.0  T
  54   -186.0765229 -0.233244E-01  0.541E-01    0.05       1.0  T
  55   -186.0752570  0.126595E-02  0.278E-01    0.05       1.0  T
  56   -186.0698755  0.538152E-02  0.330E-01    0.05       1.0  T
  57   -186.0764757 -0.660022E-02  0.249E-01    0.04       1.0  T
  58   -186.0776645 -0.118884E-02  0.108E-01    0.04       1.0  T
  59   -186.0776202  0.442971E-04  0.122E-01    0.04       1.0  T
  60   -186.0775922  0.280082E-04  0.147E-01    0.04       1.0  T
  61   -186.0772458  0.346460E-03  0.147E-01    0.03       1.0  T
  62   -186.0767178  0.527998E-03  0.239E-01    0.03       1.0  T
  63   -186.0771042 -0.386451E-03  0.165E-01    0.03       1.0  T
  64   -186.0779071 -0.802931E-03  0.748E-02    0.04       1.0  T
  65   -186.0780183 -0.111153E-03  0.703E-02    0.04       1.0  T
  66   -186.0781566 -0.138317E-03  0.620E-02    0.04       1.0  T
  67   -186.0782841 -0.127497E-03  0.490E-02    0.04       1.0  T
  68   -186.0782085  0.756258E-04  0.678E-02    0.04       1.0  T
  69   -186.0782054  0.307237E-05  0.846E-02    0.04       1.0  T
  70   -186.0782631 -0.576623E-04  0.671E-02    0.04       1.0  T
  71   -186.0783732 -0.110077E-03  0.387E-02    0.04       1.0  T
  72   -186.0783446  0.285204E-04  0.496E-02    0.04       1.0  T
  73   -186.0783780 -0.333273E-04  0.381E-02    0.04       1.0  T
  74   -186.0783962 -0.182308E-04  0.300E-02    0.04       1.0  T
  75   -186.0784331 -0.368657E-04  0.114E-02    0.04       1.0  T
  76   -186.0784284  0.462812E-05  0.139E-02    0.04       1.0  T
  77   -186.0784394 -0.109550E-04  0.557E-03    0.04       1.9  T
  78   -186.0784410 -0.156626E-05  0.651E-03    0.04       1.6  T
  79   -186.0784408  0.158312E-06  0.369E-03    0.04       2.9  T
  80   -186.0784406  0.214129E-06  0.397E-03    0.04       2.7  T
  81   -186.0784408 -0.190643E-06  0.351E-03    0.04       3.0  T
  82   -186.0784410 -0.224159E-06  0.301E-03    0.04       3.5  T
  83   -186.0784413 -0.279905E-06  0.250E-03    0.04       4.3  T
  84   -186.0784413 -0.251776E-07  0.248E-03    0.04       4.3  T
  85   -186.0784413 -0.476770E-07  0.238E-03    0.04       4.5  T
  86   -186.0784414 -0.429927E-07  0.254E-03    0.04       4.2  T
  87   -186.0784416 -0.236748E-06  0.191E-03    0.04       5.6  T
  88   -186.0784418 -0.192829E-06  0.114E-03    0.04       9.4  T
  89   -186.0784418 -0.380814E-08  0.193E-03    0.04       5.5  T
  90   -186.0784419 -0.680965E-07  0.120E-03    0.04       8.9  T
  91   -186.0784419 -0.280538E-07  0.489E-04    0.04      21.8  T
  92   -186.0784419 -0.638624E-08  0.510E-04    0.04      20.9  T

   *** convergence criteria satisfied after 92 iterations ***

         #    Occupation            Energy/Eh            Energy/eV
      -------------------------------------------------------------
         1        2.0000           -1.0657908             -29.0016
       ...           ...                  ...                  ...
       156        2.0000           -0.3823397             -10.4040
       157        2.0000           -0.3794664             -10.3258
       158        2.0000           -0.3735258             -10.1642
       159        1.9970           -0.3666647              -9.9775
       160        1.9311           -0.3636538              -9.8955
       161        1.8043           -0.3625971              -9.8668
       162        1.4923           -0.3615114              -9.8372 (HOMO)
       163        0.7753           -0.3600526              -9.7975 (LUMO)
       164        0.0000           -0.3475437              -9.4571
       165                         -0.3438785              -9.3574
       166                         -0.3244318              -8.8282
       167                         -0.3185594              -8.6684
       ...                                ...                  ...
       345                         13.3068877             362.0988
      -------------------------------------------------------------
                  HL-Gap            0.0014588 Eh            0.0397 eV
             Fermi-level           -0.3604870 Eh           -9.8093 eV

 SCC (total)                   0 d,  0 h,  0 min,  1.821 sec
 SCC setup                      ...        0 min,  0.001 sec (  0.055%)
 Dispersion                     ...        0 min,  0.001 sec (  0.055%)
 classical contributions        ...        0 min,  0.000 sec (  0.000%)
 integral evaluation            ...        0 min,  0.008 sec (  0.439%)
 iterations                     ...        0 min,  1.790 sec ( 98.298%)
 molecular gradient             ...        0 min,  0.019 sec (  1.043%)
 printout                       ...        0 min,  0.002 sec (  0.110%)

         :::::::::::::::::::::::::::::::::::::::::::::::::::::
         ::                     SUMMARY                     ::
         :::::::::::::::::::::::::::::::::::::::::::::::::::::
         :: total energy            -184.317621762137 Eh    ::
         :: gradient norm              0.139651620680 Eh/a0 ::
         :: HOMO-LUMO gap              0.039697273447 eV    ::
         ::.................................................::
         :: SCC energy              -186.076038411582 Eh    ::
         :: -> isotropic ES            0.802913058963 Eh    ::
         :: -> anisotropic ES         -0.276708903141 Eh    ::
         :: -> anisotropic XC         -0.014663697055 Eh    ::
         :: -> dispersion             -0.147275753738 Eh    ::
         :: repulsion energy           1.758416649445 Eh    ::
         :: add. restraining           0.000000000000 Eh    ::
         :: total charge               0.000000000033 e     ::
         :::::::::::::::::::::::::::::::::::::::::::::::::::::

           -------------------------------------------------
          |                Property Printout                |
           -------------------------------------------------

    * Orbital Energies and Occupations

         #    Occupation            Energy/Eh            Energy/eV
      -------------------------------------------------------------
         1        2.0000           -1.0657908             -29.0016
       ...           ...                  ...                  ...
       150        2.0000           -0.4058133             -11.0427
       151        2.0000           -0.4019524             -10.9377
       152        2.0000           -0.3956529             -10.7663
       153        2.0000           -0.3924904             -10.6802
       154        2.0000           -0.3879203             -10.5558
       155        2.0000           -0.3853184             -10.4850
       156        2.0000           -0.3823397             -10.4040
       157        2.0000           -0.3794664             -10.3258
       158        2.0000           -0.3735258             -10.1642
       159        1.9970           -0.3666647              -9.9775
       160        1.9311           -0.3636538              -9.8955
       161        1.8043           -0.3625971              -9.8668
       162        1.4923           -0.3615114              -9.8372 (HOMO)
       163        0.7753           -0.3600526              -9.7975 (LUMO)
       164        0.0000           -0.3475437              -9.4571
       165                         -0.3438785              -9.3574
       166                         -0.3244318              -8.8282
       167                         -0.3185594              -8.6684
       168                         -0.3160911              -8.6013
       169                         -0.3156034              -8.5880
       170                         -0.3124152              -8.5013
       171                         -0.3108884              -8.4597
       172                         -0.3070690              -8.3558
       173                         -0.3067043              -8.3458
       ...                                ...                  ...
       345                         13.3068877             362.0988
      -------------------------------------------------------------
                  HL-Gap            0.0014588 Eh            0.0397 eV
             Fermi-level           -0.3604870 Eh           -9.8093 eV

     #   Z          covCN         q      C6AA      α(0)
     1   6 C        3.641     0.018    20.621     6.530
     2   8 O        1.703    -0.250    18.138     5.750
     3   6 C        2.855     0.128    25.195     8.227
     4   6 C        2.931    -0.090    30.267     9.022
     5   6 C        2.983     0.103    25.713     8.318
     6   7 N        1.844    -0.260    27.603     7.786
     7   6 C        2.881     0.140    24.942     8.187
     8   7 N        1.831    -0.267    27.781     7.811
     9   6 C        2.890     0.160    24.535     8.121
    10   7 N        2.689    -0.168    24.626     7.370
    11   6 C        2.891     0.077    26.283     8.405
    12   6 C        2.917    -0.049    29.222     8.864
    13   6 C        2.911    -0.050    29.236     8.866
    14   6 C        2.806     0.157    24.599     8.126
    15   9 F        0.787    -0.204    11.277     3.967
    16   6 C        2.877     0.080    26.212     8.393
    17  17 Cl       0.962    -0.139   103.492    15.564
    18   6 C        2.955    -0.069    29.706     8.940
    19   6 C        2.980    -0.035    28.856     8.812
    20   6 C        2.913    -0.068    29.693     8.935
    21   6 C        2.891     0.123    25.307     8.248
    22   8 O        1.702    -0.290    18.819     5.857
    23   6 C        3.721     0.075    19.440     6.297
    24   6 C        3.798    -0.071    21.854     6.656
    25   6 C        3.740    -0.009    20.807     6.508
    26   7 N        2.721    -0.157    24.393     7.335
    27   6 C        3.744    -0.010    20.822     6.510
    28   6 C        3.702     0.072    19.523     6.318
    29   8 O        1.696    -0.318    19.319     5.934
    30   6 C        3.702     0.071    19.543     6.321
    31   6 C        3.743    -0.011    20.846     6.513
    32   1 H        0.924     0.059     2.217     2.328
    33   1 H        0.924     0.052     2.293     2.368
    34   1 H        0.924     0.074     2.047     2.237
    35   1 H        0.925     0.073     2.049     2.238
    36   1 H        0.925     0.056     2.248     2.345
    37   1 H        0.860     0.185     1.184     1.705
    38   1 H        0.925     0.074     2.037     2.232
    39   1 H        0.925     0.078     2.005     2.214
    40   1 H        0.925     0.063     2.164     2.300
    41   1 H        0.925     0.064     2.153     2.295
    42   1 H        0.924     0.030     2.583     2.513
    43   1 H        0.924     0.037     2.490     2.468
    44   1 H        0.924     0.040     2.446     2.446
    45   1 H        0.924     0.058     2.227     2.334
    46   1 H        0.923     0.045     2.378     2.411
    47   1 H        0.924     0.064     2.152     2.294
    48   1 H        0.924     0.046     2.376     2.411
    49   1 H        0.924     0.054     2.270     2.356
    50   1 H        0.924     0.052     2.301     2.372
    51   1 H        0.924     0.024     2.669     2.555
    52   1 H        0.924     0.052     2.292     2.368
    53   1 H        0.924     0.023     2.694     2.567
    54   1 H        0.924     0.056     2.243     2.342
    55   1 H        0.924     0.042     2.422     2.434
    56  22 Ti       3.637     1.071   101.558    24.460
    57  22 Ti       6.855     1.518    84.363    14.912
    58  22 Ti       3.227     1.123   101.774    24.634
    59  22 Ti       5.860     1.371    85.760    15.035
    60  22 Ti       5.627     1.136    88.061    15.236
    61  22 Ti       3.541     1.048   102.379    24.660
    62  22 Ti       2.352     0.917   201.851    34.787
    63  22 Ti       6.011     1.302    86.422    15.093
    64  22 Ti       3.414    -0.935   130.448    27.879
    65  22 Ti       5.519     1.125    88.169    15.245
    66  22 Ti       5.687     1.217    87.258    15.166
    67  22 Ti       3.581     1.126   101.317    24.503
    68   6 C        2.246    -0.240    37.073     9.865
    69   6 C        2.142    -0.209    36.798     9.806
    70   6 C        2.248    -0.010    30.368     8.929
    71   6 C        1.838    -0.190    36.681     9.784
    72   6 C        1.894    -0.209    37.238     9.856
    73   6 C        1.821    -0.307    40.695    10.307
    74   6 C        2.631    -0.360    38.366    10.132
    75   8 O        1.554    -0.826    31.337     7.553
    76   8 O        1.464    -0.859    32.521     7.687
    77   8 O        1.557    -0.897    33.598     7.821
    78   8 O        1.523    -0.995    37.034     8.208
    79   8 O        1.523    -0.883    33.192     7.771
    80   8 O        1.458    -0.808    30.952     7.498
    81   8 O        1.455    -0.781    30.157     7.401
    82   8 O        0.727    -0.573    25.531     6.771
    83   8 O        1.453    -0.404    21.115     6.193
    84   8 O        1.476    -0.368    20.396     6.088
    85   8 O        1.603    -0.907    33.888     7.857
    86   8 O        1.547    -0.869    32.694     7.714
    87   8 O        1.700    -0.772    29.656     7.352
    88   8 O        1.453    -0.644    26.465     6.933

 Mol. C6AA /au·bohr⁶  :     180811.186599
 Mol. C8AA /au·bohr⁸  :    7737212.646233
 Mol. α(0) /au        :        717.761274


Wiberg/Mayer (AO) data.
largest (>0.10) Wiberg bond orders for each atom

 ---------------------------------------------------------------------------
     #   Z sym  total        # sym  WBO       # sym  WBO       # sym  WBO
 ---------------------------------------------------------------------------
     1   6 C    3.934 --    34 H    0.978    32 H    0.976     2 O    0.976
                            33 H    0.975
     2   8 O    2.245 --     3 C    1.083     1 C    0.976
     3   6 C    3.937 --     4 C    1.435    21 C    1.239     2 O    1.083
     4   6 C    3.977 --     3 C    1.435     5 C    1.289    35 H    0.959
                            20 C    0.110
     5   6 C    3.981 --     6 N    1.296     4 C    1.289    19 C    1.225
     6   7 N    3.041 --     7 C    1.484     5 C    1.296
     7   6 C    3.960 --     6 N    1.484     8 N    1.369    36 H    0.957
     8   7 N    3.043 --     9 C    1.406     7 C    1.369
     9   6 C    3.960 --     8 N    1.406    19 C    1.243    10 N    1.102
    10   7 N    3.392 --     9 C    1.102    11 C    1.100    37 H    0.924
    11   6 C    3.969 --    18 C    1.363    12 C    1.360    10 N    1.100
    12   6 C    3.980 --    13 C    1.449    11 C    1.360    38 H    0.964
    13   6 C    3.986 --    12 C    1.449    14 C    1.388    39 H    0.964
                            18 C    0.102
    14   6 C    3.885 --    13 C    1.388    16 C    1.350    15 F    0.973
    15   9 F    1.106 --    14 C    0.973
    16   6 C    3.925 --    18 C    1.407    14 C    1.350    17 Cl   0.996
    17  17 Cl   1.141 --    16 C    0.996
    18   6 C    3.974 --    16 C    1.407    11 C    1.363    40 H    0.964
                            13 C    0.102
    19   6 C    3.985 --    20 C    1.282     9 C    1.243     5 C    1.225
    20   6 C    3.982 --    21 C    1.489    19 C    1.282    41 H    0.963
                             4 C    0.110
    21   6 C    3.945 --    20 C    1.489     3 C    1.239    22 O    1.022
    22   8 O    2.112 --    21 C    1.022    23 C    0.946
    23   6 C    3.940 --    24 C    1.000    42 H    0.965    43 H    0.958
                            22 O    0.946
    24   6 C    3.985 --    23 C    1.000    25 C    0.990    45 H    0.970
                            44 H    0.969
    25   6 C    3.978 --    26 N    1.009    24 C    0.990    46 H    0.968
                            47 H    0.967
    26   7 N    3.124 --    25 C    1.009    31 C    1.004    27 C    1.003
    27   6 C    3.981 --    26 N    1.003    28 C    0.986    48 H    0.972
                            49 H    0.968
    28   6 C    3.949 --    27 C    0.986    29 O    0.982    50 H    0.970
                            51 H    0.965
    29   8 O    2.060 --    30 C    0.984    28 C    0.982
    30   6 C    3.950 --    31 C    0.985    29 O    0.984    52 H    0.970
                            53 H    0.965
    31   6 C    3.981 --    26 N    1.004    30 C    0.985    55 H    0.972
                            54 H    0.968
    32   1 H    0.996 --     1 C    0.976
    33   1 H    0.996 --     1 C    0.975
    34   1 H    0.994 --     1 C    0.978
    35   1 H    0.993 --     4 C    0.959
    36   1 H    0.996 --     7 C    0.957
    37   1 H    0.965 --    10 N    0.924
    38   1 H    0.994 --    12 C    0.964
    39   1 H    0.994 --    13 C    0.964
    40   1 H    0.996 --    18 C    0.964
    41   1 H    0.995 --    20 C    0.963
    42   1 H    0.998 --    23 C    0.965
    43   1 H    0.998 --    23 C    0.958
    44   1 H    0.997 --    24 C    0.969
    45   1 H    0.996 --    24 C    0.970
    46   1 H    0.996 --    25 C    0.968
    47   1 H    0.995 --    25 C    0.967
    48   1 H    0.998 --    27 C    0.972
    49   1 H    0.994 --    27 C    0.968
    50   1 H    0.997 --    28 C    0.970
    51   1 H    0.998 --    28 C    0.965
    52   1 H    0.997 --    30 C    0.970
    53   1 H    0.998 --    30 C    0.965
    54   1 H    0.994 --    31 C    0.968
    55   1 H    0.998 --    31 C    0.972
    56  22 Ti   2.821 --    75 O    0.849    76 O    0.801    62 Ti   0.327
                            57 Ti   0.210    59 Ti   0.201
    57  22 Ti   3.905 --    76 O    0.784    79 O    0.730    77 O    0.709
                            78 O    0.617    56 Ti   0.210    58 Ti   0.178
                            61 Ti   0.140    60 Ti   0.139
    58  22 Ti   2.953 --    84 O    1.103    77 O    0.594    64 Ti   0.341
                            57 Ti   0.178    62 Ti   0.122    66 Ti   0.119
                            79 O    0.111
    59  22 Ti   3.936 --    80 O    0.951    75 O    0.719    68 C    0.713
                            78 O    0.569    61 Ti   0.201    56 Ti   0.201
                            65 Ti   0.180    85 O    0.125
    60  22 Ti   4.027 --    81 O    0.802    74 C    0.793    72 C    0.780
                            79 O    0.639    66 Ti   0.258    61 Ti   0.178
                            69 C    0.172    57 Ti   0.139    73 C    0.108
    61  22 Ti   2.649 --    81 O    0.962    80 O    0.711    59 Ti   0.201
                            60 Ti   0.178    57 Ti   0.140    76 O    0.122
    62  22 Ti   3.774 --    82 O    2.026    63 Ti   0.577    56 Ti   0.327
                            77 O    0.152    75 O    0.147    58 Ti   0.122
                            85 O    0.106
    63  22 Ti   4.106 --    83 O    0.841    85 O    0.779    86 O    0.748
                            62 Ti   0.577    87 O    0.188    67 Ti   0.182
                            65 Ti   0.144    64 Ti   0.128
    64  22 Ti   3.396 --    83 O    1.223    84 O    1.074    58 Ti   0.341
                            67 Ti   0.183    63 Ti   0.128
    65  22 Ti   3.921 --    73 C    0.919    71 C    0.754    87 O    0.661
                            85 O    0.501    67 Ti   0.209    59 Ti   0.180
                            68 C    0.169    63 Ti   0.144    74 C    0.130
    66  22 Ti   4.079 --    88 O    1.062    69 C    0.663    74 C    0.561
                            86 O    0.498    60 Ti   0.258    67 Ti   0.243
                            84 O    0.136    58 Ti   0.119
    67  22 Ti   2.926 --    87 O    0.892    88 O    0.796    66 Ti   0.243
                            65 Ti   0.209    64 Ti   0.183    63 Ti   0.182
                            83 O    0.110
    68   6 C    3.838 --    71 C    2.733    59 Ti   0.713    65 Ti   0.169
    69   6 C    3.775 --    72 C    2.716    66 Ti   0.663    60 Ti   0.172
    70   6 C    3.969 --    73 C    1.991    74 C    1.629
    71   6 C    3.725 --    68 C    2.733    65 Ti   0.754
    72   6 C    3.766 --    69 C    2.716    60 Ti   0.780
    73   6 C    3.486 --    70 C    1.991    65 Ti   0.919    60 Ti   0.108
    74   6 C    3.527 --    70 C    1.629    60 Ti   0.793    66 Ti   0.561
                            65 Ti   0.130
    75   8 O    1.957 --    56 Ti   0.849    59 Ti   0.719    62 Ti   0.147
    76   8 O    1.916 --    56 Ti   0.801    57 Ti   0.784    61 Ti   0.122
    77   8 O    1.854 --    57 Ti   0.709    58 Ti   0.594    62 Ti   0.152
    78   8 O    1.735 --    57 Ti   0.617    59 Ti   0.569
    79   8 O    1.886 --    57 Ti   0.730    60 Ti   0.639    58 Ti   0.111
    80   8 O    1.989 --    59 Ti   0.951    61 Ti   0.711
    81   8 O    2.037 --    61 Ti   0.962    60 Ti   0.802
    82   8 O    2.228 --    62 Ti   2.026
    83   8 O    2.489 --    64 Ti   1.223    63 Ti   0.841    67 Ti   0.110
    84   8 O    2.519 --    58 Ti   1.103    64 Ti   1.074    66 Ti   0.136
    85   8 O    1.848 --    63 Ti   0.779    65 Ti   0.501    59 Ti   0.125
                            62 Ti   0.106
    86   8 O    1.913 --    63 Ti   0.748    66 Ti   0.498
    87   8 O    2.037 --    67 Ti   0.892    65 Ti   0.661    63 Ti   0.188
    88   8 O    2.212 --    66 Ti   1.062    67 Ti   0.796
 ---------------------------------------------------------------------------

Topologies differ in total number of bonds
Writing topology from bond orders to xtbtopo.mol

molecular dipole:
                 x           y           z       tot (Debye)
 q only:       -1.198       3.344       6.147
   full:       -1.442       2.616       5.169      15.175
molecular quadrupole (traceless):
                xx          xy          yy          xz          yz          zz
 q only:      -29.209       7.355      33.183      74.003      -1.612      -3.973
  q+dip:      -35.609      -4.062      12.513      80.647     -28.636      23.096
   full:      -36.580      -4.702      12.803      78.025     -22.917      23.777


           -------------------------------------------------
          | TOTAL ENERGY             -184.317621762137 Eh   |
          | GRADIENT NORM               0.139651620680 Eh/α |
          | HOMO-LUMO GAP               0.039697273447 eV   |
           -------------------------------------------------

------------------------------------------------------------------------
 * finished run on 2026/08/31 at 21:18:49.961     
------------------------------------------------------------------------
 total:
 * wall-time:     0 d,  0 h,  0 min,  1.867 sec
 *  cpu-time:     0 d,  0 h,  0 min, 19.406 sec
 * ratio c/w:    10.394 speedup
 SCF:
 * wall-time:     0 d,  0 h,  0 min,  1.822 sec
 *  cpu-time:     0 d,  0 h,  0 min, 19.125 sec
 * ratio c/w:    10.497 speedup

normal termination of xtb
