88
 energy: -184.756068851974 gnorm: 0.001906578910 xtb: 6.7.1pre (5071a88)
C           -5.40783869035370       -0.35290205228451        6.59581397014444
O           -4.22876569252897       -0.67761267038089        7.32141849469568
C           -3.45272418598122        0.36659501630717        7.74156331395732
C           -3.75930655117219        1.69453818833105        7.55495732271976
C           -2.89684749162810        2.70085750416436        8.03776943829870
N           -3.26542201988885        3.99645043870914        7.96437265345445
C           -2.40470039799674        4.87485169980780        8.40075889439382
N           -1.13816487025801        4.65200804513386        8.74221066102217
C           -0.72909934500238        3.39524519323881        8.76880436348916
N            0.60654394951021        3.08942689894307        8.82608315398780
C            1.64994201641318        4.00457551047758        8.90375244827525
C            2.85771434806846        3.69478682195327        8.27203711259828
C            3.93902193456046        4.54533733888362        8.38994555194080
C            3.82347317971791        5.70633217037949        9.13522052399715
F            4.88660188659511        6.52560157675679        9.24225027319950
C            2.62738556453492        6.02721941740447        9.76645351376346
Cl           2.49306534468741        7.47193307514095       10.69165554892160
C            1.54223982569870        5.17476339694762        9.65315292833348
C           -1.65365045554846        2.31957015675115        8.59872627402367
C           -1.37269265078219        0.95694582955618        8.84100443038728
C           -2.27755527969647       -0.00972084765330        8.46022393854951
O           -2.10413746367037       -1.36637809783762        8.60500458628787
C           -1.05894749306866       -1.85717029704266        9.44338775213276
C            0.25309845714582       -2.02774713050542        8.67093627197091
C            1.31448110492146       -2.92582186292181        9.34809367924742
N            1.56191619478290       -4.21489177976758        8.74391372179361
C            1.97856628528043       -4.22104040711076        7.34332965377777
C            0.98379803712586       -4.99242471322500        6.44849543193432
O           -0.35072886316885       -4.80297195052668        6.88512684894589
C           -0.57349925995669       -5.40061721893139        8.15787732540973
C            0.67560329799023       -5.30589750373880        9.06441693547167
H           -5.15452502283698        0.17977646790525        5.66664590454242
H           -5.86364903011564       -1.31546723776679        6.35673000420429
H           -6.08418422123812        0.24553373474875        7.21382767348896
H           -4.65954948385367        2.02784671413312        7.06559214639229
H           -2.72603571486232        5.90696141628983        8.43632554612776
H            0.84624231046047        2.21922135992055        8.27225890804323
H            2.93062231654211        2.78714142662046        7.67435200542134
H            4.87631077950217        4.32588842380307        7.90490119713539
H            0.60837276806755        5.42250836398305       10.12657054808205
H           -0.48734992173855        0.70970800959043        9.41259622103146
H           -1.42566868043823       -2.83502209012167        9.77543366688260
H           -0.93968272335184       -1.21242703278889       10.32305840707573
H            0.69317717047958       -1.03056496182415        8.44841406767766
H           -0.02383395763883       -2.47872001516849        7.70831992062489
H            1.05034408892120       -3.10711859544926       10.39328411222057
H            2.27345346470533       -2.39768389100708        9.33839582784297
H            2.06998816245934       -3.19089346195744        6.97146858137084
H            2.96497792409717       -4.70103613524288        7.27404319758570
H            1.21354217641339       -6.06862061002754        6.44899243613533
H            1.02189701393265       -4.60805396580358        5.41529660744677
H           -1.43348259765149       -4.86412273645477        8.57274779437880
H           -0.84705320243788       -6.45776365344573        8.01841097937637
H            0.37261400573723       -5.22000069986772       10.10821837917307
H            1.26072768785853       -6.22713368628353        8.96307141864337
Ti          -2.25291577512858       -2.44584634575451        5.61666228293949
Ti           0.30054195339958       -1.95099177031792        4.20127502313654
Ti           1.16664603070536       -3.59253446720116        1.86467494724502
Ti          -1.99419330762320        0.22828071648123        4.48045520917900
Ti           2.99078801477212       -0.36817066009305        4.63168645700803
Ti           0.63049855711433        0.51757122418949        6.10574475924620
Ti          -2.45676705147085       -2.58300074602928        2.13923820669276
Ti          -0.41582374001996       -0.64356518343878        0.86392912305818
Ti           1.42742687216529       -1.96929314020101       -0.81964598050662
Ti          -1.03825871978798        2.04739894876470        1.86708807442547
Ti           2.78501435630152       -0.26469048620639        1.61430767940046
Ti           1.37013459264085        1.75869840568371       -0.07761214680205
C           -2.88948511367204        1.90122193866741        3.73952136769398
C            4.50977335381949       -0.98710869175857        2.48135718248683
C            1.55264933260556        1.77457639721864        3.21498305964819
C           -2.66321099604560        2.77218726638347        2.88614469815092
C            4.73237046638460       -0.94408706993621        3.70351047515633
C            0.42441997245227        2.36964617569467        3.17564682274288
C            2.71821017419279        1.11647876258728        3.26255049171223
O           -3.11814042275125       -1.14361395592383        4.73096733476100
O           -0.44279130257669       -2.36183626972095        5.69734906949998
O            0.03301662128894       -3.36581456816670        3.20558524629156
O           -0.69773846688459       -0.65036753248386        3.67899027335878
O            1.99638678801551       -1.75298486327840        4.15579792875984
O           -1.10262561914559        0.63995105825585        5.90277101522784
O            2.30828028740319        0.20638645714589        6.17591651729455
O           -1.12768437370579       -2.24557869178894        0.98917097647017
O            0.13679643867094       -0.69944160347625       -0.80102437602857
O            2.06849582104890       -3.00216926645402        0.47173953370194
O           -1.66544354963831        0.37028204644988        1.46810069017941
O            1.05791387890762       -0.63965262566307        1.75312069558630
O           -0.18839927112982        2.36258156436561        0.35642128574131
O            2.78748516837998        0.69368908531329        0.16634950914310
