55
Gefitinib conformer
C     -0.243684      5.407681     -2.245189
O     -0.620911      4.162742     -1.673113
C      0.380211      3.325909     -1.246120
C      1.744300      3.634916     -1.294318
C      2.716305      2.749882     -0.846875
N      3.997358      3.116037     -0.938695
C      4.908642      2.235429     -0.513638
N      4.656738      1.032737      0.007942
C      3.364746      0.675329      0.112680
N      3.038665     -0.576430      0.706370
C      3.899650     -1.669846      0.955520
C      3.570143     -2.576056      1.978346
C      4.356128     -3.706126      2.219624
C      5.466009     -3.953959      1.421340
F      6.205773     -5.045186      1.667292
C      5.789779     -3.091119      0.379525
Cl      7.147588     -3.409027     -0.631371
C      5.002403     -1.962203      0.139716
C      2.318601      1.514413     -0.323803
C      0.938151      1.187481     -0.281598
C     -0.029987      2.086151     -0.730890
O     -1.378581      1.847024     -0.738788
C     -1.902501      0.708901     -0.054829
C     -2.009989     -0.478374     -1.003861
C     -2.459501     -1.782301     -0.335939
N     -3.806966     -1.855420      0.209814
C     -4.898850     -1.496903     -0.695577
C     -6.251969     -1.724510     -0.000521
O     -6.430650     -0.969401      1.205903
C     -5.214910     -0.424128      1.725221
C     -4.006572     -1.367389      1.577303
H      0.366218      5.261967     -3.142813
H     -1.158155      5.928017     -2.545903
H      0.271486      6.037827     -1.512881
H      2.090918      4.584755     -1.689815
H      5.950263      2.526387     -0.597291
H      2.416485     -0.404206      1.490121
H      2.697454     -2.407601      2.604955
H      4.106446     -4.396154      3.019613
H      5.253074     -1.312786     -0.694727
H      0.651875      0.205962      0.079136
H     -2.905017      0.998874      0.273313
H     -1.340407      0.478892      0.857091
H     -1.034517     -0.656939     -1.473208
H     -2.671050     -0.219726     -1.840073
H     -1.732294     -2.062727      0.437226
H     -2.376590     -2.574092     -1.092308
H     -4.825385     -0.444687     -0.994345
H     -4.855018     -2.111217     -1.601723
H     -6.375695     -2.783855      0.253538
H     -7.069881     -1.458000     -0.677914
H     -5.028452      0.530563      1.220579
H     -5.381684     -0.198454      2.783601
H     -3.115031     -0.870319      1.974285
H     -4.181160     -2.248732      2.206195
