33
MXene frozen in true relaxed complex geometry
Ti          -2.04260128874965       -2.70514370031687        3.35395861810350
Ti           0.40554803186310       -1.75884684973175        2.24009132413445
Ti           1.64591246604406       -3.30885732651499        0.02038406964502
Ti          -2.30887778034635       -0.09668467889994        2.12611004341739
Ti           2.44503893220226        0.35706648158837        2.87961678817449
Ti          -0.30138098257470        0.44968476845730        4.37266480781478
Ti          -2.11658794384762       -3.05108341662486       -0.01625167578194
Ti          -0.41473193524762       -0.82319148073827       -1.20994614777306
Ti           1.79106785731951       -1.74786408555220       -2.73001272523212
Ti          -1.70397187548922        1.69169184603939       -0.49748927962530
Ti           2.55300219426666        0.36165345828572       -0.14516160365490
Ti           0.92461915986908        1.85489278898177       -2.19021120947997
C           -3.49522505189642        1.35626154672686        1.32417821066024
C            4.31538601670990        0.20294976925305        0.92545419982164
C            0.69299183140705        2.13668368166021        1.14072313063633
C           -3.51554505317820        2.13552408923445        0.35840481902967
C            4.37879900385228        0.36192771176494        2.15692870004294
C           -0.44972078377460        2.56638700719329        0.77091880048492
C            1.91945474925890        1.69499099716845        1.43729201812308
O           -3.02782753883541       -1.77733293947898        2.17483984082483
O           -0.32065742187943       -2.41324077028425        3.71309248397743
O            0.30586161892292       -3.17163771389478        1.23623029912027
O           -0.66007240687105       -0.51640168042560        1.69469721864564
O            2.03621701843423       -1.27422939965870        2.21117045792137
O           -1.99192068959859        0.21777291839811        3.81977606614331
O            1.42102909804917        0.49888973107890        4.30646522535892
O           -0.80787816846218       -2.52425658612193       -1.08550679101149
O            0.23635095152566       -0.80083495204855       -2.82694044533594
O            2.50082862145133       -2.63380346618525       -1.34647793335351
O           -1.89052639400959       -0.15097029662867       -0.60506403169117
O            0.97561583815805       -0.45777202775063       -0.26528267266462
O           -0.81101860661164        1.91073654173539       -1.99338749322817
O            2.52184626509539        1.24721827829164       -1.63943023948414
