55
 energy: -92.555598116772 gnorm: 0.000611614236 xtb: 6.7.1pre (5071a88)
C            5.07605168203487        0.29132996569413        6.94220311006038
O            3.91325500064610        0.60072016338651        7.67426721024273
C            3.11079103454065       -0.41599506194656        8.05864990859323
C            3.32220474423638       -1.74309318772611        7.79505686893357
C            2.41622929562957       -2.72190344079658        8.24606501147291
N            2.67638325174774       -4.01769058492497        7.96318110125451
C            1.81863765462729       -4.89220794281543        8.39891388928578
N            0.70518425084140       -4.65662147198747        9.09285261125872
C            0.41261113818332       -3.40328056612662        9.38802837389481
N           -0.72216345870687       -3.12743047405126       10.09518205137955
C           -1.68748242979619       -3.97167633796323       10.61748272400673
C           -2.74561112132410       -3.38780272742311       11.31996014722542
C           -3.74149547775837       -4.17003281160486       11.86763716390730
C           -3.69186727346814       -5.54421871561068       11.71924078043227
F           -4.66934007743460       -6.29664829112587       12.25785672197843
C           -2.64694123027291       -6.14085056825657       11.02307889608017
Cl          -2.59221995762472       -7.85395086694673       10.84155433312344
C           -1.64718443169468       -5.35748398811970       10.47347605453101
C            1.26743247458329       -2.33130013359924        8.97753017922207
C            1.06211187378483       -0.96097289814256        9.23968172984384
C            1.95353597005703       -0.01502858593557        8.80366861526375
O            1.87658057289069        1.32177489174042        9.02341001736453
C            0.75082345468422        1.87019431751812        9.67598655103753
C           -0.45947400127708        1.97731107173573        8.74587367878964
C           -1.76723318627576        2.39047502299900        9.45280205231187
N           -1.90032794814226        3.74151461274589        9.93012345194710
C           -1.82703097694549        4.78220033210111        8.92495629860098
C           -2.01165318244101        6.12930824674432        9.61279536409007
O           -0.94883243707909        6.43027368932381       10.49949155531738
C           -0.30108030495608        5.28625591216044       11.01495591969054
C           -1.26016804019392        4.10788120641696       11.18556078781250
H            4.83291548521155       -0.19805665736101        5.99420802604934
H            5.56024330939406        1.24595093141007        6.74437890781289
H            5.75187851897776       -0.34838024948682        7.51762861994768
H            4.17710141322290       -2.09263353726574        7.24158785675062
H            2.01824316171207       -5.93362840989098        8.18086698873287
H           -0.88682706165559       -2.14925345675694       10.28222058228488
H           -2.78916023893429       -2.31480467113937       11.43844724912723
H           -4.56169551140392       -3.72995914973723       12.41184775366944
H           -0.83148033540913       -5.80598993488849        9.93217840937349
H            0.19301534844099       -0.64836419538650        9.79802174384207
H            1.08421441197792        2.86255214557159        9.98793663400263
H            0.50366939054888        1.29211530522914       10.57712671270847
H           -0.62817429343936        1.00535679578158        8.27654707734215
H           -0.22695112731739        2.68202367067719        7.94711992595360
H           -1.94148687224892        1.72710721861551       10.30534480684041
H           -2.58366340853914        2.23401659577584        8.73840320749678
H           -0.87278794188525        4.79477411575084        8.37263771546262
H           -2.63478490548016        4.62222845507823        8.20453363689881
H           -2.96217524320825        6.12047884621796       10.16491673629897
H           -2.03931582636040        6.93904945785752        8.87891777208251
H            0.53077651315885        5.00086090152028       10.35187765723085
H            0.11808208882586        5.58015164542150       11.98074273861187
H           -0.72131246286700        3.25937286678482       11.61035410761447
H           -2.04307400872817        4.40179728770616       11.89928310153649
