      -----------------------------------------------------------      
     |                   =====================                   |     
     |                           x T B                           |     
     |                   =====================                   |     
     |                         S. Grimme                         |     
     |          Mulliken Center for Theoretical Chemistry        |     
     |                    University of Bonn                     |     
      -----------------------------------------------------------      

   * xtb version 6.7.1pre (5071a88) compiled by 'Marcel@Raven' on 2024-07-23

   xtb is free software: you can redistribute it and/or modify it under
   the terms of the GNU Lesser General Public License as published by
   the Free Software Foundation, either version 3 of the License, or
   (at your option) any later version.
   
   xtb is distributed in the hope that it will be useful,
   but WITHOUT ANY WARRANTY; without even the implied warranty of
   MERCHANTABILITY or FITNESS FOR A PARTICULAR PURPOSE.  See the
   GNU Lesser General Public License for more details.
   
   Cite this work as:
   * C. Bannwarth, E. Caldeweyher, S. Ehlert, A. Hansen, P. Pracht,
     J. Seibert, S. Spicher, S. Grimme, WIREs Comput. Mol. Sci., 2020, 11,
     e01493. DOI: 10.1002/wcms.1493
   
   for GFN2-xTB:
   * C. Bannwarth, S. Ehlert and S. Grimme., J. Chem. Theory Comput., 2019,
     15, 1652-1671. DOI: 10.1021/acs.jctc.8b01176
   for GFN1-xTB:
   * S. Grimme, C. Bannwarth, P. Shushkov, J. Chem. Theory Comput., 2017,
     13, 1989-2009. DOI: 10.1021/acs.jctc.7b00118
   for GFN0-xTB:
   * P. Pracht, E. Caldeweyher, S. Ehlert, S. Grimme, ChemRxiv, 2019, preprint.
     DOI: 10.26434/chemrxiv.8326202.v1
   for GFN-FF:
   * S. Spicher and S. Grimme, Angew. Chem. Int. Ed., 2020, 59, 15665-15673.
     DOI: 10.1002/anie.202004239
   
   for ALPB and GBSA implicit solvation:
   * S. Ehlert, M. Stahn, S. Spicher, S. Grimme, J. Chem. Theory Comput.,
     2021, 17, 4250-4261. DOI: 10.1021/acs.jctc.1c00471
   
   for ddCOSMO and CPCM-X implicit solvation:
   * M. Stahn, S. Ehlert, S. Grimme, J. Phys. Chem. A,
     2023, XX, XXXX-XXXX. DOI: 10.1021/acs.jpca.3c04382
   
   for DFT-D4:
   * E. Caldeweyher, C. Bannwarth and S. Grimme, J. Chem. Phys., 2017,
     147, 034112. DOI: 10.1063/1.4993215
   * E. Caldeweyher, S. Ehlert, A. Hansen, H. Neugebauer, S. Spicher,
     C. Bannwarth and S. Grimme, J. Chem. Phys., 2019, 150, 154122.
     DOI: 10.1063/1.5090222
   * E. Caldeweyher, J.-M. Mewes, S. Ehlert and S. Grimme, Phys. Chem. Chem. Phys.
     2020, 22, 8499-8512. DOI: 10.1039/D0CP00502A
   
   for sTDA-xTB:
   * S. Grimme and C. Bannwarth, J. Chem. Phys., 2016, 145, 054103.
     DOI: 10.1063/1.4959605
   
   in the mass-spec context:
   * V. Asgeirsson, C. Bauer and S. Grimme, Chem. Sci., 2017, 8, 4879.
     DOI: 10.1039/c7sc00601b
   * J. Koopman and S. Grimme, ACS Omega 2019, 4, 12, 15120-15133.
     DOI: 10.1021/acsomega.9b02011
   
   for metadynamics refer to:
   * S. Grimme, J. Chem. Theory Comput., 2019, 155, 2847-2862
     DOI: 10.1021/acs.jctc.9b00143
   
   for SPH calculations refer to:
   * S. Spicher and S. Grimme, J. Chem. Theory Comput., 2021, 17, 1701-1714
     DOI: 10.1021/acs.jctc.0c01306
   
   for ONIOM refer to:
   * C. Plett, A. Katbashev, S. Ehlert, S. Grimme, M. Bursch,
     Phys. Chem. Chem. Phys., 2023, 25, 17860-17868. DOI: 10.1039/D3CP02178E
   
   for DIPRO refer to:
   * J. Kohn, N. Gildemeister, S. Grimme, D. Fazzi, A. Hansen,
     J. Chem. Phys., 2023, just accepted.
   
   for PTB refer to:
   * S. Grimme, M. Mueller, A. Hansen, J. Chem. Phys., 2023, 158, 124111.
     DOI: 10.1063/5.0137838
   
   with help from (in alphabetical order)
   P. Atkinson, C. Bannwarth, F. Bohle, G. Brandenburg, E. Caldeweyher
   M. Checinski, S. Dohm, S. Ehlert, S. Ehrlich, I. Gerasimov, C. Hölzer
   A. Katbashev, J. Kohn, J. Koopman, C. Lavigne, S. Lehtola, F. März, M. Müller,
   F. Musil, H. Neugebauer, J. Pisarek, C. Plett, P. Pracht, F. Pultar,
   J. Seibert, P. Shushkov, S. Spicher, M. Stahn, M. Steiner, T. Strunk,
   J. Stückrath, T. Rose, and J. Unsleber
   
 * started run on 2026/08/31 at 21:31:36.117     
   ID    Z sym.   atoms
    1    6 C      1, 3-5, 7, 9, 11-14, 16, 18-21, 23-25, 27, 28, 30, 31
    2    8 O      2, 22, 29
    3    7 N      6, 8, 10, 26
    4    9 F      15
    5   17 Cl     17
    6    1 H      32-55

           -------------------------------------------------
          |                Calculation Setup                |
           -------------------------------------------------

          program call               : "c:\Users\Andre\Proyectos doctorado\kras-pancreatic-gC3N4-ai\tools\xtb\xtb-6.7.1\bin\xtb.exe" "c:\Users\Andre\Proyectos doctorado\mxene-glioblastoma-qsar-ai\calculations\gbm\Gefitinib\Gefitinib_drug.xyz" --sp --gfn 2 --chrg 0 --uhf 0 --etemp 300
          coordinate file            : c:\Users\Andre\Proyectos doctorado\mxene-glioblastoma-qsar-ai\calculations\gbm\Gefitinib\Gefitinib_drug.xyz
          omp threads                :                    16


           -------------------------------------------------
          |                 G F N 2 - x T B                 |
           -------------------------------------------------

        Reference                      10.1021/acs.jctc.8b01176
      * Hamiltonian:
        H0-scaling (s, p, d)           1.850000    2.230000    2.230000
        zeta-weighting                 0.500000
      * Dispersion:
        s8                             2.700000
        a1                             0.520000
        a2                             5.000000
        s9                             5.000000
      * Repulsion:
        kExp                           1.500000    1.000000
        rExp                           1.000000
      * Coulomb:
        alpha                          2.000000
        third order                    shell-resolved
        anisotropic                    true
        a3                             3.000000
        a5                             4.000000
        cn-shift                       1.200000
        cn-exp                         4.000000
        max-rad                        5.000000


          ...................................................
          :                      SETUP                      :
          :.................................................:
          :  # basis functions                 154          :
          :  # atomic orbitals                 153          :
          :  # shells                           87          :
          :  # electrons                       164          :
          :  max. iterations                   250          :
          :  Hamiltonian                  GFN2-xTB          :
          :  restarted?                      false          :
          :  GBSA solvation                  false          :
          :  PC potential                    false          :
          :  electronic temp.          300.0000000     K    :
          :  accuracy                    1.0000000          :
          :  -> integral cutoff          0.2500000E+02      :
          :  -> integral neglect         0.1000000E-07      :
          :  -> SCF convergence          0.1000000E-05 Eh   :
          :  -> wf. convergence          0.1000000E-03 e    :
          :  Broyden damping             0.4000000          :
          :  net charge                          0          :
          :  unpaired electrons                  0          :
          ...................................................

 iter      E             dE          RMSdq      gap      omega  full diag
   1    -93.4932822 -0.934933E+02  0.417E+00    2.11       0.0  T
   2    -93.5970553 -0.103773E+00  0.245E+00    2.24       1.0  T
   3    -93.5792696  0.177857E-01  0.108E+00    1.85       1.0  T
   4    -93.6068743 -0.276047E-01  0.411E-01    1.82       1.0  T
   5    -93.6140296 -0.715532E-02  0.108E-01    1.72       1.0  T
   6    -93.6142388 -0.209103E-03  0.599E-02    1.75       1.0  T
   7    -93.6142847 -0.459110E-04  0.315E-02    1.76       1.0  T
   8    -93.6143001 -0.154174E-04  0.192E-02    1.77       1.0  T
   9    -93.6143063 -0.618539E-05  0.134E-02    1.77       1.0  T
  10    -93.6143093 -0.299635E-05  0.908E-03    1.76       1.5  T
  11    -93.6143108 -0.153488E-05  0.561E-03    1.76       2.4  T
  12    -93.6143117 -0.921144E-06  0.206E-03    1.77       6.5  T
  13    -93.6143118 -0.969032E-07  0.988E-04    1.77      13.6  T
  14    -93.6143118 -0.130004E-07  0.484E-04    1.77      27.8  T

   *** convergence criteria satisfied after 14 iterations ***

         #    Occupation            Energy/Eh            Energy/eV
      -------------------------------------------------------------
         1        2.0000           -1.0560493             -28.7366
       ...           ...                  ...                  ...
        76        2.0000           -0.4055654             -11.0360
        77        2.0000           -0.4035188             -10.9803
        78        2.0000           -0.4023356             -10.9481
        79        2.0000           -0.3971163             -10.8061
        80        2.0000           -0.3855129             -10.4903
        81        2.0000           -0.3708939             -10.0925
        82        2.0000           -0.3587733              -9.7627 (HOMO)
        83                         -0.2938767              -7.9968 (LUMO)
        84                         -0.2536741              -6.9028
        85                         -0.2530133              -6.8848
        86                         -0.2389042              -6.5009
        87                         -0.2170342              -5.9058
       ...                                ...                  ...
       153                          0.6614877              18.0000
      -------------------------------------------------------------
                  HL-Gap            0.0648967 Eh            1.7659 eV
             Fermi-level           -0.3263250 Eh           -8.8798 eV

 SCC (total)                   0 d,  0 h,  0 min,  0.068 sec
 SCC setup                      ...        0 min,  0.001 sec (  1.470%)
 Dispersion                     ...        0 min,  0.000 sec (  0.000%)
 classical contributions        ...        0 min,  0.000 sec (  0.000%)
 integral evaluation            ...        0 min,  0.002 sec (  2.941%)
 iterations                     ...        0 min,  0.058 sec ( 85.294%)
 molecular gradient             ...        0 min,  0.006 sec (  8.823%)
 printout                       ...        0 min,  0.000 sec (  0.000%)

         :::::::::::::::::::::::::::::::::::::::::::::::::::::
         ::                     SUMMARY                     ::
         :::::::::::::::::::::::::::::::::::::::::::::::::::::
         :: total energy             -92.533161101563 Eh    ::
         :: gradient norm              0.100654753079 Eh/a0 ::
         :: HOMO-LUMO gap              1.765927798363 eV    ::
         ::.................................................::
         :: SCC energy               -93.614378508883 Eh    ::
         :: -> isotropic ES            0.095955103512 Eh    ::
         :: -> anisotropic ES          0.010527578328 Eh    ::
         :: -> anisotropic XC          0.034818043500 Eh    ::
         :: -> dispersion             -0.058513534300 Eh    ::
         :: repulsion energy           1.081217407319 Eh    ::
         :: add. restraining           0.000000000000 Eh    ::
         :: total charge              -0.000000000000 e     ::
         :::::::::::::::::::::::::::::::::::::::::::::::::::::

           -------------------------------------------------
          |                Property Printout                |
           -------------------------------------------------

    * Orbital Energies and Occupations

         #    Occupation            Energy/Eh            Energy/eV
      -------------------------------------------------------------
         1        2.0000           -1.0560493             -28.7366
       ...           ...                  ...                  ...
        70        2.0000           -0.4469999             -12.1635
        71        2.0000           -0.4427594             -12.0481
        72        2.0000           -0.4393770             -11.9561
        73        2.0000           -0.4202131             -11.4346
        74        2.0000           -0.4165279             -11.3343
        75        2.0000           -0.4127989             -11.2328
        76        2.0000           -0.4055654             -11.0360
        77        2.0000           -0.4035188             -10.9803
        78        2.0000           -0.4023356             -10.9481
        79        2.0000           -0.3971163             -10.8061
        80        2.0000           -0.3855129             -10.4903
        81        2.0000           -0.3708939             -10.0925
        82        2.0000           -0.3587733              -9.7627 (HOMO)
        83                         -0.2938767              -7.9968 (LUMO)
        84                         -0.2536741              -6.9028
        85                         -0.2530133              -6.8848
        86                         -0.2389042              -6.5009
        87                         -0.2170342              -5.9058
        88                         -0.1775775              -4.8321
        89                         -0.1419879              -3.8637
        90                         -0.1226749              -3.3382
        91                         -0.0845433              -2.3005
        92                         -0.0226221              -0.6156
        93                         -0.0213695              -0.5815
       ...                                ...                  ...
       153                          0.6614877              18.0000
      -------------------------------------------------------------
                  HL-Gap            0.0648967 Eh            1.7659 eV
             Fermi-level           -0.3263250 Eh           -8.8798 eV

     #   Z          covCN         q      C6AA      α(0)
     1   6 C        3.641     0.030    20.423     6.498
     2   8 O        1.703    -0.248    18.114     5.746
     3   6 C        2.855     0.132    25.108     8.213
     4   6 C        2.931    -0.086    30.146     9.004
     5   6 C        2.983     0.105    25.665     8.310
     6   7 N        1.844    -0.264    27.702     7.800
     7   6 C        2.881     0.144    24.860     8.174
     8   7 N        1.831    -0.271    27.882     7.825
     9   6 C        2.890     0.162    24.499     8.115
    10   7 N        2.689    -0.167    24.623     7.370
    11   6 C        2.891     0.078    26.255     8.401
    12   6 C        2.918    -0.059    29.466     8.902
    13   6 C        2.911    -0.049    29.225     8.865
    14   6 C        2.807     0.156    24.621     8.129
    15   9 F        0.787    -0.205    11.291     3.969
    16   6 C        2.877     0.081    26.182     8.388
    17  17 Cl       0.961    -0.139   103.484    15.563
    18   6 C        2.952    -0.055    29.364     8.888
    19   6 C        2.980    -0.033    28.825     8.807
    20   6 C        2.913    -0.064    29.580     8.918
    21   6 C        2.892     0.128    25.193     8.229
    22   8 O        1.702    -0.299    18.978     5.882
    23   6 C        3.721     0.083    19.315     6.277
    24   6 C        3.798    -0.065    21.754     6.641
    25   6 C        3.748     0.008    20.510     6.459
    26   7 N        2.720    -0.193    25.185     7.454
    27   6 C        3.750     0.005    20.556     6.466
    28   6 C        3.689     0.077    19.478     6.317
    29   8 O        1.695    -0.329    19.504     5.963
    30   6 C        3.688     0.077    19.472     6.316
    31   6 C        3.744    -0.002    20.687     6.488
    32   1 H        0.924     0.050     2.325     2.384
    33   1 H        0.924     0.051     2.309     2.376
    34   1 H        0.924     0.067     2.121     2.278
    35   1 H        0.925     0.066     2.127     2.281
    36   1 H        0.925     0.050     2.321     2.383
    37   1 H        0.860     0.182     1.203     1.718
    38   1 H        0.925     0.048     2.342     2.393
    39   1 H        0.925     0.072     2.067     2.248
    40   1 H        0.925     0.084     1.934     2.175
    41   1 H        0.925     0.058     2.223     2.331
    42   1 H        0.924     0.028     2.622     2.532
    43   1 H        0.924     0.048     2.346     2.395
    44   1 H        0.924     0.053     2.289     2.366
    45   1 H        0.924     0.052     2.300     2.372
    46   1 H        0.924     0.018     2.767     2.601
    47   1 H        0.923     0.036     2.497     2.471
    48   1 H        0.924     0.037     2.484     2.465
    49   1 H        0.923     0.024     2.668     2.554
    50   1 H        0.924     0.037     2.490     2.468
    51   1 H        0.924     0.047     2.358     2.401
    52   1 H        0.924     0.044     2.395     2.420
    53   1 H        0.924     0.025     2.653     2.547
    54   1 H        0.924     0.045     2.385     2.415
    55   1 H        0.924     0.040     2.450     2.448

 Mol. C6AA /au·bohr⁶  :      36829.424789
 Mol. C8AA /au·bohr⁸  :     891963.981147
 Mol. α(0) /au        :        295.398996


Wiberg/Mayer (AO) data.
largest (>0.10) Wiberg bond orders for each atom

 ---------------------------------------------------------------------------
     #   Z sym  total        # sym  WBO       # sym  WBO       # sym  WBO
 ---------------------------------------------------------------------------
     1   6 C    3.939 --    34 H    0.979     2 O    0.978    33 H    0.977
                            32 H    0.977
     2   8 O    2.248 --     3 C    1.083     1 C    0.978
     3   6 C    3.939 --     4 C    1.436    21 C    1.241     2 O    1.083
     4   6 C    3.981 --     3 C    1.436     5 C    1.291    35 H    0.961
                            20 C    0.110
     5   6 C    3.983 --     6 N    1.295     4 C    1.291    19 C    1.225
     6   7 N    3.040 --     7 C    1.485     5 C    1.295
     7   6 C    3.961 --     6 N    1.485     8 N    1.368    36 H    0.958
     8   7 N    3.042 --     9 C    1.407     7 C    1.368
     9   6 C    3.959 --     8 N    1.407    19 C    1.245    10 N    1.098
    10   7 N    3.391 --    11 C    1.102     9 C    1.098    37 H    0.925
    11   6 C    3.969 --    18 C    1.365    12 C    1.356    10 N    1.102
    12   6 C    3.979 --    13 C    1.449    11 C    1.356    38 H    0.967
    13   6 C    3.986 --    12 C    1.449    14 C    1.387    39 H    0.965
                            18 C    0.102
    14   6 C    3.884 --    13 C    1.387    16 C    1.350    15 F    0.972
    15   9 F    1.104 --    14 C    0.972
    16   6 C    3.926 --    18 C    1.409    14 C    1.350    17 Cl   0.997
    17  17 Cl   1.142 --    16 C    0.997
    18   6 C    3.975 --    16 C    1.409    11 C    1.365    40 H    0.961
                            13 C    0.102
    19   6 C    3.986 --    20 C    1.282     9 C    1.245     5 C    1.225
    20   6 C    3.985 --    21 C    1.489    19 C    1.282    41 H    0.964
                             4 C    0.110
    21   6 C    3.949 --    20 C    1.489     3 C    1.241    22 O    1.024
    22   8 O    2.103 --    21 C    1.024    23 C    0.939
    23   6 C    3.938 --    24 C    1.004    42 H    0.972    43 H    0.970
                            22 O    0.939
    24   6 C    3.992 --    23 C    1.004    25 C    1.002    44 H    0.973
                            45 H    0.972
    25   6 C    3.986 --    24 C    1.002    26 N    1.002    47 H    0.973
                            46 H    0.966
    26   7 N    3.098 --    25 C    1.002    31 C    0.997    27 C    0.995
    27   6 C    3.988 --    28 C    1.003    26 N    0.995    48 H    0.972
                            49 H    0.968
    28   6 C    3.957 --    27 C    1.003    29 O    0.979    51 H    0.971
                            50 H    0.970
    29   8 O    2.050 --    28 C    0.979    30 C    0.978
    30   6 C    3.957 --    31 C    0.996    29 O    0.978    52 H    0.971
                            53 H    0.970
    31   6 C    3.987 --    26 N    0.997    30 C    0.996    54 H    0.972
                            55 H    0.970
    32   1 H    0.997 --     1 C    0.977
    33   1 H    0.997 --     1 C    0.977
    34   1 H    0.995 --     1 C    0.979
    35   1 H    0.995 --     4 C    0.961
    36   1 H    0.997 --     7 C    0.958
    37   1 H    0.966 --    10 N    0.925
    38   1 H    0.997 --    12 C    0.967
    39   1 H    0.994 --    13 C    0.965
    40   1 H    0.993 --    18 C    0.961
    41   1 H    0.996 --    20 C    0.964
    42   1 H    0.999 --    23 C    0.972
    43   1 H    0.998 --    23 C    0.970
    44   1 H    0.997 --    24 C    0.973
    45   1 H    0.997 --    24 C    0.972
    46   1 H    0.999 --    25 C    0.966
    47   1 H    0.999 --    25 C    0.973
    48   1 H    0.999 --    27 C    0.972
    49   1 H    0.999 --    27 C    0.968
    50   1 H    0.999 --    28 C    0.970
    51   1 H    0.997 --    28 C    0.971
    52   1 H    0.998 --    30 C    0.971
    53   1 H    0.999 --    30 C    0.970
    54   1 H    0.998 --    31 C    0.972
    55   1 H    0.998 --    31 C    0.970
 ---------------------------------------------------------------------------

Topologies differ in total number of bonds
Writing topology from bond orders to xtbtopo.mol

molecular dipole:
                 x           y           z       tot (Debye)
 q only:       -1.663      -0.317      -1.005
   full:       -1.831      -0.099      -1.113       5.453
molecular quadrupole (traceless):
                xx          xy          yy          xz          yz          zz
 q only:      -27.560     -10.866      43.343     -55.713     -14.078     -15.784
  q+dip:      -27.300     -13.106      45.924     -54.895      -9.422     -18.625
   full:      -27.998     -14.222      43.068     -57.159      -7.298     -15.069


           -------------------------------------------------
          | TOTAL ENERGY              -92.533161101563 Eh   |
          | GRADIENT NORM               0.100654753079 Eh/α |
          | HOMO-LUMO GAP               1.765927798363 eV   |
           -------------------------------------------------

------------------------------------------------------------------------
 * finished run on 2026/08/31 at 21:31:36.220     
------------------------------------------------------------------------
 total:
 * wall-time:     0 d,  0 h,  0 min,  0.102 sec
 *  cpu-time:     0 d,  0 h,  0 min,  1.062 sec
 * ratio c/w:    10.417 speedup
 SCF:
 * wall-time:     0 d,  0 h,  0 min,  0.069 sec
 *  cpu-time:     0 d,  0 h,  0 min,  0.734 sec
 * ratio c/w:    10.643 speedup

