88
 energy: -184.808852427339 gnorm: 0.003807387109 xtb: 6.7.1pre (5071a88)
C           -0.97642835901674        4.60127576331174        5.88765428272153
O           -0.87785273470865        3.25460591645582        6.35196261819116
C            0.24684650071394        2.99990478988846        7.27465197625275
C            1.57710453126046        3.01469030970121        6.64858778724017
C            2.40039827111912        1.92283234796252        6.79059438288543
N            3.43096607569572        1.73442089130816        5.86508669863645
C            4.36234137794216        0.79323463069937        6.22052759612455
N            4.29070880727699       -0.01384683705841        7.22426341978406
C            3.17140320981719       -0.00446196755167        8.00513295094834
N            3.05816817757193       -0.99391894178971        8.97961726526545
C            4.03455985753828       -1.53965971459248        9.77108404051327
C            3.65253729139931       -2.40526319721138       10.80545775909377
C            4.59333407906743       -2.95244900693405       11.65142019994604
C            5.93185516128194       -2.64669738138012       11.48025917374338
F            6.84181077294264       -3.18438032313801       12.32285271855830
C            6.33080237266021       -1.79729050262463       10.45518937007908
Cl           8.00103470894621       -1.41867447197154       10.24682042903741
C            5.39184663258480       -1.24797427751957        9.60374588322657
C            2.17734005660761        0.95500691524760        7.83389816493110
C            0.93188700638200        1.01742378868384        8.54498707134862
C           -0.05247065797380        1.85501876527133        8.06854560802464
O           -1.41183016548143        1.76853313459114        8.33153107897959
C           -1.90996696801271        0.64323021425417        9.03269034332078
C           -1.98644230337728       -0.58327009537990        8.12099149987414
C           -2.55917225803176       -1.84485207007408        8.80856800232172
N           -3.97425013928759       -1.89728082265353        9.07218044864393
C           -4.85428868084621       -1.81307368370582        7.92198806757500
C           -6.29414287337759       -1.91377645384102        8.41886672268502
O           -6.66264256351224       -0.79889620628107        9.21049358233233
C           -5.57622817794465       -0.19974378035708        9.88871362542781
C           -4.49677597472818       -1.21940758788517       10.25260154458580
H           -0.17475208779065        4.83155319776330        5.17388685027556
H           -1.94517515709194        4.69343767224497        5.38973140512332
H           -0.92354188730136        5.27994561297242        6.74673164164018
H            1.86907226702011        3.83173163912945        5.99019113192349
H            5.26605027496987        0.76315546408544        5.60880539440526
H            2.11177198381963       -1.21773829606197        9.24557372378978
H            2.60810743790589       -2.64100373247893       10.94667913370284
H            4.30647946971051       -3.61202458059457       12.45484184003945
H            5.69518632999435       -0.59616646426861        8.80292295764968
H            0.72993343411405        0.28328963361572        9.30773491287022
H           -2.90867068430655        0.95566816773970        9.35165546021024
H           -1.30402763551407        0.44436545664840        9.92584362875254
H           -0.97844531079232       -0.82379075964295        7.75552334404245
H           -2.59738709548788       -0.31907988573330        7.24193335302350
H           -2.04748940660398       -2.00293121579641        9.76207021619847
H           -2.32818290310449       -2.70303702245728        8.13793351366006
H           -4.74991400681526       -0.87666680935185        7.34431122090240
H           -4.61928210979346       -2.65663410400479        7.24049181966792
H           -6.40948746309998       -2.83690327636606        9.00473033563528
H           -6.99350027014105       -1.93781533768056        7.58005545486809
H           -5.14646452155837        0.59873194677294        9.26504351721030
H           -5.99358209015593        0.25568532324456       10.79067260601442
H           -3.69570379214093       -0.72556135474864       10.80355928233278
H           -4.94500016242229       -1.97342672172984       10.91449242858427
Ti          -2.05219092640556       -2.43866869527385        5.02951189279452
Ti           0.59986321526193       -1.21352710160780        4.43053898675117
Ti           2.39989451607586       -2.66279613099687        2.42371406570643
Ti          -2.29221328163154        0.00496222790449        3.47475062747221
Ti           2.34458959625933        1.27460652169979        4.26530994064948
Ti          -0.54901313326666        1.49392622308447        5.56808481774436
Ti          -1.16718746139174       -3.52222386060114        2.22437708958900
Ti          -0.06730588897566       -1.04644390252226        0.72429262905281
Ti           1.92163717390034       -2.23448638400480       -1.20247664916878
Ti          -1.56021984028236        1.42059179940709        0.63570162349706
Ti           2.76017471088133       -0.00175305703184        1.02070004257495
Ti           1.01822946460078        1.26590560383830       -1.09848413292400
C           -3.48245727021687        1.20126523494358        2.28801447645086
C            4.17022851764616        1.25385539172525        1.76177048903218
C           -0.05622827955254        2.47493986843526        2.91664754755513
C           -3.44921497529947        1.87818866413293        1.24832809011285
C            3.60214430818599        1.76388153984487        2.73856160481239
C           -0.61180531949335        2.70854210592832        1.79689162289620
C            0.59735517131632        2.28629801925288        4.06423790905339
O           -3.12585556110721       -1.47082201834063        3.95804058638166
O           -0.45249819273193       -2.35743112825183        5.56467916698676
O           -0.01912632945328       -2.73576040531363        1.11394942375377
O           -0.61366971678244       -0.59326372375240        3.35795007202364
O            2.19110351393330       -0.43769223824589        3.96708874941915
O           -2.09386091715397        0.99076503759010        4.90334263507563
O            0.42221434977513        0.10011916189448        5.71424113457032
O            1.11860662446404       -2.75063533214566        3.57310753053846
O            0.33165765309272       -1.28232861412804       -0.93573625362978
O            3.15854616916322       -1.71499475752008        1.12511925644588
O           -1.65183501905724       -0.44725849570483        0.95566401373832
O            1.08368881705301        0.00539294059040        1.45276303350878
O           -0.67176625049662        1.52636622665268       -0.88114750533709
O            2.57806891373458        0.46043658002969       -0.64542800142436
