      -----------------------------------------------------------      
     |                   =====================                   |     
     |                           x T B                           |     
     |                   =====================                   |     
     |                         S. Grimme                         |     
     |          Mulliken Center for Theoretical Chemistry        |     
     |                    University of Bonn                     |     
      -----------------------------------------------------------      

   * xtb version 6.7.1pre (5071a88) compiled by 'Marcel@Raven' on 2024-07-23

   xtb is free software: you can redistribute it and/or modify it under
   the terms of the GNU Lesser General Public License as published by
   the Free Software Foundation, either version 3 of the License, or
   (at your option) any later version.
   
   xtb is distributed in the hope that it will be useful,
   but WITHOUT ANY WARRANTY; without even the implied warranty of
   MERCHANTABILITY or FITNESS FOR A PARTICULAR PURPOSE.  See the
   GNU Lesser General Public License for more details.
   
   Cite this work as:
   * C. Bannwarth, E. Caldeweyher, S. Ehlert, A. Hansen, P. Pracht,
     J. Seibert, S. Spicher, S. Grimme, WIREs Comput. Mol. Sci., 2020, 11,
     e01493. DOI: 10.1002/wcms.1493
   
   for GFN2-xTB:
   * C. Bannwarth, S. Ehlert and S. Grimme., J. Chem. Theory Comput., 2019,
     15, 1652-1671. DOI: 10.1021/acs.jctc.8b01176
   for GFN1-xTB:
   * S. Grimme, C. Bannwarth, P. Shushkov, J. Chem. Theory Comput., 2017,
     13, 1989-2009. DOI: 10.1021/acs.jctc.7b00118
   for GFN0-xTB:
   * P. Pracht, E. Caldeweyher, S. Ehlert, S. Grimme, ChemRxiv, 2019, preprint.
     DOI: 10.26434/chemrxiv.8326202.v1
   for GFN-FF:
   * S. Spicher and S. Grimme, Angew. Chem. Int. Ed., 2020, 59, 15665-15673.
     DOI: 10.1002/anie.202004239
   
   for ALPB and GBSA implicit solvation:
   * S. Ehlert, M. Stahn, S. Spicher, S. Grimme, J. Chem. Theory Comput.,
     2021, 17, 4250-4261. DOI: 10.1021/acs.jctc.1c00471
   
   for ddCOSMO and CPCM-X implicit solvation:
   * M. Stahn, S. Ehlert, S. Grimme, J. Phys. Chem. A,
     2023, XX, XXXX-XXXX. DOI: 10.1021/acs.jpca.3c04382
   
   for DFT-D4:
   * E. Caldeweyher, C. Bannwarth and S. Grimme, J. Chem. Phys., 2017,
     147, 034112. DOI: 10.1063/1.4993215
   * E. Caldeweyher, S. Ehlert, A. Hansen, H. Neugebauer, S. Spicher,
     C. Bannwarth and S. Grimme, J. Chem. Phys., 2019, 150, 154122.
     DOI: 10.1063/1.5090222
   * E. Caldeweyher, J.-M. Mewes, S. Ehlert and S. Grimme, Phys. Chem. Chem. Phys.
     2020, 22, 8499-8512. DOI: 10.1039/D0CP00502A
   
   for sTDA-xTB:
   * S. Grimme and C. Bannwarth, J. Chem. Phys., 2016, 145, 054103.
     DOI: 10.1063/1.4959605
   
   in the mass-spec context:
   * V. Asgeirsson, C. Bauer and S. Grimme, Chem. Sci., 2017, 8, 4879.
     DOI: 10.1039/c7sc00601b
   * J. Koopman and S. Grimme, ACS Omega 2019, 4, 12, 15120-15133.
     DOI: 10.1021/acsomega.9b02011
   
   for metadynamics refer to:
   * S. Grimme, J. Chem. Theory Comput., 2019, 155, 2847-2862
     DOI: 10.1021/acs.jctc.9b00143
   
   for SPH calculations refer to:
   * S. Spicher and S. Grimme, J. Chem. Theory Comput., 2021, 17, 1701-1714
     DOI: 10.1021/acs.jctc.0c01306
   
   for ONIOM refer to:
   * C. Plett, A. Katbashev, S. Ehlert, S. Grimme, M. Bursch,
     Phys. Chem. Chem. Phys., 2023, 25, 17860-17868. DOI: 10.1039/D3CP02178E
   
   for DIPRO refer to:
   * J. Kohn, N. Gildemeister, S. Grimme, D. Fazzi, A. Hansen,
     J. Chem. Phys., 2023, just accepted.
   
   for PTB refer to:
   * S. Grimme, M. Mueller, A. Hansen, J. Chem. Phys., 2023, 158, 124111.
     DOI: 10.1063/5.0137838
   
   with help from (in alphabetical order)
   P. Atkinson, C. Bannwarth, F. Bohle, G. Brandenburg, E. Caldeweyher
   M. Checinski, S. Dohm, S. Ehlert, S. Ehrlich, I. Gerasimov, C. Hölzer
   A. Katbashev, J. Kohn, J. Koopman, C. Lavigne, S. Lehtola, F. März, M. Müller,
   F. Musil, H. Neugebauer, J. Pisarek, C. Plett, P. Pracht, F. Pultar,
   J. Seibert, P. Shushkov, S. Spicher, M. Stahn, M. Steiner, T. Strunk,
   J. Stückrath, T. Rose, and J. Unsleber
   
 * started run on 2026/08/31 at 21:19:25.510     
   ID    Z sym.   atoms
    1    6 C      1, 3-8, 10-12, 14, 15, 17-20, 22, 23, 26-32, 34-36, 38, 39,
                  86-92
    2    8 O      2, 16, 37, 93-106
    3    7 N      9, 13, 21, 24, 25
    4    9 F      33
    5    1 H      40-73
    6   22 Ti     74-85

           -------------------------------------------------
          |                Calculation Setup                |
           -------------------------------------------------

          program call               : "c:\Users\Andre\Proyectos doctorado\kras-pancreatic-gC3N4-ai\tools\xtb\xtb-6.7.1\bin\xtb.exe" "c:\Users\Andre\Proyectos doctorado\mxene-glioblastoma-qsar-ai\calculations\gbm\Entrectinib\Entrectinib_Ti12C7O14_phys_complex.xyz" --gfn 2 --sp --chrg 0 --uhf 0 --etemp 300 --iterations 500 --norestart
          coordinate file            : c:\Users\Andre\Proyectos doctorado\mxene-glioblastoma-qsar-ai\calculations\gbm\Entrectinib\Entrectinib_Ti12C7O14_phys_complex.xyz
          omp threads                :                    16


molecular fragmentation (1/2 indicates fragments):
111111111111111111111111111111111111111111111111111111111111111111111111
1222222222222222222222222222222222
# atoms in fragment 1/2:    73    33
 fragment masses (1/2) :      531.62      882.47
CMA distance (Bohr)    :  18.413
constraining FC (au)   :  0.0500

           -------------------------------------------------
          |                 G F N 2 - x T B                 |
           -------------------------------------------------

        Reference                      10.1021/acs.jctc.8b01176
      * Hamiltonian:
        H0-scaling (s, p, d)           1.850000    2.230000    2.230000
        zeta-weighting                 0.500000
      * Dispersion:
        s8                             2.700000
        a1                             0.520000
        a2                             5.000000
        s9                             5.000000
      * Repulsion:
        kExp                           1.500000    1.000000
        rExp                           1.000000
      * Coulomb:
        alpha                          2.000000
        third order                    shell-resolved
        anisotropic                    true
        a3                             3.000000
        a5                             4.000000
        cn-shift                       1.200000
        cn-exp                         4.000000
        max-rad                        5.000000


          ...................................................
          :                      SETUP                      :
          :.................................................:
          :  # basis functions                 394          :
          :  # atomic orbitals                 382          :
          :  # shells                          190          :
          :  # electrons                       364          :
          :  max. iterations                   500          :
          :  Hamiltonian                  GFN2-xTB          :
          :  restarted?                      false          :
          :  GBSA solvation                  false          :
          :  PC potential                    false          :
          :  electronic temp.          300.0000000     K    :
          :  accuracy                    1.0000000          :
          :  -> integral cutoff          0.2500000E+02      :
          :  -> integral neglect         0.1000000E-07      :
          :  -> SCF convergence          0.1000000E-05 Eh   :
          :  -> wf. convergence          0.1000000E-03 e    :
          :  Broyden damping             0.4000000          :
          :  net charge                          0          :
          :  unpaired electrons                  0          :
          ...................................................

 iter      E             dE          RMSdq      gap      omega  full diag
   1   -205.4333383 -0.205433E+03  0.115E+01    0.05       0.0  T
   2   -192.6376742  0.127957E+02  0.934E+00    0.07       1.0  T
   3   -144.0762517  0.485614E+02  0.180E+01    0.10       1.0  T
   4   -206.1518119 -0.620756E+02  0.617E+00    0.07       1.0  T
   5   -206.0017096  0.150102E+00  0.474E+00    0.12       1.0  T
   6   -203.4936244  0.250809E+01  0.512E+00    0.06       1.0  T
   7   -206.8466455 -0.335302E+01  0.342E+00    0.33       1.0  T
   8   -206.2954103  0.551235E+00  0.455E+00    0.01       1.0  T
   9   -206.7993643 -0.503954E+00  0.261E+00    0.00       1.0  T
  10   -207.1283052 -0.328941E+00  0.217E+00    0.38       1.0  T
  11   -206.1188885  0.100942E+01  0.310E+00    0.36       1.0  T
  12   -206.6331027 -0.514214E+00  0.214E+00    0.04       1.0  T
  13   -207.1855475 -0.552445E+00  0.136E+00    0.41       1.0  T
  14   -207.2093394 -0.237919E-01  0.121E+00    0.37       1.0  T
  15   -207.2437126 -0.343732E-01  0.109E+00    0.64       1.0  T
  16   -207.2531864 -0.947381E-02  0.102E+00    0.79       1.0  T
  17   -207.2714786 -0.182922E-01  0.824E-01    0.90       1.0  T
  18   -207.2843309 -0.128523E-01  0.603E-01    0.82       1.0  T
  19   -207.2894776 -0.514667E-02  0.429E-01    0.81       1.0  T
  20   -207.2931932 -0.371563E-02  0.355E-01    0.75       1.0  T
  21   -207.2952945 -0.210136E-02  0.211E-01    0.72       1.0  T
  22   -207.2964819 -0.118736E-02  0.121E-01    0.65       1.0  T
  23   -207.2967916 -0.309692E-03  0.918E-02    0.62       1.0  T
  24   -207.2968590 -0.674025E-04  0.586E-02    0.59       1.0  T
  25   -207.2969072 -0.481948E-04  0.377E-02    0.57       1.0  T
  26   -207.2969088 -0.156332E-05  0.265E-02    0.57       1.0  T
  27   -207.2969191 -0.103558E-04  0.225E-02    0.57       1.0  T
  28   -207.2969306 -0.114394E-04  0.220E-02    0.58       1.0  T
  29   -207.2969333 -0.278522E-05  0.191E-02    0.58       1.0  T
  30   -207.2969357 -0.237064E-05  0.155E-02    0.58       1.0  T
  31   -207.2969392 -0.352729E-05  0.130E-02    0.58       1.0  T
  32   -207.2969435 -0.427359E-05  0.101E-02    0.58       1.0  T
  33   -207.2969473 -0.383581E-05  0.772E-03    0.58       1.3  T
  34   -207.2969492 -0.187353E-05  0.540E-03    0.58       1.8  T
  35   -207.2969498 -0.558082E-06  0.277E-03    0.58       3.5  T
  36   -207.2969499 -0.164423E-06  0.175E-03    0.58       5.5  T
  37   -207.2969501 -0.175852E-06  0.875E-04    0.58      11.1  T
  38   -207.2969501 -0.212022E-07  0.623E-04    0.58      15.6  T

   *** convergence criteria satisfied after 38 iterations ***

         #    Occupation            Energy/Eh            Energy/eV
      -------------------------------------------------------------
         1        2.0000           -0.8205486             -22.3283
       ...           ...                  ...                  ...
       176        2.0000           -0.3501008              -9.5267
       177        2.0000           -0.3493590              -9.5065
       178        2.0000           -0.3454962              -9.4014
       179        2.0000           -0.3431485              -9.3375
       180        2.0000           -0.3380618              -9.1991
       181        2.0000           -0.3220968              -8.7647
       182        2.0000           -0.3074804              -8.3670 (HOMO)
       183        0.0000           -0.2861051              -7.7853 (LUMO)
       184        0.0000           -0.2850023              -7.7553
       185        0.0000           -0.2843216              -7.7368
       186        0.0000           -0.2840114              -7.7283
       187                         -0.2792512              -7.5988
       ...                                ...                  ...
       382                         13.3288522             362.6965
      -------------------------------------------------------------
                  HL-Gap            0.0213754 Eh            0.5817 eV
             Fermi-level           -0.2970094 Eh           -8.0820 eV

 SCC (total)                   0 d,  0 h,  0 min,  0.964 sec
 SCC setup                      ...        0 min,  0.001 sec (  0.104%)
 Dispersion                     ...        0 min,  0.002 sec (  0.207%)
 classical contributions        ...        0 min,  0.000 sec (  0.000%)
 integral evaluation            ...        0 min,  0.010 sec (  1.037%)
 iterations                     ...        0 min,  0.922 sec ( 95.643%)
 molecular gradient             ...        0 min,  0.026 sec (  2.697%)
 printout                       ...        0 min,  0.003 sec (  0.311%)

         :::::::::::::::::::::::::::::::::::::::::::::::::::::
         ::                     SUMMARY                     ::
         :::::::::::::::::::::::::::::::::::::::::::::::::::::
         :: total energy            -205.181486076375 Eh    ::
         :: gradient norm              0.111086612381 Eh/a0 ::
         :: HOMO-LUMO gap              0.581653723406 eV    ::
         ::.................................................::
         :: SCC energy              -207.293574708004 Eh    ::
         :: -> isotropic ES            0.994194896565 Eh    ::
         :: -> anisotropic ES         -0.369363491254 Eh    ::
         :: -> anisotropic XC         -0.012176655873 Eh    ::
         :: -> dispersion             -0.174316661998 Eh    ::
         :: repulsion energy           2.112088631629 Eh    ::
         :: add. restraining           0.000000000000 Eh    ::
         :: total charge              -0.000000000002 e     ::
         :::::::::::::::::::::::::::::::::::::::::::::::::::::

           -------------------------------------------------
          |                Property Printout                |
           -------------------------------------------------

    * Orbital Energies and Occupations

         #    Occupation            Energy/Eh            Energy/eV
      -------------------------------------------------------------
         1        2.0000           -0.8205486             -22.3283
       ...           ...                  ...                  ...
       170        2.0000           -0.3743589             -10.1868
       171        2.0000           -0.3733240             -10.1587
       172        2.0000           -0.3681972             -10.0192
       173        2.0000           -0.3606799              -9.8146
       174        2.0000           -0.3580442              -9.7429
       175        2.0000           -0.3553962              -9.6708
       176        2.0000           -0.3501008              -9.5267
       177        2.0000           -0.3493590              -9.5065
       178        2.0000           -0.3454962              -9.4014
       179        2.0000           -0.3431485              -9.3375
       180        2.0000           -0.3380618              -9.1991
       181        2.0000           -0.3220968              -8.7647
       182        2.0000           -0.3074804              -8.3670 (HOMO)
       183        0.0000           -0.2861051              -7.7853 (LUMO)
       184        0.0000           -0.2850023              -7.7553
       185        0.0000           -0.2843216              -7.7368
       186        0.0000           -0.2840114              -7.7283
       187                         -0.2792512              -7.5988
       188                         -0.2787374              -7.5848
       189                         -0.2750572              -7.4847
       190                         -0.2738838              -7.4528
       191                         -0.2722612              -7.4086
       192                         -0.2720443              -7.4027
       193                         -0.2709207              -7.3721
       ...                                ...                  ...
       382                         13.3288522             362.6965
      -------------------------------------------------------------
                  HL-Gap            0.0213754 Eh            0.5817 eV
             Fermi-level           -0.2970094 Eh           -8.0820 eV

     #   Z          covCN         q      C6AA      α(0)
     1   6 C        3.642     0.027    20.473     6.505
     2   8 O        1.704    -0.271    18.487     5.805
     3   6 C        2.857     0.139    24.961     8.189
     4   6 C        2.918    -0.079    29.979     8.979
     5   6 C        2.960     0.017    27.631     8.622
     6   6 C        3.809    -0.070    21.837     6.652
     7   6 C        2.965    -0.003    28.102     8.695
     8   6 C        2.917     0.143    24.881     8.180
     9   7 N        2.735    -0.167    24.618     7.369
    10   6 C        3.759     0.002    20.596     6.470
    11   6 C        3.804    -0.068    21.801     6.647
    12   6 C        3.787     0.047    19.807     6.339
    13   7 N        2.719    -0.192    25.171     7.451
    14   6 C        3.744    -0.007    20.767     6.501
    15   6 C        3.690     0.076    19.491     6.318
    16   8 O        1.696    -0.329    19.502     5.962
    17   6 C        3.690     0.074    19.515     6.322
    18   6 C        3.744     0.005    20.557     6.468
    19   6 C        3.803    -0.066    21.754     6.640
    20   6 C        3.767     0.012    20.403     6.438
    21   7 N        1.833    -0.268    27.810     7.815
    22   6 C        3.046     0.066    26.473     8.439
    23   6 C        3.081     0.019    27.501     8.597
    24   7 N        1.960    -0.201    26.181     7.588
    25   7 N        3.012     0.050    20.357     6.701
    26   6 C        3.047     0.025    27.409     8.586
    27   6 C        2.916    -0.044    29.084     8.844
    28   6 C        2.900     0.061    26.635     8.462
    29   6 C        2.913    -0.055    29.356     8.884
    30   6 C        2.912    -0.030    28.758     8.794
    31   6 C        2.912    -0.056    29.380     8.888
    32   6 C        2.774     0.173    24.265     8.068
    33   9 F        0.787    -0.215    11.395     3.987
    34   6 C        2.916    -0.060    29.497     8.906
    35   6 C        2.918    -0.078    29.953     8.975
    36   6 C        2.857     0.140    24.954     8.188
    37   8 O        1.704    -0.270    18.485     5.805
    38   6 C        3.642     0.033    20.372     6.489
    39   6 C        2.913    -0.108    30.730     9.090
    40   1 H        0.924     0.047     2.358     2.401
    41   1 H        0.924     0.043     2.411     2.428
    42   1 H        0.924     0.061     2.186     2.312
    43   1 H        0.925     0.060     2.196     2.317
    44   1 H        0.923     0.050     2.322     2.383
    45   1 H        0.924     0.065     2.143     2.289
    46   1 H        0.924     0.037     2.493     2.469
    47   1 H        0.924     0.052     2.300     2.371
    48   1 H        0.924     0.037     2.487     2.466
    49   1 H        0.923     0.046     2.371     2.408
    50   1 H        0.923     0.008     2.919     2.672
    51   1 H        0.924     0.049     2.332     2.388
    52   1 H        0.924     0.034     2.528     2.487
    53   1 H        0.924     0.045     2.389     2.417
    54   1 H        0.924     0.025     2.659     2.550
    55   1 H        0.924     0.040     2.445     2.445
    56   1 H        0.924     0.046     2.372     2.408
    57   1 H        0.924     0.021     2.715     2.577
    58   1 H        0.924     0.040     2.455     2.450
    59   1 H        0.924     0.038     2.481     2.463
    60   1 H        0.923     0.046     2.377     2.411
    61   1 H        0.924     0.035     2.512     2.479
    62   1 H        0.924     0.032     2.558     2.501
    63   1 H        0.926     0.055     2.259     2.351
    64   1 H        0.925     0.047     2.352     2.398
    65   1 H        0.925     0.053     2.278     2.360
    66   1 H        0.925     0.053     2.288     2.365
    67   1 H        0.925     0.060     2.202     2.321
    68   1 H        0.925     0.086     1.916     2.164
    69   1 H        0.925     0.046     2.364     2.405
    70   1 H        0.924     0.043     2.411     2.428
    71   1 H        0.924     0.042     2.421     2.433
    72   1 H        0.924     0.061     2.192     2.315
    73   1 H        0.925     0.038     2.472     2.459
    74  22 Ti       3.637     1.047   101.830    24.492
    75  22 Ti       6.855     1.551    84.061    14.886
    76  22 Ti       3.227     1.048   102.643    24.739
    77  22 Ti       5.860     1.379    85.681    15.028
    78  22 Ti       5.627     1.123    88.185    15.246
    79  22 Ti       3.541     1.041   102.457    24.670
    80  22 Ti       2.352     0.880   202.688    34.859
    81  22 Ti       6.011     1.349    85.971    15.054
    82  22 Ti       3.414     1.008   103.058    24.780
    83  22 Ti       5.519     1.095    88.470    15.271
    84  22 Ti       5.687     1.189    87.534    15.190
    85  22 Ti       3.581     1.026   102.476    24.643
    86   6 C        2.246    -0.258    37.658     9.942
    87   6 C        2.142    -0.255    38.337    10.009
    88   6 C        2.248    -0.019    30.607     8.964
    89   6 C        1.838    -0.210    37.313     9.868
    90   6 C        1.894    -0.223    37.709     9.918
    91   6 C        1.821    -0.346    42.129    10.487
    92   6 C        2.631    -0.404    39.907    10.333
    93   8 O        1.554    -0.848    32.019     7.634
    94   8 O        1.464    -0.880    33.200     7.767
    95   8 O        1.557    -0.955    35.584     8.048
    96   8 O        1.523    -1.006    37.470     8.256
    97   8 O        1.523    -0.914    34.191     7.887
    98   8 O        1.458    -0.823    31.415     7.554
    99   8 O        1.455    -0.794    30.548     7.449
   100   8 O        0.727    -0.636    27.104     6.976
   101   8 O        1.453    -0.864    32.700     7.707
   102   8 O        1.476    -0.799    30.661     7.465
   103   8 O        1.603    -0.945    35.188     8.006
   104   8 O        1.547    -0.969    36.072     8.103
   105   8 O        1.700    -0.817    30.976     7.514
   106   8 O        1.453    -0.781    30.164     7.402

 Mol. C6AA /au·bohr⁶  :     229720.355880
 Mol. C8AA /au·bohr⁸  :    9099801.434596
 Mol. α(0) /au        :        799.900251


Wiberg/Mayer (AO) data.
largest (>0.10) Wiberg bond orders for each atom

 ---------------------------------------------------------------------------
     #   Z sym  total        # sym  WBO       # sym  WBO       # sym  WBO
 ---------------------------------------------------------------------------
     1   6 C    3.946 --     2 O    0.984    42 H    0.980    40 H    0.977
                            41 H    0.977
     2   8 O    2.222 --     3 C    1.058     1 C    0.984
     3   6 C    3.934 --    39 C    1.369     4 C    1.365     2 O    1.058
     4   6 C    3.981 --     5 C    1.415     3 C    1.365    43 H    0.965
     5   6 C    3.983 --    35 C    1.418     4 C    1.415     6 C    0.995
     6   6 C    3.991 --     7 C    0.996     5 C    0.995    44 H    0.965
                            45 H    0.963
     7   6 C    3.981 --    27 C    1.467     8 C    1.297     6 C    0.996
     8   6 C    3.970 --    21 N    1.447     7 C    1.297     9 N    1.032
     9   7 N    3.139 --     8 C    1.032    10 C    0.984    20 C    0.970
    10   6 C    3.973 --    11 C    1.006     9 N    0.984    46 H    0.967
                            47 H    0.965
    11   6 C    3.994 --    10 C    1.006    12 C    0.991    49 H    0.974
                            48 H    0.969
    12   6 C    3.985 --    19 C    0.993    11 C    0.991    13 N    0.985
                            50 H    0.961
    13   7 N    3.096 --    14 C    0.997    18 C    0.997    12 C    0.985
    14   6 C    3.986 --    13 N    0.997    15 C    0.995    51 H    0.971
                            52 H    0.968
    15   6 C    3.958 --    14 C    0.995    16 O    0.979    53 H    0.971
                            54 H    0.970
    16   8 O    2.051 --    15 C    0.979    17 C    0.978
    17   6 C    3.956 --    18 C    1.001    16 O    0.978    56 H    0.971
                            55 H    0.970
    18   6 C    3.989 --    17 C    1.001    13 N    0.997    58 H    0.970
                            57 H    0.967
    19   6 C    3.995 --    20 C    1.006    12 C    0.993    60 H    0.975
                            59 H    0.972
    20   6 C    3.980 --    19 C    1.006    62 H    0.973     9 N    0.970
                            61 H    0.966
    21   7 N    3.042 --     8 C    1.447    22 C    1.304    27 C    0.109
    22   6 C    3.976 --    21 N    1.304    26 C    1.249    23 C    1.234
    23   6 C    3.965 --    24 N    1.582    22 C    1.234    63 H    0.964
    24   7 N    2.979 --    23 C    1.582    25 N    1.154
    25   7 N    3.634 --    24 N    1.154    26 C    1.149    28 C    1.053
    26   6 C    3.964 --    27 C    1.331    22 C    1.249    25 N    1.149
    27   6 C    3.986 --     7 C    1.467    26 C    1.331    64 H    0.961
                            21 N    0.109
    28   6 C    3.965 --    29 C    1.377    34 C    1.371    25 N    1.053
    29   6 C    3.984 --    30 C    1.443    28 C    1.377    65 H    0.963
    30   6 C    3.989 --    29 C    1.443    31 C    1.438    66 H    0.970
                            34 C    0.108
    31   6 C    3.972 --    30 C    1.438    32 C    1.385    67 H    0.967
    32   6 C    3.888 --    34 C    1.408    31 C    1.385    33 F    0.969
    33   9 F    1.104 --    32 C    0.969
    34   6 C    3.980 --    32 C    1.408    28 C    1.371    68 H    0.960
                            30 C    0.108
    35   6 C    3.980 --     5 C    1.418    36 C    1.361    69 H    0.966
    36   6 C    3.935 --    39 C    1.372    35 C    1.361    37 O    1.059
    37   8 O    2.222 --    36 C    1.059    38 C    0.983
    38   6 C    3.947 --    37 O    0.983    72 H    0.980    70 H    0.978
                            71 H    0.978
    39   6 C    3.973 --    36 C    1.372     3 C    1.369    73 H    0.961
    40   1 H    0.998 --     1 C    0.977
    41   1 H    0.997 --     1 C    0.977
    42   1 H    0.995 --     1 C    0.980
    43   1 H    0.996 --     4 C    0.965
    44   1 H    0.996 --     6 C    0.965
    45   1 H    0.995 --     6 C    0.963
    46   1 H    0.998 --    10 C    0.967
    47   1 H    0.996 --    10 C    0.965
    48   1 H    0.998 --    11 C    0.969
    49   1 H    0.997 --    11 C    0.974
    50   1 H    1.000 --    12 C    0.961
    51   1 H    0.997 --    14 C    0.971
    52   1 H    0.999 --    14 C    0.968
    53   1 H    0.998 --    15 C    0.971
    54   1 H    0.999 --    15 C    0.970
    55   1 H    0.998 --    17 C    0.970
    56   1 H    0.998 --    17 C    0.971
    57   1 H    1.000 --    18 C    0.967
    58   1 H    0.998 --    18 C    0.970
    59   1 H    0.998 --    19 C    0.972
    60   1 H    0.998 --    19 C    0.975
    61   1 H    0.999 --    20 C    0.966
    62   1 H    0.999 --    20 C    0.973
    63   1 H    0.995 --    23 C    0.964
    64   1 H    0.997 --    27 C    0.961
    65   1 H    0.997 --    29 C    0.963
    66   1 H    0.997 --    30 C    0.970
    67   1 H    0.996 --    31 C    0.967
    68   1 H    0.993 --    34 C    0.960
    69   1 H    0.998 --    35 C    0.966
    70   1 H    0.998 --    38 C    0.978
    71   1 H    0.998 --    38 C    0.978
    72   1 H    0.996 --    38 C    0.980
    73   1 H    0.998 --    39 C    0.961
    74  22 Ti   2.825 --    93 O    0.845    94 O    0.815    80 Ti   0.330
                            75 Ti   0.201    77 Ti   0.198
    75  22 Ti   3.854 --    94 O    0.751    97 O    0.744    95 O    0.692
                            96 O    0.607    74 Ti   0.201    76 Ti   0.188
                            79 Ti   0.138    78 Ti   0.137
    76  22 Ti   2.723 --   102 O    0.963    95 O    0.599    82 Ti   0.372
                            75 Ti   0.188    80 Ti   0.140    97 O    0.110
    77  22 Ti   3.920 --    98 O    0.941    86 C    0.721    93 O    0.705
                            96 O    0.563    79 Ti   0.208    74 Ti   0.198
                            83 Ti   0.178   103 O    0.124
    78  22 Ti   4.071 --    92 C    0.891    99 O    0.771    90 C    0.744
                            97 O    0.601    84 Ti   0.284    79 Ti   0.176
                            91 C    0.159    87 C    0.153    75 Ti   0.137
    79  22 Ti   2.651 --    99 O    0.978    98 O    0.703    77 Ti   0.208
                            78 Ti   0.176    75 Ti   0.138    94 O    0.123
    80  22 Ti   3.765 --   100 O    1.996    81 Ti   0.606    74 Ti   0.330
                            95 O    0.152    93 O    0.147    76 Ti   0.140
                           103 O    0.112
    81  22 Ti   4.017 --   103 O    0.803   101 O    0.752   104 O    0.716
                            80 Ti   0.606   105 O    0.196    82 Ti   0.166
                            85 Ti   0.148    83 Ti   0.141
    82  22 Ti   2.746 --   101 O    0.836   102 O    0.764    76 Ti   0.372
                            85 Ti   0.221    81 Ti   0.166    84 Ti   0.130
    83  22 Ti   4.013 --    91 C    1.059    89 C    0.727   105 O    0.613
                           103 O    0.441    92 C    0.234    85 Ti   0.199
                            77 Ti   0.178    86 C    0.156    81 Ti   0.141
    84  22 Ti   4.082 --   106 O    0.968    87 C    0.669    92 C    0.654
                           104 O    0.441    78 Ti   0.284    85 Ti   0.211
                            91 C    0.142    82 Ti   0.130   102 O    0.113
    85  22 Ti   2.793 --   105 O    0.901   106 O    0.734    82 Ti   0.221
                            84 Ti   0.211    83 Ti   0.199    81 Ti   0.148
    86   6 C    3.842 --    89 C    2.739    77 Ti   0.721    83 Ti   0.156
    87   6 C    3.781 --    90 C    2.732    84 Ti   0.669    78 Ti   0.153
    88   6 C    3.979 --    91 C    2.008    92 C    1.605
    89   6 C    3.705 --    86 C    2.739    83 Ti   0.727
    90   6 C    3.748 --    87 C    2.732    78 Ti   0.744
    91   6 C    3.769 --    88 C    2.008    83 Ti   1.059    78 Ti   0.159
                            84 Ti   0.142
    92   6 C    3.829 --    88 C    1.605    78 Ti   0.891    84 Ti   0.654
                            83 Ti   0.234
    93   8 O    1.934 --    74 Ti   0.845    77 Ti   0.705    80 Ti   0.147
    94   8 O    1.893 --    74 Ti   0.815    75 Ti   0.751    79 Ti   0.123
    95   8 O    1.784 --    75 Ti   0.692    76 Ti   0.599    80 Ti   0.152
    96   8 O    1.720 --    75 Ti   0.607    77 Ti   0.563
    97   8 O    1.846 --    75 Ti   0.744    78 Ti   0.601    76 Ti   0.110
    98   8 O    1.970 --    77 Ti   0.941    79 Ti   0.703
    99   8 O    2.020 --    79 Ti   0.978    78 Ti   0.771
   100   8 O    2.170 --    80 Ti   1.996
   101   8 O    1.911 --    82 Ti   0.836    81 Ti   0.752
   102   8 O    2.008 --    76 Ti   0.963    82 Ti   0.764    84 Ti   0.113
   103   8 O    1.799 --    81 Ti   0.803    83 Ti   0.441    77 Ti   0.124
                            80 Ti   0.112
   104   8 O    1.773 --    81 Ti   0.716    84 Ti   0.441
   105   8 O    1.986 --    85 Ti   0.901    83 Ti   0.613    81 Ti   0.196
   106   8 O    2.032 --    84 Ti   0.968    85 Ti   0.734
 ---------------------------------------------------------------------------

Topologies differ in total number of bonds
Writing topology from bond orders to xtbtopo.mol

molecular dipole:
                 x           y           z       tot (Debye)
 q only:       -0.317      -2.876      -0.350
   full:       -1.873      -3.559       0.668      10.363
molecular quadrupole (traceless):
                xx          xy          yy          xz          yz          zz
 q only:      -41.828      18.694     -20.701     -57.706     -49.058      62.529
  q+dip:      -26.711      15.919     -45.541     -32.177     -79.249      72.252
   full:      -26.251      18.705     -45.479     -30.078     -73.928      71.730


           -------------------------------------------------
          | TOTAL ENERGY             -205.181486076375 Eh   |
          | GRADIENT NORM               0.111086612381 Eh/α |
          | HOMO-LUMO GAP               0.581653723406 eV   |
           -------------------------------------------------

------------------------------------------------------------------------
 * finished run on 2026/08/31 at 21:19:26.526     
------------------------------------------------------------------------
 total:
 * wall-time:     0 d,  0 h,  0 min,  1.015 sec
 *  cpu-time:     0 d,  0 h,  0 min, 10.141 sec
 * ratio c/w:     9.991 speedup
 SCF:
 * wall-time:     0 d,  0 h,  0 min,  0.965 sec
 *  cpu-time:     0 d,  0 h,  0 min,  9.781 sec
 * ratio c/w:    10.136 speedup

normal termination of xtb
