      -----------------------------------------------------------      
     |                   =====================                   |     
     |                           x T B                           |     
     |                   =====================                   |     
     |                         S. Grimme                         |     
     |          Mulliken Center for Theoretical Chemistry        |     
     |                    University of Bonn                     |     
      -----------------------------------------------------------      

   * xtb version 6.7.1pre (5071a88) compiled by 'Marcel@Raven' on 2024-07-23

   xtb is free software: you can redistribute it and/or modify it under
   the terms of the GNU Lesser General Public License as published by
   the Free Software Foundation, either version 3 of the License, or
   (at your option) any later version.
   
   xtb is distributed in the hope that it will be useful,
   but WITHOUT ANY WARRANTY; without even the implied warranty of
   MERCHANTABILITY or FITNESS FOR A PARTICULAR PURPOSE.  See the
   GNU Lesser General Public License for more details.
   
   Cite this work as:
   * C. Bannwarth, E. Caldeweyher, S. Ehlert, A. Hansen, P. Pracht,
     J. Seibert, S. Spicher, S. Grimme, WIREs Comput. Mol. Sci., 2020, 11,
     e01493. DOI: 10.1002/wcms.1493
   
   for GFN2-xTB:
   * C. Bannwarth, S. Ehlert and S. Grimme., J. Chem. Theory Comput., 2019,
     15, 1652-1671. DOI: 10.1021/acs.jctc.8b01176
   for GFN1-xTB:
   * S. Grimme, C. Bannwarth, P. Shushkov, J. Chem. Theory Comput., 2017,
     13, 1989-2009. DOI: 10.1021/acs.jctc.7b00118
   for GFN0-xTB:
   * P. Pracht, E. Caldeweyher, S. Ehlert, S. Grimme, ChemRxiv, 2019, preprint.
     DOI: 10.26434/chemrxiv.8326202.v1
   for GFN-FF:
   * S. Spicher and S. Grimme, Angew. Chem. Int. Ed., 2020, 59, 15665-15673.
     DOI: 10.1002/anie.202004239
   
   for ALPB and GBSA implicit solvation:
   * S. Ehlert, M. Stahn, S. Spicher, S. Grimme, J. Chem. Theory Comput.,
     2021, 17, 4250-4261. DOI: 10.1021/acs.jctc.1c00471
   
   for ddCOSMO and CPCM-X implicit solvation:
   * M. Stahn, S. Ehlert, S. Grimme, J. Phys. Chem. A,
     2023, XX, XXXX-XXXX. DOI: 10.1021/acs.jpca.3c04382
   
   for DFT-D4:
   * E. Caldeweyher, C. Bannwarth and S. Grimme, J. Chem. Phys., 2017,
     147, 034112. DOI: 10.1063/1.4993215
   * E. Caldeweyher, S. Ehlert, A. Hansen, H. Neugebauer, S. Spicher,
     C. Bannwarth and S. Grimme, J. Chem. Phys., 2019, 150, 154122.
     DOI: 10.1063/1.5090222
   * E. Caldeweyher, J.-M. Mewes, S. Ehlert and S. Grimme, Phys. Chem. Chem. Phys.
     2020, 22, 8499-8512. DOI: 10.1039/D0CP00502A
   
   for sTDA-xTB:
   * S. Grimme and C. Bannwarth, J. Chem. Phys., 2016, 145, 054103.
     DOI: 10.1063/1.4959605
   
   in the mass-spec context:
   * V. Asgeirsson, C. Bauer and S. Grimme, Chem. Sci., 2017, 8, 4879.
     DOI: 10.1039/c7sc00601b
   * J. Koopman and S. Grimme, ACS Omega 2019, 4, 12, 15120-15133.
     DOI: 10.1021/acsomega.9b02011
   
   for metadynamics refer to:
   * S. Grimme, J. Chem. Theory Comput., 2019, 155, 2847-2862
     DOI: 10.1021/acs.jctc.9b00143
   
   for SPH calculations refer to:
   * S. Spicher and S. Grimme, J. Chem. Theory Comput., 2021, 17, 1701-1714
     DOI: 10.1021/acs.jctc.0c01306
   
   for ONIOM refer to:
   * C. Plett, A. Katbashev, S. Ehlert, S. Grimme, M. Bursch,
     Phys. Chem. Chem. Phys., 2023, 25, 17860-17868. DOI: 10.1039/D3CP02178E
   
   for DIPRO refer to:
   * J. Kohn, N. Gildemeister, S. Grimme, D. Fazzi, A. Hansen,
     J. Chem. Phys., 2023, just accepted.
   
   for PTB refer to:
   * S. Grimme, M. Mueller, A. Hansen, J. Chem. Phys., 2023, 158, 124111.
     DOI: 10.1063/5.0137838
   
   with help from (in alphabetical order)
   P. Atkinson, C. Bannwarth, F. Bohle, G. Brandenburg, E. Caldeweyher
   M. Checinski, S. Dohm, S. Ehlert, S. Ehrlich, I. Gerasimov, C. Hölzer
   A. Katbashev, J. Kohn, J. Koopman, C. Lavigne, S. Lehtola, F. März, M. Müller,
   F. Musil, H. Neugebauer, J. Pisarek, C. Plett, P. Pracht, F. Pultar,
   J. Seibert, P. Shushkov, S. Spicher, M. Stahn, M. Steiner, T. Strunk,
   J. Stückrath, T. Rose, and J. Unsleber
   
 * started run on 2026/08/31 at 21:53:13.826     
   ID    Z sym.   atoms
    1    6 C      1, 3-8, 10-12, 14, 15, 17-20, 22, 23, 26-32, 34-36, 38, 39,
                  86-92
    2    8 O      2, 16, 37, 93-106
    3    7 N      9, 13, 21, 24, 25
    4    9 F      33
    5    1 H      40-73
    6   22 Ti     74-85

           -------------------------------------------------
          |                Calculation Setup                |
           -------------------------------------------------

          program call               : "c:\Users\Andre\Proyectos doctorado\kras-pancreatic-gC3N4-ai\tools\xtb\xtb-6.7.1\bin\xtb.exe" "c:\Users\Andre\Proyectos doctorado\mxene-glioblastoma-qsar-ai\calculations\gbm\Entrectinib\Entrectinib_Ti12C7O14_clean_complex.xyz" --gfn 2 --sp --chrg 0 --uhf 0 --etemp 500 --acc 1.0 --iterations 500 --norestart
          coordinate file            : c:\Users\Andre\Proyectos doctorado\mxene-glioblastoma-qsar-ai\calculations\gbm\Entrectinib\Entrectinib_Ti12C7O14_clean_complex.xyz
          omp threads                :                    16


molecular fragmentation (1/2 indicates fragments):
111111111111111111111111111111111111111111111111111111111111111111111111
1222222222222222222222222222222222
# atoms in fragment 1/2:    73    33
 fragment masses (1/2) :      531.62      882.47
CMA distance (Bohr)    :  18.474
constraining FC (au)   :  0.0500

           -------------------------------------------------
          |                 G F N 2 - x T B                 |
           -------------------------------------------------

        Reference                      10.1021/acs.jctc.8b01176
      * Hamiltonian:
        H0-scaling (s, p, d)           1.850000    2.230000    2.230000
        zeta-weighting                 0.500000
      * Dispersion:
        s8                             2.700000
        a1                             0.520000
        a2                             5.000000
        s9                             5.000000
      * Repulsion:
        kExp                           1.500000    1.000000
        rExp                           1.000000
      * Coulomb:
        alpha                          2.000000
        third order                    shell-resolved
        anisotropic                    true
        a3                             3.000000
        a5                             4.000000
        cn-shift                       1.200000
        cn-exp                         4.000000
        max-rad                        5.000000


          ...................................................
          :                      SETUP                      :
          :.................................................:
          :  # basis functions                 394          :
          :  # atomic orbitals                 382          :
          :  # shells                          190          :
          :  # electrons                       364          :
          :  max. iterations                   500          :
          :  Hamiltonian                  GFN2-xTB          :
          :  restarted?                      false          :
          :  GBSA solvation                  false          :
          :  PC potential                    false          :
          :  electronic temp.          500.0000000     K    :
          :  accuracy                    1.0000000          :
          :  -> integral cutoff          0.2500000E+02      :
          :  -> integral neglect         0.1000000E-07      :
          :  -> SCF convergence          0.1000000E-05 Eh   :
          :  -> wf. convergence          0.1000000E-03 e    :
          :  Broyden damping             0.4000000          :
          :  net charge                          0          :
          :  unpaired electrons                  0          :
          ...................................................

 iter      E             dE          RMSdq      gap      omega  full diag
   1   -205.4304344 -0.205430E+03  0.115E+01    0.05       0.0  T
   2   -192.6395798  0.127909E+02  0.927E+00    0.07       1.0  T
   3   -140.6145614  0.520250E+02  0.184E+01    0.16       1.0  T
   4   -204.5652236 -0.639507E+02  0.859E+00    0.12       1.0  T
   5   -205.6542322 -0.108901E+01  0.665E+00    0.02       1.0  T
   6   -206.9151555 -0.126092E+01  0.433E+00    0.14       1.0  T
   7   -207.0358224 -0.120667E+00  0.353E+00    0.74       1.0  T
   8   -206.1984639  0.837359E+00  0.429E+00    0.02       1.0  T
   9   -207.0754633 -0.876999E+00  0.234E+00    0.29       1.0  T
  10   -205.9383762  0.113709E+01  0.492E+00    0.02       1.0  T
  11   -206.3829274 -0.444551E+00  0.386E+00    0.02       1.0  T
  12   -206.7674510 -0.384524E+00  0.226E+00    0.02       1.0  T
  13   -206.3626040  0.404847E+00  0.342E+00    0.01       1.0  T
  14   -207.1851101 -0.822506E+00  0.153E+00    0.39       1.0  T
  15   -207.2266154 -0.415053E-01  0.143E+00    0.59       1.0  T
  16   -207.2565638 -0.299484E-01  0.127E+00    0.79       1.0  T
  17   -207.2718504 -0.152865E-01  0.104E+00    0.90       1.0  T
  18   -207.2893232 -0.174728E-01  0.709E-01    1.00       1.0  T
  19   -207.3013373 -0.120141E-01  0.482E-01    0.93       1.0  T
  20   -207.3055691 -0.423180E-02  0.357E-01    0.86       1.0  T
  21   -207.3095508 -0.398172E-02  0.274E-01    0.86       1.0  T
  22   -207.3123834 -0.283254E-02  0.218E-01    0.78       1.0  T
  23   -207.3141647 -0.178130E-02  0.198E-01    0.70       1.0  T
  24   -207.3146590 -0.494322E-03  0.188E-01    0.66       1.0  T
  25   -207.3148684 -0.209422E-03  0.166E-01    0.65       1.0  T
  26   -207.3150277 -0.159227E-03  0.148E-01    0.65       1.0  T
  27   -207.3152414 -0.213729E-03  0.123E-01    0.64       1.0  T
  28   -207.3154067 -0.165287E-03  0.106E-01    0.65       1.0  T
  29   -207.3154990 -0.923016E-04  0.976E-02    0.65       1.0  T
  30   -207.3156158 -0.116851E-03  0.853E-02    0.65       1.0  T
  31   -207.3157508 -0.134948E-03  0.645E-02    0.65       1.0  T
  32   -207.3158828 -0.132057E-03  0.393E-02    0.65       1.0  T
  33   -207.3159736 -0.907894E-04  0.125E-02    0.64       1.0  T
  34   -207.3159788 -0.514102E-05  0.603E-03    0.63       1.6  T
  35   -207.3159792 -0.444784E-06  0.439E-03    0.63       2.2  T
  36   -207.3159791  0.559405E-07  0.488E-03    0.63       2.0  T
  37   -207.3159793 -0.130372E-06  0.411E-03    0.63       2.4  T
  38   -207.3159794 -0.766917E-07  0.369E-03    0.63       2.6  T
  39   -207.3159795 -0.104120E-06  0.305E-03    0.63       3.2  T
  40   -207.3159796 -0.156628E-06  0.199E-03    0.63       4.9  T
  41   -207.3159797 -0.941181E-07  0.106E-03    0.63       9.2  T
  42   -207.3159797 -0.259112E-07  0.699E-04    0.63      13.9  T
  43   -207.3159797 -0.104590E-07  0.581E-04    0.63      16.7  T

   *** convergence criteria satisfied after 43 iterations ***

         #    Occupation            Energy/Eh            Energy/eV
      -------------------------------------------------------------
         1        2.0000           -0.8209045             -22.3379
       ...           ...                  ...                  ...
       176        2.0000           -0.3509713              -9.5504
       177        2.0000           -0.3504719              -9.5368
       178        2.0000           -0.3453495              -9.3974
       179        2.0000           -0.3449540              -9.3867
       180        2.0000           -0.3378442              -9.1932
       181        2.0000           -0.3234304              -8.8010
       182        1.9980           -0.3088425              -8.4040 (HOMO)
       183        0.0009           -0.2857017              -7.7743 (LUMO)
       184        0.0005           -0.2848323              -7.7507
       185        0.0003           -0.2838051              -7.7227
       186        0.0002           -0.2836671              -7.7190
       187        0.0001           -0.2822290              -7.6798
       ...           ...                  ...                  ...
       382                         13.4102961             364.9127
      -------------------------------------------------------------
                  HL-Gap            0.0231408 Eh            0.6297 eV
             Fermi-level           -0.2979307 Eh           -8.1071 eV

 SCC (total)                   0 d,  0 h,  0 min,  1.710 sec
 SCC setup                      ...        0 min,  0.001 sec (  0.058%)
 Dispersion                     ...        0 min,  0.003 sec (  0.175%)
 classical contributions        ...        0 min,  0.000 sec (  0.000%)
 integral evaluation            ...        0 min,  0.011 sec (  0.643%)
 iterations                     ...        0 min,  1.609 sec ( 94.094%)
 molecular gradient             ...        0 min,  0.083 sec (  4.854%)
 printout                       ...        0 min,  0.003 sec (  0.175%)

         :::::::::::::::::::::::::::::::::::::::::::::::::::::
         ::                     SUMMARY                     ::
         :::::::::::::::::::::::::::::::::::::::::::::::::::::
         :: total energy            -205.200664256621 Eh    ::
         :: gradient norm              0.110314334269 Eh/a0 ::
         :: HOMO-LUMO gap              0.629692652735 eV    ::
         ::.................................................::
         :: SCC energy              -207.313114227977 Eh    ::
         :: -> isotropic ES            0.999705434265 Eh    ::
         :: -> anisotropic ES         -0.376485332404 Eh    ::
         :: -> anisotropic XC         -0.014415023923 Eh    ::
         :: -> dispersion             -0.175645889213 Eh    ::
         :: repulsion energy           2.112449971355 Eh    ::
         :: add. restraining           0.000000000000 Eh    ::
         :: total charge              -0.000000000020 e     ::
         :::::::::::::::::::::::::::::::::::::::::::::::::::::

           -------------------------------------------------
          |                Property Printout                |
           -------------------------------------------------

    * Orbital Energies and Occupations

         #    Occupation            Energy/Eh            Energy/eV
      -------------------------------------------------------------
         1        2.0000           -0.8209045             -22.3379
       ...           ...                  ...                  ...
       170        2.0000           -0.3775955             -10.2749
       171        2.0000           -0.3748337             -10.1997
       172        2.0000           -0.3695143             -10.0550
       173        2.0000           -0.3612510              -9.8301
       174        2.0000           -0.3591935              -9.7742
       175        2.0000           -0.3588561              -9.7650
       176        2.0000           -0.3509713              -9.5504
       177        2.0000           -0.3504719              -9.5368
       178        2.0000           -0.3453495              -9.3974
       179        2.0000           -0.3449540              -9.3867
       180        2.0000           -0.3378442              -9.1932
       181        2.0000           -0.3234304              -8.8010
       182        1.9980           -0.3088425              -8.4040 (HOMO)
       183        0.0009           -0.2857017              -7.7743 (LUMO)
       184        0.0005           -0.2848323              -7.7507
       185        0.0003           -0.2838051              -7.7227
       186        0.0002           -0.2836671              -7.7190
       187        0.0001           -0.2822290              -7.6798
       188        0.0000           -0.2799217              -7.6171
       189        0.0000           -0.2751469              -7.4871
       190        0.0000           -0.2740557              -7.4574
       191        0.0000           -0.2722059              -7.4071
       192        0.0000           -0.2718778              -7.3982
       193                         -0.2711396              -7.3781
       ...                                ...                  ...
       382                         13.4102961             364.9127
      -------------------------------------------------------------
                  HL-Gap            0.0231408 Eh            0.6297 eV
             Fermi-level           -0.2979307 Eh           -8.1071 eV

     #   Z          covCN         q      C6AA      α(0)
     1   6 C        3.642     0.032    20.379     6.491
     2   8 O        1.704    -0.268    18.441     5.798
     3   6 C        2.857     0.141    24.924     8.183
     4   6 C        2.918    -0.079    29.987     8.980
     5   6 C        2.959     0.018    27.603     8.618
     6   6 C        3.809    -0.082    22.061     6.686
     7   6 C        2.964    -0.003    28.088     8.693
     8   6 C        2.921     0.145    24.857     8.176
     9   7 N        2.735    -0.170    24.665     7.376
    10   6 C        3.770     0.008    20.481     6.449
    11   6 C        3.803    -0.073    21.901     6.663
    12   6 C        3.786     0.045    19.834     6.343
    13   7 N        2.718    -0.194    25.198     7.455
    14   6 C        3.754    -0.009    20.794     6.502
    15   6 C        3.697     0.074    19.507     6.318
    16   8 O        1.695    -0.327    19.470     5.957
    17   6 C        3.697     0.075    19.495     6.316
    18   6 C        3.754    -0.007    20.766     6.498
    19   6 C        3.802    -0.069    21.812     6.649
    20   6 C        3.762     0.008    20.487     6.452
    21   7 N        1.833    -0.268    27.812     7.815
    22   6 C        3.046     0.068    26.435     8.433
    23   6 C        3.077     0.023    27.421     8.585
    24   7 N        1.960    -0.202    26.186     7.588
    25   7 N        3.008     0.052    20.329     6.697
    26   6 C        3.044     0.026    27.376     8.582
    27   6 C        2.916    -0.045    29.124     8.850
    28   6 C        2.899     0.061    26.623     8.460
    29   6 C        2.913    -0.055    29.365     8.886
    30   6 C        2.912    -0.031    28.763     8.794
    31   6 C        2.912    -0.055    29.360     8.885
    32   6 C        2.773     0.173    24.262     8.067
    33   9 F        0.787    -0.215    11.392     3.987
    34   6 C        2.916    -0.059    29.478     8.903
    35   6 C        2.918    -0.081    30.030     8.986
    36   6 C        2.857     0.140    24.937     8.185
    37   8 O        1.704    -0.270    18.470     5.802
    38   6 C        3.642     0.031    20.391     6.492
    39   6 C        2.913    -0.107    30.705     9.086
    40   1 H        0.924     0.043     2.410     2.428
    41   1 H        0.924     0.061     2.183     2.311
    42   1 H        0.924     0.043     2.412     2.429
    43   1 H        0.925     0.065     2.145     2.291
    44   1 H        0.924     0.076     2.018     2.221
    45   1 H        0.923     0.064     2.153     2.295
    46   1 H        0.924     0.038     2.473     2.459
    47   1 H        0.923     0.032     2.562     2.503
    48   1 H        0.923     0.053     2.278     2.360
    49   1 H        0.924     0.040     2.450     2.448
    50   1 H        0.924     0.018     2.769     2.602
    51   1 H        0.923     0.049     2.326     2.385
    52   1 H        0.924     0.038     2.473     2.459
    53   1 H        0.924     0.022     2.698     2.569
    54   1 H        0.924     0.047     2.358     2.402
    55   1 H        0.924     0.045     2.389     2.417
    56   1 H        0.924     0.022     2.700     2.570
    57   1 H        0.923     0.049     2.331     2.388
    58   1 H        0.924     0.040     2.449     2.447
    59   1 H        0.924     0.052     2.294     2.369
    60   1 H        0.924     0.037     2.483     2.464
    61   1 H        0.923     0.036     2.505     2.475
    62   1 H        0.924     0.043     2.414     2.430
    63   1 H        0.926     0.052     2.293     2.368
    64   1 H        0.925     0.051     2.309     2.376
    65   1 H        0.925     0.053     2.282     2.362
    66   1 H        0.925     0.054     2.265     2.353
    67   1 H        0.925     0.061     2.188     2.313
    68   1 H        0.925     0.086     1.923     2.169
    69   1 H        0.925     0.049     2.327     2.386
    70   1 H        0.924     0.043     2.408     2.426
    71   1 H        0.924     0.044     2.399     2.422
    72   1 H        0.924     0.062     2.181     2.309
    73   1 H        0.925     0.040     2.444     2.445
    74  22 Ti       3.637     1.048   101.819    24.491
    75  22 Ti       6.855     1.551    84.053    14.885
    76  22 Ti       3.227     1.046   102.660    24.741
    77  22 Ti       5.860     1.379    85.675    15.028
    78  22 Ti       5.627     1.119    88.230    15.250
    79  22 Ti       3.541     1.026   102.635    24.691
    80  22 Ti       2.352     0.880   202.696    34.860
    81  22 Ti       6.011     1.348    85.976    15.054
    82  22 Ti       3.414     1.005   103.085    24.783
    83  22 Ti       5.519     1.095    88.472    15.271
    84  22 Ti       5.687     1.189    87.530    15.190
    85  22 Ti       3.581     1.024   102.497    24.645
    86   6 C        2.246    -0.259    37.697     9.948
    87   6 C        2.142    -0.256    38.356    10.011
    88   6 C        2.248    -0.019    30.613     8.965
    89   6 C        1.838    -0.211    37.357     9.874
    90   6 C        1.894    -0.227    37.827     9.933
    91   6 C        1.821    -0.347    42.185    10.494
    92   6 C        2.631    -0.404    39.941    10.338
    93   8 O        1.554    -0.849    32.063     7.640
    94   8 O        1.464    -0.882    33.266     7.774
    95   8 O        1.557    -0.958    35.659     8.057
    96   8 O        1.523    -1.005    37.421     8.251
    97   8 O        1.523    -0.914    34.210     7.889
    98   8 O        1.458    -0.824    31.448     7.558
    99   8 O        1.455    -0.798    30.678     7.465
   100   8 O        0.727    -0.638    27.137     6.981
   101   8 O        1.453    -0.866    32.745     7.712
   102   8 O        1.476    -0.801    30.709     7.471
   103   8 O        1.603    -0.946    35.195     8.007
   104   8 O        1.547    -0.968    36.035     8.099
   105   8 O        1.700    -0.818    31.010     7.518
   106   8 O        1.453    -0.782    30.212     7.408

 Mol. C6AA /au·bohr⁶  :     229556.568032
 Mol. C8AA /au·bohr⁸  :    9097709.137138
 Mol. α(0) /au        :        799.618609


Wiberg/Mayer (AO) data.
largest (>0.10) Wiberg bond orders for each atom

 ---------------------------------------------------------------------------
     #   Z sym  total        # sym  WBO       # sym  WBO       # sym  WBO
 ---------------------------------------------------------------------------
     1   6 C    3.947 --     2 O    0.983    41 H    0.980    40 H    0.978
                            42 H    0.978
     2   8 O    2.225 --     3 C    1.061     1 C    0.983
     3   6 C    3.936 --    39 C    1.369     4 C    1.364     2 O    1.061
     4   6 C    3.980 --     5 C    1.415     3 C    1.364    43 H    0.964
     5   6 C    3.982 --    35 C    1.417     4 C    1.415     6 C    0.995
     6   6 C    3.982 --     7 C    0.996     5 C    0.995    44 H    0.941
                            45 H    0.921
     7   6 C    3.981 --    27 C    1.466     8 C    1.296     6 C    0.996
     8   6 C    3.970 --    21 N    1.450     7 C    1.296     9 N    1.029
     9   7 N    3.140 --     8 C    1.029    20 C    0.985    10 C    0.973
    10   6 C    3.968 --    11 C    1.002     9 N    0.973    47 H    0.966
                            46 H    0.959
    11   6 C    3.989 --    10 C    1.002    12 C    0.992    48 H    0.973
                            49 H    0.966
    12   6 C    3.984 --    19 C    0.994    11 C    0.992    13 N    0.982
                            50 H    0.958
    13   7 N    3.102 --    18 C    1.000    14 C    1.000    12 C    0.982
    14   6 C    3.986 --    13 N    1.000    15 C    0.991    51 H    0.971
                            52 H    0.967
    15   6 C    3.957 --    14 C    0.991    16 O    0.981    54 H    0.971
                            53 H    0.967
    16   8 O    2.057 --    15 C    0.981    17 C    0.980
    17   6 C    3.957 --    18 C    0.991    16 O    0.980    55 H    0.971
                            56 H    0.968
    18   6 C    3.986 --    13 N    1.000    17 C    0.991    57 H    0.970
                            58 H    0.968
    19   6 C    3.995 --    20 C    1.003    12 C    0.994    59 H    0.975
                            60 H    0.971
    20   6 C    3.981 --    19 C    1.003     9 N    0.985    62 H    0.973
                            61 H    0.967
    21   7 N    3.042 --     8 C    1.450    22 C    1.301    27 C    0.109
    22   6 C    3.977 --    21 N    1.301    26 C    1.249    23 C    1.237
    23   6 C    3.967 --    24 N    1.579    22 C    1.237    63 H    0.965
    24   7 N    2.979 --    23 C    1.579    25 N    1.156
    25   7 N    3.636 --    24 N    1.156    26 C    1.151    28 C    1.051
    26   6 C    3.965 --    27 C    1.330    22 C    1.249    25 N    1.151
    27   6 C    3.983 --     7 C    1.466    26 C    1.330    64 H    0.959
                            21 N    0.109
    28   6 C    3.965 --    29 C    1.379    34 C    1.371    25 N    1.051
    29   6 C    3.984 --    30 C    1.442    28 C    1.379    65 H    0.963
    30   6 C    3.989 --    29 C    1.442    31 C    1.439    66 H    0.970
                            34 C    0.108
    31   6 C    3.973 --    30 C    1.439    32 C    1.385    67 H    0.967
    32   6 C    3.889 --    34 C    1.408    31 C    1.385    33 F    0.969
    33   9 F    1.104 --    32 C    0.969
    34   6 C    3.980 --    32 C    1.408    28 C    1.371    68 H    0.961
                            30 C    0.108
    35   6 C    3.979 --     5 C    1.417    36 C    1.361    69 H    0.965
    36   6 C    3.936 --    39 C    1.372    35 C    1.361    37 O    1.060
    37   8 O    2.224 --    36 C    1.060    38 C    0.982
    38   6 C    3.946 --    37 O    0.982    72 H    0.980    71 H    0.978
                            70 H    0.978
    39   6 C    3.973 --    36 C    1.372     3 C    1.369    73 H    0.961
    40   1 H    0.998 --     1 C    0.978
    41   1 H    0.996 --     1 C    0.980
    42   1 H    0.998 --     1 C    0.978
    43   1 H    0.995 --     4 C    0.964
    44   1 H    0.993 --     6 C    0.941
    45   1 H    0.995 --     6 C    0.921
    46   1 H    0.998 --    10 C    0.959
    47   1 H    0.999 --    10 C    0.966
    48   1 H    0.997 --    11 C    0.973
    49   1 H    0.998 --    11 C    0.966
    50   1 H    1.000 --    12 C    0.958
    51   1 H    0.997 --    14 C    0.971
    52   1 H    0.998 --    14 C    0.967
    53   1 H    0.999 --    15 C    0.967
    54   1 H    0.998 --    15 C    0.971
    55   1 H    0.998 --    17 C    0.971
    56   1 H    1.000 --    17 C    0.968
    57   1 H    0.997 --    18 C    0.970
    58   1 H    0.998 --    18 C    0.968
    59   1 H    0.997 --    19 C    0.975
    60   1 H    0.998 --    19 C    0.971
    61   1 H    0.999 --    20 C    0.967
    62   1 H    0.998 --    20 C    0.973
    63   1 H    0.996 --    23 C    0.965
    64   1 H    0.995 --    27 C    0.959
    65   1 H    0.997 --    29 C    0.963
    66   1 H    0.996 --    30 C    0.970
    67   1 H    0.996 --    31 C    0.967
    68   1 H    0.993 --    34 C    0.961
    69   1 H    0.996 --    35 C    0.965
    70   1 H    0.998 --    38 C    0.978
    71   1 H    0.998 --    38 C    0.978
    72   1 H    0.996 --    38 C    0.980
    73   1 H    0.998 --    39 C    0.961
    74  22 Ti   2.832 --    93 O    0.848    94 O    0.813    80 Ti   0.334
                            75 Ti   0.202    77 Ti   0.199
    75  22 Ti   3.854 --    94 O    0.749    97 O    0.744    95 O    0.685
                            96 O    0.614    74 Ti   0.202    76 Ti   0.186
                            78 Ti   0.140    79 Ti   0.132
    76  22 Ti   2.725 --   102 O    0.960    95 O    0.602    82 Ti   0.373
                            75 Ti   0.186    80 Ti   0.141    97 O    0.110
    77  22 Ti   3.919 --    98 O    0.943    86 C    0.720    93 O    0.699
                            96 O    0.568    79 Ti   0.203    74 Ti   0.199
                            83 Ti   0.179   103 O    0.123
    78  22 Ti   4.074 --    92 C    0.892    99 O    0.774    90 C    0.741
                            97 O    0.601    84 Ti   0.283    79 Ti   0.172
                            91 C    0.161    87 C    0.151    75 Ti   0.140
    79  22 Ti   2.712 --    99 O    0.963    98 O    0.697    77 Ti   0.203
                            78 Ti   0.172    75 Ti   0.132    94 O    0.124
    80  22 Ti   3.771 --   100 O    1.994    81 Ti   0.608    74 Ti   0.334
                            95 O    0.153    93 O    0.148    76 Ti   0.141
                           103 O    0.112
    81  22 Ti   4.019 --   103 O    0.803   101 O    0.750   104 O    0.716
                            80 Ti   0.608   105 O    0.196    82 Ti   0.166
                            85 Ti   0.148    83 Ti   0.141
    82  22 Ti   2.748 --   101 O    0.835   102 O    0.765    76 Ti   0.373
                            85 Ti   0.221    81 Ti   0.166    84 Ti   0.129
    83  22 Ti   4.015 --    91 C    1.058    89 C    0.727   105 O    0.613
                           103 O    0.442    92 C    0.232    85 Ti   0.199
                            77 Ti   0.179    86 C    0.156    81 Ti   0.141
    84  22 Ti   4.082 --   106 O    0.965    87 C    0.670    92 C    0.655
                           104 O    0.442    78 Ti   0.283    85 Ti   0.210
                            91 C    0.141    82 Ti   0.129   102 O    0.113
    85  22 Ti   2.793 --   105 O    0.901   106 O    0.734    82 Ti   0.221
                            84 Ti   0.210    83 Ti   0.199    81 Ti   0.148
    86   6 C    3.841 --    89 C    2.739    77 Ti   0.720    83 Ti   0.156
    87   6 C    3.781 --    90 C    2.733    84 Ti   0.670    78 Ti   0.151
    88   6 C    3.978 --    91 C    2.008    92 C    1.605
    89   6 C    3.705 --    86 C    2.739    83 Ti   0.727
    90   6 C    3.746 --    87 C    2.733    78 Ti   0.741
    91   6 C    3.768 --    88 C    2.008    83 Ti   1.058    78 Ti   0.161
                            84 Ti   0.141
    92   6 C    3.828 --    88 C    1.605    78 Ti   0.892    84 Ti   0.655
                            83 Ti   0.232
    93   8 O    1.932 --    74 Ti   0.848    77 Ti   0.699    80 Ti   0.148
    94   8 O    1.890 --    74 Ti   0.813    75 Ti   0.749    79 Ti   0.124
    95   8 O    1.781 --    75 Ti   0.685    76 Ti   0.602    80 Ti   0.153
    96   8 O    1.719 --    75 Ti   0.614    77 Ti   0.568
    97   8 O    1.845 --    75 Ti   0.744    78 Ti   0.601    76 Ti   0.110
    98   8 O    1.968 --    77 Ti   0.943    79 Ti   0.697
    99   8 O    2.014 --    79 Ti   0.963    78 Ti   0.774
   100   8 O    2.169 --    80 Ti   1.994
   101   8 O    1.909 --    82 Ti   0.835    81 Ti   0.750
   102   8 O    2.006 --    76 Ti   0.960    82 Ti   0.765    84 Ti   0.113
   103   8 O    1.799 --    81 Ti   0.803    83 Ti   0.442    77 Ti   0.123
                            80 Ti   0.112
   104   8 O    1.774 --    81 Ti   0.716    84 Ti   0.442
   105   8 O    1.985 --    85 Ti   0.901    83 Ti   0.613    81 Ti   0.196
   106   8 O    2.030 --    84 Ti   0.965    85 Ti   0.734
 ---------------------------------------------------------------------------

Topologies differ in total number of bonds
Writing topology from bond orders to xtbtopo.mol

molecular dipole:
                 x           y           z       tot (Debye)
 q only:       -0.298      -2.569      -0.902
   full:       -1.771      -2.880      -0.498       8.686
molecular quadrupole (traceless):
                xx          xy          yy          xz          yz          zz
 q only:      -31.480      17.506      -3.401     -60.087     -74.681      34.882
  q+dip:      -10.959      22.000     -25.323     -30.022     -97.128      36.281
   full:      -10.327      25.094     -24.020     -33.732     -97.136      34.347


           -------------------------------------------------
          | TOTAL ENERGY             -205.200664256621 Eh   |
          | GRADIENT NORM               0.110314334269 Eh/α |
          | HOMO-LUMO GAP               0.629692652735 eV   |
           -------------------------------------------------

------------------------------------------------------------------------
 * finished run on 2026/08/31 at 21:53:15.598     
------------------------------------------------------------------------
 total:
 * wall-time:     0 d,  0 h,  0 min,  1.770 sec
 *  cpu-time:     0 d,  0 h,  0 min, 12.016 sec
 * ratio c/w:     6.788 speedup
 SCF:
 * wall-time:     0 d,  0 h,  0 min,  1.711 sec
 *  cpu-time:     0 d,  0 h,  0 min, 11.562 sec
 * ratio c/w:     6.758 speedup

normal termination of xtb
