106
Drug@Ti3C2O2 complex
C     -2.668899     -5.153772      3.946817
O     -1.804446     -4.198491      4.547168
C     -2.368331     -3.309011      5.422005
C     -1.474240     -2.374908      5.951669
C     -1.902637     -1.401193      6.862260
C     -0.928520     -0.380929      7.405760
C     -0.663478      0.762580      6.448294
C      0.503899      0.830597      5.665693
N      1.478462     -0.190040      5.813944
C      2.024547     -0.598485      4.507605
C      2.964304     -1.786581      4.725973
C      4.135330     -1.425317      5.674182
N      5.099273     -0.503067      5.024787
C      5.846069     -1.123878      3.901591
C      7.327110     -1.406418      4.210010
O      8.063666     -0.236065      4.579486
C      7.252274      0.749040      5.229997
C      6.047050      0.138256      5.962401
C      3.503928     -0.883167      6.980951
C      2.539604      0.276402      6.722065
N      0.755715      1.836341      4.803875
C     -0.197478      2.785342      4.689383
C     -0.207030      3.971826      3.946078
N     -1.324284      4.677416      4.123100
N     -2.103871      3.883458      4.916608
C     -1.405194      2.768996      5.372081
C     -1.645448      1.760711      6.309832
C     -3.458141      4.267787      5.153666
C     -4.422895      3.354701      5.602920
C     -5.742508      3.769000      5.820807
C     -6.109067      5.091029      5.581115
C     -5.158640      5.988035      5.111176
F     -5.515256      7.256461      4.870088
C     -3.844543      5.591426      4.887704
C     -3.252258     -1.377461      7.233767
C     -4.157945     -2.304745      6.710585
O     -5.442093     -2.154042      7.161705
C     -6.407882     -3.082497      6.685192
C     -3.712525     -3.271609      5.804302
H     -3.107945     -5.816348      4.699933
H     -3.444778     -4.664202      3.348970
H     -2.068167     -5.770365      3.271273
H     -0.430433     -2.405420      5.644093
H     -1.315278      0.034762      8.346604
H     -0.005447     -0.891848      7.703400
H      1.208987     -0.918301      3.846466
H      2.562341      0.218397      4.008943
H      3.312388     -2.154326      3.756261
H      2.396972     -2.614621      5.172991
H      4.670487     -2.349214      5.932817
H      5.797163     -0.416779      3.064163
H      5.387618     -2.053419      3.551877
H      7.816829     -1.835834      3.329916
H      7.418755     -2.139317      5.020306
H      6.924932      1.476367      4.477683
H      7.892564      1.282496      5.939987
H      6.419465     -0.598446      6.685936
H      5.537993      0.937441      6.510873
H      4.265596     -0.584066      7.708394
H      2.948362     -1.702103      7.459335
H      3.074477      1.139214      6.304478
H      2.111346      0.587149      7.683617
H      0.569823      4.357583      3.300643
H     -2.538683      1.736528      6.921921
H     -4.204229      2.301021      5.739173
H     -6.486943      3.053244      6.162332
H     -7.128992      5.424689      5.743307
H     -3.137348      6.330882      4.520216
H     -3.612199     -0.631088      7.938337
H     -6.152818     -4.105265      6.981764
H     -6.529399     -3.002831      5.599899
H     -7.368079     -2.832146      7.146468
H     -4.408982     -3.991558      5.396742
Ti     -3.000000     -2.600000      1.250000
Ti      0.000000     -2.600000      1.250000
Ti      3.000000     -2.600000      1.250000
Ti     -1.500000      0.000000      1.250000
Ti      1.500000      0.000000      1.250000
Ti      0.000000      2.600000      1.250000
Ti     -3.000000     -2.600000     -1.250000
Ti      0.000000     -2.600000     -1.250000
Ti      3.000000     -2.600000     -1.250000
Ti     -1.500000      0.000000     -1.250000
Ti      1.500000      0.000000     -1.250000
Ti      0.000000      2.600000     -1.250000
C     -1.500000     -1.300000      0.000000
C      1.500000     -1.300000      0.000000
C      0.000000      1.300000      0.000000
C     -3.000000      0.000000      0.000000
C      3.000000      0.000000      0.000000
C     -1.500000      2.600000      0.000000
C      1.500000      2.600000      0.000000
O     -3.000000     -2.600000      2.450000
O      0.000000     -2.600000      2.450000
O      3.000000     -2.600000      2.450000
O     -1.500000      0.000000      2.450000
O      1.500000      0.000000      2.450000
O     -1.500000      2.600000      2.450000
O      1.500000      2.600000      2.450000
O     -3.000000     -2.600000     -2.450000
O      0.000000     -2.600000     -2.450000
O      3.000000     -2.600000     -2.450000
O     -1.500000      0.000000     -2.450000
O      1.500000      0.000000     -2.450000
O     -1.500000      2.600000     -2.450000
O      1.500000      2.600000     -2.450000
