73
Entrectinib - conformer
C     -2.668899     -5.153772     -1.553183
O     -1.804446     -4.198491     -0.952832
C     -2.368331     -3.309011     -0.077995
C     -1.474240     -2.374908      0.451669
C     -1.902637     -1.401193      1.362260
C     -0.928520     -0.380929      1.905760
C     -0.663478      0.762580      0.948294
C      0.503899      0.830597      0.165693
N      1.478462     -0.190040      0.313944
C      2.024547     -0.598485     -0.992395
C      2.964304     -1.786581     -0.774027
C      4.135330     -1.425317      0.174182
N      5.099273     -0.503067     -0.475213
C      5.846069     -1.123878     -1.598409
C      7.327110     -1.406418     -1.289990
O      8.063666     -0.236065     -0.920514
C      7.252274      0.749040     -0.270003
C      6.047050      0.138256      0.462401
C      3.503928     -0.883167      1.480951
C      2.539604      0.276402      1.222065
N      0.755715      1.836341     -0.696125
C     -0.197478      2.785342     -0.810617
C     -0.207030      3.971826     -1.553922
N     -1.324284      4.677416     -1.376900
N     -2.103871      3.883458     -0.583392
C     -1.405194      2.768996     -0.127919
C     -1.645448      1.760711      0.809832
C     -3.458141      4.267787     -0.346334
C     -4.422895      3.354701      0.102920
C     -5.742508      3.769000      0.320807
C     -6.109067      5.091029      0.081115
C     -5.158640      5.988035     -0.388824
F     -5.515256      7.256461     -0.629912
C     -3.844543      5.591426     -0.612296
C     -3.252258     -1.377461      1.733767
C     -4.157945     -2.304745      1.210585
O     -5.442093     -2.154042      1.661705
C     -6.407882     -3.082497      1.185192
C     -3.712525     -3.271609      0.304302
H     -3.107945     -5.816348     -0.800067
H     -3.444778     -4.664202     -2.151030
H     -2.068167     -5.770365     -2.228727
H     -0.430433     -2.405420      0.144093
H     -1.315278      0.034762      2.846604
H     -0.005447     -0.891848      2.203400
H      1.208987     -0.918301     -1.653534
H      2.562341      0.218397     -1.491057
H      3.312388     -2.154326     -1.743739
H      2.396972     -2.614621     -0.327009
H      4.670487     -2.349214      0.432817
H      5.797163     -0.416779     -2.435837
H      5.387618     -2.053419     -1.948123
H      7.816829     -1.835834     -2.170084
H      7.418755     -2.139317     -0.479694
H      6.924932      1.476367     -1.022317
H      7.892564      1.282496      0.439987
H      6.419465     -0.598446      1.185936
H      5.537993      0.937441      1.010873
H      4.265596     -0.584066      2.208394
H      2.948362     -1.702103      1.959335
H      3.074477      1.139214      0.804478
H      2.111346      0.587149      2.183617
H      0.569823      4.357583     -2.199357
H     -2.538683      1.736528      1.421921
H     -4.204229      2.301021      0.239173
H     -6.486943      3.053244      0.662332
H     -7.128992      5.424689      0.243307
H     -3.137348      6.330882     -0.979784
H     -3.612199     -0.631088      2.438337
H     -6.152818     -4.105265      1.481764
H     -6.529399     -3.002831      0.099899
H     -7.368079     -2.832146      1.646468
H     -4.408982     -3.991558     -0.103258
