106
Drug@Ti12C7O14 clean complex
C     -1.897164     -4.904263     12.023095
O     -1.244428     -3.939796     11.208371
C     -2.038518     -3.132181     10.439111
C     -1.338498     -2.203052      9.664846
C     -2.012480     -1.306813      8.826382
C     -1.242678     -0.291405      8.013854
C     -0.880720      0.957074      8.792402
C      0.385807      1.130791      9.378647
N      1.375169      0.136362      9.163916
C      2.277504      0.575646      8.093266
C      3.260758     -0.550291      7.772025
C      4.065889     -0.987269      9.019711
N      4.968981     -2.122384      8.677839
C      6.081684     -1.732901      7.771932
C      7.187010     -0.908394      8.458372
O      7.721059     -1.587108      9.601637
C      6.680718     -1.934012     10.524587
C      5.599712     -2.788243      9.843304
C      3.062993     -1.324061     10.149460
C      2.097801     -0.165689     10.405119
N      0.713335      2.203303     10.127385
C     -0.249399      3.134813     10.297219
C     -0.246576      4.301127     11.070653
N     -1.406976      4.953320     11.016617
N     -2.158886      4.241169     10.124287
C     -1.512005      3.074124      9.723262
C     -1.865072      1.946085      8.975242
C     -3.428156      4.765434      9.731062
C     -4.090717      4.331489      8.574551
C     -5.333936      4.873091      8.224323
C     -5.917325      5.857361      9.018095
C     -5.249202      6.304580     10.150023
F     -5.805633      7.259077     10.907277
C     -4.013455      5.777700     10.509863
C     -3.410748     -1.357568      8.777840
C     -4.124145     -2.281496      9.547013
O     -5.483236     -2.210833      9.394887
C     -6.267748     -3.113978     10.163230
C     -3.434506     -3.169429     10.377769
H     -2.545823     -4.422752     12.762299
H     -1.126644     -5.458369     12.567792
H     -2.455586     -5.622685     11.413955
H     -0.251787     -2.179283      9.720006
H     -0.357224     -0.770966      7.579717
H     -1.836871      0.002402      7.137237
H      1.711719      0.810251      7.182398
H      2.831010      1.479514      8.382575
H      2.708093     -1.410515      7.370757
H      3.920464     -0.191246      6.976309
H      4.659674     -0.130256      9.361638
H      6.532150     -2.661832      7.396508
H      5.723484     -1.210340      6.881230
H      6.827365      0.080162      8.763964
H      8.013583     -0.751298      7.757756
H      7.142630     -2.504926     11.336425
H      6.263578     -1.019284     10.960523
H      6.073217     -3.708558      9.474280
H      4.857890     -3.130936     10.570195
H      2.494637     -2.226154      9.887693
H      3.585904     -1.522866     11.090980
H      2.664647      0.700963     10.771444
H      1.392882     -0.465205     11.191197
H      0.552257      4.687442     11.688243
H     -2.863193      1.797971      8.581925
H     -3.652140      3.615592      7.889415
H     -5.839639      4.535142      7.322601
H     -6.879305      6.286696      8.756986
H     -3.532347      6.160064     11.406785
H     -3.961023     -0.672748      8.136825
H     -6.051130     -4.152823      9.893285
H     -6.127089     -2.945379     11.236006
H     -7.320056     -2.922864      9.931810
H     -3.981534     -3.886297     10.974607
Ti     -2.141866     -3.008818      2.119748
Ti      0.288991     -1.694759      1.432425
Ti      1.903098     -3.067749     -0.729322
Ti     -2.521502     -0.251928      1.303687
Ti      2.142050      0.499533      2.204434
Ti     -0.681448      0.189635      3.681230
Ti     -2.036770     -3.077740     -1.200512
Ti     -0.605340     -0.770900     -2.035132
Ti      1.945488     -1.587317     -3.412400
Ti     -1.878170      1.746573     -1.240030
Ti      2.412512      0.454231     -0.774247
Ti      0.817742      1.838452     -2.940004
C     -3.678414      1.281398      0.600737
C      4.128193      0.482847      0.387293
C      0.455479      2.267202      0.349695
C     -3.666709      2.118834     -0.313920
C      4.115962      0.632239      1.621354
C     -0.635167      2.741046     -0.118921
C      1.630072      1.780996      0.734224
O     -3.093456     -1.956907      1.037949
O     -0.487250     -2.605849      2.701203
O      0.314079     -2.888890      0.145001
O     -0.800785     -0.435934      0.971227
O      1.902865     -1.158331      1.469449
O     -2.322673     -0.113878      3.024800
O      1.013786      0.441598      3.568761
O     -1.772019     -4.587905     -1.652810
O      0.190605     -1.189189     -3.534030
O      2.831420     -2.170248     -1.918042
O     -2.054558     -0.224445     -1.337505
O      0.768511     -0.390574     -1.063664
O     -0.900039      1.649313     -2.818565
O      2.415313      1.357463     -2.264115
