      -----------------------------------------------------------      
     |                   =====================                   |     
     |                           x T B                           |     
     |                   =====================                   |     
     |                         S. Grimme                         |     
     |          Mulliken Center for Theoretical Chemistry        |     
     |                    University of Bonn                     |     
      -----------------------------------------------------------      

   * xtb version 6.7.1pre (5071a88) compiled by 'Marcel@Raven' on 2024-07-23

   xtb is free software: you can redistribute it and/or modify it under
   the terms of the GNU Lesser General Public License as published by
   the Free Software Foundation, either version 3 of the License, or
   (at your option) any later version.
   
   xtb is distributed in the hope that it will be useful,
   but WITHOUT ANY WARRANTY; without even the implied warranty of
   MERCHANTABILITY or FITNESS FOR A PARTICULAR PURPOSE.  See the
   GNU Lesser General Public License for more details.
   
   Cite this work as:
   * C. Bannwarth, E. Caldeweyher, S. Ehlert, A. Hansen, P. Pracht,
     J. Seibert, S. Spicher, S. Grimme, WIREs Comput. Mol. Sci., 2020, 11,
     e01493. DOI: 10.1002/wcms.1493
   
   for GFN2-xTB:
   * C. Bannwarth, S. Ehlert and S. Grimme., J. Chem. Theory Comput., 2019,
     15, 1652-1671. DOI: 10.1021/acs.jctc.8b01176
   for GFN1-xTB:
   * S. Grimme, C. Bannwarth, P. Shushkov, J. Chem. Theory Comput., 2017,
     13, 1989-2009. DOI: 10.1021/acs.jctc.7b00118
   for GFN0-xTB:
   * P. Pracht, E. Caldeweyher, S. Ehlert, S. Grimme, ChemRxiv, 2019, preprint.
     DOI: 10.26434/chemrxiv.8326202.v1
   for GFN-FF:
   * S. Spicher and S. Grimme, Angew. Chem. Int. Ed., 2020, 59, 15665-15673.
     DOI: 10.1002/anie.202004239
   
   for ALPB and GBSA implicit solvation:
   * S. Ehlert, M. Stahn, S. Spicher, S. Grimme, J. Chem. Theory Comput.,
     2021, 17, 4250-4261. DOI: 10.1021/acs.jctc.1c00471
   
   for ddCOSMO and CPCM-X implicit solvation:
   * M. Stahn, S. Ehlert, S. Grimme, J. Phys. Chem. A,
     2023, XX, XXXX-XXXX. DOI: 10.1021/acs.jpca.3c04382
   
   for DFT-D4:
   * E. Caldeweyher, C. Bannwarth and S. Grimme, J. Chem. Phys., 2017,
     147, 034112. DOI: 10.1063/1.4993215
   * E. Caldeweyher, S. Ehlert, A. Hansen, H. Neugebauer, S. Spicher,
     C. Bannwarth and S. Grimme, J. Chem. Phys., 2019, 150, 154122.
     DOI: 10.1063/1.5090222
   * E. Caldeweyher, J.-M. Mewes, S. Ehlert and S. Grimme, Phys. Chem. Chem. Phys.
     2020, 22, 8499-8512. DOI: 10.1039/D0CP00502A
   
   for sTDA-xTB:
   * S. Grimme and C. Bannwarth, J. Chem. Phys., 2016, 145, 054103.
     DOI: 10.1063/1.4959605
   
   in the mass-spec context:
   * V. Asgeirsson, C. Bauer and S. Grimme, Chem. Sci., 2017, 8, 4879.
     DOI: 10.1039/c7sc00601b
   * J. Koopman and S. Grimme, ACS Omega 2019, 4, 12, 15120-15133.
     DOI: 10.1021/acsomega.9b02011
   
   for metadynamics refer to:
   * S. Grimme, J. Chem. Theory Comput., 2019, 155, 2847-2862
     DOI: 10.1021/acs.jctc.9b00143
   
   for SPH calculations refer to:
   * S. Spicher and S. Grimme, J. Chem. Theory Comput., 2021, 17, 1701-1714
     DOI: 10.1021/acs.jctc.0c01306
   
   for ONIOM refer to:
   * C. Plett, A. Katbashev, S. Ehlert, S. Grimme, M. Bursch,
     Phys. Chem. Chem. Phys., 2023, 25, 17860-17868. DOI: 10.1039/D3CP02178E
   
   for DIPRO refer to:
   * J. Kohn, N. Gildemeister, S. Grimme, D. Fazzi, A. Hansen,
     J. Chem. Phys., 2023, just accepted.
   
   for PTB refer to:
   * S. Grimme, M. Mueller, A. Hansen, J. Chem. Phys., 2023, 158, 124111.
     DOI: 10.1063/5.0137838
   
   with help from (in alphabetical order)
   P. Atkinson, C. Bannwarth, F. Bohle, G. Brandenburg, E. Caldeweyher
   M. Checinski, S. Dohm, S. Ehlert, S. Ehrlich, I. Gerasimov, C. Hölzer
   A. Katbashev, J. Kohn, J. Koopman, C. Lavigne, S. Lehtola, F. März, M. Müller,
   F. Musil, H. Neugebauer, J. Pisarek, C. Plett, P. Pracht, F. Pultar,
   J. Seibert, P. Shushkov, S. Spicher, M. Stahn, M. Steiner, T. Strunk,
   J. Stückrath, T. Rose, and J. Unsleber
   
 * started run on 2026/08/31 at 21:53:15.835     
   ID    Z sym.   atoms
    1    8 O      1, 25, 60-73
    2    6 C      2, 4, 6-8, 11-15, 17, 18, 20, 21, 23, 24, 53-59
    3    7 N      3, 5, 9, 10, 19, 22
    4    9 F      16
    5    1 H      26-40
    6   22 Ti     41-52

           -------------------------------------------------
          |                Calculation Setup                |
           -------------------------------------------------

          program call               : "c:\Users\Andre\Proyectos doctorado\kras-pancreatic-gC3N4-ai\tools\xtb\xtb-6.7.1\bin\xtb.exe" "c:\Users\Andre\Proyectos doctorado\mxene-glioblastoma-qsar-ai\calculations\gbm\Larotrectinib\Larotrectinib_Ti12C7O14_clean_complex.xyz" --gfn 2 --sp --chrg 0 --uhf 0 --etemp 500 --acc 1.0 --iterations 500 --norestart
          coordinate file            : c:\Users\Andre\Proyectos doctorado\mxene-glioblastoma-qsar-ai\calculations\gbm\Larotrectinib\Larotrectinib_Ti12C7O14_clean_complex.xyz
          omp threads                :                    16


molecular fragmentation (1/2 indicates fragments):
111111111111111111111111111111111111111122222222222222222222222222222222
2
# atoms in fragment 1/2:    40    33
 fragment masses (1/2) :      342.33      882.47
CMA distance (Bohr)    :  15.111
constraining FC (au)   :  0.0500

           -------------------------------------------------
          |                 G F N 2 - x T B                 |
           -------------------------------------------------

        Reference                      10.1021/acs.jctc.8b01176
      * Hamiltonian:
        H0-scaling (s, p, d)           1.850000    2.230000    2.230000
        zeta-weighting                 0.500000
      * Dispersion:
        s8                             2.700000
        a1                             0.520000
        a2                             5.000000
        s9                             5.000000
      * Repulsion:
        kExp                           1.500000    1.000000
        rExp                           1.000000
      * Coulomb:
        alpha                          2.000000
        third order                    shell-resolved
        anisotropic                    true
        a3                             3.000000
        a5                             4.000000
        cn-shift                       1.200000
        cn-exp                         4.000000
        max-rad                        5.000000


          ...................................................
          :                      SETUP                      :
          :.................................................:
          :  # basis functions                 319          :
          :  # atomic orbitals                 307          :
          :  # shells                          143          :
          :  # electrons                       288          :
          :  max. iterations                   500          :
          :  Hamiltonian                  GFN2-xTB          :
          :  restarted?                      false          :
          :  GBSA solvation                  false          :
          :  PC potential                    false          :
          :  electronic temp.          500.0000000     K    :
          :  accuracy                    1.0000000          :
          :  -> integral cutoff          0.2500000E+02      :
          :  -> integral neglect         0.1000000E-07      :
          :  -> SCF convergence          0.1000000E-05 Eh   :
          :  -> wf. convergence          0.1000000E-03 e    :
          :  Broyden damping             0.4000000          :
          :  net charge                          0          :
          :  unpaired electrons                  0          :
          ...................................................

 iter      E             dE          RMSdq      gap      omega  full diag
   1   -163.9381346 -0.163938E+03  0.139E+01    0.05       0.0  T
   2   -147.6934815  0.162447E+02  0.121E+01    0.14       1.0  T
   3    -95.9528341  0.517406E+02  0.224E+01    0.07       1.0  T
   4   -163.6547149 -0.677019E+02  0.920E+00    0.02       1.0  T
   5   -165.3066481 -0.165193E+01  0.616E+00    0.26       1.0  T
   6   -164.7495972  0.557051E+00  0.535E+00    0.04       1.0  T
   7   -165.3777886 -0.628191E+00  0.456E+00    0.65       1.0  T
   8   -165.5438743 -0.166086E+00  0.376E+00    0.82       1.0  T
   9   -165.4519456  0.919287E-01  0.345E+00    0.12       1.0  T
  10   -165.6340997 -0.182154E+00  0.275E+00    0.43       1.0  T
  11   -164.7150480  0.919052E+00  0.458E+00    0.18       1.0  T
  12   -164.7876771 -0.726292E-01  0.420E+00    0.14       1.0  T
  13   -164.6498270  0.137850E+00  0.463E+00    0.22       1.0  T
  14   -165.7336286 -0.108380E+01  0.184E+00    0.23       1.0  T
  15   -165.8166245 -0.829959E-01  0.187E+00    0.66       1.0  T
  16   -165.8391818 -0.225573E-01  0.173E+00    0.78       1.0  T
  17   -165.8546091 -0.154273E-01  0.150E+00    0.91       1.0  T
  18   -165.8822166 -0.276074E-01  0.109E+00    0.89       1.0  T
  19   -165.8916107 -0.939418E-02  0.874E-01    0.68       1.0  T
  20   -165.9060880 -0.144773E-01  0.655E-01    0.48       1.0  T
  21   -165.9124397 -0.635164E-02  0.458E-01    0.40       1.0  T
  22   -165.9181454 -0.570575E-02  0.199E-01    0.32       1.0  T
  23   -165.9186062 -0.460789E-03  0.172E-01    0.34       1.0  T
  24   -165.9187088 -0.102602E-03  0.158E-01    0.33       1.0  T
  25   -165.9194294 -0.720564E-03  0.118E-01    0.30       1.0  T
  26   -165.9194634 -0.339815E-04  0.111E-01    0.33       1.0  T
  27   -165.9196250 -0.161641E-03  0.994E-02    0.32       1.0  T
  28   -165.9197326 -0.107570E-03  0.814E-02    0.32       1.0  T
  29   -165.9198021 -0.695155E-04  0.788E-02    0.32       1.0  T
  30   -165.9198622 -0.601295E-04  0.715E-02    0.31       1.0  T
  31   -165.9198944 -0.322210E-04  0.545E-02    0.31       1.0  T
  32   -165.9199117 -0.173030E-04  0.419E-02    0.32       1.0  T
  33   -165.9199287 -0.169394E-04  0.344E-02    0.31       1.0  T
  34   -165.9199479 -0.192358E-04  0.282E-02    0.31       1.0  T
  35   -165.9199548 -0.684544E-05  0.217E-02    0.31       1.0  T
  36   -165.9199632 -0.845792E-05  0.136E-02    0.31       1.0  T
  37   -165.9199682 -0.497710E-05  0.782E-03    0.31       1.5  T
  38   -165.9199692 -0.101534E-05  0.495E-03    0.31       2.4  T
  39   -165.9199699 -0.643124E-06  0.316E-03    0.31       3.7  T
  40   -165.9199700 -0.185731E-06  0.981E-04    0.31      11.9  T
  41   -165.9199701 -0.179125E-07  0.482E-04    0.31      24.3  T

   *** convergence criteria satisfied after 41 iterations ***

         #    Occupation            Energy/Eh            Energy/eV
      -------------------------------------------------------------
         1        2.0000           -0.8188580             -22.2823
       ...           ...                  ...                  ...
       138        2.0000           -0.3579640              -9.7407
       139        2.0000           -0.3498431              -9.5197
       140        2.0000           -0.3451715              -9.3926
       141        2.0000           -0.3408277              -9.2744
       142        2.0000           -0.3360578              -9.1446
       143        2.0000           -0.3220064              -8.7622
       144        1.9466           -0.3079311              -8.3792 (HOMO)
       145        0.0533           -0.2965413              -8.0693 (LUMO)
       146        0.0000           -0.2846238              -7.7450
       147        0.0000           -0.2842462              -7.7347
       148        0.0000           -0.2827729              -7.6946
       149        0.0000           -0.2814862              -7.6596
       ...           ...                  ...                  ...
       307                         13.4473582             365.9212
      -------------------------------------------------------------
                  HL-Gap            0.0113897 Eh            0.3099 eV
             Fermi-level           -0.3022371 Eh           -8.2243 eV

 SCC (total)                   0 d,  0 h,  0 min,  0.898 sec
 SCC setup                      ...        0 min,  0.001 sec (  0.111%)
 Dispersion                     ...        0 min,  0.001 sec (  0.111%)
 classical contributions        ...        0 min,  0.000 sec (  0.000%)
 integral evaluation            ...        0 min,  0.008 sec (  0.891%)
 iterations                     ...        0 min,  0.868 sec ( 96.659%)
 molecular gradient             ...        0 min,  0.018 sec (  2.004%)
 printout                       ...        0 min,  0.002 sec (  0.223%)

         :::::::::::::::::::::::::::::::::::::::::::::::::::::
         ::                     SUMMARY                     ::
         :::::::::::::::::::::::::::::::::::::::::::::::::::::
         :: total energy            -164.381684274639 Eh    ::
         :: gradient norm              0.114178068694 Eh/a0 ::
         :: HOMO-LUMO gap              0.309930804148 eV    ::
         ::.................................................::
         :: SCC energy              -165.916809881560 Eh    ::
         :: -> isotropic ES            1.003346573814 Eh    ::
         :: -> anisotropic ES         -0.382097022279 Eh    ::
         :: -> anisotropic XC         -0.029299926602 Eh    ::
         :: -> dispersion             -0.136693822783 Eh    ::
         :: repulsion energy           1.535125606921 Eh    ::
         :: add. restraining           0.000000000000 Eh    ::
         :: total charge              -0.000000000007 e     ::
         :::::::::::::::::::::::::::::::::::::::::::::::::::::

           -------------------------------------------------
          |                Property Printout                |
           -------------------------------------------------

    * Orbital Energies and Occupations

         #    Occupation            Energy/Eh            Energy/eV
      -------------------------------------------------------------
         1        2.0000           -0.8188580             -22.2823
       ...           ...                  ...                  ...
       132        2.0000           -0.3818676             -10.3911
       133        2.0000           -0.3801485             -10.3444
       134        2.0000           -0.3761053             -10.2343
       135        2.0000           -0.3673410              -9.9959
       136        2.0000           -0.3620215              -9.8511
       137        2.0000           -0.3601530              -9.8003
       138        2.0000           -0.3579640              -9.7407
       139        2.0000           -0.3498431              -9.5197
       140        2.0000           -0.3451715              -9.3926
       141        2.0000           -0.3408277              -9.2744
       142        2.0000           -0.3360578              -9.1446
       143        2.0000           -0.3220064              -8.7622
       144        1.9466           -0.3079311              -8.3792 (HOMO)
       145        0.0533           -0.2965413              -8.0693 (LUMO)
       146        0.0000           -0.2846238              -7.7450
       147        0.0000           -0.2842462              -7.7347
       148        0.0000           -0.2827729              -7.6946
       149        0.0000           -0.2814862              -7.6596
       150        0.0000           -0.2787014              -7.5839
       151                         -0.2740309              -7.4568
       152                         -0.2733055              -7.4370
       153                         -0.2711267              -7.3777
       154                         -0.2709227              -7.3722
       155                         -0.2700228              -7.3477
       ...                                ...                  ...
       307                         13.4473582             365.9212
      -------------------------------------------------------------
                  HL-Gap            0.0113897 Eh            0.3099 eV
             Fermi-level           -0.3022371 Eh           -8.2243 eV

     #   Z          covCN         q      C6AA      α(0)
     1   8 O        0.856    -0.368    21.046     6.151
     2   6 C        2.748     0.264    22.546     7.775
     3   7 N        2.703    -0.143    24.104     7.292
     4   6 C        2.867     0.239    23.010     7.863
     5   7 N        1.847    -0.276    28.020     7.845
     6   6 C        2.884     0.067    26.504     8.440
     7   6 C        3.048    -0.037    28.872     8.813
     8   6 C        3.077     0.022    27.443     8.589
     9   7 N        1.959    -0.197    26.067     7.571
    10   7 N        2.990     0.052    20.329     6.697
    11   6 C        2.898     0.062    26.614     8.459
    12   6 C        2.915    -0.047    29.178     8.858
    13   6 C        2.911    -0.031    28.774     8.796
    14   6 C        2.913    -0.054    29.345     8.883
    15   6 C        2.775     0.175    24.223     8.061
    16   9 F        0.787    -0.210    11.338     3.978
    17   6 C        2.913    -0.073    29.816     8.954
    18   6 C        3.082     0.137    24.931     8.185
    19   7 N        1.832    -0.267    27.777     7.810
    20   6 C        3.739     0.079    19.340     6.275
    21   6 C        3.740     0.006    20.558     6.469
    22   7 N        2.673    -0.263    26.817     7.691
    23   6 C        3.739    -0.002    20.693     6.491
    24   6 C        3.687     0.073    19.540     6.328
    25   8 O        1.694    -0.337    19.658     5.986
    26   1 H        0.860     0.234     0.949     1.526
    27   1 H        0.925     0.060     2.199     2.319
    28   1 H        0.925     0.052     2.295     2.369
    29   1 H        0.925     0.076     2.022     2.224
    30   1 H        0.925     0.060     2.198     2.319
    31   1 H        0.925     0.068     2.105     2.269
    32   1 H        0.925     0.117     1.640     2.002
    33   1 H        0.924     0.066     2.135     2.285
    34   1 H        0.923     0.034     2.527     2.486
    35   1 H        0.924     0.071     2.080     2.255
    36   1 H        0.860     0.144     1.441     1.880
    37   1 H        0.924     0.039     2.467     2.456
    38   1 H        0.924     0.053     2.284     2.364
    39   1 H        0.924     0.052     2.293     2.368
    40   1 H        0.924     0.032     2.557     2.501
    41  22 Ti       3.637     1.047   101.836    24.493
    42  22 Ti       6.855     1.552    84.048    14.884
    43  22 Ti       3.227     1.047   102.651    24.740
    44  22 Ti       5.860     1.378    85.684    15.029
    45  22 Ti       5.627     1.125    88.171    15.245
    46  22 Ti       3.541     1.034   102.536    24.679
    47  22 Ti       2.352     0.881   202.670    34.858
    48  22 Ti       6.011     1.348    85.977    15.054
    49  22 Ti       3.414     1.007   103.062    24.780
    50  22 Ti       5.519     1.099    88.432    15.268
    51  22 Ti       5.687     1.190    87.523    15.189
    52  22 Ti       3.581     1.026   102.478    24.643
    53   6 C        2.246    -0.258    37.638     9.940
    54   6 C        2.142    -0.256    38.358    10.011
    55   6 C        2.248    -0.018    30.574     8.959
    56   6 C        1.838    -0.211    37.346     9.873
    57   6 C        1.894    -0.226    37.788     9.928
    58   6 C        1.821    -0.343    42.017    10.473
    59   6 C        2.631    -0.400    39.794    10.319
    60   8 O        1.554    -0.849    32.070     7.640
    61   8 O        1.464    -0.887    33.409     7.791
    62   8 O        1.557    -0.957    35.629     8.053
    63   8 O        1.523    -1.006    37.469     8.256
    64   8 O        1.523    -0.915    34.235     7.892
    65   8 O        1.458    -0.825    31.476     7.562
    66   8 O        1.455    -0.800    30.727     7.471
    67   8 O        0.727    -0.636    27.098     6.976
    68   8 O        1.453    -0.864    32.696     7.706
    69   8 O        1.476    -0.799    30.671     7.466
    70   8 O        1.603    -0.945    35.189     8.006
    71   8 O        1.547    -0.968    36.054     8.101
    72   8 O        1.700    -0.817    30.981     7.515
    73   8 O        1.453    -0.781    30.179     7.404

 Mol. C6AA /au·bohr⁶  :     144979.318199
 Mol. C8AA /au·bohr⁸  :    6489653.379092
 Mol. α(0) /au        :        648.084009


Wiberg/Mayer (AO) data.
largest (>0.10) Wiberg bond orders for each atom

 ---------------------------------------------------------------------------
     #   Z sym  total        # sym  WBO       # sym  WBO       # sym  WBO
 ---------------------------------------------------------------------------
     1   8 O    2.062 --     2 C    1.741     3 N    0.152
     2   6 C    3.940 --     1 O    1.741     3 N    1.175    20 C    0.940
     3   7 N    3.520 --     2 C    1.175     4 C    1.124    26 H    0.908
                             1 O    0.152
     4   6 C    3.951 --    19 N    1.375     5 N    1.302     3 N    1.124
     5   7 N    3.029 --     6 C    1.467     4 C    1.302
     6   6 C    3.938 --     5 N    1.467     7 C    1.322    27 H    0.962
     7   6 C    3.977 --     6 C    1.322    18 C    1.232     8 C    1.231
     8   6 C    3.957 --     9 N    1.587     7 C    1.231    28 H    0.965
     9   7 N    2.957 --     8 C    1.587    10 N    1.148
    10   7 N    3.649 --    18 C    1.180     9 N    1.148    11 C    1.039
    11   6 C    3.957 --    17 C    1.380    12 C    1.370    10 N    1.039
    12   6 C    3.979 --    13 C    1.450    11 C    1.370    29 H    0.964
    13   6 C    3.987 --    12 C    1.450    14 C    1.434    30 H    0.969
                            17 C    0.106
    14   6 C    3.972 --    13 C    1.434    15 C    1.390    31 H    0.966
    15   6 C    3.889 --    17 C    1.393    14 C    1.390    16 F    0.971
    16   9 F    1.111 --    15 C    0.971
    17   6 C    3.977 --    15 C    1.393    11 C    1.380    32 H    0.933
                            13 C    0.106
    18   6 C    3.965 --    19 N    1.309     7 C    1.232    10 N    1.180
    19   7 N    3.051 --     4 C    1.375    18 C    1.309
    20   6 C    3.950 --    21 C    0.990    25 O    0.966     2 C    0.940
                            33 H    0.935
    21   6 C    3.983 --    22 N    1.006    20 C    0.990    34 H    0.972
                            35 H    0.967
    22   7 N    3.046 --    23 C    1.011    21 C    1.006    36 H    0.960
    23   6 C    3.987 --    22 N    1.011    24 C    0.995    37 H    0.977
                            38 H    0.971
    24   6 C    3.948 --    23 C    0.995    40 H    0.970    39 H    0.970
                            25 O    0.968
    25   8 O    2.051 --    24 C    0.968    20 C    0.966
    26   1 H    0.944 --     3 N    0.908
    27   1 H    0.995 --     6 C    0.962
    28   1 H    0.996 --     8 C    0.965
    29   1 H    0.994 --    12 C    0.964
    30   1 H    0.996 --    13 C    0.969
    31   1 H    0.995 --    14 C    0.966
    32   1 H    0.986 --    17 C    0.933
    33   1 H    0.994 --    20 C    0.935
    34   1 H    0.999 --    21 C    0.972
    35   1 H    0.995 --    21 C    0.967
    36   1 H    0.979 --    22 N    0.960
    37   1 H    0.998 --    23 C    0.977
    38   1 H    0.997 --    23 C    0.971
    39   1 H    0.997 --    24 C    0.970
    40   1 H    0.999 --    24 C    0.970
    41  22 Ti   2.831 --    60 O    0.847    61 O    0.814    47 Ti   0.332
                            42 Ti   0.200    44 Ti   0.197    46 Ti   0.104
    42  22 Ti   3.853 --    61 O    0.745    64 O    0.743    62 O    0.688
                            63 O    0.613    41 Ti   0.200    43 Ti   0.187
                            45 Ti   0.140    46 Ti   0.137
    43  22 Ti   2.722 --    69 O    0.962    62 O    0.601    49 Ti   0.371
                            42 Ti   0.187    47 Ti   0.140    64 O    0.110
    44  22 Ti   3.925 --    65 O    0.941    53 C    0.719    60 O    0.700
                            63 O    0.568    46 Ti   0.212    41 Ti   0.197
                            50 Ti   0.180    70 O    0.124
    45  22 Ti   4.067 --    59 C    0.876    66 O    0.788    57 C    0.741
                            64 O    0.602    51 Ti   0.280    46 Ti   0.176
                            58 C    0.153    54 C    0.151    42 Ti   0.140
    46  22 Ti   2.739 --    66 O    0.948    65 O    0.697    44 Ti   0.212
                            45 Ti   0.176    42 Ti   0.137    61 O    0.121
                            41 Ti   0.104
    47  22 Ti   3.769 --    67 O    1.996    48 Ti   0.608    41 Ti   0.332
                            62 O    0.152    60 O    0.147    43 Ti   0.140
                            70 O    0.112
    48  22 Ti   4.016 --    70 O    0.800    68 O    0.753    71 O    0.715
                            47 Ti   0.608    72 O    0.195    49 Ti   0.167
                            52 Ti   0.148    50 Ti   0.141
    49  22 Ti   2.746 --    68 O    0.835    69 O    0.764    43 Ti   0.371
                            52 Ti   0.221    48 Ti   0.167    51 Ti   0.130
    50  22 Ti   4.000 --    58 C    1.047    56 C    0.728    72 O    0.616
                            70 O    0.443    59 C    0.223    52 Ti   0.199
                            44 Ti   0.180    53 C    0.157    48 Ti   0.141
    51  22 Ti   4.077 --    73 O    0.967    54 C    0.671    59 C    0.653
                            71 O    0.442    45 Ti   0.280    52 Ti   0.210
                            58 C    0.140    49 Ti   0.130    69 O    0.114
    52  22 Ti   2.790 --    72 O    0.899    73 O    0.735    49 Ti   0.221
                            51 Ti   0.210    50 Ti   0.199    48 Ti   0.148
    53   6 C    3.839 --    56 C    2.739    44 Ti   0.719    50 Ti   0.157
    54   6 C    3.782 --    57 C    2.732    51 Ti   0.671    45 Ti   0.151
    55   6 C    3.978 --    58 C    2.008    59 C    1.608
    56   6 C    3.706 --    53 C    2.739    50 Ti   0.728
    57   6 C    3.745 --    54 C    2.732    45 Ti   0.741
    58   6 C    3.740 --    55 C    2.008    50 Ti   1.047    45 Ti   0.153
                            51 Ti   0.140
    59   6 C    3.795 --    55 C    1.608    45 Ti   0.876    51 Ti   0.653
                            50 Ti   0.223
    60   8 O    1.931 --    41 Ti   0.847    44 Ti   0.700    47 Ti   0.147
    61   8 O    1.884 --    41 Ti   0.814    42 Ti   0.745    46 Ti   0.121
    62   8 O    1.782 --    42 Ti   0.688    43 Ti   0.601    47 Ti   0.152
    63   8 O    1.717 --    42 Ti   0.613    44 Ti   0.568
    64   8 O    1.843 --    42 Ti   0.743    45 Ti   0.602    43 Ti   0.110
    65   8 O    1.967 --    44 Ti   0.941    46 Ti   0.697
    66   8 O    2.009 --    46 Ti   0.948    45 Ti   0.788
    67   8 O    2.170 --    47 Ti   1.996
    68   8 O    1.911 --    49 Ti   0.835    48 Ti   0.753
    69   8 O    2.008 --    43 Ti   0.962    49 Ti   0.764    51 Ti   0.114
    70   8 O    1.799 --    48 Ti   0.800    50 Ti   0.443    44 Ti   0.124
                            47 Ti   0.112
    71   8 O    1.773 --    48 Ti   0.715    51 Ti   0.442
    72   8 O    1.986 --    52 Ti   0.899    50 Ti   0.616    48 Ti   0.195
    73   8 O    2.031 --    51 Ti   0.967    52 Ti   0.735
 ---------------------------------------------------------------------------

Topologies differ in total number of bonds
Writing topology from bond orders to xtbtopo.mol

molecular dipole:
                 x           y           z       tot (Debye)
 q only:        1.186      -1.307      -0.597
   full:        0.154      -1.851       0.441       4.852
molecular quadrupole (traceless):
                xx          xy          yy          xz          yz          zz
 q only:      -12.916       0.603     -20.239     -14.885     -15.693      33.154
  q+dip:       -7.856      -5.744     -39.497      27.228     -38.229      47.353
   full:       -8.107      -3.128     -40.298      26.673     -34.587      48.406


           -------------------------------------------------
          | TOTAL ENERGY             -164.381684274639 Eh   |
          | GRADIENT NORM               0.114178068694 Eh/α |
          | HOMO-LUMO GAP               0.309930804148 eV   |
           -------------------------------------------------

------------------------------------------------------------------------
 * finished run on 2026/08/31 at 21:53:16.809     
------------------------------------------------------------------------
 total:
 * wall-time:     0 d,  0 h,  0 min,  0.971 sec
 *  cpu-time:     0 d,  0 h,  0 min,  7.281 sec
 * ratio c/w:     7.499 speedup
 SCF:
 * wall-time:     0 d,  0 h,  0 min,  0.899 sec
 *  cpu-time:     0 d,  0 h,  0 min,  6.891 sec
 * ratio c/w:     7.665 speedup

normal termination of xtb
