      -----------------------------------------------------------      
     |                   =====================                   |     
     |                           x T B                           |     
     |                   =====================                   |     
     |                         S. Grimme                         |     
     |          Mulliken Center for Theoretical Chemistry        |     
     |                    University of Bonn                     |     
      -----------------------------------------------------------      

   * xtb version 6.7.1pre (5071a88) compiled by 'Marcel@Raven' on 2024-07-23

   xtb is free software: you can redistribute it and/or modify it under
   the terms of the GNU Lesser General Public License as published by
   the Free Software Foundation, either version 3 of the License, or
   (at your option) any later version.
   
   xtb is distributed in the hope that it will be useful,
   but WITHOUT ANY WARRANTY; without even the implied warranty of
   MERCHANTABILITY or FITNESS FOR A PARTICULAR PURPOSE.  See the
   GNU Lesser General Public License for more details.
   
   Cite this work as:
   * C. Bannwarth, E. Caldeweyher, S. Ehlert, A. Hansen, P. Pracht,
     J. Seibert, S. Spicher, S. Grimme, WIREs Comput. Mol. Sci., 2020, 11,
     e01493. DOI: 10.1002/wcms.1493
   
   for GFN2-xTB:
   * C. Bannwarth, S. Ehlert and S. Grimme., J. Chem. Theory Comput., 2019,
     15, 1652-1671. DOI: 10.1021/acs.jctc.8b01176
   for GFN1-xTB:
   * S. Grimme, C. Bannwarth, P. Shushkov, J. Chem. Theory Comput., 2017,
     13, 1989-2009. DOI: 10.1021/acs.jctc.7b00118
   for GFN0-xTB:
   * P. Pracht, E. Caldeweyher, S. Ehlert, S. Grimme, ChemRxiv, 2019, preprint.
     DOI: 10.26434/chemrxiv.8326202.v1
   for GFN-FF:
   * S. Spicher and S. Grimme, Angew. Chem. Int. Ed., 2020, 59, 15665-15673.
     DOI: 10.1002/anie.202004239
   
   for ALPB and GBSA implicit solvation:
   * S. Ehlert, M. Stahn, S. Spicher, S. Grimme, J. Chem. Theory Comput.,
     2021, 17, 4250-4261. DOI: 10.1021/acs.jctc.1c00471
   
   for ddCOSMO and CPCM-X implicit solvation:
   * M. Stahn, S. Ehlert, S. Grimme, J. Phys. Chem. A,
     2023, XX, XXXX-XXXX. DOI: 10.1021/acs.jpca.3c04382
   
   for DFT-D4:
   * E. Caldeweyher, C. Bannwarth and S. Grimme, J. Chem. Phys., 2017,
     147, 034112. DOI: 10.1063/1.4993215
   * E. Caldeweyher, S. Ehlert, A. Hansen, H. Neugebauer, S. Spicher,
     C. Bannwarth and S. Grimme, J. Chem. Phys., 2019, 150, 154122.
     DOI: 10.1063/1.5090222
   * E. Caldeweyher, J.-M. Mewes, S. Ehlert and S. Grimme, Phys. Chem. Chem. Phys.
     2020, 22, 8499-8512. DOI: 10.1039/D0CP00502A
   
   for sTDA-xTB:
   * S. Grimme and C. Bannwarth, J. Chem. Phys., 2016, 145, 054103.
     DOI: 10.1063/1.4959605
   
   in the mass-spec context:
   * V. Asgeirsson, C. Bauer and S. Grimme, Chem. Sci., 2017, 8, 4879.
     DOI: 10.1039/c7sc00601b
   * J. Koopman and S. Grimme, ACS Omega 2019, 4, 12, 15120-15133.
     DOI: 10.1021/acsomega.9b02011
   
   for metadynamics refer to:
   * S. Grimme, J. Chem. Theory Comput., 2019, 155, 2847-2862
     DOI: 10.1021/acs.jctc.9b00143
   
   for SPH calculations refer to:
   * S. Spicher and S. Grimme, J. Chem. Theory Comput., 2021, 17, 1701-1714
     DOI: 10.1021/acs.jctc.0c01306
   
   for ONIOM refer to:
   * C. Plett, A. Katbashev, S. Ehlert, S. Grimme, M. Bursch,
     Phys. Chem. Chem. Phys., 2023, 25, 17860-17868. DOI: 10.1039/D3CP02178E
   
   for DIPRO refer to:
   * J. Kohn, N. Gildemeister, S. Grimme, D. Fazzi, A. Hansen,
     J. Chem. Phys., 2023, just accepted.
   
   for PTB refer to:
   * S. Grimme, M. Mueller, A. Hansen, J. Chem. Phys., 2023, 158, 124111.
     DOI: 10.1063/5.0137838
   
   with help from (in alphabetical order)
   P. Atkinson, C. Bannwarth, F. Bohle, G. Brandenburg, E. Caldeweyher
   M. Checinski, S. Dohm, S. Ehlert, S. Ehrlich, I. Gerasimov, C. Hölzer
   A. Katbashev, J. Kohn, J. Koopman, C. Lavigne, S. Lehtola, F. März, M. Müller,
   F. Musil, H. Neugebauer, J. Pisarek, C. Plett, P. Pracht, F. Pultar,
   J. Seibert, P. Shushkov, S. Spicher, M. Stahn, M. Steiner, T. Strunk,
   J. Stückrath, T. Rose, and J. Unsleber
   
 * started run on 2026/08/31 at 20:55:16.515     
   ID    Z sym.   atoms
    1    8 O      1, 25
    2    6 C      2, 4, 6-8, 11-15, 17, 18, 20, 21, 23, 24
    3    7 N      3, 5, 9, 10, 19, 22
    4    9 F      16
    5    1 H      26-40

           -------------------------------------------------
          |                Calculation Setup                |
           -------------------------------------------------

          program call               : "c:\Users\Andre\Proyectos doctorado\kras-pancreatic-gC3N4-ai\tools\xtb\xtb-6.7.1\bin\xtb.exe" "c:\Users\Andre\Proyectos doctorado\mxene-glioblastoma-qsar-ai\calculations\gbm\Larotrectinib\Larotrectinib_drug.xyz" --gfn 2 --sp --chrg 0 --uhf 0 --iterations 500 --norestart
          coordinate file            : c:\Users\Andre\Proyectos doctorado\mxene-glioblastoma-qsar-ai\calculations\gbm\Larotrectinib\Larotrectinib_drug.xyz
          omp threads                :                    16


           -------------------------------------------------
          |                 G F N 2 - x T B                 |
           -------------------------------------------------

        Reference                      10.1021/acs.jctc.8b01176
      * Hamiltonian:
        H0-scaling (s, p, d)           1.850000    2.230000    2.230000
        zeta-weighting                 0.500000
      * Dispersion:
        s8                             2.700000
        a1                             0.520000
        a2                             5.000000
        s9                             5.000000
      * Repulsion:
        kExp                           1.500000    1.000000
        rExp                           1.000000
      * Coulomb:
        alpha                          2.000000
        third order                    shell-resolved
        anisotropic                    true
        a3                             3.000000
        a5                             4.000000
        cn-shift                       1.200000
        cn-exp                         4.000000
        max-rad                        5.000000


          ...................................................
          :                      SETUP                      :
          :.................................................:
          :  # basis functions                 115          :
          :  # atomic orbitals                 115          :
          :  # shells                           65          :
          :  # electrons                       128          :
          :  max. iterations                   500          :
          :  Hamiltonian                  GFN2-xTB          :
          :  restarted?                      false          :
          :  GBSA solvation                  false          :
          :  PC potential                    false          :
          :  electronic temp.          300.0000000     K    :
          :  accuracy                    1.0000000          :
          :  -> integral cutoff          0.2500000E+02      :
          :  -> integral neglect         0.1000000E-07      :
          :  -> SCF convergence          0.1000000E-05 Eh   :
          :  -> wf. convergence          0.1000000E-03 e    :
          :  Broyden damping             0.4000000          :
          :  net charge                          0          :
          :  unpaired electrons                  0          :
          ...................................................

 iter      E             dE          RMSdq      gap      omega  full diag
   1    -73.0280525 -0.730281E+02  0.458E+00    2.58       0.0  T
   2    -73.1489598 -0.120907E+00  0.293E+00    2.47       1.0  T
   3    -73.1605672 -0.116074E-01  0.153E+00    2.06       1.0  T
   4    -73.1769040 -0.163368E-01  0.495E-01    1.89       1.0  T
   5    -73.1817475 -0.484349E-02  0.121E-01    1.82       1.0  T
   6    -73.1819583 -0.210872E-03  0.669E-02    1.87       1.0  T
   7    -73.1820468 -0.884295E-04  0.238E-02    1.88       1.0  T
   8    -73.1820507 -0.392215E-05  0.113E-02    1.88       1.4  T
   9    -73.1820523 -0.159528E-05  0.395E-03    1.88       4.0  T
  10    -73.1820523 -0.614934E-07  0.151E-03    1.88      10.5  T
  11    -73.1820524 -0.228346E-07  0.610E-04    1.88      25.9  T
  12    -73.1820524 -0.259324E-08  0.261E-04    1.88      60.5  T

   *** convergence criteria satisfied after 12 iterations ***

         #    Occupation            Energy/Eh            Energy/eV
      -------------------------------------------------------------
         1        2.0000           -0.8249476             -22.4480
       ...           ...                  ...                  ...
        58        2.0000           -0.4236848             -11.5291
        59        2.0000           -0.4209735             -11.4553
        60        2.0000           -0.4194013             -11.4125
        61        2.0000           -0.4018901             -10.9360
        62        2.0000           -0.3963159             -10.7843
        63        2.0000           -0.3835019             -10.4356
        64        2.0000           -0.3712759             -10.1029 (HOMO)
        65                         -0.3020996              -8.2205 (LUMO)
        66                         -0.2744785              -7.4689
        67                         -0.2535690              -6.9000
        68                         -0.2484557              -6.7608
        69                         -0.2178822              -5.9289
       ...                                ...                  ...
       115                          0.6874466              18.7064
      -------------------------------------------------------------
                  HL-Gap            0.0691764 Eh            1.8824 eV
             Fermi-level           -0.3366878 Eh           -9.1617 eV

 SCC (total)                   0 d,  0 h,  0 min,  0.221 sec
 SCC setup                      ...        0 min,  0.007 sec (  3.167%)
 Dispersion                     ...        0 min,  0.004 sec (  1.810%)
 classical contributions        ...        0 min,  0.000 sec (  0.000%)
 integral evaluation            ...        0 min,  0.041 sec ( 18.552%)
 iterations                     ...        0 min,  0.162 sec ( 73.303%)
 molecular gradient             ...        0 min,  0.007 sec (  3.167%)
 printout                       ...        0 min,  0.000 sec (  0.000%)

         :::::::::::::::::::::::::::::::::::::::::::::::::::::
         ::                     SUMMARY                     ::
         :::::::::::::::::::::::::::::::::::::::::::::::::::::
         :: total energy             -72.323034590353 Eh    ::
         :: gradient norm              0.126570695789 Eh/a0 ::
         :: HOMO-LUMO gap              1.882384570597 eV    ::
         ::.................................................::
         :: SCC energy               -73.182336296691 Eh    ::
         :: -> isotropic ES            0.095042125594 Eh    ::
         :: -> anisotropic ES          0.007604511814 Eh    ::
         :: -> anisotropic XC          0.036363199109 Eh    ::
         :: -> dispersion             -0.043114045882 Eh    ::
         :: repulsion energy           0.859301706338 Eh    ::
         :: add. restraining           0.000000000000 Eh    ::
         :: total charge              -0.000000000000 e     ::
         :::::::::::::::::::::::::::::::::::::::::::::::::::::

           -------------------------------------------------
          |                Property Printout                |
           -------------------------------------------------

    * Orbital Energies and Occupations

         #    Occupation            Energy/Eh            Energy/eV
      -------------------------------------------------------------
         1        2.0000           -0.8249476             -22.4480
       ...           ...                  ...                  ...
        52        2.0000           -0.4636472             -12.6165
        53        2.0000           -0.4502057             -12.2507
        54        2.0000           -0.4500415             -12.2463
        55        2.0000           -0.4462012             -12.1418
        56        2.0000           -0.4389881             -11.9455
        57        2.0000           -0.4265771             -11.6078
        58        2.0000           -0.4236848             -11.5291
        59        2.0000           -0.4209735             -11.4553
        60        2.0000           -0.4194013             -11.4125
        61        2.0000           -0.4018901             -10.9360
        62        2.0000           -0.3963159             -10.7843
        63        2.0000           -0.3835019             -10.4356
        64        2.0000           -0.3712759             -10.1029 (HOMO)
        65                         -0.3020996              -8.2205 (LUMO)
        66                         -0.2744785              -7.4689
        67                         -0.2535690              -6.9000
        68                         -0.2484557              -6.7608
        69                         -0.2178822              -5.9289
        70                         -0.2016766              -5.4879
        71                         -0.1236469              -3.3646
        72                         -0.1120200              -3.0482
        73                         -0.0635733              -1.7299
        74                         -0.0360708              -0.9815
        75                         -0.0050260              -0.1368
       ...                                ...                  ...
       115                          0.6874466              18.7064
      -------------------------------------------------------------
                  HL-Gap            0.0691764 Eh            1.8824 eV
             Fermi-level           -0.3366878 Eh           -9.1617 eV

     #   Z          covCN         q      C6AA      α(0)
     1   8 O        0.856    -0.348    20.671     6.096
     2   6 C        2.744     0.269    22.463     7.760
     3   7 N        2.701    -0.154    24.338     7.327
     4   6 C        2.865     0.248    22.848     7.835
     5   7 N        1.837    -0.235    26.991     7.699
     6   6 C        2.886     0.078    26.251     8.400
     7   6 C        3.051    -0.034    28.791     8.800
     8   6 C        3.075     0.032    27.214     8.553
     9   7 N        1.960    -0.194    26.004     7.562
    10   7 N        2.994     0.046    20.429     6.713
    11   6 C        2.898     0.065    26.547     8.448
    12   6 C        2.913    -0.051    29.262     8.870
    13   6 C        2.912    -0.028    28.709     8.786
    14   6 C        2.912    -0.053    29.304     8.877
    15   6 C        2.773     0.174    24.253     8.066
    16   9 F        0.787    -0.213    11.374     3.984
    17   6 C        2.916    -0.058    29.445     8.898
    18   6 C        3.073     0.143    24.813     8.167
    19   7 N        1.842    -0.313    28.962     7.976
    20   6 C        3.743     0.083    19.264     6.262
    21   6 C        3.744     0.013    20.433     6.448
    22   7 N        2.674    -0.263    26.820     7.691
    23   6 C        3.745     0.009    20.494     6.458
    24   6 C        3.694     0.069    19.596     6.333
    25   8 O        1.695    -0.298    18.962     5.879
    26   1 H        0.860     0.199     1.109     1.649
    27   1 H        0.925     0.065     2.138     2.287
    28   1 H        0.925     0.050     2.321     2.382
    29   1 H        0.925     0.068     2.109     2.271
    30   1 H        0.925     0.052     2.290     2.366
    31   1 H        0.925     0.061     2.187     2.313
    32   1 H        0.925     0.086     1.923     2.169
    33   1 H        0.923     0.057     2.231     2.336
    34   1 H        0.924     0.031     2.575     2.510
    35   1 H        0.924     0.026     2.651     2.546
    36   1 H        0.860     0.141     1.462     1.894
    37   1 H        0.924     0.020     2.737     2.587
    38   1 H        0.924     0.041     2.436     2.441
    39   1 H        0.924     0.055     2.256     2.349
    40   1 H        0.924     0.061     2.187     2.313

 Mol. C6AA /au·bohr⁶  :      20734.396867
 Mol. C8AA /au·bohr⁸  :     490212.318674
 Mol. α(0) /au        :        222.300853


Wiberg/Mayer (AO) data.
largest (>0.10) Wiberg bond orders for each atom

 ---------------------------------------------------------------------------
     #   Z sym  total        # sym  WBO       # sym  WBO       # sym  WBO
 ---------------------------------------------------------------------------
     1   8 O    2.076 --     2 C    1.779     3 N    0.145
     2   6 C    3.940 --     1 O    1.779     3 N    1.148    20 C    0.929
     3   7 N    3.499 --     2 C    1.148     4 C    1.121    26 H    0.926
                             1 O    0.145
     4   6 C    3.959 --    19 N    1.363     5 N    1.327     3 N    1.121
     5   7 N    3.058 --     6 C    1.473     4 C    1.327
     6   6 C    3.969 --     5 N    1.473     7 C    1.330    27 H    0.961
                            19 N    0.104
     7   6 C    3.984 --     6 C    1.330    18 C    1.234     8 C    1.227
     8   6 C    3.970 --     9 N    1.601     7 C    1.227    28 H    0.966
     9   7 N    2.977 --     8 C    1.601    10 N    1.147
    10   7 N    3.642 --    18 C    1.176     9 N    1.147    11 C    1.044
    11   6 C    3.960 --    12 C    1.380    17 C    1.374    10 N    1.044
    12   6 C    3.984 --    13 C    1.443    11 C    1.380    29 H    0.962
    13   6 C    3.989 --    12 C    1.443    14 C    1.439    30 H    0.970
                            17 C    0.108
    14   6 C    3.974 --    13 C    1.439    15 C    1.386    31 H    0.967
    15   6 C    3.890 --    17 C    1.406    14 C    1.386    16 F    0.970
    16   9 F    1.106 --    15 C    0.970
    17   6 C    3.980 --    15 C    1.406    11 C    1.374    32 H    0.961
                            13 C    0.108
    18   6 C    3.966 --    19 N    1.320     7 C    1.234    10 N    1.176
    19   7 N    3.022 --     4 C    1.363    18 C    1.320     6 C    0.104
    20   6 C    3.964 --    25 O    0.998    21 C    0.971    33 H    0.946
                             2 C    0.929
    21   6 C    3.991 --    22 N    1.014    34 H    0.971    20 C    0.971
                            35 H    0.968
    22   7 N    3.042 --    21 C    1.014    23 C    1.006    36 H    0.957
    23   6 C    3.987 --    22 N    1.006    24 C    1.000    38 H    0.974
                            37 H    0.971
    24   6 C    3.947 --    23 C    1.000    25 O    0.973    39 H    0.970
                            40 H    0.968
    25   8 O    2.084 --    20 C    0.998    24 C    0.973
    26   1 H    0.960 --     3 N    0.926
    27   1 H    0.995 --     6 C    0.961
    28   1 H    0.997 --     8 C    0.966
    29   1 H    0.995 --    12 C    0.962
    30   1 H    0.997 --    13 C    0.970
    31   1 H    0.996 --    14 C    0.967
    32   1 H    0.993 --    17 C    0.961
    33   1 H    0.996 --    20 C    0.946
    34   1 H    0.999 --    21 C    0.971
    35   1 H    0.999 --    21 C    0.968
    36   1 H    0.980 --    22 N    0.957
    37   1 H    1.000 --    23 C    0.971
    38   1 H    0.998 --    23 C    0.974
    39   1 H    0.997 --    24 C    0.970
    40   1 H    0.996 --    24 C    0.968
 ---------------------------------------------------------------------------

Topologies differ in total number of bonds
Writing topology from bond orders to xtbtopo.mol

molecular dipole:
                 x           y           z       tot (Debye)
 q only:        0.143       0.551      -1.251
   full:        0.184       0.618      -1.565       4.303
molecular quadrupole (traceless):
                xx          xy          yy          xz          yz          zz
 q only:      -15.170      12.851       0.854      -6.333       0.967      14.316
  q+dip:      -23.575      15.805      -1.364     -13.204       0.196      24.939
   full:      -25.432      17.486       4.478     -12.877       0.193      20.954


           -------------------------------------------------
          | TOTAL ENERGY              -72.323034590353 Eh   |
          | GRADIENT NORM               0.126570695789 Eh/α |
          | HOMO-LUMO GAP               1.882384570597 eV   |
           -------------------------------------------------

------------------------------------------------------------------------
 * finished run on 2026/08/31 at 20:55:16.831     
------------------------------------------------------------------------
 total:
 * wall-time:     0 d,  0 h,  0 min,  0.314 sec
 *  cpu-time:     0 d,  0 h,  0 min,  1.984 sec
 * ratio c/w:     6.320 speedup
 SCF:
 * wall-time:     0 d,  0 h,  0 min,  0.222 sec
 *  cpu-time:     0 d,  0 h,  0 min,  1.672 sec
 * ratio c/w:     7.531 speedup

normal termination of xtb
