73
Drug@Ti12C7O14 non-overlapping complex
O      3.108815     -1.134812     11.804213
C      2.581018     -0.940173     10.712341
N      1.242439     -0.676365     10.509112
C      0.277744     -0.509149     11.493425
N      0.597446     -0.559466     12.793340
C     -0.366845     -0.387721     13.721407
C     -1.668817     -0.160029     13.308167
C     -2.917866      0.061596     13.897914
N     -3.887157      0.230027     13.000007
N     -3.264164      0.116518     11.785227
C     -4.033313      0.248258     10.588542
C     -3.455361      0.141040      9.315007
C     -4.243054      0.276024      8.164833
C     -5.609674      0.518462      8.276773
C     -6.181737      0.624617      9.537312
F     -7.496315      0.857861      9.644755
C     -5.413212      0.492923     10.689238
C     -1.898140     -0.123646     11.942709
N     -0.951519     -0.292933     10.993920
C      3.383372     -1.049829      9.382422
C      3.350784      0.255140      8.550110
N      4.254199      1.300930      9.054910
C      5.606002      0.737806      9.207876
C      5.604145     -0.545379     10.049245
O      4.727086     -1.533733      9.490453
H      0.861979     -0.610082      9.580416
H     -0.056288     -0.439171     14.758505
H     -3.168319      0.108733     14.950441
H     -2.396637     -0.047242      9.173135
H     -3.786995      0.191211      7.181230
H     -6.231362      0.625010      7.393548
H     -5.911871      0.584841     11.650874
H      2.855976     -1.819282      8.802701
H      2.339121      0.668975      8.497439
H      3.649908      0.017885      7.520733
H      4.288658      2.078408      8.395983
H      6.012037      0.519666      8.212469
H      6.256570      1.484240      9.674904
H      6.611204     -0.974987     10.061412
H      5.330144     -0.336187     11.088073
Ti     -2.141866     -3.008818      2.119748
Ti      0.288991     -1.694759      1.432425
Ti      1.903098     -3.067749     -0.729322
Ti     -2.521502     -0.251928      1.303687
Ti      2.142050      0.499533      2.204434
Ti     -0.681448      0.189635      3.681230
Ti     -2.036770     -3.077740     -1.200512
Ti     -0.605340     -0.770900     -2.035132
Ti      1.945488     -1.587317     -3.412400
Ti     -1.878170      1.746573     -1.240030
Ti      2.412512      0.454231     -0.774247
Ti      0.817742      1.838452     -2.940004
C     -3.678414      1.281398      0.600737
C      4.128193      0.482847      0.387293
C      0.455479      2.267202      0.349695
C     -3.666709      2.118834     -0.313920
C      4.115962      0.632239      1.621354
C     -0.635167      2.741046     -0.118921
C      1.630072      1.780996      0.734224
O     -3.093456     -1.956907      1.037949
O     -0.487250     -2.605849      2.701203
O      0.314079     -2.888890      0.145001
O     -0.800785     -0.435934      0.971227
O      1.902865     -1.158331      1.469449
O     -2.322673     -0.113878      3.024800
O      1.013786      0.441598      3.568761
O     -1.772019     -4.587905     -1.652810
O      0.190605     -1.189189     -3.534030
O      2.831420     -2.170248     -1.918042
O     -2.054558     -0.224445     -1.337505
O      0.768511     -0.390574     -1.063664
O     -0.900039      1.649313     -2.818565
O      2.415313      1.357463     -2.264115
