40
Larotrectinib - conformer
O      3.108815     -1.163724      1.432835
C      2.581018     -0.969085      0.340963
N      1.242439     -0.705277      0.137734
C      0.277744     -0.538061      1.122047
N      0.597446     -0.588378      2.421962
C     -0.366845     -0.416633      3.350029
C     -1.668817     -0.188941      2.936789
C     -2.917866      0.032684      3.526536
N     -3.887157      0.201115      2.628629
N     -3.264164      0.087606      1.413849
C     -4.033313      0.219346      0.217164
C     -3.455361      0.112128     -1.056371
C     -4.243054      0.247112     -2.206545
C     -5.609674      0.489550     -2.094605
C     -6.181737      0.595705     -0.834066
F     -7.496315      0.828949     -0.726623
C     -5.413212      0.464011      0.317860
C     -1.898140     -0.152558      1.571331
N     -0.951519     -0.321845      0.622542
C      3.383372     -1.078741     -0.988956
C      3.350784      0.226228     -1.821268
N      4.254199      1.272018     -1.316468
C      5.606002      0.708894     -1.163502
C      5.604145     -0.574291     -0.322133
O      4.727086     -1.562645     -0.880925
H      0.861979     -0.638994     -0.790962
H     -0.056288     -0.468083      4.387127
H     -3.168319      0.079821      4.579063
H     -2.396637     -0.076154     -1.198243
H     -3.786995      0.162299     -3.190148
H     -6.231362      0.596098     -2.977830
H     -5.911871      0.555929      1.279496
H      2.855976     -1.848194     -1.568677
H      2.339121      0.640063     -1.873939
H      3.649908     -0.011027     -2.850645
H      4.288658      2.049496     -1.975395
H      6.012037      0.490754     -2.158909
H      6.256570      1.455328     -0.696474
H      6.611204     -1.003899     -0.309966
H      5.330144     -0.365099      0.716695
