73
Drug@Ti12C7O14 clean complex
O      0.811646      1.162396      7.814549
C      1.697472      0.318973      7.910705
N      1.523638     -1.043526      7.977114
C      0.321196     -1.726368      7.961377
N      0.454404     -3.058529      8.120450
C     -0.655183     -3.832248      8.116483
C     -1.896727     -3.239058      7.949195
C     -3.237147     -3.635042      7.883818
N     -4.069304     -2.610591      7.701281
N     -3.257339     -1.504966      7.645870
C     -3.836832     -0.212903      7.458274
C     -5.235224     -0.103194      7.326529
C     -5.841042      1.143245      7.141547
C     -5.057531      2.291366      7.086708
C     -3.678008      2.183719      7.217197
F     -2.930694      3.294419      7.163922
C     -3.058288      0.949137      7.401950
C     -1.918908     -1.864591      7.793297
N     -0.830782     -1.073019      7.791060
C      3.190461      0.694009      7.912335
C      3.375230      2.159015      8.356179
N      4.790432      2.579862      8.389062
C      5.668231      1.473759      8.796830
C      4.931008      0.346880      9.531667
O      3.916782     -0.257530      8.720382
H      2.338050     -1.618246      8.147905
H     -0.507454     -4.897841      8.247308
H     -3.650616     -4.632722      7.961144
H     -5.872901     -0.985502      7.365515
H     -6.921103      1.213235      7.041023
H     -5.508599      3.267901      6.943825
H     -1.977403      0.949276      7.496448
H      3.547463      0.575841      6.881230
H      2.952362      2.290563      9.360899
H      2.828569      2.836893      7.691349
H      4.884133      3.365299      9.033268
H      6.478566      1.864149      9.421536
H      6.125104      1.065197      7.887906
H      5.637247     -0.441369      9.811584
H      4.469088      0.712107     10.456487
Ti     -2.141866     -3.008818      2.119748
Ti      0.288991     -1.694759      1.432425
Ti      1.903098     -3.067749     -0.729322
Ti     -2.521502     -0.251928      1.303687
Ti      2.142050      0.499533      2.204434
Ti     -0.681448      0.189635      3.681230
Ti     -2.036770     -3.077740     -1.200512
Ti     -0.605340     -0.770900     -2.035132
Ti      1.945488     -1.587317     -3.412400
Ti     -1.878170      1.746573     -1.240030
Ti      2.412512      0.454231     -0.774247
Ti      0.817742      1.838452     -2.940004
C     -3.678414      1.281398      0.600737
C      4.128193      0.482847      0.387293
C      0.455479      2.267202      0.349695
C     -3.666709      2.118834     -0.313920
C      4.115962      0.632239      1.621354
C     -0.635167      2.741046     -0.118921
C      1.630072      1.780996      0.734224
O     -3.093456     -1.956907      1.037949
O     -0.487250     -2.605849      2.701203
O      0.314079     -2.888890      0.145001
O     -0.800785     -0.435934      0.971227
O      1.902865     -1.158331      1.469449
O     -2.322673     -0.113878      3.024800
O      1.013786      0.441598      3.568761
O     -1.772019     -4.587905     -1.652810
O      0.190605     -1.189189     -3.534030
O      2.831420     -2.170248     -1.918042
O     -2.054558     -0.224445     -1.337505
O      0.768511     -0.390574     -1.063664
O     -0.900039      1.649313     -2.818565
O      2.415313      1.357463     -2.264115
