89
Drug@Ti3C2O2 complex
C     -5.501696      2.675530      4.349077
C     -6.058746      1.524526      5.182591
N     -5.546034      0.204301      4.786883
C     -6.182092     -0.887879      5.546355
C     -7.643838     -1.102616      5.165898
C     -4.073405      0.085653      4.842698
C     -3.400513      0.343153      6.206433
N     -1.959757      0.202299      6.138322
C     -1.349806     -1.031745      6.176529
O     -1.976698     -2.081462      6.276105
C      0.113367     -0.974608      6.142234
C      0.938662     -1.820318      6.866107
C      0.609932     -2.936877      7.791857
N      2.238712     -1.467252      6.613859
C      2.298411     -0.422721      5.726481
C      3.533857      0.140816      5.293351
C      4.793478     -0.183424      5.631042
C      5.332561     -1.236945      6.571047
O      4.712858     -2.038675      7.243864
N      6.710404     -1.110066      6.520493
C      7.097309     -0.095604      5.655479
C      8.391563      0.296088      5.371169
C      8.555748      1.345728      4.466080
C      7.436434      1.958663      3.884545
F      7.623046      2.964095      3.019167
C      6.135284      1.552184      4.181044
C      5.975114      0.511148      5.079397
C      0.983623     -0.109959      5.382867
C      0.556497      0.914637      4.384249
H     -5.635763      2.488916      3.278415
H     -6.030449      3.602487      4.595383
H     -4.438655      2.845470      4.544188
H     -5.875087      1.721583      6.245502
H     -7.145117      1.548793      5.044134
H     -5.664039     -1.831572      5.332765
H     -6.104630     -0.719654      6.627333
H     -7.756500     -1.223849      4.083405
H     -8.022359     -2.011866      5.644974
H     -8.279673     -0.274508      5.491794
H     -3.632319      0.759941      4.097573
H     -3.790042     -0.912638      4.482592
H     -3.778936     -0.350331      6.964778
H     -3.594263      1.363691      6.550338
H     -1.378131      1.024015      6.218203
H      0.206424     -3.786896      7.232671
H     -0.135600     -2.619449      8.527889
H      1.494076     -3.280134      8.339032
H      3.040680     -1.929909      7.031836
H      3.413955      0.956523      4.583929
H      7.329460     -1.698177      7.057747
H      9.248929     -0.185942      5.826948
H      9.549205      1.697982      4.202805
H      5.298111      2.051361      3.709392
H      0.434187      1.887941      4.869464
H     -0.390182      0.637417      3.910238
H      1.292444      1.020134      3.581038
Ti     -3.000000     -2.600000      1.250000
Ti      0.000000     -2.600000      1.250000
Ti      3.000000     -2.600000      1.250000
Ti     -1.500000      0.000000      1.250000
Ti      1.500000      0.000000      1.250000
Ti      0.000000      2.600000      1.250000
Ti     -3.000000     -2.600000     -1.250000
Ti      0.000000     -2.600000     -1.250000
Ti      3.000000     -2.600000     -1.250000
Ti     -1.500000      0.000000     -1.250000
Ti      1.500000      0.000000     -1.250000
Ti      0.000000      2.600000     -1.250000
C     -1.500000     -1.300000      0.000000
C      1.500000     -1.300000      0.000000
C      0.000000      1.300000      0.000000
C     -3.000000      0.000000      0.000000
C      3.000000      0.000000      0.000000
C     -1.500000      2.600000      0.000000
C      1.500000      2.600000      0.000000
O     -3.000000     -2.600000      2.450000
O      0.000000     -2.600000      2.450000
O      3.000000     -2.600000      2.450000
O     -1.500000      0.000000      2.450000
O      1.500000      0.000000      2.450000
O     -1.500000      2.600000      2.450000
O      1.500000      2.600000      2.450000
O     -3.000000     -2.600000     -2.450000
O      0.000000     -2.600000     -2.450000
O      3.000000     -2.600000     -2.450000
O     -1.500000      0.000000     -2.450000
O      1.500000      0.000000     -2.450000
O     -1.500000      2.600000     -2.450000
O      1.500000      2.600000     -2.450000
