89
Drug@Ti12C7O14 clean complex
C     -5.122000      2.151397      9.173453
C     -5.512175      0.832750      9.833941
N     -4.419932      0.284961     10.658759
C     -4.322898      0.983457     11.953199
C     -2.939677      0.818926     12.578226
C     -4.611031     -1.175510     10.861465
C     -4.048121     -1.985852      9.677104
N     -2.659996     -1.647720      9.423934
C     -1.655264     -2.194993     10.192922
O     -1.845520     -3.133172     10.962155
C     -0.355708     -1.521289     10.076127
C      0.163049     -0.866587      8.965869
C     -0.359796     -0.664554      7.588006
N      1.401380     -0.380189      9.307402
C      1.735197     -0.728637     10.590468
C      2.987578     -0.380736     11.173796
C      3.999390      0.345756     10.669818
C      4.162355      1.033767      9.334146
O      3.384488      1.066448      8.399271
N      5.408860      1.635518      9.375920
C      6.047965      1.399912     10.585644
C      7.300110      1.850556     10.957659
C      7.754140      1.494522     12.228480
C      6.952420      0.711265     13.071513
F      7.413521      0.384679     14.286152
C      5.690059      0.263198     12.682092
C      5.241974      0.617924     11.421171
C      0.653664     -1.439212     11.103337
C      0.525435     -2.027298     12.470211
H     -4.971704      2.953292      9.901526
H     -4.202447      2.039986      8.588814
H     -5.914851      2.473438      8.490060
H     -5.756028      0.141161      9.018997
H     -6.429903      0.957560     10.422268
H     -4.473930      2.060614     11.824304
H     -5.100373      0.642302     12.648235
H     -2.156198      1.155790     11.890731
H     -2.868547      1.424567     13.487814
H     -2.727781     -0.216978     12.857049
H     -4.082406     -1.513135     11.760043
H     -5.668951     -1.418877     11.022072
H     -4.130912     -3.057664      9.887635
H     -4.601419     -1.779914      8.755906
H     -2.503635     -0.688479      9.142389
H      0.450096     -0.454170      6.881230
H     -0.879502     -1.559371      7.231754
H     -1.055691      0.179759      7.563850
H      1.993666      0.147185      8.673158
H      3.122430     -0.773901     12.178739
H      5.780452      2.168726      8.604520
H      7.910760      2.455229     10.296973
H      8.730488      1.818906     12.577475
H      5.102223     -0.340259     13.362617
H     -0.465792     -1.824142     12.888371
H      0.673094     -3.111109     12.429581
H      1.257393     -1.609827     13.167215
Ti     -2.141866     -3.008818      2.119748
Ti      0.288991     -1.694759      1.432425
Ti      1.903098     -3.067749     -0.729322
Ti     -2.521502     -0.251928      1.303687
Ti      2.142050      0.499533      2.204434
Ti     -0.681448      0.189635      3.681230
Ti     -2.036770     -3.077740     -1.200512
Ti     -0.605340     -0.770900     -2.035132
Ti      1.945488     -1.587317     -3.412400
Ti     -1.878170      1.746573     -1.240030
Ti      2.412512      0.454231     -0.774247
Ti      0.817742      1.838452     -2.940004
C     -3.678414      1.281398      0.600737
C      4.128193      0.482847      0.387293
C      0.455479      2.267202      0.349695
C     -3.666709      2.118834     -0.313920
C      4.115962      0.632239      1.621354
C     -0.635167      2.741046     -0.118921
C      1.630072      1.780996      0.734224
O     -3.093456     -1.956907      1.037949
O     -0.487250     -2.605849      2.701203
O      0.314079     -2.888890      0.145001
O     -0.800785     -0.435934      0.971227
O      1.902865     -1.158331      1.469449
O     -2.322673     -0.113878      3.024800
O      1.013786      0.441598      3.568761
O     -1.772019     -4.587905     -1.652810
O      0.190605     -1.189189     -3.534030
O      2.831420     -2.170248     -1.918042
O     -2.054558     -0.224445     -1.337505
O      0.768511     -0.390574     -1.063664
O     -0.900039      1.649313     -2.818565
O      2.415313      1.357463     -2.264115
