56
Sunitinib conformer
C     -5.122000      2.091346     -1.454325
C     -5.512175      0.772699     -0.793837
N     -4.419932      0.224910      0.030981
C     -4.322898      0.923406      1.325421
C     -2.939677      0.758875      1.950448
C     -4.611031     -1.235561      0.233687
C     -4.048121     -2.045903     -0.950674
N     -2.659996     -1.707771     -1.203844
C     -1.655264     -2.255044     -0.434856
O     -1.845520     -3.193223      0.334377
C     -0.355708     -1.581340     -0.551651
C      0.163049     -0.926638     -1.661909
C     -0.359796     -0.724605     -3.039772
N      1.401380     -0.440240     -1.320376
C      1.735197     -0.788688     -0.037310
C      2.987578     -0.440787      0.546018
C      3.999390      0.285705      0.042040
C      4.162355      0.973716     -1.293632
O      3.384488      1.006397     -2.228507
N      5.408860      1.575467     -1.251858
C      6.047965      1.339861     -0.042134
C      7.300110      1.790505      0.329881
C      7.754140      1.434471      1.600702
C      6.952420      0.651214      2.443735
F      7.413521      0.324628      3.658374
C      5.690059      0.203147      2.054314
C      5.241974      0.557873      0.793393
C      0.653664     -1.499263      0.475559
C      0.525435     -2.087349      1.842433
H     -4.971704      2.893241     -0.726252
H     -4.202447      1.979935     -2.038964
H     -5.914851      2.413387     -2.137718
H     -5.756028      0.081110     -1.608781
H     -6.429903      0.897509     -0.205510
H     -4.473930      2.000563      1.196526
H     -5.100373      0.582251      2.020457
H     -2.156198      1.095739      1.262953
H     -2.868547      1.364516      2.860036
H     -2.727781     -0.277029      2.229271
H     -4.082406     -1.573186      1.132265
H     -5.668951     -1.478928      0.394294
H     -4.130912     -3.117715     -0.740143
H     -4.601419     -1.839965     -1.871872
H     -2.503635     -0.748530     -1.485389
H      0.450096     -0.514221     -3.746548
H     -0.879502     -1.619422     -3.396024
H     -1.055691      0.119708     -3.063928
H      1.993666      0.087134     -1.954620
H      3.122430     -0.833952      1.550961
H      5.780452      2.108675     -2.023258
H      7.910760      2.395178     -0.330805
H      8.730488      1.758855      1.949697
H      5.102223     -0.400310      2.734839
H     -0.465792     -1.884193      2.260593
H      0.673094     -3.171160      1.801803
H      1.257393     -1.669878      2.539437
