      -----------------------------------------------------------      
     |                   =====================                   |     
     |                           x T B                           |     
     |                   =====================                   |     
     |                         S. Grimme                         |     
     |          Mulliken Center for Theoretical Chemistry        |     
     |                    University of Bonn                     |     
      -----------------------------------------------------------      

   * xtb version 6.7.1pre (5071a88) compiled by 'Marcel@Raven' on 2024-07-23

   xtb is free software: you can redistribute it and/or modify it under
   the terms of the GNU Lesser General Public License as published by
   the Free Software Foundation, either version 3 of the License, or
   (at your option) any later version.
   
   xtb is distributed in the hope that it will be useful,
   but WITHOUT ANY WARRANTY; without even the implied warranty of
   MERCHANTABILITY or FITNESS FOR A PARTICULAR PURPOSE.  See the
   GNU Lesser General Public License for more details.
   
   Cite this work as:
   * C. Bannwarth, E. Caldeweyher, S. Ehlert, A. Hansen, P. Pracht,
     J. Seibert, S. Spicher, S. Grimme, WIREs Comput. Mol. Sci., 2020, 11,
     e01493. DOI: 10.1002/wcms.1493
   
   for GFN2-xTB:
   * C. Bannwarth, S. Ehlert and S. Grimme., J. Chem. Theory Comput., 2019,
     15, 1652-1671. DOI: 10.1021/acs.jctc.8b01176
   for GFN1-xTB:
   * S. Grimme, C. Bannwarth, P. Shushkov, J. Chem. Theory Comput., 2017,
     13, 1989-2009. DOI: 10.1021/acs.jctc.7b00118
   for GFN0-xTB:
   * P. Pracht, E. Caldeweyher, S. Ehlert, S. Grimme, ChemRxiv, 2019, preprint.
     DOI: 10.26434/chemrxiv.8326202.v1
   for GFN-FF:
   * S. Spicher and S. Grimme, Angew. Chem. Int. Ed., 2020, 59, 15665-15673.
     DOI: 10.1002/anie.202004239
   
   for ALPB and GBSA implicit solvation:
   * S. Ehlert, M. Stahn, S. Spicher, S. Grimme, J. Chem. Theory Comput.,
     2021, 17, 4250-4261. DOI: 10.1021/acs.jctc.1c00471
   
   for ddCOSMO and CPCM-X implicit solvation:
   * M. Stahn, S. Ehlert, S. Grimme, J. Phys. Chem. A,
     2023, XX, XXXX-XXXX. DOI: 10.1021/acs.jpca.3c04382
   
   for DFT-D4:
   * E. Caldeweyher, C. Bannwarth and S. Grimme, J. Chem. Phys., 2017,
     147, 034112. DOI: 10.1063/1.4993215
   * E. Caldeweyher, S. Ehlert, A. Hansen, H. Neugebauer, S. Spicher,
     C. Bannwarth and S. Grimme, J. Chem. Phys., 2019, 150, 154122.
     DOI: 10.1063/1.5090222
   * E. Caldeweyher, J.-M. Mewes, S. Ehlert and S. Grimme, Phys. Chem. Chem. Phys.
     2020, 22, 8499-8512. DOI: 10.1039/D0CP00502A
   
   for sTDA-xTB:
   * S. Grimme and C. Bannwarth, J. Chem. Phys., 2016, 145, 054103.
     DOI: 10.1063/1.4959605
   
   in the mass-spec context:
   * V. Asgeirsson, C. Bauer and S. Grimme, Chem. Sci., 2017, 8, 4879.
     DOI: 10.1039/c7sc00601b
   * J. Koopman and S. Grimme, ACS Omega 2019, 4, 12, 15120-15133.
     DOI: 10.1021/acsomega.9b02011
   
   for metadynamics refer to:
   * S. Grimme, J. Chem. Theory Comput., 2019, 155, 2847-2862
     DOI: 10.1021/acs.jctc.9b00143
   
   for SPH calculations refer to:
   * S. Spicher and S. Grimme, J. Chem. Theory Comput., 2021, 17, 1701-1714
     DOI: 10.1021/acs.jctc.0c01306
   
   for ONIOM refer to:
   * C. Plett, A. Katbashev, S. Ehlert, S. Grimme, M. Bursch,
     Phys. Chem. Chem. Phys., 2023, 25, 17860-17868. DOI: 10.1039/D3CP02178E
   
   for DIPRO refer to:
   * J. Kohn, N. Gildemeister, S. Grimme, D. Fazzi, A. Hansen,
     J. Chem. Phys., 2023, just accepted.
   
   for PTB refer to:
   * S. Grimme, M. Mueller, A. Hansen, J. Chem. Phys., 2023, 158, 124111.
     DOI: 10.1063/5.0137838
   
   with help from (in alphabetical order)
   P. Atkinson, C. Bannwarth, F. Bohle, G. Brandenburg, E. Caldeweyher
   M. Checinski, S. Dohm, S. Ehlert, S. Ehrlich, I. Gerasimov, C. Hölzer
   A. Katbashev, J. Kohn, J. Koopman, C. Lavigne, S. Lehtola, F. März, M. Müller,
   F. Musil, H. Neugebauer, J. Pisarek, C. Plett, P. Pracht, F. Pultar,
   J. Seibert, P. Shushkov, S. Spicher, M. Stahn, M. Steiner, T. Strunk,
   J. Stückrath, T. Rose, and J. Unsleber
   
 * started run on 2026/08/31 at 21:19:02.676     
   ID    Z sym.   atoms
    1    6 C      1, 2, 4-7, 9, 11-13, 15-18, 21-24, 26-29, 69-75
    2    7 N      3, 8, 14, 20
    3    8 O      10, 19, 76-89
    4    9 F      25
    5    1 H      30-56
    6   22 Ti     57-68

           -------------------------------------------------
          |                Calculation Setup                |
           -------------------------------------------------

          program call               : "c:\Users\Andre\Proyectos doctorado\kras-pancreatic-gC3N4-ai\tools\xtb\xtb-6.7.1\bin\xtb.exe" "c:\Users\Andre\Proyectos doctorado\mxene-glioblastoma-qsar-ai\calculations\gbm\Sunitinib\Sunitinib_Ti12C7O14_phys_complex.xyz" --gfn 2 --sp --chrg 0 --uhf 0 --etemp 300 --iterations 500 --norestart
          coordinate file            : c:\Users\Andre\Proyectos doctorado\mxene-glioblastoma-qsar-ai\calculations\gbm\Sunitinib\Sunitinib_Ti12C7O14_phys_complex.xyz
          omp threads                :                    16


molecular fragmentation (1/2 indicates fragments):
111111111111111111111111111111111111111111111111111111112222222222222222
22222222222222222
# atoms in fragment 1/2:    56    33
 fragment masses (1/2) :      398.47      882.47
CMA distance (Bohr)    :  18.623
constraining FC (au)   :  0.0500

           -------------------------------------------------
          |                 G F N 2 - x T B                 |
           -------------------------------------------------

        Reference                      10.1021/acs.jctc.8b01176
      * Hamiltonian:
        H0-scaling (s, p, d)           1.850000    2.230000    2.230000
        zeta-weighting                 0.500000
      * Dispersion:
        s8                             2.700000
        a1                             0.520000
        a2                             5.000000
        s9                             5.000000
      * Repulsion:
        kExp                           1.500000    1.000000
        rExp                           1.000000
      * Coulomb:
        alpha                          2.000000
        third order                    shell-resolved
        anisotropic                    true
        a3                             3.000000
        a5                             4.000000
        cn-shift                       1.200000
        cn-exp                         4.000000
        max-rad                        5.000000


          ...................................................
          :                      SETUP                      :
          :.................................................:
          :  # basis functions                 347          :
          :  # atomic orbitals                 335          :
          :  # shells                          163          :
          :  # electrons                       314          :
          :  max. iterations                   500          :
          :  Hamiltonian                  GFN2-xTB          :
          :  restarted?                      false          :
          :  GBSA solvation                  false          :
          :  PC potential                    false          :
          :  electronic temp.          300.0000000     K    :
          :  accuracy                    1.0000000          :
          :  -> integral cutoff          0.2500000E+02      :
          :  -> integral neglect         0.1000000E-07      :
          :  -> SCF convergence          0.1000000E-05 Eh   :
          :  -> wf. convergence          0.1000000E-03 e    :
          :  Broyden damping             0.4000000          :
          :  net charge                          0          :
          :  unpaired electrons                  0          :
          ...................................................

 iter      E             dE          RMSdq      gap      omega  full diag
   1   -177.2022584 -0.177202E+03  0.127E+01    0.02       0.0  T
   2   -158.9598737  0.182424E+02  0.115E+01    0.23       1.0  T
   3   -108.7196497  0.502402E+02  0.203E+01    0.19       1.0  T
   4   -176.4541415 -0.677345E+02  0.981E+00    0.09       1.0  T
   5   -177.4051441 -0.951003E+00  0.708E+00    0.02       1.0  T
   6   -177.2744718  0.130672E+00  0.675E+00    0.01       1.0  T
   7   -178.9594715 -0.168500E+01  0.458E+00    0.51       1.0  T
   8   -179.0325333 -0.730619E-01  0.405E+00    0.10       1.0  T
   9   -179.0254984  0.703490E-02  0.337E+00    0.64       1.0  T
  10   -177.8878019  0.113770E+01  0.640E+00    0.01       1.0  T
  11   -179.2237541 -0.133595E+01  0.221E+00    0.38       1.0  T
  12   -178.2066581  0.101710E+01  0.498E+00    0.01       1.0  T
  13   -178.2235608 -0.169027E-01  0.484E+00    0.01       1.0  T
  14   -178.7161048 -0.492544E+00  0.347E+00    0.03       1.0  T
  15   -179.2318437 -0.515739E+00  0.167E+00    0.12       1.0  T
  16   -179.3105224 -0.786787E-01  0.138E+00    0.27       1.0  T
  17   -179.3257540 -0.152316E-01  0.125E+00    0.26       1.0  T
  18   -179.3339787 -0.822473E-02  0.102E+00    0.27       1.0  T
  19   -179.3415852 -0.760645E-02  0.764E-01    0.32       1.0  T
  20   -179.3538809 -0.122957E-01  0.532E-01    0.38       1.0  T
  21   -179.3583924 -0.451148E-02  0.394E-01    0.39       1.0  T
  22   -179.3609426 -0.255021E-02  0.303E-01    0.40       1.0  T
  23   -179.3624652 -0.152266E-02  0.247E-01    0.41       1.0  T
  24   -179.3634306 -0.965409E-03  0.202E-01    0.42       1.0  T
  25   -179.3639864 -0.555796E-03  0.168E-01    0.40       1.0  T
  26   -179.3644677 -0.481280E-03  0.133E-01    0.40       1.0  T
  27   -179.3647303 -0.262558E-03  0.114E-01    0.41       1.0  T
  28   -179.3648570 -0.126733E-03  0.951E-02    0.42       1.0  T
  29   -179.3649153 -0.582696E-04  0.796E-02    0.43       1.0  T
  30   -179.3649582 -0.429689E-04  0.702E-02    0.43       1.0  T
  31   -179.3650170 -0.587949E-04  0.556E-02    0.43       1.0  T
  32   -179.3650598 -0.427659E-04  0.433E-02    0.42       1.0  T
  33   -179.3650911 -0.312462E-04  0.307E-02    0.42       1.0  T
  34   -179.3650965 -0.543894E-05  0.260E-02    0.43       1.0  T
  35   -179.3651047 -0.816012E-05  0.193E-02    0.43       1.0  T
  36   -179.3651123 -0.768206E-05  0.113E-02    0.43       1.0  T
  37   -179.3651150 -0.262910E-05  0.653E-03    0.43       1.6  T
  38   -179.3651163 -0.128693E-05  0.286E-03    0.43       3.7  T
  39   -179.3651165 -0.221971E-06  0.106E-03    0.43      10.0  T
  40   -179.3651165 -0.315691E-08  0.850E-04    0.43      12.5  T
  41   -179.3651165  0.102681E-07  0.999E-04    0.43      10.6  T

   *** convergence criteria satisfied after 41 iterations ***

         #    Occupation            Energy/Eh            Energy/eV
      -------------------------------------------------------------
         1        2.0000           -0.8200073             -22.3135
       ...           ...                  ...                  ...
       151        2.0000           -0.3517644              -9.5720
       152        2.0000           -0.3500980              -9.5267
       153        2.0000           -0.3444042              -9.3717
       154        2.0000           -0.3403813              -9.2622
       155        2.0000           -0.3373351              -9.1794
       156        2.0000           -0.3228214              -8.7844
       157        1.9996           -0.3081679              -8.3857 (HOMO)
       158        0.0004           -0.2921922              -7.9510 (LUMO)
       159        0.0000           -0.2845755              -7.7437
       160        0.0000           -0.2842254              -7.7342
       161                         -0.2828069              -7.6956
       162                         -0.2816229              -7.6633
       ...                                ...                  ...
       335                         13.3365433             362.9058
      -------------------------------------------------------------
                  HL-Gap            0.0159757 Eh            0.4347 eV
             Fermi-level           -0.3001804 Eh           -8.1683 eV

 SCC (total)                   0 d,  0 h,  0 min,  0.776 sec
 SCC setup                      ...        0 min,  0.001 sec (  0.129%)
 Dispersion                     ...        0 min,  0.001 sec (  0.129%)
 classical contributions        ...        0 min,  0.000 sec (  0.000%)
 integral evaluation            ...        0 min,  0.007 sec (  0.902%)
 iterations                     ...        0 min,  0.746 sec ( 96.134%)
 molecular gradient             ...        0 min,  0.019 sec (  2.448%)
 printout                       ...        0 min,  0.002 sec (  0.258%)

         :::::::::::::::::::::::::::::::::::::::::::::::::::::
         ::                     SUMMARY                     ::
         :::::::::::::::::::::::::::::::::::::::::::::::::::::
         :: total energy            -177.535392132388 Eh    ::
         :: gradient norm              0.096493979218 Eh/a0 ::
         :: HOMO-LUMO gap              0.434721553602 eV    ::
         ::.................................................::
         :: SCC energy              -179.363356081588 Eh    ::
         :: -> isotropic ES            1.003916755078 Eh    ::
         :: -> anisotropic ES         -0.374547322992 Eh    ::
         :: -> anisotropic XC         -0.033572533160 Eh    ::
         :: -> dispersion             -0.147881994443 Eh    ::
         :: repulsion energy           1.827963949200 Eh    ::
         :: add. restraining           0.000000000000 Eh    ::
         :: total charge              -0.000000000000 e     ::
         :::::::::::::::::::::::::::::::::::::::::::::::::::::

           -------------------------------------------------
          |                Property Printout                |
           -------------------------------------------------

    * Orbital Energies and Occupations

         #    Occupation            Energy/Eh            Energy/eV
      -------------------------------------------------------------
         1        2.0000           -0.8200073             -22.3135
       ...           ...                  ...                  ...
       145        2.0000           -0.3809844             -10.3671
       146        2.0000           -0.3763383             -10.2407
       147        2.0000           -0.3686938             -10.0327
       148        2.0000           -0.3683839             -10.0242
       149        2.0000           -0.3605164              -9.8101
       150        2.0000           -0.3583631              -9.7516
       151        2.0000           -0.3517644              -9.5720
       152        2.0000           -0.3500980              -9.5267
       153        2.0000           -0.3444042              -9.3717
       154        2.0000           -0.3403813              -9.2622
       155        2.0000           -0.3373351              -9.1794
       156        2.0000           -0.3228214              -8.7844
       157        1.9996           -0.3081679              -8.3857 (HOMO)
       158        0.0004           -0.2921922              -7.9510 (LUMO)
       159        0.0000           -0.2845755              -7.7437
       160        0.0000           -0.2842254              -7.7342
       161                         -0.2828069              -7.6956
       162                         -0.2816229              -7.6633
       163                         -0.2790047              -7.5921
       164                         -0.2742132              -7.4617
       165                         -0.2734341              -7.4405
       166                         -0.2712714              -7.3817
       167                         -0.2710299              -7.3751
       168                         -0.2702342              -7.3534
       ...                                ...                  ...
       335                         13.3365433             362.9058
      -------------------------------------------------------------
                  HL-Gap            0.0159757 Eh            0.4347 eV
             Fermi-level           -0.3001804 Eh           -8.1683 eV

     #   Z          covCN         q      C6AA      α(0)
     1   6 C        3.748    -0.112    22.714     6.798
     2   6 C        3.744     0.009    20.497     6.459
     3   7 N        2.720    -0.181    24.914     7.413
     4   6 C        3.749     0.005    20.550     6.465
     5   6 C        3.748    -0.110    22.671     6.791
     6   6 C        3.745    -0.013    20.871     6.517
     7   6 C        3.735     0.006    20.562     6.471
     8   7 N        2.688    -0.197    25.271     7.466
     9   6 C        2.753     0.269    22.451     7.759
    10   8 O        0.858    -0.447    22.645     6.380
    11   6 C        3.063    -0.074    29.780     8.949
    12   6 C        3.033     0.068    26.442     8.434
    13   6 C        3.751    -0.117    22.805     6.810
    14   7 N        2.799    -0.125    23.703     7.231
    15   6 C        3.018     0.031    27.288     8.569
    16   6 C        2.895    -0.022    28.548     8.760
    17   6 C        3.013    -0.046    29.129     8.853
    18   6 C        2.821     0.268    22.490     7.770
    19   8 O        0.857    -0.439    22.485     6.357
    20   7 N        2.732    -0.153    24.311     7.323
    21   6 C        3.019     0.057    26.705     8.477
    22   6 C        2.908    -0.054    29.330     8.880
    23   6 C        2.920    -0.054    29.349     8.884
    24   6 C        2.778     0.161    24.500     8.107
    25   9 F        0.787    -0.220    11.447     3.997
    26   6 C        2.911    -0.055    29.375     8.887
    27   6 C        3.023    -0.014    28.325     8.730
    28   6 C        3.079    -0.017    28.342     8.728
    29   6 C        3.751    -0.120    22.867     6.820
    30   1 H        0.924     0.049     2.335     2.390
    31   1 H        0.924     0.038     2.480     2.463
    32   1 H        0.924     0.035     2.523     2.484
    33   1 H        0.924     0.008     2.922     2.673
    34   1 H        0.924     0.042     2.418     2.432
    35   1 H        0.924     0.045     2.382     2.414
    36   1 H        0.924     0.012     2.859     2.644
    37   1 H        0.924     0.048     2.348     2.397
    38   1 H        0.924     0.038     2.472     2.459
    39   1 H        0.924     0.035     2.515     2.480
    40   1 H        0.924     0.041     2.434     2.440
    41   1 H        0.923     0.055     2.255     2.348
    42   1 H        0.924     0.058     2.218     2.329
    43   1 H        0.924     0.037     2.488     2.466
    44   1 H        0.860     0.168     1.282     1.774
    45   1 H        0.924     0.079     1.994     2.208
    46   1 H        0.924     0.066     2.130     2.282
    47   1 H        0.924     0.055     2.263     2.352
    48   1 H        0.860     0.233     0.953     1.530
    49   1 H        0.925     0.062     2.179     2.309
    50   1 H        0.860     0.180     1.216     1.727
    51   1 H        0.925     0.047     2.362     2.403
    52   1 H        0.925     0.061     2.192     2.315
    53   1 H        0.925     0.059     2.207     2.323
    54   1 H        0.924     0.052     2.297     2.370
    55   1 H        0.924     0.056     2.243     2.342
    56   1 H        0.924     0.054     2.274     2.358
    57  22 Ti       3.637     1.053   101.766    24.485
    58  22 Ti       6.855     1.551    84.061    14.886
    59  22 Ti       3.227     1.047   102.647    24.739
    60  22 Ti       5.860     1.380    85.670    15.027
    61  22 Ti       5.627     1.120    88.223    15.250
    62  22 Ti       3.541     1.040   102.467    24.671
    63  22 Ti       2.352     0.881   202.664    34.857
    64  22 Ti       6.011     1.348    85.978    15.054
    65  22 Ti       3.414     1.007   103.068    24.781
    66  22 Ti       5.519     1.096    88.462    15.270
    67  22 Ti       5.687     1.189    87.526    15.189
    68  22 Ti       3.581     1.025   102.485    24.644
    69   6 C        2.246    -0.258    37.636     9.940
    70   6 C        2.142    -0.255    38.332    10.008
    71   6 C        2.248    -0.020    30.620     8.966
    72   6 C        1.838    -0.210    37.335     9.871
    73   6 C        1.894    -0.224    37.731     9.921
    74   6 C        1.821    -0.347    42.186    10.494
    75   6 C        2.631    -0.405    39.942    10.338
    76   8 O        1.554    -0.847    32.013     7.634
    77   8 O        1.464    -0.881    33.214     7.768
    78   8 O        1.557    -0.956    35.614     8.052
    79   8 O        1.523    -1.006    37.455     8.255
    80   8 O        1.523    -0.913    34.187     7.887
    81   8 O        1.458    -0.821    31.349     7.546
    82   8 O        1.455    -0.796    30.622     7.458
    83   8 O        0.727    -0.636    27.099     6.976
    84   8 O        1.453    -0.865    32.714     7.708
    85   8 O        1.476    -0.800    30.685     7.468
    86   8 O        1.603    -0.945    35.188     8.006
    87   8 O        1.547    -0.969    36.067     8.102
    88   8 O        1.700    -0.817    30.983     7.515
    89   8 O        1.453    -0.781    30.180     7.404

 Mol. C6AA /au·bohr⁶  :     176071.458493
 Mol. C8AA /au·bohr⁸  :    7436109.494592
 Mol. α(0) /au        :        707.968547


Wiberg/Mayer (AO) data.
largest (>0.10) Wiberg bond orders for each atom

 ---------------------------------------------------------------------------
     #   Z sym  total        # sym  WBO       # sym  WBO       # sym  WBO
 ---------------------------------------------------------------------------
     1   6 C    3.996 --     2 C    1.017    30 H    0.986    32 H    0.986
                            31 H    0.986
     2   6 C    3.987 --     1 C    1.017     3 N    1.000    34 H    0.970
                            33 H    0.966
     3   7 N    3.118 --     6 C    1.007     2 C    1.000     4 C    0.997
     4   6 C    3.986 --     5 C    1.016     3 N    0.997    35 H    0.973
                            36 H    0.967
     5   6 C    3.996 --     4 C    1.016    37 H    0.987    38 H    0.985
                            39 H    0.985
     6   6 C    3.980 --     3 N    1.007     7 C    0.977    41 H    0.969
                            40 H    0.968
     7   6 C    3.969 --     8 N    0.995     6 C    0.977    43 H    0.974
                            42 H    0.966
     8   7 N    3.413 --     9 C    1.208     7 C    0.995    44 H    0.944
                            10 O    0.191
     9   6 C    3.952 --    10 O    1.659     8 N    1.208    11 C    1.020
    10   8 O    1.986 --     9 C    1.659     8 N    0.191
    11   6 C    3.964 --    12 C    1.393    28 C    1.307     9 C    1.020
    12   6 C    3.947 --    11 C    1.393    14 N    1.290    13 C    1.040
    13   6 C    3.991 --    12 C    1.040    47 H    0.981    46 H    0.968
                            45 H    0.959
    14   7 N    3.576 --    12 C    1.290    15 C    1.166    48 H    0.855
    15   6 C    3.951 --    28 C    1.369    16 C    1.216    14 N    1.166
    16   6 C    3.984 --    17 C    1.594    15 C    1.216    49 H    0.952
    17   6 C    3.972 --    16 C    1.594    27 C    1.091    18 C    1.021
    18   6 C    3.941 --    19 O    1.623    20 N    1.177    17 C    1.021
    19   8 O    2.045 --    18 C    1.623    20 N    0.147
    20   7 N    3.497 --    18 C    1.177    21 C    1.100    50 H    0.937
                            19 O    0.147
    21   6 C    3.950 --    22 C    1.395    27 C    1.285    20 N    1.100
    22   6 C    3.988 --    23 C    1.430    21 C    1.395    51 H    0.968
    23   6 C    3.971 --    22 C    1.430    24 C    1.384    52 H    0.968
    24   6 C    3.878 --    26 C    1.393    23 C    1.384    25 F    0.964
    25   9 F    1.093 --    24 C    0.964
    26   6 C    3.972 --    27 C    1.398    24 C    1.393    53 H    0.963
    27   6 C    3.982 --    26 C    1.398    21 C    1.285    17 C    1.091
    28   6 C    3.960 --    15 C    1.369    11 C    1.307    29 C    1.036
    29   6 C    3.990 --    28 C    1.036    56 H    0.969    55 H    0.964
                            54 H    0.964
    30   1 H    0.998 --     1 C    0.986
    31   1 H    0.998 --     1 C    0.986
    32   1 H    0.999 --     1 C    0.986
    33   1 H    1.000 --     2 C    0.966
    34   1 H    0.998 --     2 C    0.970
    35   1 H    0.998 --     4 C    0.973
    36   1 H    1.000 --     4 C    0.967
    37   1 H    0.998 --     5 C    0.987
    38   1 H    0.998 --     5 C    0.985
    39   1 H    0.999 --     5 C    0.985
    40   1 H    0.996 --     6 C    0.968
    41   1 H    0.996 --     6 C    0.969
    42   1 H    0.996 --     7 C    0.966
    43   1 H    0.998 --     7 C    0.974
    44   1 H    0.972 --     8 N    0.944
    45   1 H    0.989 --    13 C    0.959
    46   1 H    0.992 --    13 C    0.968
    47   1 H    0.996 --    13 C    0.981
    48   1 H    0.945 --    14 N    0.855
    49   1 H    0.995 --    16 C    0.952
    50   1 H    0.967 --    20 N    0.937
    51   1 H    0.997 --    22 C    0.968
    52   1 H    0.996 --    23 C    0.968
    53   1 H    0.996 --    26 C    0.963
    54   1 H    0.995 --    29 C    0.964
    55   1 H    0.995 --    29 C    0.964
    56   1 H    0.996 --    29 C    0.969
    57  22 Ti   2.828 --    76 O    0.846    77 O    0.813    63 Ti   0.333
                            58 Ti   0.204    60 Ti   0.200
    58  22 Ti   3.854 --    77 O    0.752    80 O    0.746    78 O    0.688
                            79 O    0.609    57 Ti   0.204    59 Ti   0.187
                            61 Ti   0.138    62 Ti   0.133
    59  22 Ti   2.724 --    85 O    0.961    78 O    0.601    65 Ti   0.372
                            58 Ti   0.187    63 Ti   0.140    80 O    0.110
    60  22 Ti   3.918 --    81 O    0.943    69 C    0.720    76 O    0.703
                            79 O    0.564    62 Ti   0.205    57 Ti   0.200
                            66 Ti   0.178    86 O    0.123
    61  22 Ti   4.073 --    75 C    0.894    82 O    0.769    73 C    0.744
                            80 O    0.600    67 Ti   0.284    62 Ti   0.174
                            74 C    0.161    70 C    0.153    58 Ti   0.138
    62  22 Ti   2.659 --    82 O    0.976    81 O    0.704    60 Ti   0.205
                            61 Ti   0.174    58 Ti   0.133    77 O    0.123
    63  22 Ti   3.771 --    83 O    1.996    64 Ti   0.609    57 Ti   0.333
                            78 O    0.153    76 O    0.148    59 Ti   0.140
                            86 O    0.112
    64  22 Ti   4.018 --    86 O    0.803    84 O    0.751    87 O    0.714
                            63 Ti   0.609    88 O    0.196    65 Ti   0.166
                            68 Ti   0.147    66 Ti   0.141
    65  22 Ti   2.747 --    84 O    0.836    85 O    0.764    59 Ti   0.372
                            68 Ti   0.221    64 Ti   0.166    67 Ti   0.130
    66  22 Ti   4.012 --    74 C    1.056    72 C    0.727    88 O    0.613
                            86 O    0.442    75 C    0.231    68 Ti   0.199
                            60 Ti   0.178    69 C    0.156    64 Ti   0.141
    67  22 Ti   4.082 --    89 O    0.968    70 C    0.669    75 C    0.653
                            87 O    0.443    61 Ti   0.284    68 Ti   0.210
                            74 C    0.141    65 Ti   0.130    85 O    0.114
    68  22 Ti   2.791 --    88 O    0.902    89 O    0.733    65 Ti   0.221
                            67 Ti   0.210    66 Ti   0.199    64 Ti   0.147
    69   6 C    3.842 --    72 C    2.739    60 Ti   0.720    66 Ti   0.156
    70   6 C    3.781 --    73 C    2.732    67 Ti   0.669    61 Ti   0.153
    71   6 C    3.979 --    74 C    2.009    75 C    1.603
    72   6 C    3.706 --    69 C    2.739    66 Ti   0.727
    73   6 C    3.749 --    70 C    2.732    61 Ti   0.744
    74   6 C    3.768 --    71 C    2.009    66 Ti   1.056    61 Ti   0.161
                            67 Ti   0.141
    75   6 C    3.829 --    71 C    1.603    61 Ti   0.894    67 Ti   0.653
                            66 Ti   0.231
    76   8 O    1.934 --    57 Ti   0.846    60 Ti   0.703    63 Ti   0.148
    77   8 O    1.893 --    57 Ti   0.813    58 Ti   0.752    62 Ti   0.123
    78   8 O    1.782 --    58 Ti   0.688    59 Ti   0.601    63 Ti   0.153
    79   8 O    1.720 --    58 Ti   0.609    60 Ti   0.564
    80   8 O    1.846 --    58 Ti   0.746    61 Ti   0.600    59 Ti   0.110
    81   8 O    1.972 --    60 Ti   0.943    62 Ti   0.704
    82   8 O    2.016 --    62 Ti   0.976    61 Ti   0.769
    83   8 O    2.170 --    63 Ti   1.996
    84   8 O    1.910 --    65 Ti   0.836    64 Ti   0.751
    85   8 O    2.007 --    59 Ti   0.961    65 Ti   0.764    67 Ti   0.114
    86   8 O    1.799 --    64 Ti   0.803    66 Ti   0.442    60 Ti   0.123
                            63 Ti   0.112
    87   8 O    1.773 --    64 Ti   0.714    67 Ti   0.443
    88   8 O    1.986 --    68 Ti   0.902    66 Ti   0.613    64 Ti   0.196
    89   8 O    2.031 --    67 Ti   0.968    68 Ti   0.733
 ---------------------------------------------------------------------------

Topologies differ in total number of bonds
Writing topology from bond orders to xtbtopo.mol

molecular dipole:
                 x           y           z       tot (Debye)
 q only:        0.837      -0.245      -0.523
   full:        0.094      -0.268       0.569       1.615
molecular quadrupole (traceless):
                xx          xy          yy          xz          yz          zz
 q only:      -25.190     -22.159     -18.436     -17.335      16.538      43.626
  q+dip:      -11.078     -34.408     -46.392      28.524       6.151      57.471
   full:      -11.398     -32.120     -44.393      27.165      11.729      55.790


           -------------------------------------------------
          | TOTAL ENERGY             -177.535392132388 Eh   |
          | GRADIENT NORM               0.096493979218 Eh/α |
          | HOMO-LUMO GAP               0.434721553602 eV   |
           -------------------------------------------------

------------------------------------------------------------------------
 * finished run on 2026/08/31 at 21:19:03.499     
------------------------------------------------------------------------
 total:
 * wall-time:     0 d,  0 h,  0 min,  0.822 sec
 *  cpu-time:     0 d,  0 h,  0 min,  9.109 sec
 * ratio c/w:    11.082 speedup
 SCF:
 * wall-time:     0 d,  0 h,  0 min,  0.777 sec
 *  cpu-time:     0 d,  0 h,  0 min,  8.641 sec
 * ratio c/w:    11.120 speedup

normal termination of xtb
