      -----------------------------------------------------------      
     |                   =====================                   |     
     |                           x T B                           |     
     |                   =====================                   |     
     |                         S. Grimme                         |     
     |          Mulliken Center for Theoretical Chemistry        |     
     |                    University of Bonn                     |     
      -----------------------------------------------------------      

   * xtb version 6.7.1pre (5071a88) compiled by 'Marcel@Raven' on 2024-07-23

   xtb is free software: you can redistribute it and/or modify it under
   the terms of the GNU Lesser General Public License as published by
   the Free Software Foundation, either version 3 of the License, or
   (at your option) any later version.
   
   xtb is distributed in the hope that it will be useful,
   but WITHOUT ANY WARRANTY; without even the implied warranty of
   MERCHANTABILITY or FITNESS FOR A PARTICULAR PURPOSE.  See the
   GNU Lesser General Public License for more details.
   
   Cite this work as:
   * C. Bannwarth, E. Caldeweyher, S. Ehlert, A. Hansen, P. Pracht,
     J. Seibert, S. Spicher, S. Grimme, WIREs Comput. Mol. Sci., 2020, 11,
     e01493. DOI: 10.1002/wcms.1493
   
   for GFN2-xTB:
   * C. Bannwarth, S. Ehlert and S. Grimme., J. Chem. Theory Comput., 2019,
     15, 1652-1671. DOI: 10.1021/acs.jctc.8b01176
   for GFN1-xTB:
   * S. Grimme, C. Bannwarth, P. Shushkov, J. Chem. Theory Comput., 2017,
     13, 1989-2009. DOI: 10.1021/acs.jctc.7b00118
   for GFN0-xTB:
   * P. Pracht, E. Caldeweyher, S. Ehlert, S. Grimme, ChemRxiv, 2019, preprint.
     DOI: 10.26434/chemrxiv.8326202.v1
   for GFN-FF:
   * S. Spicher and S. Grimme, Angew. Chem. Int. Ed., 2020, 59, 15665-15673.
     DOI: 10.1002/anie.202004239
   
   for ALPB and GBSA implicit solvation:
   * S. Ehlert, M. Stahn, S. Spicher, S. Grimme, J. Chem. Theory Comput.,
     2021, 17, 4250-4261. DOI: 10.1021/acs.jctc.1c00471
   
   for ddCOSMO and CPCM-X implicit solvation:
   * M. Stahn, S. Ehlert, S. Grimme, J. Phys. Chem. A,
     2023, XX, XXXX-XXXX. DOI: 10.1021/acs.jpca.3c04382
   
   for DFT-D4:
   * E. Caldeweyher, C. Bannwarth and S. Grimme, J. Chem. Phys., 2017,
     147, 034112. DOI: 10.1063/1.4993215
   * E. Caldeweyher, S. Ehlert, A. Hansen, H. Neugebauer, S. Spicher,
     C. Bannwarth and S. Grimme, J. Chem. Phys., 2019, 150, 154122.
     DOI: 10.1063/1.5090222
   * E. Caldeweyher, J.-M. Mewes, S. Ehlert and S. Grimme, Phys. Chem. Chem. Phys.
     2020, 22, 8499-8512. DOI: 10.1039/D0CP00502A
   
   for sTDA-xTB:
   * S. Grimme and C. Bannwarth, J. Chem. Phys., 2016, 145, 054103.
     DOI: 10.1063/1.4959605
   
   in the mass-spec context:
   * V. Asgeirsson, C. Bauer and S. Grimme, Chem. Sci., 2017, 8, 4879.
     DOI: 10.1039/c7sc00601b
   * J. Koopman and S. Grimme, ACS Omega 2019, 4, 12, 15120-15133.
     DOI: 10.1021/acsomega.9b02011
   
   for metadynamics refer to:
   * S. Grimme, J. Chem. Theory Comput., 2019, 155, 2847-2862
     DOI: 10.1021/acs.jctc.9b00143
   
   for SPH calculations refer to:
   * S. Spicher and S. Grimme, J. Chem. Theory Comput., 2021, 17, 1701-1714
     DOI: 10.1021/acs.jctc.0c01306
   
   for ONIOM refer to:
   * C. Plett, A. Katbashev, S. Ehlert, S. Grimme, M. Bursch,
     Phys. Chem. Chem. Phys., 2023, 25, 17860-17868. DOI: 10.1039/D3CP02178E
   
   for DIPRO refer to:
   * J. Kohn, N. Gildemeister, S. Grimme, D. Fazzi, A. Hansen,
     J. Chem. Phys., 2023, just accepted.
   
   for PTB refer to:
   * S. Grimme, M. Mueller, A. Hansen, J. Chem. Phys., 2023, 158, 124111.
     DOI: 10.1063/5.0137838
   
   with help from (in alphabetical order)
   P. Atkinson, C. Bannwarth, F. Bohle, G. Brandenburg, E. Caldeweyher
   M. Checinski, S. Dohm, S. Ehlert, S. Ehrlich, I. Gerasimov, C. Hölzer
   A. Katbashev, J. Kohn, J. Koopman, C. Lavigne, S. Lehtola, F. März, M. Müller,
   F. Musil, H. Neugebauer, J. Pisarek, C. Plett, P. Pracht, F. Pultar,
   J. Seibert, P. Shushkov, S. Spicher, M. Stahn, M. Steiner, T. Strunk,
   J. Stückrath, T. Rose, and J. Unsleber
   
 * started run on 2026/08/31 at 21:55:36.229     
   ID    Z sym.   atoms
    1    6 C      1, 2, 4-7, 9, 11-13, 15-18, 21-24, 26-29
    2    7 N      3, 8, 14, 20
    3    8 O      10, 19
    4    9 F      25
    5    1 H      30-56

           -------------------------------------------------
          |                Calculation Setup                |
           -------------------------------------------------

          program call               : "c:\Users\Andre\Proyectos doctorado\kras-pancreatic-gC3N4-ai\tools\xtb\xtb-6.7.1\bin\xtb.exe" "c:\Users\Andre\Proyectos doctorado\mxene-glioblastoma-qsar-ai\calculations\gbm\Sunitinib\Sunitinib_drug.xyz" --gfn 2 --sp --chrg 0 --uhf 0 --etemp 500 --acc 1.0 --iterations 500 --norestart
          coordinate file            : c:\Users\Andre\Proyectos doctorado\mxene-glioblastoma-qsar-ai\calculations\gbm\Sunitinib\Sunitinib_drug.xyz
          omp threads                :                    16


           -------------------------------------------------
          |                 G F N 2 - x T B                 |
           -------------------------------------------------

        Reference                      10.1021/acs.jctc.8b01176
      * Hamiltonian:
        H0-scaling (s, p, d)           1.850000    2.230000    2.230000
        zeta-weighting                 0.500000
      * Dispersion:
        s8                             2.700000
        a1                             0.520000
        a2                             5.000000
        s9                             5.000000
      * Repulsion:
        kExp                           1.500000    1.000000
        rExp                           1.000000
      * Coulomb:
        alpha                          2.000000
        third order                    shell-resolved
        anisotropic                    true
        a3                             3.000000
        a5                             4.000000
        cn-shift                       1.200000
        cn-exp                         4.000000
        max-rad                        5.000000


          ...................................................
          :                      SETUP                      :
          :.................................................:
          :  # basis functions                 143          :
          :  # atomic orbitals                 143          :
          :  # shells                           85          :
          :  # electrons                       154          :
          :  max. iterations                   500          :
          :  Hamiltonian                  GFN2-xTB          :
          :  restarted?                      false          :
          :  GBSA solvation                  false          :
          :  PC potential                    false          :
          :  electronic temp.          500.0000000     K    :
          :  accuracy                    1.0000000          :
          :  -> integral cutoff          0.2500000E+02      :
          :  -> integral neglect         0.1000000E-07      :
          :  -> SCF convergence          0.1000000E-05 Eh   :
          :  -> wf. convergence          0.1000000E-03 e    :
          :  Broyden damping             0.4000000          :
          :  net charge                          0          :
          :  unpaired electrons                  0          :
          ...................................................

 iter      E             dE          RMSdq      gap      omega  full diag
   1    -86.4687453 -0.864687E+02  0.361E+00    2.06       0.0  T
   2    -86.6324991 -0.163754E+00  0.217E+00    2.06       1.0  T
   3    -86.6421719 -0.967281E-02  0.113E+00    2.11       1.0  T
   4    -86.6459611 -0.378916E-02  0.411E-01    1.70       1.0  T
   5    -86.6538942 -0.793313E-02  0.105E-01    1.74       1.0  T
   6    -86.6540644 -0.170248E-03  0.670E-02    1.76       1.0  T
   7    -86.6541740 -0.109549E-03  0.267E-02    1.77       1.0  T
   8    -86.6541875 -0.135318E-04  0.124E-02    1.78       1.1  T
   9    -86.6541924 -0.490829E-05  0.437E-03    1.78       3.1  T
  10    -86.6541927 -0.218496E-06  0.182E-03    1.78       7.3  T
  11    -86.6541927 -0.631787E-07  0.731E-04    1.78      18.3  T
  12    -86.6541927 -0.545131E-08  0.320E-04    1.78      41.7  T

   *** convergence criteria satisfied after 12 iterations ***

         #    Occupation            Energy/Eh            Energy/eV
      -------------------------------------------------------------
         1        2.0000           -0.8160568             -22.2060
       ...           ...                  ...                  ...
        71        2.0000           -0.4069135             -11.0727
        72        2.0000           -0.3947850             -10.7426
        73        2.0000           -0.3902311             -10.6187
        74        2.0000           -0.3871697             -10.5354
        75        2.0000           -0.3753045             -10.2126
        76        2.0000           -0.3674904              -9.9999
        77        2.0000           -0.3558072              -9.6820 (HOMO)
        78                         -0.2905353              -7.9059 (LUMO)
        79                         -0.2444842              -6.6528
        80                         -0.2270227              -6.1776
        81                         -0.2170861              -5.9072
        82                         -0.1831400              -4.9835
       ...                                ...                  ...
       143                          0.7344954              19.9866
      -------------------------------------------------------------
                  HL-Gap            0.0652719 Eh            1.7761 eV
             Fermi-level           -0.3231707 Eh           -8.7939 eV

 SCC (total)                   0 d,  0 h,  0 min,  0.164 sec
 SCC setup                      ...        0 min,  0.001 sec (  0.610%)
 Dispersion                     ...        0 min,  0.002 sec (  1.219%)
 classical contributions        ...        0 min,  0.000 sec (  0.000%)
 integral evaluation            ...        0 min,  0.002 sec (  1.220%)
 iterations                     ...        0 min,  0.152 sec ( 92.683%)
 molecular gradient             ...        0 min,  0.007 sec (  4.268%)
 printout                       ...        0 min,  0.000 sec (  0.000%)

         :::::::::::::::::::::::::::::::::::::::::::::::::::::
         ::                     SUMMARY                     ::
         :::::::::::::::::::::::::::::::::::::::::::::::::::::
         :: total energy             -85.502103374810 Eh    ::
         :: gradient norm              0.096055647895 Eh/a0 ::
         :: HOMO-LUMO gap              1.776139917311 eV    ::
         ::.................................................::
         :: SCC energy               -86.653591095005 Eh    ::
         :: -> isotropic ES            0.098449872668 Eh    ::
         :: -> anisotropic ES          0.007988089070 Eh    ::
         :: -> anisotropic XC          0.032421576713 Eh    ::
         :: -> dispersion             -0.059165827103 Eh    ::
         :: repulsion energy           1.151487720195 Eh    ::
         :: add. restraining           0.000000000000 Eh    ::
         :: total charge               0.000000000001 e     ::
         :::::::::::::::::::::::::::::::::::::::::::::::::::::

           -------------------------------------------------
          |                Property Printout                |
           -------------------------------------------------

    * Orbital Energies and Occupations

         #    Occupation            Energy/Eh            Energy/eV
      -------------------------------------------------------------
         1        2.0000           -0.8160568             -22.2060
       ...           ...                  ...                  ...
        65        2.0000           -0.4475810             -12.1793
        66        2.0000           -0.4412543             -12.0071
        67        2.0000           -0.4363206             -11.8729
        68        2.0000           -0.4344050             -11.8208
        69        2.0000           -0.4287695             -11.6674
        70        2.0000           -0.4189120             -11.3992
        71        2.0000           -0.4069135             -11.0727
        72        2.0000           -0.3947850             -10.7426
        73        2.0000           -0.3902311             -10.6187
        74        2.0000           -0.3871697             -10.5354
        75        2.0000           -0.3753045             -10.2126
        76        2.0000           -0.3674904              -9.9999
        77        2.0000           -0.3558072              -9.6820 (HOMO)
        78                         -0.2905353              -7.9059 (LUMO)
        79                         -0.2444842              -6.6528
        80                         -0.2270227              -6.1776
        81                         -0.2170861              -5.9072
        82                         -0.1831400              -4.9835
        83                         -0.1380717              -3.7571
        84                         -0.1180558              -3.2125
        85                         -0.0871983              -2.3728
        86                         -0.0059792              -0.1627
        87                         -0.0022671              -0.0617
        88                          0.0251103               0.6833
       ...                                ...                  ...
       143                          0.7344954              19.9866
      -------------------------------------------------------------
                  HL-Gap            0.0652719 Eh            1.7761 eV
             Fermi-level           -0.3231707 Eh           -8.7939 eV

     #   Z          covCN         q      C6AA      α(0)
     1   6 C        3.748    -0.104    22.553     6.773
     2   6 C        3.750     0.013    20.410     6.443
     3   7 N        2.721    -0.193    25.189     7.454
     4   6 C        3.749     0.015    20.383     6.439
     5   6 C        3.748    -0.103    22.538     6.771
     6   6 C        3.749     0.001    20.628     6.478
     7   6 C        3.737     0.007    20.539     6.467
     8   7 N        2.687    -0.196    25.261     7.465
     9   6 C        2.753     0.274    22.370     7.745
    10   8 O        0.858    -0.446    22.622     6.377
    11   6 C        3.059    -0.069    29.662     8.931
    12   6 C        3.025     0.052    26.811     8.493
    13   6 C        3.752    -0.117    22.794     6.809
    14   7 N        2.804    -0.126    23.729     7.235
    15   6 C        3.011     0.032    27.264     8.565
    16   6 C        2.896    -0.017    28.422     8.741
    17   6 C        3.013    -0.047    29.145     8.856
    18   6 C        2.821     0.268    22.480     7.769
    19   8 O        0.857    -0.442    22.541     6.365
    20   7 N        2.732    -0.154    24.330     7.326
    21   6 C        3.019     0.057    26.702     8.476
    22   6 C        2.908    -0.053    29.312     8.878
    23   6 C        2.920    -0.054    29.342     8.883
    24   6 C        2.778     0.160    24.519     8.110
    25   9 F        0.787    -0.221    11.459     3.999
    26   6 C        2.911    -0.053    29.322     8.879
    27   6 C        3.023    -0.013    28.309     8.727
    28   6 C        3.082     0.003    27.863     8.654
    29   6 C        3.751    -0.102    22.509     6.766
    30   1 H        0.924     0.037     2.495     2.470
    31   1 H        0.924     0.041     2.437     2.441
    32   1 H        0.924     0.036     2.506     2.476
    33   1 H        0.924     0.032     2.556     2.500
    34   1 H        0.924     0.010     2.898     2.662
    35   1 H        0.924     0.035     2.520     2.483
    36   1 H        0.924     0.009     2.908     2.667
    37   1 H        0.924     0.042     2.424     2.435
    38   1 H        0.924     0.035     2.517     2.481
    39   1 H        0.924     0.038     2.478     2.462
    40   1 H        0.924     0.052     2.300     2.372
    41   1 H        0.924     0.015     2.816     2.624
    42   1 H        0.924     0.068     2.103     2.268
    43   1 H        0.924     0.038     2.470     2.458
    44   1 H        0.860     0.179     1.221     1.731
    45   1 H        0.924     0.060     2.205     2.322
    46   1 H        0.924     0.062     2.177     2.307
    47   1 H        0.924     0.055     2.259     2.350
    48   1 H        0.860     0.228     0.972     1.545
    49   1 H        0.925     0.060     2.196     2.318
    50   1 H        0.860     0.178     1.225     1.734
    51   1 H        0.925     0.044     2.391     2.418
    52   1 H        0.925     0.058     2.227     2.334
    53   1 H        0.925     0.057     2.238     2.340
    54   1 H        0.924     0.058     2.217     2.328
    55   1 H        0.924     0.067     2.116     2.275
    56   1 H        0.924     0.035     2.522     2.483

 Mol. C6AA /au·bohr⁶  :      33453.834363
 Mol. C8AA /au·bohr⁸  :     776080.241118
 Mol. α(0) /au        :        282.157109


Wiberg/Mayer (AO) data.
largest (>0.10) Wiberg bond orders for each atom

 ---------------------------------------------------------------------------
     #   Z sym  total        # sym  WBO       # sym  WBO       # sym  WBO
 ---------------------------------------------------------------------------
     1   6 C    3.996 --     2 C    1.016    31 H    0.987    32 H    0.986
                            30 H    0.984
     2   6 C    3.988 --     1 C    1.016     3 N    0.999    33 H    0.972
                            34 H    0.969
     3   7 N    3.100 --     2 C    0.999     4 C    0.998     6 C    0.997
     4   6 C    3.987 --     5 C    1.016     3 N    0.998    35 H    0.971
                            36 H    0.969
     5   6 C    3.996 --     4 C    1.016    37 H    0.987    38 H    0.986
                            39 H    0.983
     6   6 C    3.985 --     3 N    0.997     7 C    0.989    40 H    0.969
                            41 H    0.968
     7   6 C    3.975 --     8 N    1.001     6 C    0.989    43 H    0.971
                            42 H    0.969
     8   7 N    3.383 --     9 C    1.193     7 C    1.001    44 H    0.934
                            10 O    0.178
     9   6 C    3.951 --    10 O    1.667     8 N    1.193    11 C    1.028
    10   8 O    1.986 --     9 C    1.667     8 N    0.178
    11   6 C    3.967 --    12 C    1.396    28 C    1.302     9 C    1.028
    12   6 C    3.946 --    11 C    1.396    14 N    1.286    13 C    1.035
    13   6 C    3.993 --    12 C    1.035    45 H    0.978    46 H    0.973
                            47 H    0.961
    14   7 N    3.575 --    12 C    1.286    15 C    1.163    48 H    0.858
    15   6 C    3.950 --    28 C    1.368    16 C    1.218    14 N    1.163
    16   6 C    3.985 --    17 C    1.591    15 C    1.218    49 H    0.952
    17   6 C    3.972 --    16 C    1.591    27 C    1.091    18 C    1.023
    18   6 C    3.940 --    19 O    1.621    20 N    1.176    17 C    1.023
    19   8 O    2.042 --    18 C    1.621    20 N    0.147
    20   7 N    3.496 --    18 C    1.176    21 C    1.100    50 H    0.938
                            19 O    0.147
    21   6 C    3.950 --    22 C    1.395    27 C    1.284    20 N    1.100
    22   6 C    3.988 --    23 C    1.429    21 C    1.395    51 H    0.968
    23   6 C    3.971 --    22 C    1.429    24 C    1.384    52 H    0.968
    24   6 C    3.877 --    26 C    1.393    23 C    1.384    25 F    0.963
    25   9 F    1.092 --    24 C    0.963
    26   6 C    3.972 --    27 C    1.398    24 C    1.393    53 H    0.964
    27   6 C    3.982 --    26 C    1.398    21 C    1.284    17 C    1.091
    28   6 C    3.963 --    15 C    1.368    11 C    1.302    29 C    1.042
    29   6 C    3.994 --    28 C    1.042    56 H    0.981    54 H    0.970
                            55 H    0.960
    30   1 H    0.999 --     1 C    0.984
    31   1 H    0.998 --     1 C    0.987
    32   1 H    0.998 --     1 C    0.986
    33   1 H    0.999 --     2 C    0.972
    34   1 H    1.000 --     2 C    0.969
    35   1 H    0.998 --     4 C    0.971
    36   1 H    1.000 --     4 C    0.969
    37   1 H    0.998 --     5 C    0.987
    38   1 H    0.998 --     5 C    0.986
    39   1 H    0.999 --     5 C    0.983
    40   1 H    0.997 --     6 C    0.969
    41   1 H    0.999 --     6 C    0.968
    42   1 H    0.995 --     7 C    0.969
    43   1 H    0.998 --     7 C    0.971
    44   1 H    0.968 --     8 N    0.934
    45   1 H    0.996 --    13 C    0.978
    46   1 H    0.994 --    13 C    0.973
    47   1 H    0.992 --    13 C    0.961
    48   1 H    0.947 --    14 N    0.858
    49   1 H    0.995 --    16 C    0.952
    50   1 H    0.967 --    20 N    0.938
    51   1 H    0.998 --    22 C    0.968
    52   1 H    0.996 --    23 C    0.968
    53   1 H    0.996 --    26 C    0.964
    54   1 H    0.993 --    29 C    0.970
    55   1 H    0.992 --    29 C    0.960
    56   1 H    0.998 --    29 C    0.981
 ---------------------------------------------------------------------------

Topologies differ in total number of bonds
Writing topology from bond orders to xtbtopo.mol

molecular dipole:
                 x           y           z       tot (Debye)
 q only:       -0.399       1.185      -1.155
   full:       -0.422       1.615      -1.190       5.210
molecular quadrupole (traceless):
                xx          xy          yy          xz          yz          zz
 q only:        7.247       0.636      -7.018      -8.388       2.538      -0.230
  q+dip:       18.850       5.332     -14.635     -14.920      -0.063      -4.215
   full:       17.123       2.242     -12.197     -14.957       2.547      -4.926


           -------------------------------------------------
          | TOTAL ENERGY              -85.502103374810 Eh   |
          | GRADIENT NORM               0.096055647895 Eh/α |
          | HOMO-LUMO GAP               1.776139917311 eV   |
           -------------------------------------------------

------------------------------------------------------------------------
 * finished run on 2026/08/31 at 21:55:36.431     
------------------------------------------------------------------------
 total:
 * wall-time:     0 d,  0 h,  0 min,  0.200 sec
 *  cpu-time:     0 d,  0 h,  0 min,  0.875 sec
 * ratio c/w:     4.375 speedup
 SCF:
 * wall-time:     0 d,  0 h,  0 min,  0.165 sec
 *  cpu-time:     0 d,  0 h,  0 min,  0.766 sec
 * ratio c/w:     4.640 speedup

normal termination of xtb
