      -----------------------------------------------------------      
     |                   =====================                   |     
     |                           x T B                           |     
     |                   =====================                   |     
     |                         S. Grimme                         |     
     |          Mulliken Center for Theoretical Chemistry        |     
     |                    University of Bonn                     |     
      -----------------------------------------------------------      

   * xtb version 6.7.1pre (5071a88) compiled by 'Marcel@Raven' on 2024-07-23

   xtb is free software: you can redistribute it and/or modify it under
   the terms of the GNU Lesser General Public License as published by
   the Free Software Foundation, either version 3 of the License, or
   (at your option) any later version.
   
   xtb is distributed in the hope that it will be useful,
   but WITHOUT ANY WARRANTY; without even the implied warranty of
   MERCHANTABILITY or FITNESS FOR A PARTICULAR PURPOSE.  See the
   GNU Lesser General Public License for more details.
   
   Cite this work as:
   * C. Bannwarth, E. Caldeweyher, S. Ehlert, A. Hansen, P. Pracht,
     J. Seibert, S. Spicher, S. Grimme, WIREs Comput. Mol. Sci., 2020, 11,
     e01493. DOI: 10.1002/wcms.1493
   
   for GFN2-xTB:
   * C. Bannwarth, S. Ehlert and S. Grimme., J. Chem. Theory Comput., 2019,
     15, 1652-1671. DOI: 10.1021/acs.jctc.8b01176
   for GFN1-xTB:
   * S. Grimme, C. Bannwarth, P. Shushkov, J. Chem. Theory Comput., 2017,
     13, 1989-2009. DOI: 10.1021/acs.jctc.7b00118
   for GFN0-xTB:
   * P. Pracht, E. Caldeweyher, S. Ehlert, S. Grimme, ChemRxiv, 2019, preprint.
     DOI: 10.26434/chemrxiv.8326202.v1
   for GFN-FF:
   * S. Spicher and S. Grimme, Angew. Chem. Int. Ed., 2020, 59, 15665-15673.
     DOI: 10.1002/anie.202004239
   
   for ALPB and GBSA implicit solvation:
   * S. Ehlert, M. Stahn, S. Spicher, S. Grimme, J. Chem. Theory Comput.,
     2021, 17, 4250-4261. DOI: 10.1021/acs.jctc.1c00471
   
   for ddCOSMO and CPCM-X implicit solvation:
   * M. Stahn, S. Ehlert, S. Grimme, J. Phys. Chem. A,
     2023, XX, XXXX-XXXX. DOI: 10.1021/acs.jpca.3c04382
   
   for DFT-D4:
   * E. Caldeweyher, C. Bannwarth and S. Grimme, J. Chem. Phys., 2017,
     147, 034112. DOI: 10.1063/1.4993215
   * E. Caldeweyher, S. Ehlert, A. Hansen, H. Neugebauer, S. Spicher,
     C. Bannwarth and S. Grimme, J. Chem. Phys., 2019, 150, 154122.
     DOI: 10.1063/1.5090222
   * E. Caldeweyher, J.-M. Mewes, S. Ehlert and S. Grimme, Phys. Chem. Chem. Phys.
     2020, 22, 8499-8512. DOI: 10.1039/D0CP00502A
   
   for sTDA-xTB:
   * S. Grimme and C. Bannwarth, J. Chem. Phys., 2016, 145, 054103.
     DOI: 10.1063/1.4959605
   
   in the mass-spec context:
   * V. Asgeirsson, C. Bauer and S. Grimme, Chem. Sci., 2017, 8, 4879.
     DOI: 10.1039/c7sc00601b
   * J. Koopman and S. Grimme, ACS Omega 2019, 4, 12, 15120-15133.
     DOI: 10.1021/acsomega.9b02011
   
   for metadynamics refer to:
   * S. Grimme, J. Chem. Theory Comput., 2019, 155, 2847-2862
     DOI: 10.1021/acs.jctc.9b00143
   
   for SPH calculations refer to:
   * S. Spicher and S. Grimme, J. Chem. Theory Comput., 2021, 17, 1701-1714
     DOI: 10.1021/acs.jctc.0c01306
   
   for ONIOM refer to:
   * C. Plett, A. Katbashev, S. Ehlert, S. Grimme, M. Bursch,
     Phys. Chem. Chem. Phys., 2023, 25, 17860-17868. DOI: 10.1039/D3CP02178E
   
   for DIPRO refer to:
   * J. Kohn, N. Gildemeister, S. Grimme, D. Fazzi, A. Hansen,
     J. Chem. Phys., 2023, just accepted.
   
   for PTB refer to:
   * S. Grimme, M. Mueller, A. Hansen, J. Chem. Phys., 2023, 158, 124111.
     DOI: 10.1063/5.0137838
   
   with help from (in alphabetical order)
   P. Atkinson, C. Bannwarth, F. Bohle, G. Brandenburg, E. Caldeweyher
   M. Checinski, S. Dohm, S. Ehlert, S. Ehrlich, I. Gerasimov, C. Hölzer
   A. Katbashev, J. Kohn, J. Koopman, C. Lavigne, S. Lehtola, F. März, M. Müller,
   F. Musil, H. Neugebauer, J. Pisarek, C. Plett, P. Pracht, F. Pultar,
   J. Seibert, P. Shushkov, S. Spicher, M. Stahn, M. Steiner, T. Strunk,
   J. Stückrath, T. Rose, and J. Unsleber
   
 * started run on 2026/08/31 at 20:36:41.304     
   ID    Z sym.   atoms
    1    6 C      1, 2, 4-7, 9, 11-13, 15-18, 21-24, 26-29, 69-75
    2    7 N      3, 8, 14, 20
    3    8 O      10, 19, 76-89
    4    9 F      25
    5    1 H      30-56
    6   22 Ti     57-68

           -------------------------------------------------
          |                Calculation Setup                |
           -------------------------------------------------

          program call               : "c:\Users\Andre\Proyectos doctorado\kras-pancreatic-gC3N4-ai\tools\xtb\xtb-6.7.1\bin\xtb.exe" "c:\Users\Andre\Proyectos doctorado\mxene-glioblastoma-qsar-ai\calculations\gbm\Sunitinib\Sunitinib_Ti3C2O2_complex.xyz" --gfn 2 --sp --chrg 0 --uhf 0 --iterations 500 --norestart
          coordinate file            : c:\Users\Andre\Proyectos doctorado\mxene-glioblastoma-qsar-ai\calculations\gbm\Sunitinib\Sunitinib_Ti3C2O2_complex.xyz
          omp threads                :                    16


molecular fragmentation (1/2 indicates fragments):
111111111111111111111111111111111111111111111111111111112222222222222222
22222222222222222
# atoms in fragment 1/2:    56    33
 fragment masses (1/2) :      398.47      882.47
CMA distance (Bohr)    :  10.757
constraining FC (au)   :  0.0500

           -------------------------------------------------
          |                 G F N 2 - x T B                 |
           -------------------------------------------------

        Reference                      10.1021/acs.jctc.8b01176
      * Hamiltonian:
        H0-scaling (s, p, d)           1.850000    2.230000    2.230000
        zeta-weighting                 0.500000
      * Dispersion:
        s8                             2.700000
        a1                             0.520000
        a2                             5.000000
        s9                             5.000000
      * Repulsion:
        kExp                           1.500000    1.000000
        rExp                           1.000000
      * Coulomb:
        alpha                          2.000000
        third order                    shell-resolved
        anisotropic                    true
        a3                             3.000000
        a5                             4.000000
        cn-shift                       1.200000
        cn-exp                         4.000000
        max-rad                        5.000000


          ...................................................
          :                      SETUP                      :
          :.................................................:
          :  # basis functions                 347          :
          :  # atomic orbitals                 335          :
          :  # shells                          163          :
          :  # electrons                       314          :
          :  max. iterations                   500          :
          :  Hamiltonian                  GFN2-xTB          :
          :  restarted?                      false          :
          :  GBSA solvation                  false          :
          :  PC potential                    false          :
          :  electronic temp.          300.0000000     K    :
          :  accuracy                    1.0000000          :
          :  -> integral cutoff          0.2500000E+02      :
          :  -> integral neglect         0.1000000E-07      :
          :  -> SCF convergence          0.1000000E-05 Eh   :
          :  -> wf. convergence          0.1000000E-03 e    :
          :  Broyden damping             0.4000000          :
          :  net charge                          0          :
          :  unpaired electrons                  0          :
          ...................................................

 iter      E             dE          RMSdq      gap      omega  full diag
   1   -174.8276893 -0.174828E+03  0.119E+01    0.04       0.0  T
   2   -122.2602011  0.525675E+02  0.167E+01    0.03       1.0  T
   3    -54.4116722  0.678485E+02  0.238E+01    0.09       1.0  T
   4   -160.0791153 -0.105667E+03  0.102E+01    0.06       1.0  T
   5   -151.3712038  0.870791E+01  0.137E+01    0.24       1.0  T
   6   -173.2141596 -0.218430E+02  0.859E+00    0.13       1.0  T
   7   -170.9553176  0.225884E+01  0.772E+00    0.25       1.0  T
   8   -173.0971723 -0.214185E+01  0.702E+00    0.11       1.0  T
   9   -176.5917992 -0.349463E+01  0.588E+00    0.20       1.0  T
  10   -172.4034932  0.418831E+01  0.577E+00    0.15       1.0  T
  11   -177.2826270 -0.487913E+01  0.440E+00    0.06       1.0  T
  12   -176.6020252  0.680602E+00  0.448E+00    0.08       1.0  T
  13   -177.6489562 -0.104693E+01  0.369E+00    0.10       1.0  T
  14   -177.8399889 -0.191033E+00  0.343E+00    0.01       1.0  T
  15   -177.9212576 -0.812686E-01  0.311E+00    0.09       1.0  T
  16   -177.5781878  0.343070E+00  0.308E+00    0.02       1.0  T
  17   -177.1274370  0.450751E+00  0.275E+00    0.01       1.0  T
  18   -177.9306783 -0.803241E+00  0.210E+00    0.07       1.0  T
  19   -177.5526708  0.378008E+00  0.241E+00    0.22       1.0  T
  20   -178.2875725 -0.734902E+00  0.147E+00    0.16       1.0  T
  21   -178.3345004 -0.469279E-01  0.123E+00    0.13       1.0  T
  22   -178.3136631  0.208373E-01  0.121E+00    0.08       1.0  T
  23   -178.3073743  0.628881E-02  0.120E+00    0.16       1.0  T
  24   -178.3249152 -0.175409E-01  0.112E+00    0.15       1.0  T
  25   -178.3328934 -0.797813E-02  0.107E+00    0.08       1.0  T
  26   -178.3332803 -0.386979E-03  0.906E-01    0.13       1.0  T
  27   -178.3787225 -0.454421E-01  0.658E-01    0.18       1.0  T
  28   -178.3898740 -0.111516E-01  0.608E-01    0.18       1.0  T
  29   -178.3868789  0.299509E-02  0.592E-01    0.18       1.0  T
  30   -178.3906337 -0.375473E-02  0.556E-01    0.18       1.0  T
  31   -178.3982711 -0.763746E-02  0.505E-01    0.18       1.0  T
  32   -178.4029950 -0.472392E-02  0.456E-01    0.18       1.0  T
  33   -178.4082453 -0.525023E-02  0.414E-01    0.17       1.0  T
  34   -178.4229159 -0.146707E-01  0.332E-01    0.12       1.0  T
  35   -178.4283396 -0.542373E-02  0.295E-01    0.11       1.0  T
  36   -178.4260374  0.230221E-02  0.297E-01    0.12       1.0  T
  37   -178.4316588 -0.562132E-02  0.260E-01    0.07       1.0  T
  38   -178.4345997 -0.294095E-02  0.206E-01    0.07       1.0  T
  39   -178.4355938 -0.994106E-03  0.138E-01    0.11       1.0  T
  40   -178.4377367 -0.214288E-02  0.118E-01    0.08       1.0  T
  41   -178.4389521 -0.121538E-02  0.641E-02    0.08       1.0  T
  42   -178.4352311  0.372095E-02  0.162E-01    0.06       1.0  T
  43   -178.4383359 -0.310479E-02  0.859E-02    0.07       1.0  T
  44   -178.4391107 -0.774797E-03  0.511E-02    0.08       1.0  T
  45   -178.4394803 -0.369579E-03  0.107E-02    0.08       1.0  T
  46   -178.4394144  0.659174E-04  0.215E-02    0.08       1.0  T
  47   -178.4394811 -0.667224E-04  0.884E-03    0.08       1.2  T
  48   -178.4394783  0.278775E-05  0.723E-03    0.08       1.5  T
  49   -178.4394184  0.599513E-04  0.191E-02    0.08       1.0  T
  50   -178.4394733 -0.549392E-04  0.864E-03    0.08       1.2  T
  51   -178.4394840 -0.106693E-04  0.414E-03    0.08       2.6  T
  52   -178.4394855 -0.149198E-05  0.280E-03    0.08       3.8  T
  53   -178.4394830  0.242590E-05  0.449E-03    0.08       2.4  T
  54   -178.4394863 -0.324101E-05  0.164E-03    0.08       6.4  T
  55   -178.4394866 -0.362439E-06  0.939E-04    0.08      11.3  T
  56   -178.4394868 -0.128358E-06  0.700E-04    0.08      15.2  T

   *** convergence criteria satisfied after 56 iterations ***

         #    Occupation            Energy/Eh            Energy/eV
      -------------------------------------------------------------
         1        2.0000           -0.9041685             -24.6037
       ...           ...                  ...                  ...
       151        2.0000           -0.3868223             -10.5260
       152        2.0000           -0.3854238             -10.4879
       153        2.0000           -0.3820740             -10.3968
       154        2.0000           -0.3802497             -10.3471
       155        1.9852           -0.3744083             -10.1882
       156        1.8401           -0.3720760             -10.1247
       157        1.6177           -0.3711253             -10.0988 (HOMO)
       158        0.2920           -0.3680768             -10.0159 (LUMO)
       159        0.1694           -0.3674938             -10.0000
       160        0.0955           -0.3669117              -9.9842
       161                         -0.3511388              -9.5550
       162                         -0.3491558              -9.5010
       ...                                ...                  ...
       335                         18.4155901             501.1137
      -------------------------------------------------------------
                  HL-Gap            0.0030484 Eh            0.0830 eV
             Fermi-level           -0.3697548 Eh          -10.0615 eV

 SCC (total)                   0 d,  0 h,  0 min,  1.644 sec
 SCC setup                      ...        0 min,  0.001 sec (  0.061%)
 Dispersion                     ...        0 min,  0.003 sec (  0.182%)
 classical contributions        ...        0 min,  0.000 sec (  0.000%)
 integral evaluation            ...        0 min,  0.011 sec (  0.669%)
 iterations                     ...        0 min,  1.598 sec ( 97.202%)
 molecular gradient             ...        0 min,  0.027 sec (  1.642%)
 printout                       ...        0 min,  0.004 sec (  0.243%)

         :::::::::::::::::::::::::::::::::::::::::::::::::::::
         ::                     SUMMARY                     ::
         :::::::::::::::::::::::::::::::::::::::::::::::::::::
         :: total energy            -172.471514692791 Eh    ::
         :: gradient norm              5.390506565878 Eh/a0 ::
         :: HOMO-LUMO gap              0.082952318697 eV    ::
         ::.................................................::
         :: SCC energy              -178.434640062968 Eh    ::
         :: -> isotropic ES            0.832334236802 Eh    ::
         :: -> anisotropic ES         -0.001364624634 Eh    ::
         :: -> anisotropic XC         -0.064782053485 Eh    ::
         :: -> dispersion             -0.160700022476 Eh    ::
         :: repulsion energy           5.963125370177 Eh    ::
         :: add. restraining           0.000000000000 Eh    ::
         :: total charge               0.000000000001 e     ::
         :::::::::::::::::::::::::::::::::::::::::::::::::::::

           -------------------------------------------------
          |                Property Printout                |
           -------------------------------------------------

    * Orbital Energies and Occupations

         #    Occupation            Energy/Eh            Energy/eV
      -------------------------------------------------------------
         1        2.0000           -0.9041685             -24.6037
       ...           ...                  ...                  ...
       145        2.0000           -0.3993972             -10.8682
       146        2.0000           -0.3984326             -10.8419
       147        2.0000           -0.3966010             -10.7921
       148        2.0000           -0.3958555             -10.7718
       149        2.0000           -0.3914825             -10.6528
       150        2.0000           -0.3900362             -10.6134
       151        2.0000           -0.3868223             -10.5260
       152        2.0000           -0.3854238             -10.4879
       153        2.0000           -0.3820740             -10.3968
       154        2.0000           -0.3802497             -10.3471
       155        1.9852           -0.3744083             -10.1882
       156        1.8401           -0.3720760             -10.1247
       157        1.6177           -0.3711253             -10.0988 (HOMO)
       158        0.2920           -0.3680768             -10.0159 (LUMO)
       159        0.1694           -0.3674938             -10.0000
       160        0.0955           -0.3669117              -9.9842
       161                         -0.3511388              -9.5550
       162                         -0.3491558              -9.5010
       163                         -0.3439057              -9.3581
       164                         -0.3431690              -9.3381
       165                         -0.3361195              -9.1463
       166                         -0.3339444              -9.0871
       167                         -0.3330624              -9.0631
       168                         -0.3327579              -9.0548
       ...                                ...                  ...
       335                         18.4155901             501.1137
      -------------------------------------------------------------
                  HL-Gap            0.0030484 Eh            0.0830 eV
             Fermi-level           -0.3697548 Eh          -10.0615 eV

     #   Z          covCN         q      C6AA      α(0)
     1   6 C        3.748    -0.125    22.958     6.834
     2   6 C        3.744    -0.006    20.759     6.500
     3   7 N        2.720    -0.108    23.356     7.178
     4   6 C        3.749    -0.014    20.888     6.518
     5   6 C        3.748    -0.117    22.801     6.811
     6   6 C        3.745    -0.038    21.330     6.588
     7   6 C        3.735    -0.001    20.677     6.489
     8   7 N        2.688    -0.171    24.707     7.382
     9   6 C        2.753     0.272    22.402     7.750
    10   8 O        0.858    -0.422    22.121     6.306
    11   6 C        3.063    -0.064    29.529     8.911
    12   6 C        3.033     0.081    26.173     8.391
    13   6 C        3.751    -0.128    23.025     6.843
    14   7 N        2.799    -0.110    23.407     7.186
    15   6 C        3.018     0.054    26.766     8.486
    16   6 C        2.895    -0.016    28.418     8.740
    17   6 C        3.013    -0.035    28.840     8.809
    18   6 C        2.821     0.268    22.475     7.768
    19   8 O        0.857    -0.427    22.237     6.322
    20   7 N        2.732    -0.149    24.223     7.310
    21   6 C        3.019     0.058    26.667     8.471
    22   6 C        2.908    -0.054    29.334     8.881
    23   6 C        2.920    -0.053    29.305     8.877
    24   6 C        2.778     0.164    24.450     8.099
    25   9 F        0.787    -0.216    11.402     3.989
    26   6 C        2.911    -0.055    29.359     8.885
    27   6 C        3.023    -0.010    28.253     8.719
    28   6 C        3.079     0.017    27.552     8.605
    29   6 C        3.753    -0.190    24.290     7.028
    30   1 H        0.924     0.058     2.221     2.331
    31   1 H        0.924     0.048     2.344     2.394
    32   1 H        0.924     0.058     2.225     2.333
    33   1 H        0.924     0.034     2.526     2.486
    34   1 H        0.924     0.057     2.234     2.338
    35   1 H        0.924     0.066     2.129     2.282
    36   1 H        0.924     0.040     2.451     2.448
    37   1 H        0.924     0.053     2.281     2.362
    38   1 H        0.924     0.049     2.337     2.391
    39   1 H        0.924     0.044     2.397     2.421
    40   1 H        0.924     0.102     1.766     2.078
    41   1 H        0.923     0.107     1.723     2.053
    42   1 H        0.924     0.074     2.046     2.237
    43   1 H        0.924     0.057     2.234     2.337
    44   1 H        0.860     0.188     1.171     1.695
    45   1 H        0.924     0.095     1.836     2.119
    46   1 H        0.924     0.077     2.013     2.219
    47   1 H        0.924     0.064     2.148     2.292
    48   1 H        0.860     0.242     0.914     1.498
    49   1 H        0.925     0.103     1.759     2.074
    50   1 H        0.860     0.184     1.192     1.711
    51   1 H        0.925     0.051     2.310     2.377
    52   1 H        0.925     0.065     2.141     2.288
    53   1 H        0.925     0.077     2.007     2.215
    54   1 H        0.924     0.107     1.723     2.053
    55   1 H        0.924     0.150     1.393     1.846
    56   1 H        0.938     0.242     0.908     1.490
    57  22 Ti       4.151     0.783    91.486    16.213
    58  22 Ti       6.350     0.745    92.114    15.582
    59  22 Ti       4.151     0.781    91.507    16.215
    60  22 Ti       7.449     1.034    89.085    15.324
    61  22 Ti       7.455     1.026    89.165    15.331
    62  22 Ti       6.519     1.058    88.839    15.303
    63  22 Ti       4.151     0.802    91.286    16.196
    64  22 Ti       6.350     0.761    91.937    15.567
    65  22 Ti       4.151     0.799    91.314    16.198
    66  22 Ti       7.449     1.060    88.828    15.302
    67  22 Ti       7.449     1.061    88.817    15.301
    68  22 Ti       6.519     1.076    88.660    15.287
    69   6 C        5.128    -0.733    39.794     8.959
    70   6 C        5.128    -0.733    39.798     8.959
    71   6 C        5.649    -0.578    34.318     8.320
    72   6 C        2.445    -0.410    40.702    10.409
    73   6 C        2.445    -0.410    40.711    10.410
    74   6 C        2.445    -0.336    38.060    10.066
    75   6 C        2.445    -0.337    38.104    10.072
    76   8 O        0.728    -0.533    24.594     6.646
    77   8 O        0.729    -0.576    25.602     6.780
    78   8 O        0.728    -0.543    24.830     6.677
    79   8 O        0.729    -0.659    27.688     7.051
    80   8 O        0.740    -0.679    28.229     7.120
    81   8 O        0.753    -0.610    26.434     6.890
    82   8 O        0.753    -0.630    26.933     6.955
    83   8 O        0.728    -0.540    24.762     6.668
    84   8 O        0.729    -0.578    25.648     6.786
    85   8 O        0.728    -0.538    24.719     6.662
    86   8 O        0.729    -0.659    27.695     7.052
    87   8 O        0.729    -0.656    27.624     7.043
    88   8 O        0.753    -0.573    25.532     6.772
    89   8 O        0.753    -0.572    25.496     6.767

 Mol. C6AA /au·bohr⁶  :     166374.220241
 Mol. C8AA /au·bohr⁸  :    7085180.849983
 Mol. α(0) /au        :        627.928800


Wiberg/Mayer (AO) data.
largest (>0.10) Wiberg bond orders for each atom

 ---------------------------------------------------------------------------
     #   Z sym  total        # sym  WBO       # sym  WBO       # sym  WBO
 ---------------------------------------------------------------------------
     1   6 C    3.986 --     2 C    1.017    31 H    0.984    30 H    0.982
                            32 H    0.982
     2   6 C    3.969 --     1 C    1.017     3 N    0.996    34 H    0.967
                            33 H    0.954
     3   7 N    3.081 --     6 C    1.011     2 C    0.996     4 C    0.995
     4   6 C    3.966 --     5 C    1.015     3 N    0.995    35 H    0.967
                            36 H    0.956
     5   6 C    3.988 --     4 C    1.015    37 H    0.984    38 H    0.984
                            39 H    0.984
     6   6 C    3.944 --     3 N    1.011     7 C    0.957    41 H    0.930
                            40 H    0.926
     7   6 C    3.936 --     8 N    1.009    43 H    0.971    42 H    0.959
                             6 C    0.957
     8   7 N    3.399 --     9 C    1.197     7 C    1.009    44 H    0.936
                            10 O    0.177
     9   6 C    3.950 --    10 O    1.670     8 N    1.197    11 C    1.020
    10   8 O    1.987 --     9 C    1.670     8 N    0.177
    11   6 C    3.953 --    12 C    1.381    28 C    1.306     9 C    1.020
    12   6 C    3.883 --    11 C    1.381    14 N    1.273    13 C    1.045
    13   6 C    3.982 --    12 C    1.045    47 H    0.980    46 H    0.963
                            45 H    0.950
    14   7 N    3.568 --    12 C    1.273    15 C    1.179    48 H    0.850
    15   6 C    3.867 --    28 C    1.300    16 C    1.226    14 N    1.179
    16   6 C    3.976 --    17 C    1.571    15 C    1.226    49 H    0.928
    17   6 C    3.903 --    16 C    1.571    27 C    1.098    18 C    1.015
    18   6 C    3.933 --    19 O    1.631    20 N    1.178    17 C    1.015
    19   8 O    2.031 --    18 C    1.631    20 N    0.147
    20   7 N    3.498 --    18 C    1.178    21 C    1.101    50 H    0.936
                            19 O    0.147
    21   6 C    3.940 --    22 C    1.395    27 C    1.280    20 N    1.101
    22   6 C    3.987 --    23 C    1.429    21 C    1.395    51 H    0.967
    23   6 C    3.959 --    22 C    1.429    24 C    1.379    52 H    0.967
    24   6 C    3.878 --    26 C    1.397    23 C    1.379    25 F    0.968
    25   9 F    1.097 --    24 C    0.968
    26   6 C    3.960 --    24 C    1.397    27 C    1.391    53 H    0.957
    27   6 C    3.976 --    26 C    1.391    21 C    1.280    17 C    1.098
    28   6 C    3.911 --    11 C    1.306    15 C    1.300    29 C    1.055
    29   6 C    3.934 --    28 C    1.055    54 H    0.917    55 H    0.873
                            56 H    0.750
    30   1 H    0.995 --     1 C    0.982
    31   1 H    0.997 --     1 C    0.984
    32   1 H    0.996 --     1 C    0.982
    33   1 H    0.976 --     2 C    0.954
    34   1 H    0.993 --     2 C    0.967
    35   1 H    0.994 --     4 C    0.967
    36   1 H    0.977 --     4 C    0.956
    37   1 H    0.995 --     5 C    0.984
    38   1 H    0.997 --     5 C    0.984
    39   1 H    0.998 --     5 C    0.984
    40   1 H    0.983 --     6 C    0.926
    41   1 H    0.985 --     6 C    0.930
    42   1 H    0.988 --     7 C    0.959
    43   1 H    0.994 --     7 C    0.971
    44   1 H    0.964 --     8 N    0.936
    45   1 H    0.980 --    13 C    0.950
    46   1 H    0.987 --    13 C    0.963
    47   1 H    0.995 --    13 C    0.980
    48   1 H    0.940 --    14 N    0.850
    49   1 H    0.988 --    16 C    0.928
    50   1 H    0.965 --    20 N    0.936
    51   1 H    0.997 --    22 C    0.967
    52   1 H    0.995 --    23 C    0.967
    53   1 H    0.993 --    26 C    0.957
    54   1 H    0.972 --    29 C    0.917
    55   1 H    0.973 --    29 C    0.873
    56   1 H    0.930 --    29 C    0.750
    57  22 Ti   3.996 --    76 O    2.025    63 Ti   0.583    58 Ti   0.308
                            69 C    0.275    60 Ti   0.193    72 C    0.173
                            64 Ti   0.106
    58  22 Ti   4.439 --    77 O    1.915    64 Ti   0.374    59 Ti   0.315
                            57 Ti   0.308    69 C    0.265    70 C    0.261
                            61 Ti   0.121    60 Ti   0.119    65 Ti   0.113
                            63 Ti   0.113
    59  22 Ti   3.990 --    78 O    2.018    65 Ti   0.591    58 Ti   0.315
                            70 C    0.281    61 Ti   0.194    73 C    0.174
                            64 Ti   0.110
    60  22 Ti   4.446 --    79 O    1.738    72 C    0.648    69 C    0.485
                            81 O    0.225    57 Ti   0.193    66 Ti   0.156
                            62 Ti   0.148    71 C    0.140    58 Ti   0.119
    61  22 Ti   4.457 --    80 O    1.664    73 C    0.663    70 C    0.512
                            59 Ti   0.194    82 O    0.191    67 Ti   0.163
                            62 Ti   0.142    71 C    0.137    58 Ti   0.121
    62  22 Ti   4.453 --    81 O    1.129    82 O    1.118    71 C    0.474
                            75 C    0.408    74 C    0.401    68 Ti   0.253
                            60 Ti   0.148    61 Ti   0.142
    63  22 Ti   4.024 --    83 O    2.018    57 Ti   0.583    64 Ti   0.333
                            69 C    0.285    66 Ti   0.193    72 C    0.184
                            58 Ti   0.113
    64  22 Ti   4.479 --    84 O    1.907    58 Ti   0.374    63 Ti   0.333
                            65 Ti   0.325    69 C    0.276    70 C    0.269
                            66 Ti   0.134    67 Ti   0.131    59 Ti   0.110
                            57 Ti   0.106
    65  22 Ti   4.026 --    85 O    2.023    59 Ti   0.591    64 Ti   0.325
                            70 C    0.283    67 Ti   0.191    73 C    0.182
                            58 Ti   0.113
    66  22 Ti   4.426 --    86 O    1.730    72 C    0.645    69 C    0.508
                            88 O    0.227    63 Ti   0.193    71 C    0.173
                            68 Ti   0.162    60 Ti   0.156    64 Ti   0.134
    67  22 Ti   4.428 --    87 O    1.736    73 C    0.635    70 C    0.506
                            89 O    0.230    65 Ti   0.191    71 C    0.174
                            68 Ti   0.163    61 Ti   0.163    64 Ti   0.131
    68  22 Ti   4.439 --    88 O    1.096    89 O    1.095    71 C    0.504
                            74 C    0.443    75 C    0.440    62 Ti   0.253
                            67 Ti   0.163    66 Ti   0.162
    69   6 C    3.681 --    72 C    0.877    66 Ti   0.508    60 Ti   0.485
                            63 Ti   0.285    64 Ti   0.276    57 Ti   0.275
                            58 Ti   0.265
    70   6 C    3.685 --    73 C    0.873    61 Ti   0.512    67 Ti   0.506
                            65 Ti   0.283    59 Ti   0.281    64 Ti   0.269
                            58 Ti   0.261
    71   6 C    3.800 --    74 C    0.822    75 C    0.819    68 Ti   0.504
                            62 Ti   0.474    67 Ti   0.174    66 Ti   0.173
                            60 Ti   0.140    61 Ti   0.137
    72   6 C    3.298 --    69 C    0.877    60 Ti   0.648    66 Ti   0.645
                            74 C    0.230    63 Ti   0.184    57 Ti   0.173
    73   6 C    3.300 --    70 C    0.873    61 Ti   0.663    67 Ti   0.635
                            75 C    0.229    65 Ti   0.182    59 Ti   0.174
    74   6 C    3.297 --    71 C    0.822    68 Ti   0.443    88 O    0.412
                            62 Ti   0.401    81 O    0.351    72 C    0.230
                            75 C    0.130
    75   6 C    3.298 --    71 C    0.819    68 Ti   0.440    89 O    0.408
                            62 Ti   0.408    82 O    0.344    73 C    0.229
                            74 C    0.130
    76   8 O    2.273 --    57 Ti   2.025
    77   8 O    2.232 --    58 Ti   1.915
    78   8 O    2.263 --    59 Ti   2.018
    79   8 O    2.126 --    60 Ti   1.738
    80   8 O    2.096 --    61 Ti   1.664
    81   8 O    2.122 --    62 Ti   1.129    74 C    0.351    60 Ti   0.225
                            88 O    0.125
    82   8 O    2.092 --    62 Ti   1.118    75 C    0.344    61 Ti   0.191
                            89 O    0.124
    83   8 O    2.264 --    63 Ti   2.018
    84   8 O    2.229 --    64 Ti   1.907
    85   8 O    2.267 --    65 Ti   2.023
    86   8 O    2.120 --    66 Ti   1.730
    87   8 O    2.123 --    67 Ti   1.736
    88   8 O    2.156 --    68 Ti   1.096    74 C    0.412    66 Ti   0.227
                            81 O    0.125
    89   8 O    2.151 --    68 Ti   1.095    75 C    0.408    67 Ti   0.230
                            82 O    0.124
 ---------------------------------------------------------------------------

Topologies differ in total number of bonds
Writing topology from bond orders to xtbtopo.mol

molecular dipole:
                 x           y           z       tot (Debye)
 q only:       -1.196      -7.774       7.851
   full:       -0.501      -3.377       5.594      16.658
molecular quadrupole (traceless):
                xx          xy          yy          xz          yz          zz
 q only:       50.268     -19.169      -3.337      -6.697      16.183     -46.932
  q+dip:       55.676     -26.207       5.674       2.708      18.192     -61.351
   full:       51.348     -25.770      13.586       2.268      21.158     -64.934


           -------------------------------------------------
          | TOTAL ENERGY             -172.471514692791 Eh   |
          | GRADIENT NORM               5.390506565878 Eh/α |
          | HOMO-LUMO GAP               0.082952318697 eV   |
           -------------------------------------------------

------------------------------------------------------------------------
 * finished run on 2026/08/31 at 20:36:43.014     
------------------------------------------------------------------------
 total:
 * wall-time:     0 d,  0 h,  0 min,  1.709 sec
 *  cpu-time:     0 d,  0 h,  0 min, 14.188 sec
 * ratio c/w:     8.302 speedup
 SCF:
 * wall-time:     0 d,  0 h,  0 min,  1.645 sec
 *  cpu-time:     0 d,  0 h,  0 min, 13.688 sec
 * ratio c/w:     8.321 speedup

normal termination of xtb
