
     Program PWSCF v.7.5 starts on 29Sep2026 at 12:47:22 

     This program is part of the open-source Quantum ESPRESSO suite
     for quantum simulation of materials; please cite
         "P. Giannozzi et al., J. Phys.:Condens. Matter 21 395502 (2009);
         "P. Giannozzi et al., J. Phys.:Condens. Matter 29 465901 (2017);
         "P. Giannozzi et al., J. Chem. Phys. 152 154105 (2020);
          URL http://www.quantum-espresso.org", 
     in publications or presentations arising from this work. More details at
     http://www.quantum-espresso.org/quote

     Parallel version (MPI & OpenMP), running on       8 processor cores
     Number of MPI processes:                 8
     Threads/MPI process:                     1

     MPI processes distributed on     1 nodes
     13484 MiB available memory on the printing compute node when the environment starts

     Reading input from nscf.in
Warning: card &IONS ignored
Warning: card   ION_DYNAMICS = 'BFGS' ignored
Warning: card &CELL ignored
Warning: card   CELL_DYNAMICS = 'BFGS' ignored
Warning: card   CELL_DOFREE = '2DXY' ignored
Warning: card   PRESS_CONV_THR = 0.2 ignored

     Current dimensions of program PWSCF are:
     Max number of different atomic species (ntypx) = 10
     Max number of k-points (npk) =  40000
     Max angular momentum in pseudopotentials (lmaxx) =  4
     file C.pbe-n-kjpaw_psl.1.0.0.UPF: wavefunction(s)  2S 2P renormalized
     file O.pbe-n-kjpaw_psl.0.1.UPF: wavefunction(s)  2P renormalized

     Atomic positions and unit cell read from directory:
     ./tmp/ti3c2o2_prim.save/

     Message from routine setup:
     using ibrav=0 with symmetry is DISCOURAGED, use correct ibrav instead

     K-points division:     npool     =       2
     R & G space division:  proc/nbgrp/npool/nimage =       4
     Subspace diagonalization in iterative solution of the eigenvalue problem:
     a serial algorithm will be used


     Parallelization info
     --------------------
     sticks:   dense  smooth     PW     G-vecs:    dense   smooth      PW
     Min         228     109     34                47972    16895    2940
     Max         229     110     35                47987    16928    2957
     Sum         913     439    139               191925    67649   11797

     Using Slab Decomposition



     bravais-lattice index     =            0
     lattice parameter (alat)  =       5.7107  a.u.
     unit-cell volume          =    1419.6632 (a.u.)^3
     number of atoms/cell      =            7
     number of atomic types    =            3
     number of electrons       =        56.00
     number of Kohn-Sham states=           34
     kinetic-energy cutoff     =      50.0000  Ry
     charge density cutoff     =     400.0000  Ry
     Exchange-correlation= SLA  PW   PBX  PBC
                           (   1   4   3   4   0   0   0)

     celldm(1)=   5.710670  celldm(2)=   0.000000  celldm(3)=   0.000000
     celldm(4)=   0.000000  celldm(5)=   0.000000  celldm(6)=   0.000000

     crystal axes: (cart. coord. in units of alat)
               a(1) = (   1.000000   0.000000   0.000000 )  
               a(2) = (   0.500000   0.866025   0.000000 )  
               a(3) = (   0.000000   0.000000   8.802244 )  

     reciprocal axes: (cart. coord. in units 2 pi/alat)
               b(1) = (  1.000000 -0.577350  0.000000 )  
               b(2) = (  0.000000  1.154701  0.000000 )  
               b(3) = (  0.000000  0.000000  0.113607 )  


     PseudoPot. # 1 for Ti read from file:
     /home/andres/pseudo/SSSP_1.3.0_PBE_efficiency/ti_pbe_v1.4.uspp.F.UPF
     MD5 check sum: 88a00a6731bd790ddea75d31a80cb452
     Pseudo is Ultrasoft + core correction, Zval = 12.0
     Generated by new atomic code, or converted to UPF format
     Using radial grid of  851 points,  6 beta functions with: 
                l(1) =   0
                l(2) =   0
                l(3) =   1
                l(4) =   1
                l(5) =   2
                l(6) =   2
     Q(r) pseudized with  6 coefficients,  rinner =    1.000   1.000   1.000
                                                       1.000   1.000

     PseudoPot. # 2 for C  read from file:
     /home/andres/pseudo/SSSP_1.3.0_PBE_efficiency/C.pbe-n-kjpaw_psl.1.0.0.UPF
     MD5 check sum: 5d2aebdfa2cae82b50a7e79e9516da0f
     Pseudo is Projector augmented-wave + core cor, Zval =  4.0
     Generated using "atomic" code by A. Dal Corso  v.5.1
     Shape of augmentation charge: PSQ
     Using radial grid of 1073 points,  4 beta functions with: 
                l(1) =   0
                l(2) =   0
                l(3) =   1
                l(4) =   1
     Q(r) pseudized with 0 coefficients 


     PseudoPot. # 3 for O  read from file:
     /home/andres/pseudo/SSSP_1.3.0_PBE_efficiency/O.pbe-n-kjpaw_psl.0.1.UPF
     MD5 check sum: 0234752ac141de4415c5fc33072bef88
     Pseudo is Projector augmented-wave + core cor, Zval =  6.0
     Generated using "atomic" code by A. Dal Corso  v.5.0.99 svn rev. 10869
     Shape of augmentation charge: BESSEL
     Using radial grid of 1095 points,  4 beta functions with: 
                l(1) =   0
                l(2) =   0
                l(3) =   1
                l(4) =   1
     Q(r) pseudized with 0 coefficients 


     atomic species   valence    mass     pseudopotential
     Ti               12.00    47.86700     Ti( 1.00)
     C                 4.00    12.01100     C ( 1.00)
     O                 6.00    15.99900     O ( 1.00)

     12 Sym. Ops., with inversion, found



   Cartesian axes

     site n.     atom                  positions (alat units)
         1        Ti     tau(   1) = (   0.0000000   0.0000000   4.4011220  )
         2        C      tau(   2) = (   0.5000000   0.2886752   4.8159293  )
         3        C      tau(   3) = (   1.0000000   0.5773502   3.9863148  )
         4        Ti     tau(   4) = (   1.0000000   0.5773502   5.2498917  )
         5        Ti     tau(   5) = (   0.5000000   0.2886752   3.5523524  )
         6        O      tau(   6) = (   0.0000000   0.0000000   5.5520055  )
         7        O      tau(   7) = (  -0.0000000  -0.0000000   3.2502386  )

     --------------------------------------------
     DFT-D3 Dispersion Correction (3-body terms):
     --------------------------------------------
       Reference C6 values for interpolation: 

         atom   Coordination number   C6
         C          0.000            98.23
         C          0.987            86.49
         C          1.998            58.72
         C          2.999            51.56
         C          3.984            36.41
         O          0.000            31.01
         O          0.993            25.63
         O          1.989            20.74
         Ti         0.000          2723.84
         Ti         1.830           604.00
         Ti         3.868           643.18

       Values used:

         atom   Coordination number  R0_AB[au]  C6      C8
         Ti        14.843            3.557    643.18  76289.64
         C          5.936            2.750     36.41   1053.14
         C          5.936            2.750     36.41   1053.14
         Ti        12.698            3.557    643.18  76289.64
         Ti        12.698            3.557    643.18  76289.64
         O          3.004            2.345     20.74    418.58
         O          3.004            2.345     20.74    418.58

         Molecular C6 ( Ry / a.u.^6 ) =      9188.47


     number of k points=    61 (tetrahedron method)
                       cart. coord. in units 2pi/alat
        k(    1) = (   0.0000000   0.0000000   0.0000000), wk =   0.0034722
        k(    2) = (   0.0000000   0.0481125   0.0000000), wk =   0.0208333
        k(    3) = (   0.0000000   0.0962250   0.0000000), wk =   0.0208333
        k(    4) = (   0.0000000   0.1443376   0.0000000), wk =   0.0208333
        k(    5) = (   0.0000000   0.1924501   0.0000000), wk =   0.0208333
        k(    6) = (   0.0000000   0.2405626   0.0000000), wk =   0.0208333
        k(    7) = (   0.0000000   0.2886751   0.0000000), wk =   0.0208333
        k(    8) = (   0.0000000   0.3367877   0.0000000), wk =   0.0208333
        k(    9) = (   0.0000000   0.3849002   0.0000000), wk =   0.0208333
        k(   10) = (   0.0000000   0.4330127   0.0000000), wk =   0.0208333
        k(   11) = (   0.0000000   0.4811252   0.0000000), wk =   0.0208333
        k(   12) = (   0.0000000   0.5292377   0.0000000), wk =   0.0208333
        k(   13) = (   0.0000000  -0.5773503   0.0000000), wk =   0.0104167
        k(   14) = (   0.0416667   0.0721688   0.0000000), wk =   0.0208333
        k(   15) = (   0.0416667   0.1202813   0.0000000), wk =   0.0416667
        k(   16) = (   0.0416667   0.1683938   0.0000000), wk =   0.0416667
        k(   17) = (   0.0416667   0.2165064   0.0000000), wk =   0.0416667
        k(   18) = (   0.0416667   0.2646189   0.0000000), wk =   0.0416667
        k(   19) = (   0.0416667   0.3127314   0.0000000), wk =   0.0416667
        k(   20) = (   0.0416667   0.3608439   0.0000000), wk =   0.0416667
        k(   21) = (   0.0416667   0.4089564   0.0000000), wk =   0.0416667
        k(   22) = (   0.0416667   0.4570690   0.0000000), wk =   0.0416667
        k(   23) = (   0.0416667   0.5051815   0.0000000), wk =   0.0416667
        k(   24) = (   0.0416667  -0.6014065   0.0000000), wk =   0.0416667
        k(   25) = (   0.0833333   0.1443376   0.0000000), wk =   0.0208333
        k(   26) = (   0.0833333   0.1924501   0.0000000), wk =   0.0416667
        k(   27) = (   0.0833333   0.2405626   0.0000000), wk =   0.0416667
        k(   28) = (   0.0833333   0.2886751   0.0000000), wk =   0.0416667
        k(   29) = (   0.0833333   0.3367877   0.0000000), wk =   0.0416667
        k(   30) = (   0.0833333   0.3849002   0.0000000), wk =   0.0416667
        k(   31) = (   0.0833333   0.4330127   0.0000000), wk =   0.0416667
        k(   32) = (   0.0833333   0.4811252   0.0000000), wk =   0.0416667
        k(   33) = (   0.0833333  -0.6254628   0.0000000), wk =   0.0416667
        k(   34) = (   0.0833333  -0.5773503   0.0000000), wk =   0.0208333
        k(   35) = (   0.1250000   0.2165064   0.0000000), wk =   0.0208333
        k(   36) = (   0.1250000   0.2646189   0.0000000), wk =   0.0416667
        k(   37) = (   0.1250000   0.3127314   0.0000000), wk =   0.0416667
        k(   38) = (   0.1250000   0.3608439   0.0000000), wk =   0.0416667
        k(   39) = (   0.1250000   0.4089564   0.0000000), wk =   0.0416667
        k(   40) = (   0.1250000   0.4570690   0.0000000), wk =   0.0416667
        k(   41) = (   0.1250000  -0.6495191   0.0000000), wk =   0.0416667
        k(   42) = (   0.1250000  -0.6014065   0.0000000), wk =   0.0416667
        k(   43) = (   0.1666667   0.2886751   0.0000000), wk =   0.0208333
        k(   44) = (   0.1666667   0.3367877   0.0000000), wk =   0.0416667
        k(   45) = (   0.1666667   0.3849002   0.0000000), wk =   0.0416667
        k(   46) = (   0.1666667   0.4330127   0.0000000), wk =   0.0416667
        k(   47) = (   0.1666667  -0.6735753   0.0000000), wk =   0.0416667
        k(   48) = (   0.1666667  -0.6254628   0.0000000), wk =   0.0416667
        k(   49) = (   0.1666667  -0.5773503   0.0000000), wk =   0.0208333
        k(   50) = (   0.2083333   0.3608439   0.0000000), wk =   0.0208333
        k(   51) = (   0.2083333   0.4089564   0.0000000), wk =   0.0416667
        k(   52) = (   0.2083333  -0.6976316   0.0000000), wk =   0.0416667
        k(   53) = (   0.2083333  -0.6495191   0.0000000), wk =   0.0416667
        k(   54) = (   0.2083333  -0.6014065   0.0000000), wk =   0.0416667
        k(   55) = (   0.2500000  -0.7216878   0.0000000), wk =   0.0208333
        k(   56) = (   0.2500000  -0.6735753   0.0000000), wk =   0.0416667
        k(   57) = (   0.2500000  -0.6254628   0.0000000), wk =   0.0416667
        k(   58) = (   0.2500000  -0.5773503   0.0000000), wk =   0.0208333
        k(   59) = (   0.2916667  -0.6495191   0.0000000), wk =   0.0208333
        k(   60) = (   0.2916667  -0.6014065   0.0000000), wk =   0.0416667
        k(   61) = (   0.3333333  -0.5773503   0.0000000), wk =   0.0069444

     Dense  grid:   191925 G-vectors     FFT dimensions: (  40,  40, 324)

     Smooth grid:    67649 G-vectors     FFT dimensions: (  25,  25, 240)

     Estimated max dynamical RAM per process >      96.36 MB

     Estimated total dynamical RAM >     770.90 MB

     Check: negative core charge=   -0.000003

     The potential is recalculated from file :
     ./tmp/ti3c2o2_prim.save/charge-density


     negative rho (up, down):  3.317E-03 0.000E+00
     Starting wfcs are   46 randomized atomic wfcs
     Checking if some PAW data can be deallocated... 

     Band Structure Calculation
     Davidson diagonalization with overlap

     ethr =  1.79E-10,  avg # of iterations = 66.8

     total cpu time spent up to now is       75.2 secs

     End of band structure calculation

          k = 0.0000 0.0000 0.0000 (  8453 PWs)   bands (ev):

   -56.9959 -56.9954 -56.1451 -33.3012 -33.2727 -33.0528 -33.0528 -33.0526
   -33.0526 -32.4416 -32.2173 -32.2173 -18.2049 -18.1993 -11.3557  -9.6922
    -5.3108  -4.3435  -4.2403  -4.2403  -4.1869  -4.1869  -2.5015  -1.3254
    -1.3254   0.3637   1.1373   1.1373   1.3027   1.3027   1.6994   1.6994
     1.8537   2.6714

          k = 0.0000 0.0481 0.0000 (  8481 PWs)   bands (ev):

   -56.9949 -56.9944 -56.1441 -33.2992 -33.2713 -33.0615 -33.0613 -33.0545
   -33.0543 -32.4404 -32.2246 -32.2190 -18.1950 -18.1896 -11.3297  -9.6905
    -5.2864  -4.3758  -4.2276  -4.2258  -4.2015  -4.1754  -2.4508  -1.4186
    -1.3275   0.3759   0.7336   0.8254   1.4450   1.5747   1.7165   1.7438
     2.0176   2.6387

          k = 0.0000 0.0962 0.0000 (  8525 PWs)   bands (ev):

   -56.9918 -56.9913 -56.1413 -33.2932 -33.2674 -33.0875 -33.0860 -33.0596
   -33.0594 -32.4367 -32.2460 -32.2237 -18.1663 -18.1615 -11.2524  -9.6846
    -5.2158  -4.4249  -4.3180  -4.1909  -4.1421  -4.1382  -2.3206  -1.6495
    -1.3358   0.1683   0.3470   0.4647   1.3399   1.6496   1.8664   2.0457
     2.3043   2.6143

          k = 0.0000 0.1443 0.0000 (  8545 PWs)   bands (ev):

   -56.9870 -56.9865 -56.1368 -33.2838 -33.2616 -33.1282 -33.1245 -33.0678
   -33.0674 -32.4312 -32.2798 -32.2312 -18.1217 -18.1177 -11.1259  -9.6724
    -5.1108  -4.4646  -4.4220  -4.1342  -4.0909  -4.0795  -2.1614  -1.9298
    -1.3546  -0.4448   0.1407   0.1888   1.2197   1.6784   1.9415   2.3539
     2.5667   2.6920

          k = 0.0000 0.1925 0.0000 (  8551 PWs)   bands (ev):

   -56.9806 -56.9802 -56.1310 -33.2726 -33.2567 -33.1796 -33.1718 -33.0783
   -33.0778 -32.4243 -32.3234 -32.2410 -18.0657 -18.0627 -10.9537  -9.6508
    -5.0021  -4.4987  -4.4774  -4.0643  -4.0385  -4.0278  -2.2178  -2.0127
    -1.3893  -1.0550  -0.1289  -0.0846   1.0979   1.7443   1.9571   2.5166
     2.7145   2.8894

          k = 0.0000 0.2406 0.0000 (  8529 PWs)   bands (ev):

   -56.9733 -56.9729 -56.1241 -33.2690 -33.2664 -33.2291 -33.2108 -33.0906
   -33.0899 -32.4167 -32.3735 -32.2523 -18.0035 -18.0014 -10.7414  -9.6162
    -4.9446  -4.5518  -4.4069  -4.0199  -3.9894  -3.9603  -2.4383  -2.0777
    -1.5107  -1.4430  -0.3957  -0.3303   0.9605   1.8605   1.9467   2.5711
     2.8040   3.0570

          k = 0.0000 0.2887 0.0000 (  8525 PWs)   bands (ev):

   -56.9653 -56.9650 -56.1168 -33.3149 -33.3132 -33.2321 -33.2152 -33.1037
   -33.1029 -32.4286 -32.4070 -32.2645 -17.9404 -17.9391 -10.4970  -9.5651
    -4.9476  -4.6207  -4.2340  -4.0103  -3.9186  -3.8959  -2.6587  -2.4600
    -1.6550  -1.5127  -0.6541  -0.4562   0.8183   1.9188   2.0245   2.6032
     2.8382   3.1392

          k = 0.0000 0.3368 0.0000 (  8505 PWs)   bands (ev):

   -56.9574 -56.9571 -56.1094 -33.3758 -33.3726 -33.2186 -33.2069 -33.1168
   -33.1159 -32.4806 -32.3999 -32.2766 -17.8811 -17.8804 -10.2333  -9.4930
    -4.9824  -4.7212  -4.0293  -3.9739  -3.8598  -3.8409  -3.1121  -2.6284
    -1.8096  -1.5880  -0.7873  -0.5110   0.6906   1.8742   2.2226   2.6452
     2.8153   3.1661

          k = 0.0000 0.3849 0.0000 (  8491 PWs)   bands (ev):

   -56.9500 -56.9498 -56.1026 -33.4336 -33.4291 -33.2054 -33.1963 -33.1290
   -33.1279 -32.5292 -32.3929 -32.2879 -17.8294 -17.8289  -9.9727  -9.3925
    -5.0654  -4.8343  -3.9458  -3.8491  -3.8182  -3.7982  -3.4867  -2.7113
    -2.0420  -1.6561  -0.8112  -0.5094   0.5887   1.8204   2.4308   2.7074
     2.7522   3.1734

          k = 0.0000 0.4330 0.0000 (  8465 PWs)   bands (ev):

   -56.9436 -56.9435 -56.0967 -33.4830 -33.4777 -33.1952 -33.1854 -33.1394
   -33.1382 -32.5704 -32.3869 -32.2975 -17.7877 -17.7873  -9.7519  -9.2516
    -5.2213  -4.9567  -4.0008  -3.8289  -3.7939  -3.7684  -3.4633  -2.7979
    -2.2833  -1.7084  -0.7819  -0.4725   0.5131   1.7702   2.6178   2.6726
     2.7876   3.1698

          k = 0.0000 0.4811 0.0000 (  8455 PWs)   bands (ev):

   -56.9387 -56.9386 -56.0921 -33.5207 -33.5149 -33.1881 -33.1761 -33.1474
   -33.1461 -32.6018 -32.3823 -32.3049 -17.7573 -17.7570  -9.6027  -9.0759
    -5.4275  -5.0933  -4.0804  -3.7826  -3.7501  -3.7454  -3.3331  -2.8957
    -2.4841  -1.7431  -0.7322  -0.4230   0.4602   1.7320   2.5988   2.7586
     2.8647   3.1583

          k = 0.0000 0.5292 0.0000 (  8434 PWs)   bands (ev):

   -56.9356 -56.9355 -56.0893 -33.5443 -33.5382 -33.1840 -33.1699 -33.1524
   -33.1511 -32.6213 -32.3795 -32.3096 -17.7390 -17.7387  -9.5226  -8.9211
    -5.6159  -5.1924  -4.0753  -3.7787  -3.7409  -3.6719  -3.2523  -2.9810
    -2.6152  -1.7621  -0.6866  -0.3825   0.4287   1.7075   2.5476   2.8452
     2.9131   3.1506

          k = 0.0000-0.5774 0.0000 (  8462 PWs)   bands (ev):

   -56.9345 -56.9345 -56.0883 -33.5524 -33.5462 -33.1826 -33.1678 -33.1541
   -33.1527 -32.6279 -32.3785 -32.3112 -17.7329 -17.7325  -9.4974  -8.8587
    -5.6929  -5.2269  -4.0618  -3.7779  -3.7381  -3.6421  -3.2283  -3.0164
    -2.6600  -1.7680  -0.6679  -0.3669   0.4182   1.6988   2.5295   2.8725
     2.9305   3.1512

          k = 0.0417 0.0722 0.0000 (  8509 PWs)   bands (ev):

   -56.9928 -56.9923 -56.1422 -33.2952 -33.2687 -33.0789 -33.0777 -33.0580
   -33.0579 -32.4379 -32.2389 -32.2222 -18.1757 -18.1707 -11.2780  -9.6867
    -5.2387  -4.4124  -4.2912  -4.1996  -4.1600  -4.1508  -2.3605  -1.5769
    -1.3360   0.3550   0.3666   0.5179   1.3955   1.6361   1.8628   1.9136
     2.2277   2.6163

          k = 0.0417 0.1203 0.0000 (  8535 PWs)   bands (ev):

   -56.9889 -56.9884 -56.1386 -33.2875 -33.2638 -33.1119 -33.1091 -33.0649
   -33.0647 -32.4333 -32.2662 -32.2286 -18.1390 -18.1348 -11.1761  -9.6776
    -5.1497  -4.4536  -4.3880  -4.1517  -4.1133  -4.0994  -2.2147  -1.8244
    -1.3591  -0.1793   0.1767   0.2690   1.2954   1.6552   1.9787   2.1930
     2.4803   2.6558

          k = 0.0417 0.1684 0.0000 (  8533 PWs)   bands (ev):

   -56.9833 -56.9829 -56.1334 -33.2771 -33.2581 -33.1576 -33.1519 -33.0747
   -33.0744 -32.4271 -32.3045 -32.2377 -18.0888 -18.0854 -11.0267  -9.6607
    -5.0379  -4.4844  -4.4742  -4.0879  -4.0623  -4.0457  -2.1120  -2.0431
    -1.4017  -0.7677  -0.1215   0.0455   1.2016   1.6861   2.0200   2.4364
     2.6267   2.7921

          k = 0.0417 0.2165 0.0000 (  8543 PWs)   bands (ev):

   -56.9764 -56.9761 -56.1271 -33.2672 -33.2578 -33.2098 -33.1972 -33.0867
   -33.0862 -32.4198 -32.3509 -32.2487 -18.0297 -18.0273 -10.8342  -9.6326
    -4.9489  -4.5305  -4.4657  -4.0327  -4.0149  -3.9823  -2.3380  -1.9930
    -1.4820  -1.2891  -0.3631  -0.2533   1.0955   1.7600   2.0267   2.5424
     2.7420   2.9686

          k = 0.0417 0.2646 0.0000 (  8533 PWs)   bands (ev):

   -56.9688 -56.9685 -56.1200 -33.2889 -33.2874 -33.2355 -33.2162 -33.1000
   -33.0994 -32.4133 -32.4008 -32.2610 -17.9672 -17.9656 -10.6051  -9.5899
    -4.9261  -4.5853  -4.3403  -4.0230  -3.9426  -3.9156  -2.5310  -2.2667
    -1.6016  -1.4947  -0.5724  -0.5106   0.9720   1.8656   2.0384   2.5744
     2.8274   3.1044

          k = 0.0417 0.3127 0.0000 (  8517 PWs)   bands (ev):

   -56.9608 -56.9606 -56.1126 -33.3463 -33.3438 -33.2247 -33.2112 -33.1138
   -33.1130 -32.4555 -32.4032 -32.2737 -17.9062 -17.9052 -10.3495  -9.5290
    -4.9458  -4.6679  -4.1411  -4.0113  -3.8782  -3.8563  -2.8569  -2.5741
    -1.7041  -1.5841  -0.7672  -0.6172   0.8506   1.9012   2.1469   2.6062
     2.8447   3.1625

          k = 0.0417 0.3608 0.0000 (  8495 PWs)   bands (ev):

   -56.9531 -56.9529 -56.1055 -33.4055 -33.4015 -33.2109 -33.2014 -33.1270
   -33.1261 -32.5056 -32.3959 -32.2859 -17.8508 -17.8503 -10.0842  -9.4445
    -4.9980  -4.7749  -3.9819  -3.9324  -3.8345  -3.8141  -3.3015  -2.6713
    -1.9045  -1.6600  -0.8393  -0.6543   0.7509   1.8655   2.3361   2.6532
     2.8071   3.1792

          k = 0.0417 0.4090 0.0000 (  8474 PWs)   bands (ev):

   -56.9462 -56.9461 -56.0991 -33.4586 -33.4537 -33.1992 -33.1905 -33.1388
   -33.1379 -32.5500 -32.3894 -32.2969 -17.8043 -17.8039  -9.8388  -9.3262
    -5.1150  -4.8857  -3.9523  -3.9003  -3.8101  -3.7576  -3.4733  -2.7514
    -2.1497  -1.7241  -0.8311  -0.6482   0.6801   1.8171   2.5298   2.6860
     2.7728   3.1761

          k = 0.0417 0.4571 0.0000 (  8459 PWs)   bands (ev):

   -56.9406 -56.9405 -56.0939 -33.5017 -33.4961 -33.1907 -33.1802 -33.1485
   -33.1474 -32.5859 -32.3841 -32.3058 -17.7685 -17.7681  -9.6528  -9.1653
    -5.2983  -5.0157  -4.0815  -3.8509  -3.7675  -3.7052  -3.3793  -2.8449
    -2.3759  -1.7697  -0.7891  -0.6205   0.6346   1.7755   2.6302   2.6903
     2.8301   3.1630

          k = 0.0417 0.5052 0.0000 (  8449 PWs)   bands (ev):

   -56.9366 -56.9365 -56.0902 -33.5321 -33.5261 -33.1851 -33.1724 -33.1552
   -33.1542 -32.6111 -32.3804 -32.3121 -17.7443 -17.7440  -9.5414  -8.9916
    -5.5048  -5.1368  -4.1180  -3.8181  -3.7268  -3.6569  -3.2792  -2.9426
    -2.5458  -1.7973  -0.7391  -0.5900   0.6086   1.7459   2.5694   2.8003
     2.8877   3.1558

          k = 0.0417-0.6014 0.0000 (  8448 PWs)   bands (ev):

   -56.9345 -56.9345 -56.0883 -33.5477 -33.5416 -33.1823 -33.1684 -33.1587
   -33.1578 -32.6240 -32.3785 -32.3153 -17.7321 -17.7318  -9.4908  -8.8762
    -5.6458  -5.2033  -4.1085  -3.8087  -3.7000  -3.6167  -3.2310  -3.0103
    -2.6359  -1.8098  -0.7052  -0.5710   0.5971   1.7298   2.5349   2.8542
     2.9160   3.1606

          k = 0.0833 0.1443 0.0000 (  8533 PWs)   bands (ev):

   -56.9842 -56.9838 -56.1342 -33.2786 -33.2588 -33.1494 -33.1444 -33.0740
   -33.0739 -32.4281 -32.2975 -32.2370 -18.0967 -18.0932 -11.0512  -9.6638
    -5.0504  -4.4866  -4.4656  -4.0916  -4.0740  -4.0526  -2.0773  -2.0431
    -1.4220  -0.6077  -0.1924   0.0961   1.2705   1.6506   2.1249   2.3180
     2.5747   2.7713

          k = 0.0833 0.1925 0.0000 (  8533 PWs)   bands (ev):

   -56.9781 -56.9777 -56.1286 -33.2686 -33.2559 -33.1960 -33.1861 -33.0861
   -33.0859 -32.4215 -32.3378 -32.2481 -18.0435 -18.0408 -10.8811  -9.6404
    -4.9466  -4.5206  -4.5028  -4.0457  -4.0212  -3.9922  -2.2611  -1.9711
    -1.5283  -1.0713  -0.5037  -0.1693   1.2515   1.6619   2.1790   2.4946
     2.6010   2.9163

          k = 0.0833 0.2406 0.0000 (  8515 PWs)   bands (ev):

   -56.9709 -56.9706 -56.1220 -33.2731 -33.2722 -33.2335 -33.2141 -33.1003
   -33.1000 -32.4142 -32.3841 -32.2612 -17.9842 -17.9824 -10.6711  -9.6043
    -4.8918  -4.5645  -4.4359  -4.0357  -3.9498  -3.9239  -2.4461  -2.1026
    -1.6128  -1.4077  -0.7320  -0.4756   1.1966   1.7345   2.1873   2.5414
     2.7432   3.0499

          k = 0.0833 0.2887 0.0000 (  8523 PWs)   bands (ev):

   -56.9633 -56.9630 -56.1149 -33.3216 -33.3200 -33.2288 -33.2138 -33.1156
   -33.1152 -32.4341 -32.4057 -32.2752 -17.9240 -17.9228 -10.4290  -9.5524
    -4.8933  -4.6273  -4.2704  -4.0351  -3.8862  -3.8589  -2.6311  -2.4953
    -1.6200  -1.5915  -0.8836  -0.7413   1.1095   1.8379   2.2107   2.5584
     2.8503   3.1424

          k = 0.0833 0.3368 0.0000 (  8502 PWs)   bands (ev):

   -56.9556 -56.9554 -56.1078 -33.3784 -33.3751 -33.2153 -33.2054 -33.1308
   -33.1303 -32.4826 -32.3984 -32.2892 -17.8672 -17.8665 -10.1674  -9.4813
    -4.9218  -4.7167  -4.0699  -4.0225  -3.8494  -3.8040  -3.0513  -2.6345
    -1.7595  -1.6909  -0.9658  -0.8858   1.0256   1.8894   2.3066   2.5952
     2.8609   3.1889

          k = 0.0833 0.3849 0.0000 (  8478 PWs)   bands (ev):

   -56.9484 -56.9483 -56.1011 -33.4319 -33.4273 -33.2025 -33.1953 -33.1450
   -33.1444 -32.5275 -32.3915 -32.3022 -17.8175 -17.8171  -9.9086  -9.3842
    -4.9950  -4.8158  -3.9917  -3.9129  -3.8866  -3.7501  -3.3478  -2.7104
    -1.9847  -1.7816  -0.9849  -0.9250   0.9664   1.8797   2.4625   2.6422
     2.8187   3.1923

          k = 0.0833 0.4330 0.0000 (  8462 PWs)   bands (ev):

   -56.9423 -56.9421 -56.0954 -33.4776 -33.4723 -33.1928 -33.1848 -33.1571
   -33.1563 -32.5657 -32.3857 -32.3134 -17.7772 -17.7769  -9.6905  -9.2480
    -5.1390  -4.9229  -4.0846  -3.9398  -3.7748  -3.6850  -3.3739  -2.7950
    -2.2258  -1.8480  -0.9792  -0.9063   0.9338   1.8527   2.6131   2.6518
     2.8092   3.1707

          k = 0.0833 0.4811 0.0000 (  8450 PWs)   bands (ev):

   -56.9375 -56.9374 -56.0911 -33.5124 -33.5067 -33.1860 -33.1766 -33.1663
   -33.1647 -32.5947 -32.3812 -32.3219 -17.7479 -17.7476  -9.5464  -9.0762
    -5.3328  -5.0460  -4.1812  -3.8954  -3.7043  -3.6213  -3.2975  -2.8958
    -2.4295  -1.8901  -0.9687  -0.8616   0.9193   1.8285   2.5945   2.7362
     2.8533   3.1608

          k = 0.0833-0.6255 0.0000 (  8445 PWs)   bands (ev):

   -56.9345 -56.9345 -56.0883 -33.5343 -33.5283 -33.1818 -33.1749 -33.1721
   -33.1665 -32.6128 -32.3784 -32.3273 -17.7301 -17.7298  -9.4708  -8.9252
    -5.5117  -5.1361  -4.1992  -3.8699  -3.6431  -3.5718  -3.2359  -2.9913
    -2.5650  -1.9122  -0.9590  -0.8193   0.9143   1.8111   2.5504   2.8034
     2.8841   3.1767

          k = 0.0833-0.5774 0.0000 (  8444 PWs)   bands (ev):

   -56.9335 -56.9335 -56.0874 -33.5417 -33.5356 -33.1801 -33.1763 -33.1741
   -33.1654 -32.6190 -32.3775 -32.3292 -17.7242 -17.7239  -9.4473  -8.8649
    -5.5848  -5.1674  -4.1978  -3.8623  -3.6142  -3.5515  -3.2147  -3.0349
    -2.6124  -1.9189  -0.9551  -0.8021   0.9132   1.8044   2.5342   2.8234
     2.8948   3.1912

          k = 0.1250 0.2165 0.0000 (  8537 PWs)   bands (ev):

   -56.9717 -56.9713 -56.1227 -33.2688 -33.2676 -33.2310 -33.2123 -33.1012
   -33.1009 -32.4148 -32.3775 -32.2619 -17.9901 -17.9882 -10.6932  -9.6089
    -4.8731  -4.5555  -4.4794  -4.0404  -3.9491  -3.9279  -2.4106  -2.0457
    -1.6366  -1.3108  -0.8657  -0.4481   1.3288   1.6421   2.3028   2.5475
     2.6193   3.0349

          k = 0.1250 0.2646 0.0000 (  8525 PWs)   bands (ev):

   -56.9645 -56.9642 -56.1160 -33.3070 -33.3062 -33.2307 -33.2150 -33.1186
   -33.1181 -32.4209 -32.4074 -32.2777 -17.9333 -17.9320 -10.4692  -9.5639
    -4.8478  -4.6042  -4.3636  -4.0453  -3.8861  -3.8601  -2.5348  -2.3944
    -1.6230  -1.4952  -1.1195  -0.7476   1.3443   1.6976   2.3503   2.5346
     2.7785   3.1147

          k = 0.1250 0.3127 0.0000 (  8486 PWs)   bands (ev):

   -56.9571 -56.9569 -56.1092 -33.3579 -33.3551 -33.2181 -33.2082 -33.1368
   -33.1360 -32.4650 -32.4001 -32.2943 -17.8775 -17.8767 -10.2186  -9.5032
    -4.8528  -4.6725  -4.1903  -4.0500  -3.8509  -3.7973  -2.8335  -2.6092
    -1.7248  -1.5872  -1.2591  -0.9862   1.2956   1.8020   2.3929   2.5576
     2.8775   3.1603

          k = 0.1250 0.3608 0.0000 (  8466 PWs)   bands (ev):

   -56.9500 -56.9498 -56.1026 -33.4078 -33.4037 -33.2050 -33.1994 -33.1545
   -33.1532 -32.5071 -32.3932 -32.3104 -17.8266 -17.8261  -9.9574  -9.4234
    -4.8843  -4.7557  -4.0591  -3.9886  -3.8920  -3.7405  -3.1717  -2.6818
    -1.8748  -1.7433  -1.3217  -1.0835   1.2476   1.8727   2.4726   2.6069
     2.8657   3.2043

          k = 0.1250 0.4090 0.0000 (  8466 PWs)   bands (ev):

   -56.9435 -56.9434 -56.0966 -33.4524 -33.4474 -33.1950 -33.1903 -33.1703
   -33.1676 -32.5444 -32.3871 -32.3249 -17.7835 -17.7832  -9.7157  -9.3146
    -4.9761  -4.8371  -4.0842  -3.9983  -3.8303  -3.6825  -3.3024  -2.7575
    -2.0603  -1.9011  -1.3484  -1.0840   1.2237   1.9001   2.5686   2.6597
     2.8168   3.1879

          k = 0.1250 0.4571 0.0000 (  8459 PWs)   bands (ev):

   -56.9383 -56.9382 -56.0918 -33.4886 -33.4831 -33.1915 -33.1869 -33.1804
   -33.1730 -32.5745 -32.3821 -32.3368 -17.7500 -17.7498  -9.5376  -9.1628
    -5.1301  -4.9378  -4.2244  -3.9721  -3.7100  -3.6151  -3.2863  -2.8518
    -2.2784  -1.9797  -1.3622  -1.0493   1.2192   1.9081   2.6023   2.7005
     2.8190   3.1698

          k = 0.1250-0.6495 0.0000 (  8446 PWs)   bands (ev):

   -56.9345 -56.9345 -56.0883 -33.5140 -33.5082 -33.1960 -33.1940 -33.1793
   -33.1685 -32.5957 -32.3785 -32.3454 -17.7273 -17.7271  -9.4372  -8.9965
    -5.3113  -5.0357  -4.2839  -3.9382  -3.6193  -3.5469  -3.2346  -2.9600
    -2.4539  -2.0209  -1.3702  -1.0064   1.2226   1.9078   2.5680   2.7410
     2.8506   3.1893

          k = 0.1250-0.6014 0.0000 (  8442 PWs)   bands (ev):

   -56.9326 -56.9326 -56.0865 -33.5271 -33.5211 -33.1998 -33.1986 -33.1774
   -33.1651 -32.6066 -32.3766 -32.3498 -17.7159 -17.7157  -9.3929  -8.8879
    -5.4370  -5.0897  -4.2960  -3.9192  -3.5547  -3.5021  -3.1941  -3.0512
    -2.5517  -2.0388  -1.3739  -0.9773   1.2260   1.9039   2.5419   2.7593
     2.8700   3.2219

          k = 0.1667 0.2887 0.0000 (  8497 PWs)   bands (ev):

   -56.9577 -56.9574 -56.1097 -33.3500 -33.3475 -33.2191 -33.2092 -33.1397
   -33.1387 -32.4582 -32.4008 -32.2967 -17.8810 -17.8802 -10.2359  -9.5105
    -4.8223  -4.6553  -4.2409  -4.0591  -3.8501  -3.7950  -2.7409  -2.6030
    -1.6823  -1.5134  -1.4326  -1.0384   1.4549   1.6983   2.4511   2.5625
     2.8551   3.1339

          k = 0.1667 0.3368 0.0000 (  8493 PWs)   bands (ev):

   -56.9508 -56.9506 -56.1033 -33.3930 -33.3891 -33.2064 -33.2022 -33.1618
   -33.1595 -32.4943 -32.3943 -32.3167 -17.8313 -17.8308  -9.9825  -9.4430
    -4.8143  -4.7177  -4.0951  -4.0615  -3.8801  -3.7350  -3.0433  -2.6664
    -1.8353  -1.5959  -1.5636  -1.2580   1.4672   1.7804   2.5065   2.6263
     2.8857   3.1646

          k = 0.1667 0.3849 0.0000 (  8465 PWs)   bands (ev):

   -56.9443 -56.9442 -56.0974 -33.4322 -33.4276 -33.1994 -33.1959 -33.1812
   -33.1756 -32.5271 -32.3882 -32.3358 -17.7872 -17.7869  -9.7295  -9.3579
    -4.8453  -4.7786  -4.0924  -4.0069  -3.9124  -3.6807  -3.2136  -2.7362
    -1.9947  -1.7703  -1.6626  -1.3030   1.4592   1.8655   2.5626   2.6896
     2.8331   3.2077

          k = 0.1667 0.4330 0.0000 (  8446 PWs)   bands (ev):

   -56.9388 -56.9387 -56.0922 -33.4654 -33.4602 -33.2078 -33.2048 -33.1823
   -33.1766 -32.5547 -32.3832 -32.3526 -17.7511 -17.7509  -9.5178  -9.2394
    -4.9400  -4.8396  -4.2292  -4.0362  -3.7600  -3.6262  -3.2511  -2.8213
    -2.1472  -1.9699  -1.7046  -1.2829   1.4672   1.9263   2.5928   2.7270
     2.7887   3.1891

          k = 0.1667-0.6736 0.0000 (  8436 PWs)   bands (ev):

   -56.9346 -56.9345 -56.0883 -33.4905 -33.4849 -33.2201 -33.2187 -33.1777
   -33.1701 -32.5756 -32.3794 -32.3655 -17.7246 -17.7244  -9.3901  -9.0795
    -5.0814  -4.9219  -4.3395  -4.0057  -3.6381  -3.5633  -3.2274  -2.9216
    -2.3232  -2.0719  -1.7390  -1.2468   1.4833   1.9691   2.5696   2.7032
     2.8290   3.2038

          k = 0.1667-0.6255 0.0000 (  8436 PWs)   bands (ev):

   -56.9319 -56.9318 -56.0858 -33.5062 -33.5004 -33.2286 -33.2279 -33.1747
   -33.1651 -32.5887 -32.3774 -32.3733 -17.7084 -17.7082  -9.3287  -8.9395
    -5.2231  -4.9837  -4.3777  -3.9758  -3.5581  -3.4989  -3.1823  -3.0269
    -2.4626  -2.1169  -1.7635  -1.2130   1.4965   1.9911   2.5399   2.6824
     2.8671   3.2429

          k = 0.1667-0.5774 0.0000 (  8426 PWs)   bands (ev):

   -56.9310 -56.9309 -56.0850 -33.5115 -33.5056 -33.2315 -33.2311 -33.1736
   -33.1633 -32.5931 -32.3777 -32.3749 -17.7029 -17.7027  -9.3098  -8.8851
    -5.2820  -5.0054  -4.3853  -3.9638  -3.5272  -3.4703  -3.1259  -3.1103
    -2.5155  -2.1303  -1.7723  -1.1991   1.5014   1.9959   2.5293   2.6768
     2.8797   3.2648

          k = 0.2083 0.3608 0.0000 (  8469 PWs)   bands (ev):

   -56.9446 -56.9445 -56.0976 -33.4243 -33.4197 -33.2027 -33.1987 -33.1847
   -33.1781 -32.5202 -32.3888 -32.3404 -17.7884 -17.7881  -9.7339  -9.3729
    -4.7893  -4.7622  -4.0869  -4.0113  -3.9532  -3.6803  -3.1729  -2.7275
    -1.9515  -1.8278  -1.5531  -1.5291   1.5758   1.8109   2.5620   2.7179
     2.8390   3.2143

          k = 0.2083 0.4090 0.0000 (  8455 PWs)   bands (ev):

   -56.9391 -56.9390 -56.0925 -33.4503 -33.4453 -33.2203 -33.2178 -33.1816
   -33.1787 -32.5416 -32.3846 -32.3628 -17.7515 -17.7514  -9.4976  -9.2894
    -4.8166  -4.7862  -4.1940  -4.0864  -3.8209  -3.6352  -3.2222  -2.8026
    -2.1031  -1.9347  -1.7868  -1.5333   1.6348   1.8812   2.6023   2.7557
     2.7700   3.2108

          k = 0.2083-0.6976 0.0000 (  8443 PWs)   bands (ev):

   -56.9346 -56.9345 -56.0883 -33.4702 -33.4648 -33.2411 -33.2400 -33.1758
   -33.1718 -32.5578 -32.3879 -32.3755 -17.7225 -17.7224  -9.3313  -9.1634
    -4.8853  -4.8265  -4.3489  -4.0684  -3.6933  -3.5969  -3.2230  -2.8843
    -2.2410  -2.0290  -1.9647  -1.5103   1.6795   1.9590   2.5740   2.6806
     2.8286   3.2237

          k = 0.2083-0.6495 0.0000 (  8423 PWs)   bands (ev):

   -56.9314 -56.9313 -56.0854 -33.4834 -33.4778 -33.2571 -33.2567 -33.1720
   -33.1657 -32.5686 -32.4006 -32.3748 -17.7026 -17.7025  -9.2559  -9.0101
    -4.9881  -4.8741  -4.4255  -4.0329  -3.6146  -3.5536  -3.1890  -2.9612
    -2.3720  -2.1204  -2.0535  -1.4797   1.7117   2.0289   2.5190   2.6175
     2.8923   3.2580

          k = 0.2083-0.6014 0.0000 (  8410 PWs)   bands (ev):

   -56.9297 -56.9297 -56.0838 -33.4900 -33.4843 -33.2658 -33.2656 -33.1700
   -33.1625 -32.5740 -32.4082 -32.3737 -17.6925 -17.6924  -9.2243  -8.9144
    -5.0688  -4.9006  -4.4499  -4.0029  -3.5904  -3.5195  -3.1334  -3.0242
    -2.4630  -2.1631  -2.0976  -1.4577   1.7290   2.0657   2.4940   2.5801
     2.9261   3.2905

          k = 0.2500-0.7217 0.0000 (  8444 PWs)   bands (ev):

   -56.9346 -56.9345 -56.0883 -33.4617 -33.4564 -33.2498 -33.2488 -33.1743
   -33.1732 -32.5503 -32.3950 -32.3762 -17.7218 -17.7217  -9.2827  -9.2209
    -4.8065  -4.7890  -4.3316  -4.1036  -3.7293  -3.6125  -3.2222  -2.8661
    -2.2282  -2.1098  -1.8039  -1.7346   1.7761   1.9184   2.5877   2.6628
     2.8332   3.2346

          k = 0.2500-0.6736 0.0000 (  8426 PWs)   bands (ev):

   -56.9311 -56.9311 -56.0851 -33.4672 -33.4616 -33.2765 -33.2762 -33.1699
   -33.1667 -32.5537 -32.4183 -32.3745 -17.6995 -17.6994  -9.1780  -9.0890
    -4.8200  -4.8004  -4.4263  -4.0881  -3.6796  -3.6135  -3.1942  -2.9095
    -2.3436  -2.2233  -1.9673  -1.7439   1.8681   1.9952   2.5130   2.5718
     2.9171   3.2691

          k = 0.2500-0.6255 0.0000 (  8427 PWs)   bands (ev):

   -56.9289 -56.9289 -56.0831 -33.4686 -33.4629 -33.2955 -33.2953 -33.1671
   -33.1625 -32.5537 -32.4357 -32.3729 -17.6857 -17.6856  -9.1409  -8.9671
    -4.8588  -4.8068  -4.4688  -4.0447  -3.7017  -3.6200  -3.1243  -2.9355
    -2.4248  -2.2932  -2.1119  -1.7190   1.9086   2.0904   2.4478   2.4993
     2.9781   3.3023

          k = 0.2500-0.5774 0.0000 (  8444 PWs)   bands (ev):

   -56.9282 -56.9282 -56.0824 -33.4686 -33.4629 -33.3026 -33.3022 -33.1661
   -33.1611 -32.5531 -32.4422 -32.3723 -17.6810 -17.6810  -9.1283  -8.9235
    -4.8786  -4.8093  -4.4794  -4.0152  -3.7295  -3.6238  -3.0743  -2.9535
    -2.4573  -2.3145  -2.1688  -1.7082   1.9226   2.1289   2.4323   2.4643
     2.9979   3.3174

          k = 0.2917-0.6495 0.0000 (  8422 PWs)   bands (ev):

   -56.9286 -56.9286 -56.0828 -33.4586 -33.4528 -33.3083 -33.3082 -33.1656
   -33.1629 -32.5433 -32.4485 -32.3726 -17.6833 -17.6833  -9.0862  -9.0123
    -4.7712  -4.7657  -4.4473  -4.0816  -3.7577  -3.6737  -3.1184  -2.9002
    -2.4403  -2.3252  -1.9990  -1.9100   2.0358   2.0376   2.4313   2.4627
     2.9990   3.3060

          k = 0.2917-0.6014 0.0000 (  8464 PWs)   bands (ev):

   -56.9274 -56.9274 -56.0817 -33.4501 -33.4441 -33.3290 -33.3288 -33.1634
   -33.1610 -32.5315 -32.4707 -32.3715 -17.6751 -17.6750  -9.0497  -8.9589
    -4.7492  -4.7450  -4.4276  -4.0344  -3.8823  -3.7262  -3.0252  -2.9043
    -2.4916  -2.3439  -2.1463  -1.9109   2.0747   2.1600   2.3648   2.3821
     3.0406   3.3269

          k = 0.3333-0.5774 0.0000 (  8472 PWs)   bands (ev):

   -56.9268 -56.9268 -56.0812 -33.4400 -33.4336 -33.3444 -33.3444 -33.1613
   -33.1613 -32.5033 -32.5033 -32.3711 -17.6714 -17.6714  -8.9874  -8.9874
    -4.7186  -4.7186  -4.3436  -4.0172  -4.0172  -3.7820  -2.9368  -2.9368
    -2.5234  -2.2569  -2.2569  -1.9729   2.1886   2.1886   2.3090   2.3090
     3.0599   3.3338

     the Fermi energy is     0.5430 ev
     (compare with:     0.4735 eV, computed in scf)

     Writing all to output data dir ./tmp/ti3c2o2_prim.save/ :
     XML data file, pseudopotentials, collected wavefunctions

     init_run     :      0.89s CPU      0.95s WALL (       1 calls)
     electrons    :     71.55s CPU     73.84s WALL (       1 calls)

     Called by init_run:
     wfcinit      :      0.00s CPU      0.00s WALL (       1 calls)
     potinit      :      0.36s CPU      0.38s WALL (       1 calls)
     hinit0       :      0.36s CPU      0.35s WALL (       1 calls)

     Called by electrons:
     c_bands      :     71.48s CPU     73.77s WALL (       1 calls)
     v_of_rho     :      0.08s CPU      0.09s WALL (       1 calls)
     newd         :      0.12s CPU      0.15s WALL (       1 calls)
     PAW_pot      :      0.05s CPU      0.05s WALL (       1 calls)

     Called by c_bands:
     init_us_2    :      0.09s CPU      0.09s WALL (      31 calls)
     cegterg      :     62.21s CPU     63.81s WALL (     115 calls)

     Called by *egterg:
     cdiaghg      :      3.51s CPU      3.40s WALL (    2025 calls)
     h_psi        :     42.73s CPU     45.07s WALL (    2140 calls)
     s_psi        :      1.80s CPU      1.75s WALL (    2140 calls)
     g_psi        :      0.26s CPU      0.25s WALL (    1994 calls)

     Called by h_psi:
     h_psi:calbec :      5.15s CPU      5.04s WALL (    2140 calls)
     vloc_psi     :     35.31s CPU     37.82s WALL (    2140 calls)
                                        0.00s GPU  (    2140 calls)
     add_vuspsi   :      2.04s CPU      2.00s WALL (    2140 calls)

     General routines
     calbec       :      5.14s CPU      5.03s WALL (    2140 calls)
     fft          :      0.23s CPU      0.22s WALL (      13 calls)
     ffts         :      0.19s CPU      0.19s WALL (       1 calls)
     fftw         :     33.14s CPU     35.65s WALL (   56360 calls)
     interpolate  :      0.20s CPU      0.19s WALL (       1 calls)
     davcio       :      0.03s CPU      1.18s WALL (      62 calls)

     Parallel routines

     PWSCF        :   1m13.01s CPU   1m17.80s WALL


   This run was terminated on:  12:48:39  29Sep2026            

=------------------------------------------------------------------------------=
   JOB DONE.
=------------------------------------------------------------------------------=
Note: The following floating-point exceptions are signalling: IEEE_INVALID_FLAG IEEE_UNDERFLOW_FLAG IEEE_DENORMAL
Note: The following floating-point exceptions are signalling: IEEE_INVALID_FLAG IEEE_UNDERFLOW_FLAG IEEE_DENORMAL
Note: The following floating-point exceptions are signalling: IEEE_INVALID_FLAG IEEE_UNDERFLOW_FLAG IEEE_DENORMAL
Note: The following floating-point exceptions are signalling: IEEE_INVALID_FLAG IEEE_UNDERFLOW_FLAG IEEE_DENORMAL
Note: The following floating-point exceptions are signalling: IEEE_INVALID_FLAG IEEE_UNDERFLOW_FLAG IEEE_DENORMAL
Note: The following floating-point exceptions are signalling: IEEE_INVALID_FLAG IEEE_UNDERFLOW_FLAG IEEE_DENORMAL
Note: The following floating-point exceptions are signalling: IEEE_INVALID_FLAG IEEE_UNDERFLOW_FLAG IEEE_DENORMAL
Note: The following floating-point exceptions are signalling: IEEE_INVALID_FLAG IEEE_UNDERFLOW_FLAG IEEE_DENORMAL
