97
Lapatinib@Ti12C7O14 clean complex
C      9.453326      3.937349     11.892910
S      8.808749      2.292394     11.696807
O      8.761785      2.004026     10.276603
O      9.553382      1.436423     12.600974
C      7.138575      2.407149     12.318357
C      6.222910      3.155330     11.360427
N      4.887172      3.301412     11.950877
C      3.926193      3.918250     11.027635
C      3.464398      2.981534      9.967796
C      3.801978      2.804503      8.647426
C      3.000225      1.736428      8.178550
C      2.192225      1.301953      9.226979
C      1.220384      0.260471      9.293949
C      0.739533     -0.354155      8.197750
C     -0.329447     -1.336374      8.197097
C     -0.347779     -2.495323      8.895275
N     -1.415431     -3.370524      8.769494
C     -2.759213     -3.108332      9.127718
C     -3.181739     -1.918775      9.735920
C     -4.528063     -1.710072     10.047485
C     -5.469058     -2.697449      9.764466
O     -6.774193     -2.425432     10.075553
C     -7.199063     -3.116641     11.257386
C     -7.359288     -2.125497     12.385814
C     -6.334241     -2.017726     13.346727
C     -6.423203     -1.099240     14.395217
C     -7.535945     -0.269983     14.496421
C     -8.550259     -0.361553     13.547900
F     -9.609262      0.453797     13.669965
C     -8.472896     -1.276191     12.493323
Cl     -9.767763     -1.327431     11.349727
C     -5.073024     -3.874887      9.126378
Cl     -6.211949     -5.096832      8.691210
C     -3.725078     -4.078852      8.818320
N      0.768363     -2.910059      9.576888
C      1.129506     -2.276736     10.648315
N      0.506600     -1.201530     11.222449
C      0.614609     -0.059381     10.621346
O      2.495019      2.093354     10.317389
H      9.361197      4.230401     12.940176
H      8.902508      4.621696     11.246864
H     10.506204      3.924071     11.602515
H      6.787932      1.378996     12.462424
H      7.192216      2.888872     13.300382
H      6.169687      2.598463     10.418894
H      6.631943      4.145778     11.134167
H      4.936091      3.873796     12.792343
H      4.342281      4.831262     10.585259
H      3.050746      4.231507     11.609688
H      4.543900      3.363000      8.094041
H      3.020019      1.318544      7.181230
H      1.092956     -0.089915      7.204684
H     -1.167933     -1.103968      7.543960
H     -1.123928     -4.281736      9.117351
H     -2.467485     -1.142538      9.997151
H     -4.838235     -0.779623     10.515893
H     -6.511993     -3.920996     11.556556
H     -8.152980     -3.611097     11.041826
H     -5.450214     -2.651030     13.277452
H     -5.622802     -1.030209     15.128472
H     -7.621417      0.450141     15.304351
H     -3.422583     -4.994196      8.314979
H      2.025020     -2.646600     11.177384
H      0.198832      0.819980     11.144774
Ti     -2.141866     -3.008818      2.119748
Ti      0.288991     -1.694759      1.432425
Ti      1.903098     -3.067749     -0.729322
Ti     -2.521502     -0.251928      1.303687
Ti      2.142050      0.499533      2.204434
Ti     -0.681448      0.189635      3.681230
Ti     -2.036770     -3.077740     -1.200512
Ti     -0.605340     -0.770900     -2.035132
Ti      1.945488     -1.587317     -3.412400
Ti     -1.878170      1.746573     -1.240030
Ti      2.412512      0.454231     -0.774247
Ti      0.817742      1.838452     -2.940004
C     -3.678414      1.281398      0.600737
C      4.128193      0.482847      0.387293
C      0.455479      2.267202      0.349695
C     -3.666709      2.118834     -0.313920
C      4.115962      0.632239      1.621354
C     -0.635167      2.741046     -0.118921
C      1.630072      1.780996      0.734224
O     -3.093456     -1.956907      1.037949
O     -0.487250     -2.605849      2.701203
O      0.314079     -2.888890      0.145001
O     -0.800785     -0.435934      0.971227
O      1.902865     -1.158331      1.469449
O     -2.322673     -0.113878      3.024800
O      1.013786      0.441598      3.568761
O     -1.772019     -4.587905     -1.652810
O      0.190605     -1.189189     -3.534030
O      2.831420     -2.170248     -1.918042
O     -2.054558     -0.224445     -1.337505
O      0.768511     -0.390574     -1.063664
O     -0.900039      1.649313     -2.818565
O      2.415313      1.357463     -2.264115
