64
Lapatinib conformer
C    -10.148429      1.653825      0.537757
S    -10.025427      1.924477     -1.214847
O    -10.340653      3.321204     -1.457430
O    -10.779982      0.882323     -1.886416
C     -8.301465      1.706174     -1.606704
C     -7.777751      0.315409     -1.280881
N     -7.307715      0.240885      0.108805
C     -6.923126     -1.127951      0.489894
C     -5.662455     -1.573560     -0.164041
C     -5.334220     -2.655781     -0.943554
C     -3.961648     -2.509610     -1.255547
C     -3.498081     -1.340588     -0.656544
C     -2.192881     -0.766383     -0.672782
C     -1.904673      0.328763      0.053861
C     -0.635985      1.034748      0.014283
C      0.580011      0.506023      0.297654
N      1.689224      1.330164      0.155982
C      3.026193      1.137261      0.547575
C      3.440218      0.155312      1.455749
C      4.790902     -0.017347      1.778760
C      5.755902      0.782346      1.172962
O      7.074546      0.631378      1.512015
C      7.625750     -0.548663      0.906584
C      9.141261     -0.521137      0.935077
C      9.841370      0.665949      1.226933
C     11.238901      0.700417      1.234582
C     11.963594     -0.450019      0.941530
C     11.286854     -1.625827      0.636829
F     12.008672     -2.719672      0.347843
C      9.889194     -1.671750      0.625627
Cl      9.117143     -3.164404      0.213006
C      5.367226      1.777247      0.276147
Cl      6.530012      2.805186     -0.480438
C      4.015489      1.944455     -0.039569
N      0.651021     -0.782613      0.770482
C      0.414802     -1.776950     -0.024620
N      0.042238     -1.718270     -1.340746
C     -1.154411     -1.300982     -1.601552
O     -4.570333     -0.779967      0.011081
H     -9.970299      0.600351      0.755714
H     -9.425767      2.293866      1.046696
H    -11.161155      1.922096      0.847462
H     -7.734796      2.498325     -1.106253
H     -8.226997      1.879895     -2.686554
H     -6.936059      0.106256     -1.951712
H     -8.545659     -0.442738     -1.469707
H     -6.470318      0.819921      0.217926
H     -7.740865     -1.827784      0.281813
H     -6.772229     -1.145187      1.575559
H     -5.998454     -3.453551     -1.246883
H     -3.367338     -3.191451     -1.849962
H     -2.660541      0.786121      0.688748
H     -0.719068      2.080735     -0.269182
H      1.506040      2.216878     -0.294814
H      2.712156     -0.476789      1.956288
H      5.073775     -0.768447      2.510738
H      7.270856     -1.415122      1.476849
H      7.304900     -0.629746     -0.140664
H      9.299676      1.584594      1.451566
H     11.756849      1.628212      1.466888
H     13.048954     -0.439066      0.942312
H      3.733382      2.708937     -0.758754
H      0.526790     -2.793016      0.391839
H     -1.475120     -1.335365     -2.657870
