64
 energy: -115.531736426923 gnorm: 0.003399026019 xtb: 6.7.1pre (5071a88)
C           -2.93200149484334       -6.89815226031509        8.68468155115488
S           -1.95757087405032       -6.77006939402818        7.16338172272974
O           -2.07760846554912       -5.42399090606280        6.66637838350047
O           -2.34865190129342       -7.83579444934704        6.28318053146001
C           -0.21353290116841       -7.04647398945567        7.63043100387678
C            0.12182095432970       -6.35369527575358        8.94073152344120
N           -0.33102541043761       -4.96909771544349        8.99698637904805
C            0.69087971102991       -3.96422068327221        9.23228140952362
C            1.57397923537121       -3.63844663053882        8.06303788088565
C            2.25531523384756       -4.40775481784649        7.16373689730537
C            2.89498990700835       -3.51848044141213        6.27342380405906
C            2.56952349791954       -2.25106337876535        6.68908609237282
C            2.98361107132636       -0.94873347857731        6.19522011207910
C            2.83175860335454        0.14661066691097        7.14832331312698
C            2.54448918307497        1.44502165578265        6.97438044107403
C            2.23794716118977        2.10757163464315        5.69131396473675
N            1.08349309614316        2.85164198949298        5.65302606915607
C            0.68577129514927        3.83190523415477        6.56558961776998
C            1.58108349178044        4.45746197002704        7.42638723242806
C            1.16633957442033        5.47864574574525        8.26386241518120
C           -0.14861685287154        5.92652020631937        8.24966061083203
O           -0.64564047319425        6.94778504762586        8.99253161974400
C            0.24500020266249        7.68810326838813        9.79100033050805
C           -0.46055523542332        8.87870405195680       10.38265586345574
C           -1.78363863442201        9.17124454245262       10.08545655958291
C           -2.40487282119134       10.27954430982600       10.63448361966833
C           -1.71314245112241       11.11604892538132       11.49155926127763
C           -0.39395658969792       10.82704092185993       11.78912441100163
F            0.28243501646116       11.63760221629790       12.62007912211143
C            0.24110452504986        9.71909513388252       11.24429082177122
Cl           1.89335741339588        9.39638990756741       11.63658913154961
C           -1.04508389150493        5.29012909749654        7.37915412511971
Cl          -2.67998773922548        5.83363353844049        7.33890912580341
C           -0.64202607369820        4.26175743130137        6.55445260025836
N            2.89652038170957        1.99960611145786        4.60367225224463
C            4.08348099575026        1.35102503888390        4.45938610763059
N            4.32491657127183        0.11091097352941        4.47339114572259
C            3.53840742961709       -0.87964541798103        4.95527282264525
O            1.76338088833987       -2.32949328986804        7.77589342457393
H           -2.79762632365418       -7.89040961174211        9.09565274167885
H           -2.60554863555714       -6.12431165949324        9.36588592705383
H           -3.96520818679331       -6.74468248218163        8.39975014972786
H            0.34751165407387       -6.63295196914442        6.79503052057317
H           -0.07008968211830       -8.12191595468428        7.67784420141401
H            1.20300887644910       -6.40579325221105        9.11099076361231
H           -0.35704015925680       -6.90220247907374        9.76492390326929
H           -0.85908103235116       -4.73384834242467        8.16132250743449
H            1.29497436581994       -4.29372991648156       10.08612284965681
H            0.17970625039509       -3.04083665746427        9.51928225082129
H            2.32264926752057       -5.47550723555394        7.13937944988615
H            3.53074647269670       -3.78949337635469        5.45586919947531
H            2.86530486752650       -0.19001613539160        8.17889621051965
H            2.34651846465103        2.03410781946937        7.85663752440534
H            0.72097534075960        2.97875779416883        4.71579369114266
H            2.62259099559980        4.17723144916796        7.42322358753684
H            1.89370948659788        5.93787227210979        8.91297702884609
H            0.64329423406566        7.06345409662489       10.60478681178065
H            1.09468341802513        8.04649831618049        9.19027544029391
H           -2.31780490039797        8.51642370337614        9.41699163271520
H           -3.43368032611009       10.49435255878348       10.39296816240420
H           -2.17185712473730       11.98604549744372       11.93299428016280
H           -1.35383554586408        3.79985845391845        5.88854413573056
H            4.89576806127453        2.00824005778943        4.15051405107983
H            3.55418653096130       -1.77211743792245        4.34332867828272
