      -----------------------------------------------------------      
     |                   =====================                   |     
     |                           x T B                           |     
     |                   =====================                   |     
     |                         S. Grimme                         |     
     |          Mulliken Center for Theoretical Chemistry        |     
     |                    University of Bonn                     |     
      -----------------------------------------------------------      

   * xtb version 6.7.1pre (5071a88) compiled by 'Marcel@Raven' on 2024-07-23

   xtb is free software: you can redistribute it and/or modify it under
   the terms of the GNU Lesser General Public License as published by
   the Free Software Foundation, either version 3 of the License, or
   (at your option) any later version.
   
   xtb is distributed in the hope that it will be useful,
   but WITHOUT ANY WARRANTY; without even the implied warranty of
   MERCHANTABILITY or FITNESS FOR A PARTICULAR PURPOSE.  See the
   GNU Lesser General Public License for more details.
   
   Cite this work as:
   * C. Bannwarth, E. Caldeweyher, S. Ehlert, A. Hansen, P. Pracht,
     J. Seibert, S. Spicher, S. Grimme, WIREs Comput. Mol. Sci., 2020, 11,
     e01493. DOI: 10.1002/wcms.1493
   
   for GFN2-xTB:
   * C. Bannwarth, S. Ehlert and S. Grimme., J. Chem. Theory Comput., 2019,
     15, 1652-1671. DOI: 10.1021/acs.jctc.8b01176
   for GFN1-xTB:
   * S. Grimme, C. Bannwarth, P. Shushkov, J. Chem. Theory Comput., 2017,
     13, 1989-2009. DOI: 10.1021/acs.jctc.7b00118
   for GFN0-xTB:
   * P. Pracht, E. Caldeweyher, S. Ehlert, S. Grimme, ChemRxiv, 2019, preprint.
     DOI: 10.26434/chemrxiv.8326202.v1
   for GFN-FF:
   * S. Spicher and S. Grimme, Angew. Chem. Int. Ed., 2020, 59, 15665-15673.
     DOI: 10.1002/anie.202004239
   
   for ALPB and GBSA implicit solvation:
   * S. Ehlert, M. Stahn, S. Spicher, S. Grimme, J. Chem. Theory Comput.,
     2021, 17, 4250-4261. DOI: 10.1021/acs.jctc.1c00471
   
   for ddCOSMO and CPCM-X implicit solvation:
   * M. Stahn, S. Ehlert, S. Grimme, J. Phys. Chem. A,
     2023, XX, XXXX-XXXX. DOI: 10.1021/acs.jpca.3c04382
   
   for DFT-D4:
   * E. Caldeweyher, C. Bannwarth and S. Grimme, J. Chem. Phys., 2017,
     147, 034112. DOI: 10.1063/1.4993215
   * E. Caldeweyher, S. Ehlert, A. Hansen, H. Neugebauer, S. Spicher,
     C. Bannwarth and S. Grimme, J. Chem. Phys., 2019, 150, 154122.
     DOI: 10.1063/1.5090222
   * E. Caldeweyher, J.-M. Mewes, S. Ehlert and S. Grimme, Phys. Chem. Chem. Phys.
     2020, 22, 8499-8512. DOI: 10.1039/D0CP00502A
   
   for sTDA-xTB:
   * S. Grimme and C. Bannwarth, J. Chem. Phys., 2016, 145, 054103.
     DOI: 10.1063/1.4959605
   
   in the mass-spec context:
   * V. Asgeirsson, C. Bauer and S. Grimme, Chem. Sci., 2017, 8, 4879.
     DOI: 10.1039/c7sc00601b
   * J. Koopman and S. Grimme, ACS Omega 2019, 4, 12, 15120-15133.
     DOI: 10.1021/acsomega.9b02011
   
   for metadynamics refer to:
   * S. Grimme, J. Chem. Theory Comput., 2019, 155, 2847-2862
     DOI: 10.1021/acs.jctc.9b00143
   
   for SPH calculations refer to:
   * S. Spicher and S. Grimme, J. Chem. Theory Comput., 2021, 17, 1701-1714
     DOI: 10.1021/acs.jctc.0c01306
   
   for ONIOM refer to:
   * C. Plett, A. Katbashev, S. Ehlert, S. Grimme, M. Bursch,
     Phys. Chem. Chem. Phys., 2023, 25, 17860-17868. DOI: 10.1039/D3CP02178E
   
   for DIPRO refer to:
   * J. Kohn, N. Gildemeister, S. Grimme, D. Fazzi, A. Hansen,
     J. Chem. Phys., 2023, just accepted.
   
   for PTB refer to:
   * S. Grimme, M. Mueller, A. Hansen, J. Chem. Phys., 2023, 158, 124111.
     DOI: 10.1063/5.0137838
   
   with help from (in alphabetical order)
   P. Atkinson, C. Bannwarth, F. Bohle, G. Brandenburg, E. Caldeweyher
   M. Checinski, S. Dohm, S. Ehlert, S. Ehrlich, I. Gerasimov, C. Hölzer
   A. Katbashev, J. Kohn, J. Koopman, C. Lavigne, S. Lehtola, F. März, M. Müller,
   F. Musil, H. Neugebauer, J. Pisarek, C. Plett, P. Pracht, F. Pultar,
   J. Seibert, P. Shushkov, S. Spicher, M. Stahn, M. Steiner, T. Strunk,
   J. Stückrath, T. Rose, and J. Unsleber
   
 * started run on 2026/09/01 at 20:32:09.619     
   ID    Z sym.   atoms
    1   22 Ti     1-12
    2    6 C      13-19
    3    8 O      20-33

           -------------------------------------------------
          |                Calculation Setup                |
           -------------------------------------------------

          program call               : "c:\Users\Andre\Proyectos doctorado\nano-qsar-ai-papers\kras-pancreatic-gC3N4-ai\tools\xtb\xtb-6.7.1\bin\xtb.exe" "c:\Users\Andre\Proyectos doctorado\nano-qsar-ai-papers\mxene-glioblastoma-qsar-ai\calculations\gbm\Lapatinib\xtbopt.xyz" --gfn 2 --chrg 0 --uhf 0 --wbo --norestart
          coordinate file            : c:\Users\Andre\Proyectos doctorado\nano-qsar-ai-papers\mxene-glioblastoma-qsar-ai\calculations\gbm\Lapatinib\xtbopt.xyz
          omp threads                :                    16


molecular fragmentation (1/2 indicates fragments):
111111111111111111122221222222222
# atoms in fragment 1/2:    20    13
 fragment masses (1/2) :      674.48      207.99
CMA distance (Bohr)    :   1.325
constraining FC (au)   :  0.0500

           -------------------------------------------------
          |                 G F N 2 - x T B                 |
           -------------------------------------------------

        Reference                      10.1021/acs.jctc.8b01176
      * Hamiltonian:
        H0-scaling (s, p, d)           1.850000    2.230000    2.230000
        zeta-weighting                 0.500000
      * Dispersion:
        s8                             2.700000
        a1                             0.520000
        a2                             5.000000
        s9                             5.000000
      * Repulsion:
        kExp                           1.500000    1.000000
        rExp                           1.000000
      * Coulomb:
        alpha                          2.000000
        third order                    shell-resolved
        anisotropic                    true
        a3                             3.000000
        a5                             4.000000
        cn-shift                       1.200000
        cn-exp                         4.000000
        max-rad                        5.000000


          ...................................................
          :                      SETUP                      :
          :.................................................:
          :  # basis functions                 204          :
          :  # atomic orbitals                 192          :
          :  # shells                           78          :
          :  # electrons                       160          :
          :  max. iterations                   250          :
          :  Hamiltonian                  GFN2-xTB          :
          :  restarted?                      false          :
          :  GBSA solvation                  false          :
          :  PC potential                    false          :
          :  electronic temp.          300.0000000     K    :
          :  accuracy                    1.0000000          :
          :  -> integral cutoff          0.2500000E+02      :
          :  -> integral neglect         0.1000000E-07      :
          :  -> SCF convergence          0.1000000E-05 Eh   :
          :  -> wf. convergence          0.1000000E-03 e    :
          :  Broyden damping             0.4000000          :
          :  net charge                          0          :
          :  unpaired electrons                  0          :
          ...................................................

 iter      E             dE          RMSdq      gap      omega  full diag
   1    -90.9383302 -0.909383E+02  0.196E+01    0.05       0.0  T
   2    -76.1805857  0.147577E+02  0.168E+01    0.11       1.0  T
   3    -27.0576110  0.491230E+02  0.325E+01    0.06       1.0  T
   4    -91.2843218 -0.642267E+02  0.117E+01    0.01       1.0  T
   5    -92.2269342 -0.942612E+00  0.814E+00    0.38       1.0  T
   6    -91.1908724  0.103606E+01  0.832E+00    0.03       1.0  T
   7    -92.3867061 -0.119583E+01  0.594E+00    0.58       1.0  T
   8    -92.4904582 -0.103752E+00  0.490E+00    0.41       1.0  T
   9    -92.3928145  0.976437E-01  0.462E+00    0.09       1.0  T
  10    -92.5502890 -0.157474E+00  0.366E+00    0.31       1.0  T
  11    -91.4495368  0.110075E+01  0.854E+00    0.01       1.0  T
  12    -92.3502474 -0.900711E+00  0.361E+00    0.07       1.0  T
  13    -92.1583655  0.191882E+00  0.436E+00    0.07       1.0  T
  14    -92.0850367  0.733289E-01  0.479E+00    0.08       1.0  T
  15    -91.6047495  0.480287E+00  0.753E+00    0.25       1.0  T
  16    -91.6093611 -0.461167E-02  0.749E+00    0.25       1.0  T
  17    -92.5425227 -0.933162E+00  0.234E+00    0.14       1.0  T
  18    -92.6196947 -0.771720E-01  0.297E+00    0.60       1.0  T
  19    -92.6245092 -0.481449E-02  0.290E+00    0.54       1.0  T
  20    -92.6511123 -0.266031E-01  0.235E+00    0.61       1.0  T
  21    -92.6643033 -0.131910E-01  0.193E+00    0.88       1.0  T
  22    -92.6688516 -0.454827E-02  0.179E+00    0.95       1.0  T
  23    -92.6789103 -0.100588E-01  0.149E+00    0.93       1.0  T
  24    -92.6890584 -0.101481E-01  0.112E+00    0.85       1.0  T
  25    -92.6945201 -0.546172E-02  0.893E-01    0.77       1.0  T
  26    -92.6976779 -0.315779E-02  0.733E-01    0.68       1.0  T
  27    -92.7007920 -0.311413E-02  0.493E-01    0.62       1.0  T
  28    -92.7011769 -0.384907E-03  0.467E-01    0.61       1.0  T
  29    -92.7022251 -0.104814E-02  0.337E-01    0.58       1.0  T
  30    -92.7025554 -0.330337E-03  0.279E-01    0.57       1.0  T
  31    -92.7026109 -0.555166E-04  0.271E-01    0.58       1.0  T
  32    -92.7028449 -0.233957E-03  0.227E-01    0.59       1.0  T
  33    -92.7029423 -0.974003E-04  0.198E-01    0.59       1.0  T
  34    -92.7030946 -0.152311E-03  0.155E-01    0.60       1.0  T
  35    -92.7032140 -0.119423E-03  0.106E-01    0.60       1.0  T
  36    -92.7032974 -0.833442E-04  0.468E-02    0.60       1.0  T
  37    -92.7033151 -0.177457E-04  0.189E-02    0.61       1.0  T
  38    -92.7033174 -0.225862E-05  0.901E-03    0.61       1.9  T
  39    -92.7033176 -0.257607E-06  0.610E-03    0.61       2.9  T
  40    -92.7033178 -0.141227E-06  0.408E-03    0.62       4.3  T
  41    -92.7033178  0.161574E-07  0.383E-03    0.62       4.5  T
  42    -92.7033178 -0.754960E-07  0.173E-03    0.62      10.1  T
  43    -92.7033178 -0.146930E-07  0.134E-03    0.62      13.0  T
  44    -92.7033179 -0.107074E-07  0.150E-03    0.62      11.6  T
  45    -92.7033179 -0.815524E-08  0.109E-03    0.62      16.0  T
  46    -92.7033179 -0.323992E-08  0.984E-04    0.62      17.7  T
  47    -92.7033179 -0.198062E-08  0.895E-04    0.62      19.4  T

   *** convergence criteria satisfied after 47 iterations ***

         #    Occupation            Energy/Eh            Energy/eV
      -------------------------------------------------------------
         1        2.0000           -0.8218672             -22.3641
       ...           ...                  ...                  ...
        74        2.0000           -0.3597248              -9.7886
        75        2.0000           -0.3534923              -9.6190
        76        2.0000           -0.3513811              -9.5616
        77        2.0000           -0.3467948              -9.4368
        78        2.0000           -0.3391958              -9.2300
        79        2.0000           -0.3241706              -8.8211
        80        2.0000           -0.3094234              -8.4198 (HOMO)
        81        0.0000           -0.2868096              -7.8045 (LUMO)
        82        0.0000           -0.2858773              -7.7791
        83        0.0000           -0.2849087              -7.7528
        84        0.0000           -0.2848378              -7.7508
        85                         -0.2806079              -7.6357
       ...                                ...                  ...
       192                         13.2872279             361.5639
      -------------------------------------------------------------
                  HL-Gap            0.0226138 Eh            0.6154 eV
             Fermi-level           -0.2983507 Eh           -8.1185 eV

 SCC (total)                   0 d,  0 h,  0 min,  0.462 sec
 SCC setup                      ...        0 min,  0.001 sec (  0.216%)
 Dispersion                     ...        0 min,  0.000 sec (  0.000%)
 classical contributions        ...        0 min,  0.000 sec (  0.000%)
 integral evaluation            ...        0 min,  0.004 sec (  0.866%)
 iterations                     ...        0 min,  0.450 sec ( 97.403%)
 molecular gradient             ...        0 min,  0.007 sec (  1.515%)
 printout                       ...        0 min,  0.000 sec (  0.000%)

         :::::::::::::::::::::::::::::::::::::::::::::::::::::
         ::                     SUMMARY                     ::
         :::::::::::::::::::::::::::::::::::::::::::::::::::::
         :: total energy             -92.026932518770 Eh    ::
         :: gradient norm              0.000870127029 Eh/a0 ::
         :: HOMO-LUMO gap              0.615352856121 eV    ::
         ::.................................................::
         :: SCC energy               -92.701604349048 Eh    ::
         :: -> isotropic ES            0.904964952735 Eh    ::
         :: -> anisotropic ES         -0.379696002240 Eh    ::
         :: -> anisotropic XC         -0.063442133536 Eh    ::
         :: -> dispersion             -0.088791393308 Eh    ::
         :: repulsion energy           0.674671830278 Eh    ::
         :: add. restraining           0.000000000000 Eh    ::
         :: total charge              -0.000000000000 e     ::
         :::::::::::::::::::::::::::::::::::::::::::::::::::::

           -------------------------------------------------
          |                Property Printout                |
           -------------------------------------------------

    * Orbital Energies and Occupations

         #    Occupation            Energy/Eh            Energy/eV
      -------------------------------------------------------------
         1        2.0000           -0.8218672             -22.3641
       ...           ...                  ...                  ...
        68        2.0000           -0.3911370             -10.6434
        69        2.0000           -0.3876062             -10.5473
        70        2.0000           -0.3827783             -10.4159
        71        2.0000           -0.3784568             -10.2983
        72        2.0000           -0.3699656             -10.0673
        73        2.0000           -0.3619971              -9.8504
        74        2.0000           -0.3597248              -9.7886
        75        2.0000           -0.3534923              -9.6190
        76        2.0000           -0.3513811              -9.5616
        77        2.0000           -0.3467948              -9.4368
        78        2.0000           -0.3391958              -9.2300
        79        2.0000           -0.3241706              -8.8211
        80        2.0000           -0.3094234              -8.4198 (HOMO)
        81        0.0000           -0.2868096              -7.8045 (LUMO)
        82        0.0000           -0.2858773              -7.7791
        83        0.0000           -0.2849087              -7.7528
        84        0.0000           -0.2848378              -7.7508
        85                         -0.2806079              -7.6357
        86                         -0.2761218              -7.5137
        87                         -0.2749723              -7.4824
        88                         -0.2730880              -7.4311
        89                         -0.2727624              -7.4222
        90                         -0.2719979              -7.4014
        91                         -0.2717234              -7.3940
       ...                                ...                  ...
       192                         13.2872279             361.5639
      -------------------------------------------------------------
                  HL-Gap            0.0226138 Eh            0.6154 eV
             Fermi-level           -0.2983507 Eh           -8.1185 eV

     #   Z          covCN         q      C6AA      α(0)
     1  22 Ti       3.634     1.050   101.819    24.495
     2  22 Ti       6.853     1.549    84.073    14.887
     3  22 Ti       3.215     1.050   102.622    24.737
     4  22 Ti       5.866     1.378    85.686    15.029
     5  22 Ti       5.625     1.120    88.219    15.249
     6  22 Ti       3.542     1.042   102.452    24.669
     7  22 Ti       2.350     0.881   202.755    34.865
     8  22 Ti       6.011     1.348    85.977    15.054
     9  22 Ti       3.410     1.009   103.043    24.778
    10  22 Ti       5.533     1.097    88.452    15.269
    11  22 Ti       5.680     1.188    87.541    15.191
    12  22 Ti       3.583     1.026   102.458    24.638
    13   6 C        2.251    -0.257    37.584     9.934
    14   6 C        2.140    -0.255    38.316    10.006
    15   6 C        2.247    -0.020    30.629     8.967
    16   6 C        1.838    -0.209    37.307     9.867
    17   6 C        1.895    -0.223    37.708     9.918
    18   6 C        1.821    -0.347    42.175    10.493
    19   6 C        2.631    -0.404    39.906    10.333
    20   8 O        1.557    -0.847    31.988     7.631
    21   8 O        1.464    -0.879    33.171     7.763
    22   8 O        1.556    -0.954    35.523     8.041
    23   8 O        1.523    -1.006    37.469     8.256
    24   8 O        1.523    -0.912    34.130     7.880
    25   8 O        1.458    -0.820    31.317     7.542
    26   8 O        1.455    -0.796    30.597     7.455
    27   8 O        0.727    -0.637    27.134     6.980
    28   8 O        1.453    -0.864    32.693     7.706
    29   8 O        1.472    -0.798    30.628     7.460
    30   8 O        1.604    -0.945    35.181     8.005
    31   8 O        1.547    -0.969    36.066     8.102
    32   8 O        1.690    -0.816    30.957     7.512
    33   8 O        1.453    -0.780    30.154     7.401

 Mol. C6AA /au·bohr⁶  :      56397.902746
 Mol. C8AA /au·bohr⁸  :    3440558.005678
 Mol. α(0) /au        :        426.113959


Wiberg/Mayer (AO) data.
largest (>0.10) Wiberg bond orders for each atom

 ---------------------------------------------------------------------------
     #   Z sym  total        # sym  WBO       # sym  WBO       # sym  WBO
 ---------------------------------------------------------------------------
     1  22 Ti   2.824 --    20 O    0.845    21 O    0.814     7 Ti   0.331
                             2 Ti   0.202     4 Ti   0.198
     2  22 Ti   3.856 --    21 O    0.753    24 O    0.744    22 O    0.695
                            23 O    0.606     1 Ti   0.202     3 Ti   0.188
                             5 Ti   0.138     6 Ti   0.137
     3  22 Ti   2.718 --    29 O    0.958    22 O    0.600     9 Ti   0.370
                             2 Ti   0.188     7 Ti   0.141    24 O    0.109
     4  22 Ti   3.921 --    25 O    0.940    13 C    0.721    20 O    0.705
                            23 O    0.561     6 Ti   0.210     1 Ti   0.198
                            10 Ti   0.178    30 O    0.124
     5  22 Ti   4.075 --    19 C    0.894    26 O    0.771    17 C    0.743
                            24 O    0.604    11 Ti   0.284     6 Ti   0.174
                            18 C    0.161    14 C    0.152     2 Ti   0.138
     6  22 Ti   2.663 --    26 O    0.977    25 O    0.710     4 Ti   0.210
                             5 Ti   0.174     2 Ti   0.137    21 O    0.124
     7  22 Ti   3.761 --    27 O    1.990     8 Ti   0.606     1 Ti   0.331
                            22 O    0.151    20 O    0.147     3 Ti   0.141
                            30 O    0.112
     8  22 Ti   4.019 --    30 O    0.799    28 O    0.760    31 O    0.715
                             7 Ti   0.606    32 O    0.193     9 Ti   0.167
                            12 Ti   0.150    10 Ti   0.141
     9  22 Ti   2.745 --    28 O    0.827    29 O    0.774     3 Ti   0.370
                            12 Ti   0.217     8 Ti   0.167    11 Ti   0.131
    10  22 Ti   4.027 --    18 C    1.054    16 C    0.726    32 O    0.620
                            30 O    0.445    19 C    0.231    12 Ti   0.199
                             4 Ti   0.178    13 C    0.156     8 Ti   0.141
    11  22 Ti   4.083 --    33 O    0.966    14 C    0.671    19 C    0.655
                            31 O    0.443     5 Ti   0.284    12 Ti   0.210
                            18 C    0.142     9 Ti   0.131    29 O    0.111
    12  22 Ti   2.792 --    32 O    0.900    33 O    0.736     9 Ti   0.217
                            11 Ti   0.210    10 Ti   0.199     8 Ti   0.150
    13   6 C    3.843 --    16 C    2.738     4 Ti   0.721    10 Ti   0.156
    14   6 C    3.782 --    17 C    2.732    11 Ti   0.671     5 Ti   0.152
    15   6 C    3.979 --    18 C    2.009    19 C    1.602
    16   6 C    3.704 --    13 C    2.738    10 Ti   0.726
    17   6 C    3.748 --    14 C    2.732     5 Ti   0.743
    18   6 C    3.768 --    15 C    2.009    10 Ti   1.054     5 Ti   0.161
                            11 Ti   0.142
    19   6 C    3.829 --    15 C    1.602     5 Ti   0.894    11 Ti   0.655
                            10 Ti   0.231
    20   8 O    1.935 --     1 Ti   0.845     4 Ti   0.705     7 Ti   0.147
    21   8 O    1.895 --     1 Ti   0.814     2 Ti   0.753     6 Ti   0.124
    22   8 O    1.786 --     2 Ti   0.695     3 Ti   0.600     7 Ti   0.151
    23   8 O    1.720 --     2 Ti   0.606     4 Ti   0.561
    24   8 O    1.849 --     2 Ti   0.744     5 Ti   0.604     3 Ti   0.109
    25   8 O    1.975 --     4 Ti   0.940     6 Ti   0.710
    26   8 O    2.018 --     6 Ti   0.977     5 Ti   0.771
    27   8 O    2.169 --     7 Ti   1.990
    28   8 O    1.911 --     9 Ti   0.827     8 Ti   0.760
    29   8 O    2.010 --     3 Ti   0.958     9 Ti   0.774    11 Ti   0.111
    30   8 O    1.800 --     8 Ti   0.799    10 Ti   0.445     4 Ti   0.124
                             7 Ti   0.112
    31   8 O    1.773 --     8 Ti   0.715    11 Ti   0.443
    32   8 O    1.988 --    12 Ti   0.900    10 Ti   0.620     8 Ti   0.193
    33   8 O    2.032 --    11 Ti   0.966    12 Ti   0.736
 ---------------------------------------------------------------------------

Topologies differ in total number of bonds
Writing topology from bond orders to xtbtopo.mol

molecular dipole:
                 x           y           z       tot (Debye)
 q only:        0.788      -1.123      -0.943
   full:       -0.663      -1.254      -0.211       3.645
molecular quadrupole (traceless):
                xx          xy          yy          xz          yz          zz
 q only:      -19.959      -3.097      -1.671     -37.670     -10.176      21.630
  q+dip:      -14.940      -4.602     -23.781      -7.855     -24.379      38.721
   full:      -12.713      -3.110     -22.405      -7.919     -21.714      35.119


           -------------------------------------------------
          | TOTAL ENERGY              -92.026932518770 Eh   |
          | GRADIENT NORM               0.000870127029 Eh/α |
          | HOMO-LUMO GAP               0.615352856121 eV   |
           -------------------------------------------------

------------------------------------------------------------------------
 * finished run on 2026/09/01 at 20:32:10.118     
------------------------------------------------------------------------
 total:
 * wall-time:     0 d,  0 h,  0 min,  0.497 sec
 *  cpu-time:     0 d,  0 h,  0 min,  3.141 sec
 * ratio c/w:     6.319 speedup
 SCF:
 * wall-time:     0 d,  0 h,  0 min,  0.463 sec
 *  cpu-time:     0 d,  0 h,  0 min,  3.078 sec
 * ratio c/w:     6.648 speedup

