      -----------------------------------------------------------      
     |                   =====================                   |     
     |                           x T B                           |     
     |                   =====================                   |     
     |                         S. Grimme                         |     
     |          Mulliken Center for Theoretical Chemistry        |     
     |                    University of Bonn                     |     
      -----------------------------------------------------------      

   * xtb version 6.7.1pre (5071a88) compiled by 'Marcel@Raven' on 2024-07-23

   xtb is free software: you can redistribute it and/or modify it under
   the terms of the GNU Lesser General Public License as published by
   the Free Software Foundation, either version 3 of the License, or
   (at your option) any later version.
   
   xtb is distributed in the hope that it will be useful,
   but WITHOUT ANY WARRANTY; without even the implied warranty of
   MERCHANTABILITY or FITNESS FOR A PARTICULAR PURPOSE.  See the
   GNU Lesser General Public License for more details.
   
   Cite this work as:
   * C. Bannwarth, E. Caldeweyher, S. Ehlert, A. Hansen, P. Pracht,
     J. Seibert, S. Spicher, S. Grimme, WIREs Comput. Mol. Sci., 2020, 11,
     e01493. DOI: 10.1002/wcms.1493
   
   for GFN2-xTB:
   * C. Bannwarth, S. Ehlert and S. Grimme., J. Chem. Theory Comput., 2019,
     15, 1652-1671. DOI: 10.1021/acs.jctc.8b01176
   for GFN1-xTB:
   * S. Grimme, C. Bannwarth, P. Shushkov, J. Chem. Theory Comput., 2017,
     13, 1989-2009. DOI: 10.1021/acs.jctc.7b00118
   for GFN0-xTB:
   * P. Pracht, E. Caldeweyher, S. Ehlert, S. Grimme, ChemRxiv, 2019, preprint.
     DOI: 10.26434/chemrxiv.8326202.v1
   for GFN-FF:
   * S. Spicher and S. Grimme, Angew. Chem. Int. Ed., 2020, 59, 15665-15673.
     DOI: 10.1002/anie.202004239
   
   for ALPB and GBSA implicit solvation:
   * S. Ehlert, M. Stahn, S. Spicher, S. Grimme, J. Chem. Theory Comput.,
     2021, 17, 4250-4261. DOI: 10.1021/acs.jctc.1c00471
   
   for ddCOSMO and CPCM-X implicit solvation:
   * M. Stahn, S. Ehlert, S. Grimme, J. Phys. Chem. A,
     2023, XX, XXXX-XXXX. DOI: 10.1021/acs.jpca.3c04382
   
   for DFT-D4:
   * E. Caldeweyher, C. Bannwarth and S. Grimme, J. Chem. Phys., 2017,
     147, 034112. DOI: 10.1063/1.4993215
   * E. Caldeweyher, S. Ehlert, A. Hansen, H. Neugebauer, S. Spicher,
     C. Bannwarth and S. Grimme, J. Chem. Phys., 2019, 150, 154122.
     DOI: 10.1063/1.5090222
   * E. Caldeweyher, J.-M. Mewes, S. Ehlert and S. Grimme, Phys. Chem. Chem. Phys.
     2020, 22, 8499-8512. DOI: 10.1039/D0CP00502A
   
   for sTDA-xTB:
   * S. Grimme and C. Bannwarth, J. Chem. Phys., 2016, 145, 054103.
     DOI: 10.1063/1.4959605
   
   in the mass-spec context:
   * V. Asgeirsson, C. Bauer and S. Grimme, Chem. Sci., 2017, 8, 4879.
     DOI: 10.1039/c7sc00601b
   * J. Koopman and S. Grimme, ACS Omega 2019, 4, 12, 15120-15133.
     DOI: 10.1021/acsomega.9b02011
   
   for metadynamics refer to:
   * S. Grimme, J. Chem. Theory Comput., 2019, 155, 2847-2862
     DOI: 10.1021/acs.jctc.9b00143
   
   for SPH calculations refer to:
   * S. Spicher and S. Grimme, J. Chem. Theory Comput., 2021, 17, 1701-1714
     DOI: 10.1021/acs.jctc.0c01306
   
   for ONIOM refer to:
   * C. Plett, A. Katbashev, S. Ehlert, S. Grimme, M. Bursch,
     Phys. Chem. Chem. Phys., 2023, 25, 17860-17868. DOI: 10.1039/D3CP02178E
   
   for DIPRO refer to:
   * J. Kohn, N. Gildemeister, S. Grimme, D. Fazzi, A. Hansen,
     J. Chem. Phys., 2023, just accepted.
   
   for PTB refer to:
   * S. Grimme, M. Mueller, A. Hansen, J. Chem. Phys., 2023, 158, 124111.
     DOI: 10.1063/5.0137838
   
   with help from (in alphabetical order)
   P. Atkinson, C. Bannwarth, F. Bohle, G. Brandenburg, E. Caldeweyher
   M. Checinski, S. Dohm, S. Ehlert, S. Ehrlich, I. Gerasimov, C. Hölzer
   A. Katbashev, J. Kohn, J. Koopman, C. Lavigne, S. Lehtola, F. März, M. Müller,
   F. Musil, H. Neugebauer, J. Pisarek, C. Plett, P. Pracht, F. Pultar,
   J. Seibert, P. Shushkov, S. Spicher, M. Stahn, M. Steiner, T. Strunk,
   J. Stückrath, T. Rose, and J. Unsleber
   
 * started run on 2026/09/02 at 16:43:24.084     
   ID    Z sym.   atoms
    1    6 C      1, 5, 6, 8-16, 18-21, 23-28, 30, 32, 34, 36, 38, 77-83
    2   16 S      2
    3    8 O      3, 4, 22, 39, 84-97
    4    7 N      7, 17, 35, 37
    5    9 F      29
    6   17 Cl     31, 33
    7    1 H      40-64
    8   22 Ti     65-76

           -------------------------------------------------
          |                Calculation Setup                |
           -------------------------------------------------

          program call               : "c:\Users\Andre\Proyectos doctorado\nano-qsar-ai-papers\kras-pancreatic-gC3N4-ai\tools\xtb\xtb-6.7.1\bin\xtb.exe" "c:\Users\Andre\Proyectos doctorado\nano-qsar-ai-papers\mxene-glioblastoma-qsar-ai\calculations\gbm\Lapatinib\Lapatinib_opt_orient_270deg.xyz" --opt loose --gfn 2 --chrg 0 --uhf 0 --iterations 500 --cycles 400 --norestart
          coordinate file            : c:\Users\Andre\Proyectos doctorado\nano-qsar-ai-papers\mxene-glioblastoma-qsar-ai\calculations\gbm\Lapatinib\Lapatinib_opt_orient_270deg.xyz
          omp threads                :                     4


molecular fragmentation (1/2 indicates fragments):
111111111111111111111111111111111111111111111111111111111111111122222222
2222222222222222222222222
# atoms in fragment 1/2:    64    33
 fragment masses (1/2) :      591.48      882.47
CMA distance (Bohr)    :  18.180
constraining FC (au)   :  0.0500

           -------------------------------------------------
          |                 G F N 2 - x T B                 |
           -------------------------------------------------

        Reference                      10.1021/acs.jctc.8b01176
      * Hamiltonian:
        H0-scaling (s, p, d)           1.850000    2.230000    2.230000
        zeta-weighting                 0.500000
      * Dispersion:
        s8                             2.700000
        a1                             0.520000
        a2                             5.000000
        s9                             5.000000
      * Repulsion:
        kExp                           1.500000    1.000000
        rExp                           1.000000
      * Coulomb:
        alpha                          2.000000
        third order                    shell-resolved
        anisotropic                    true
        a3                             3.000000
        a5                             4.000000
        cn-shift                       1.200000
        cn-exp                         4.000000
        max-rad                        5.000000


          ...................................................
          :                      SETUP                      :
          :.................................................:
          :  # basis functions                 403          :
          :  # atomic orbitals                 388          :
          :  # shells                          184          :
          :  # electrons                       364          :
          :  max. iterations                   500          :
          :  Hamiltonian                  GFN2-xTB          :
          :  restarted?                      false          :
          :  GBSA solvation                  false          :
          :  PC potential                    false          :
          :  electronic temp.          300.0000000     K    :
          :  accuracy                    1.0000000          :
          :  -> integral cutoff          0.2500000E+02      :
          :  -> integral neglect         0.1000000E-07      :
          :  -> SCF convergence          0.1000000E-05 Eh   :
          :  -> wf. convergence          0.1000000E-03 e    :
          :  Broyden damping             0.4000000          :
          :  net charge                          0          :
          :  unpaired electrons                  0          :
          ...................................................

 iter      E             dE          RMSdq      gap      omega  full diag
   1   -206.6830781 -0.206683E+03  0.131E+01    0.12       0.0  T
   2   -163.2471237  0.434360E+02  0.139E+01    0.01       1.0  T
   3     44.9811059  0.208228E+03  0.271E+01    0.06       1.0  T
   4   -164.6621347 -0.209643E+03  0.136E+01    0.02       1.0  T
   5    -73.7016593  0.909605E+02  0.176E+01    0.02       1.0  T
   6   -206.7425804 -0.133041E+03  0.842E+00    0.02       1.0  T
   7   -206.5541968  0.188384E+00  0.635E+00    0.04       1.0  T
   8   -206.3532759  0.200921E+00  0.668E+00    0.09       1.0  T
   9   -204.9314822  0.142179E+01  0.665E+00    0.03       1.0  T
  10   -205.2908192 -0.359337E+00  0.668E+00    0.04       1.0  T
  11   -207.8015745 -0.251076E+01  0.584E+00    0.10       1.0  T
  12   -206.2232526  0.157832E+01  0.596E+00    0.04       1.0  T
  13   -204.7269182  0.149633E+01  0.561E+00    0.04       1.0  T
  14   -208.3048315 -0.357791E+01  0.452E+00    0.69       1.0  T
  15   -208.3518692 -0.470377E-01  0.364E+00    0.73       1.0  T
  16   -208.5743287 -0.222459E+00  0.306E+00    0.41       1.0  T
  17   -209.3788438 -0.804515E+00  0.326E+00    0.08       1.0  T
  18   -209.3367147  0.421292E-01  0.306E+00    0.04       1.0  T
  19   -209.4044863 -0.677716E-01  0.315E+00    0.10       1.0  T
  20   -209.4383990 -0.339128E-01  0.302E+00    0.18       1.0  T
  21   -209.4803034 -0.419043E-01  0.234E+00    0.26       1.0  T
  22   -209.5283907 -0.480873E-01  0.184E+00    0.24       1.0  T
  23   -209.5427911 -0.144004E-01  0.164E+00    0.21       1.0  T
  24   -209.5524529 -0.966181E-02  0.136E+00    0.47       1.0  T
  25   -209.5655356 -0.130827E-01  0.107E+00    0.68       1.0  T
  26   -209.5728958 -0.736017E-02  0.822E-01    0.86       1.0  T
  27   -209.5768450 -0.394918E-02  0.695E-01    0.83       1.0  T
  28   -209.5831697 -0.632477E-02  0.562E-01    0.83       1.0  T
  29   -209.5845702 -0.140050E-02  0.511E-01    0.84       1.0  T
  30   -209.5856358 -0.106555E-02  0.486E-01    0.85       1.0  T
  31   -209.5885003 -0.286455E-02  0.406E-01    0.83       1.0  T
  32   -209.5903228 -0.182243E-02  0.308E-01    0.81       1.0  T
  33   -209.5917452 -0.142246E-02  0.224E-01    0.78       1.0  T
  34   -209.5924732 -0.727924E-03  0.156E-01    0.75       1.0  T
  35   -209.5931750 -0.701883E-03  0.131E-01    0.72       1.0  T
  36   -209.5937122 -0.537111E-03  0.994E-02    0.70       1.0  T
  37   -209.5941769 -0.464766E-03  0.775E-02    0.68       1.0  T
  38   -209.5944311 -0.254203E-03  0.627E-02    0.64       1.0  T
  39   -209.5945920 -0.160850E-03  0.514E-02    0.55       1.0  T
  40   -209.5947054 -0.113477E-03  0.452E-02    0.48       1.0  T
  41   -209.5947660 -0.605772E-04  0.405E-02    0.44       1.0  T
  42   -209.5948822 -0.116134E-03  0.289E-02    0.36       1.0  T
  43   -209.5949514 -0.692906E-04  0.225E-02    0.31       1.0  T
  44   -209.5950129 -0.614078E-04  0.186E-02    0.27       1.0  T
  45   -209.5950113  0.157429E-05  0.160E-02    0.28       1.0  T
  46   -209.5950452 -0.339557E-04  0.131E-02    0.25       1.0  T
  47   -209.5950484 -0.312381E-05  0.117E-02    0.25       1.0  T
  48   -209.5950505 -0.218201E-05  0.111E-02    0.24       1.0  T
  49   -209.5950506 -0.345946E-07  0.103E-02    0.24       1.0  T
  50   -209.5950525 -0.193793E-05  0.755E-03    0.24       1.3  T
  51   -209.5950532 -0.652315E-06  0.575E-03    0.24       1.8  T
  52   -209.5950534 -0.225907E-06  0.398E-03    0.24       2.6  T
  53   -209.5950538 -0.390973E-06  0.315E-03    0.24       3.2  T
  54   -209.5950539 -0.125816E-06  0.232E-03    0.24       4.4  T
  55   -209.5950540 -0.907092E-07  0.188E-03    0.24       5.4  T
  56   -209.5950541 -0.828660E-07  0.149E-03    0.24       6.8  T
  57   -209.5950541 -0.613089E-07  0.130E-03    0.24       7.8  T
  58   -209.5950542 -0.540109E-07  0.934E-04    0.24      10.9  T
  59   -209.5950542 -0.433538E-07  0.720E-04    0.24      14.1  T

   *** convergence criteria satisfied after 59 iterations ***

         #    Occupation            Energy/Eh            Energy/eV
      -------------------------------------------------------------
         1        2.0000           -1.0628997             -28.9230
       ...           ...                  ...                  ...
       176        2.0000           -0.3589471              -9.7674
       177        2.0000           -0.3547465              -9.6531
       178        2.0000           -0.3529660              -9.6047
       179        2.0000           -0.3482830              -9.4773
       180        2.0000           -0.3410017              -9.2791
       181        2.0000           -0.3274358              -8.9100
       182        1.9812           -0.3130311              -8.5180 (HOMO)
       183        0.0188           -0.3041783              -8.2771 (LUMO)
       184                         -0.2886008              -7.8532
       185                         -0.2879104              -7.8344
       186                         -0.2867871              -7.8039
       187                         -0.2862999              -7.7906
       ...                                ...                  ...
       388                         13.3870133             364.2792
      -------------------------------------------------------------
                  HL-Gap            0.0088528 Eh            0.2409 eV
             Fermi-level           -0.3086047 Eh           -8.3976 eV

 SCC (total)                   0 d,  0 h,  0 min,  2.092 sec
 SCC setup                      ...        0 min,  0.001 sec (  0.048%)
 Dispersion                     ...        0 min,  0.002 sec (  0.096%)
 classical contributions        ...        0 min,  0.001 sec (  0.048%)
 integral evaluation            ...        0 min,  0.021 sec (  1.004%)
 iterations                     ...        0 min,  2.000 sec ( 95.602%)
 molecular gradient             ...        0 min,  0.064 sec (  3.059%)
 printout                       ...        0 min,  0.003 sec (  0.143%)

         :::::::::::::::::::::::::::::::::::::::::::::::::::::
         ::                     SUMMARY                     ::
         :::::::::::::::::::::::::::::::::::::::::::::::::::::
         :: total energy            -207.541214361148 Eh    ::
         :: gradient norm              0.122668874159 Eh/a0 ::
         :: HOMO-LUMO gap              0.240896483662 eV    ::
         ::.................................................::
         :: SCC energy              -209.593057167190 Eh    ::
         :: -> isotropic ES            1.045289094497 Eh    ::
         :: -> anisotropic ES         -0.379809193212 Eh    ::
         :: -> anisotropic XC         -0.019399982287 Eh    ::
         :: -> dispersion             -0.165981162300 Eh    ::
         :: repulsion energy           2.051842806042 Eh    ::
         :: add. restraining           0.000000000000 Eh    ::
         :: total charge              -0.000000000008 e     ::
         :::::::::::::::::::::::::::::::::::::::::::::::::::::

      ----------------------------------------------------------- 
     |                   =====================                   |
     |                        A N C O P T                        |
     |                   =====================                   |
     |               Approximate Normal Coordinate               |
     |                Rational Function Optimizer                |
      ----------------------------------------------------------- 
      ----------------------------------------------------------- 
     |                   =====================                   |
     |                        A N C O P T                        |
     |                   =====================                   |
     |               Approximate Normal Coordinate               |
     |                Rational Function Optimizer                |
      ----------------------------------------------------------- 

          ...................................................
          :                      SETUP                      :
          :.................................................:
          :   optimization level             loose          :
          :   max. optcycles                   400          :
          :   ANC micro-cycles                  20          :
          :   degrees of freedom               285          :
          :.................................................:
          :   RF solver                   davidson          :
          :   write xtbopt.log                true          :
          :   linear?                        false          :
          :   energy convergence         0.5000000E-04 Eh   :
          :   grad. convergence          0.4000000E-02 Eh/α :
          :   maxmium RF displ.          1.0000000          :
          :   Hlow (freq-cutoff)         0.1000000E-01      :
          :   Hmax (freq-cutoff)         5.0000000          :
          :   S6 in model hess.         20.0000000          :
          ...................................................

generating ANC from exact Hessian ...
Using Lindh-Hessian (1995)
 Shifting diagonal of input Hessian by   1.791458888982732E-002
 Lowest  eigenvalues of input Hessian
    0.010000    0.017281    0.017392    0.017426    0.000000    0.017911
    0.000000    0.000000    0.000000    0.000000    0.000000    0.017929
    0.017976    0.017980    0.018024    0.018089    0.018243    0.018269
 Highest eigenvalues
    2.072979    2.153638    2.207797    2.262054    2.416286    3.316099
 

........................................................................
.............................. CYCLE    1 ..............................
........................................................................

 iter      E             dE          RMSdq      gap      omega  full diag
   1   -209.5950543 -0.209595E+03  0.651E-04    0.24       0.0  T
   2   -209.5950542  0.340746E-07  0.103E-03    0.24       9.9  T
   3   -209.5950543 -0.685660E-07  0.476E-04    0.24      21.4  T
   4   -209.5950543  0.660441E-08  0.450E-04    0.24      22.6  T
     SCC iter.                  ...        0 min,  0.150 sec
     gradient                   ...        0 min,  0.057 sec
 * total energy  :  -207.5412144 Eh     change       -0.5024233E-07 Eh
   gradient norm :     0.1226566 Eh/α   predicted     0.0000000E+00 (-100.00%)
   displ. norm   :     0.3147901 α      lambda       -0.2227236E-01
   maximum displ.:     0.0947393 α      in ANC's #65, #162, #112, ...

........................................................................
.............................. CYCLE    2 ..............................
........................................................................

 iter      E             dE          RMSdq      gap      omega  full diag
   1   -209.6589976 -0.209659E+03  0.180E-01    0.37       0.0  T
   2   -209.6591085 -0.110949E-03  0.113E-01    0.30       1.0  T
   3   -209.6586492  0.459352E-03  0.104E-01    0.35       1.0  T
   4   -209.6591068 -0.457587E-03  0.396E-02    0.29       1.0  T
   5   -209.6591681 -0.612889E-04  0.258E-02    0.30       1.0  T
   6   -209.6591980 -0.299044E-04  0.123E-02    0.30       1.0  T
   7   -209.6592053 -0.738949E-05  0.527E-03    0.30       1.9  T
   8   -209.6592065 -0.115464E-05  0.347E-03    0.30       2.9  T
   9   -209.6592068 -0.257939E-06  0.243E-03    0.30       4.2  T
  10   -209.6592069 -0.136813E-06  0.171E-03    0.30       5.9  T
  11   -209.6592070 -0.639890E-07  0.131E-03    0.30       7.7  T
  12   -209.6592070 -0.778664E-07  0.714E-04    0.30      14.2  T
  13   -209.6592071 -0.181133E-07  0.448E-04    0.30      22.6  T
     SCC iter.                  ...        0 min,  0.590 sec
     gradient                   ...        0 min,  0.073 sec
 * total energy  :  -207.5572982 Eh     change       -0.1608376E-01 Eh
   gradient norm :     0.0537833 Eh/α   predicted    -0.1224808E-01 ( -23.85%)
   displ. norm   :     0.3353298 α      lambda       -0.9723437E-02
   maximum displ.:     0.1389946 α      in ANC's #65, #78, #112, ...

........................................................................
.............................. CYCLE    3 ..............................
........................................................................

 iter      E             dE          RMSdq      gap      omega  full diag
   1   -209.6957424 -0.209696E+03  0.170E-01    0.40       0.0  T
   2   -209.6958146 -0.722005E-04  0.101E-01    0.37       1.0  T
   3   -209.6952355  0.579084E-03  0.108E-01    0.41       1.0  T
   4   -209.6957762 -0.540623E-03  0.469E-02    0.37       1.0  T
   5   -209.6958942 -0.118017E-03  0.178E-02    0.37       1.0  T
   6   -209.6959078 -0.135847E-04  0.991E-03    0.38       1.0  T
   7   -209.6959124 -0.465403E-05  0.455E-03    0.38       2.2  T
   8   -209.6959129 -0.498254E-06  0.319E-03    0.38       3.2  T
   9   -209.6959132 -0.322894E-06  0.219E-03    0.38       4.6  T
  10   -209.6959133 -0.848877E-07  0.163E-03    0.38       6.2  T
  11   -209.6959134 -0.655747E-07  0.120E-03    0.38       8.5  T
  12   -209.6959135 -0.723784E-07  0.605E-04    0.38      16.8  T
  13   -209.6959135 -0.896145E-08  0.429E-04    0.38      23.7  T
     SCC iter.                  ...        0 min,  0.517 sec
     gradient                   ...        0 min,  0.056 sec
 * total energy  :  -207.5632171 Eh     change       -0.5918977E-02 Eh
   gradient norm :     0.0196113 Eh/α   predicted    -0.5409772E-02 (  -8.60%)
   displ. norm   :     0.2468623 α      lambda       -0.2105381E-02
   maximum displ.:     0.1094406 α      in ANC's #65, #52, #54, ...

........................................................................
.............................. CYCLE    4 ..............................
........................................................................

 iter      E             dE          RMSdq      gap      omega  full diag
   1   -209.6975004 -0.209698E+03  0.142E-01    0.35       0.0  T
   2   -209.6975441 -0.437620E-04  0.619E-02    0.35       1.0  T
   3   -209.6975245  0.196182E-04  0.376E-02    0.35       1.0  T
   4   -209.6975352 -0.106592E-04  0.246E-02    0.35       1.0  T
   5   -209.6975460 -0.108574E-04  0.174E-02    0.35       1.0  T
   6   -209.6975638 -0.178068E-04  0.710E-03    0.35       1.4  T
   7   -209.6975639 -0.765838E-07  0.676E-03    0.35       1.5  T
   8   -209.6975662 -0.231470E-05  0.272E-03    0.35       3.7  T
   9   -209.6975664 -0.186621E-06  0.170E-03    0.35       6.0  T
  10   -209.6975664  0.865694E-08  0.125E-03    0.35       8.1  T
  11   -209.6975665 -0.466532E-07  0.777E-04    0.35      13.1  T
  12   -209.6975665 -0.128267E-07  0.554E-04    0.35      18.3  T
     SCC iter.                  ...        0 min,  0.339 sec
     gradient                   ...        0 min,  0.071 sec
 * total energy  :  -207.5645792 Eh     change       -0.1362085E-02 Eh
   gradient norm :     0.0182693 Eh/α   predicted    -0.1116854E-02 ( -18.00%)
   displ. norm   :     0.4300190 α      lambda       -0.2508387E-02
   maximum displ.:     0.2019456 α      in ANC's #1, #65, #52, ...

........................................................................
.............................. CYCLE    5 ..............................
........................................................................

 iter      E             dE          RMSdq      gap      omega  full diag
   1   -209.6931864 -0.209693E+03  0.340E-01    0.33       0.0  T
   2   -209.6935328 -0.346365E-03  0.170E-01    0.37       1.0  T
   3   -209.6935900 -0.571876E-04  0.978E-02    0.35       1.0  T
   4   -209.6935497  0.402840E-04  0.717E-02    0.36       1.0  T
   5   -209.6935901 -0.403746E-04  0.610E-02    0.36       1.0  T
   6   -209.6937666 -0.176537E-03  0.267E-02    0.35       1.0  T
   7   -209.6937821 -0.155124E-04  0.174E-02    0.36       1.0  T
   8   -209.6937952 -0.130529E-04  0.779E-03    0.35       1.3  T
   9   -209.6937962 -0.100509E-05  0.519E-03    0.35       2.0  T
  10   -209.6937964 -0.196498E-06  0.383E-03    0.35       2.7  T
  11   -209.6937968 -0.430526E-06  0.231E-03    0.35       4.4  T
  12   -209.6937970 -0.146973E-06  0.138E-03    0.35       7.3  T
  13   -209.6937970 -0.279874E-07  0.100E-03    0.35      10.1  T
  14   -209.6937970 -0.829797E-08  0.709E-04    0.35      14.3  T
  15   -209.6937970 -0.104419E-08  0.546E-04    0.35      18.6  T
     SCC iter.                  ...        0 min,  0.821 sec
     gradient                   ...        0 min,  0.099 sec
 * total energy  :  -207.5643283 Eh     change        0.2508996E-03 Eh
   gradient norm :     0.0277238 Eh/α   predicted    -0.1486111E-02 (-692.31%)
   displ. norm   :     0.2924840 α      lambda       -0.3550316E-02
   maximum displ.:     0.2158992 α      in ANC's #1, #65, #19, ...

........................................................................
.............................. CYCLE    6 ..............................
........................................................................

 iter      E             dE          RMSdq      gap      omega  full diag
   1   -209.6956442 -0.209696E+03  0.338E-01    0.38       0.0  T
   2   -209.6958923 -0.248120E-03  0.167E-01    0.33       1.0  T
   3   -209.6956337  0.258575E-03  0.119E-01    0.39       1.0  T
   4   -209.6956824 -0.487166E-04  0.103E-01    0.35       1.0  T
   5   -209.6962011 -0.518679E-03  0.431E-02    0.36       1.0  T
   6   -209.6962006  0.508151E-06  0.298E-02    0.37       1.0  T
   7   -209.6962299 -0.292921E-04  0.170E-02    0.36       1.0  T
   8   -209.6962385 -0.861042E-05  0.867E-03    0.37       1.2  T
   9   -209.6962400 -0.148153E-05  0.634E-03    0.37       1.6  T
  10   -209.6962413 -0.127649E-05  0.441E-03    0.37       2.3  T
  11   -209.6962416 -0.335451E-06  0.269E-03    0.37       3.8  T
  12   -209.6962418 -0.195910E-06  0.142E-03    0.37       7.1  T
  13   -209.6962418 -0.240146E-07  0.102E-03    0.37      10.0  T
  14   -209.6962418 -0.894204E-09  0.808E-04    0.37      12.6  T
  15   -209.6962418 -0.205295E-07  0.504E-04    0.37      20.1  T
     SCC iter.                  ...        0 min,  0.387 sec
     gradient                   ...        0 min,  0.052 sec
 * total energy  :  -207.5656701 Eh     change       -0.1341796E-02 Eh
   gradient norm :     0.0208855 Eh/α   predicted    -0.1927019E-02 (  43.61%)
   displ. norm   :     0.2081171 α      lambda       -0.2175563E-02
   maximum displ.:     0.0865158 α      in ANC's #23, #43, #21, ...

........................................................................
.............................. CYCLE    7 ..............................
........................................................................

 iter      E             dE          RMSdq      gap      omega  full diag
   1   -209.6978767 -0.209698E+03  0.278E-01    0.32       0.0  T
   2   -209.6978924 -0.156463E-04  0.896E-02    0.35       1.0  T
   3   -209.6974771  0.415209E-03  0.102E-01    0.30       1.0  T
   4   -209.6979249 -0.447708E-03  0.514E-02    0.34       1.0  T
   5   -209.6980194 -0.945446E-04  0.274E-02    0.34       1.0  T
   6   -209.6980267 -0.727821E-05  0.179E-02    0.33       1.0  T
   7   -209.6980429 -0.162410E-04  0.880E-03    0.33       1.2  T
   8   -209.6980457 -0.277658E-05  0.460E-03    0.33       2.2  T
   9   -209.6980460 -0.287197E-06  0.334E-03    0.33       3.0  T
  10   -209.6980463 -0.321187E-06  0.210E-03    0.33       4.8  T
  11   -209.6980464 -0.126281E-06  0.133E-03    0.33       7.6  T
  12   -209.6980464 -0.130566E-07  0.923E-04    0.33      11.0  T
  13   -209.6980465 -0.861723E-08  0.700E-04    0.33      14.5  T
     SCC iter.                  ...        0 min,  0.375 sec
     gradient                   ...        0 min,  0.057 sec
 * total energy  :  -207.5662710 Eh     change       -0.6008843E-03 Eh
   gradient norm :     0.0117530 Eh/α   predicted    -0.1135010E-02 (  88.89%)
   displ. norm   :     0.1867219 α      lambda       -0.9620032E-03
   maximum displ.:     0.0572153 α      in ANC's #65, #52, #19, ...

........................................................................
.............................. CYCLE    8 ..............................
........................................................................

 iter      E             dE          RMSdq      gap      omega  full diag
   1   -209.6984808 -0.209698E+03  0.139E-01    0.33       0.0  T
   2   -209.6984692  0.116142E-04  0.536E-02    0.31       1.0  T
   3   -209.6983779  0.913433E-04  0.602E-02    0.35       1.0  T
   4   -209.6985153 -0.137429E-03  0.254E-02    0.32       1.0  T
   5   -209.6985199 -0.461667E-05  0.189E-02    0.33       1.0  T
   6   -209.6985212 -0.129171E-05  0.140E-02    0.33       1.0  T
   7   -209.6985328 -0.116067E-04  0.519E-03    0.33       2.0  T
   8   -209.6985333 -0.468872E-06  0.322E-03    0.33       3.2  T
   9   -209.6985336 -0.346927E-06  0.194E-03    0.33       5.2  T
  10   -209.6985336  0.466710E-07  0.172E-03    0.33       5.9  T
  11   -209.6985337 -0.136612E-06  0.888E-04    0.33      11.4  T
  12   -209.6985337 -0.106307E-07  0.641E-04    0.33      15.8  T
     SCC iter.                  ...        0 min,  0.308 sec
     gradient                   ...        0 min,  0.055 sec
 * total energy  :  -207.5668803 Eh     change       -0.6092606E-03 Eh
   gradient norm :     0.0066055 Eh/α   predicted    -0.4977764E-03 ( -18.30%)
   displ. norm   :     0.3322463 α      lambda       -0.8625046E-03
   maximum displ.:     0.1058158 α      in ANC's #7, #19, #52, ...

........................................................................
.............................. CYCLE    9 ..............................
........................................................................

 iter      E             dE          RMSdq      gap      omega  full diag
   1   -209.6986532 -0.209699E+03  0.161E-01    0.31       0.0  T
   2   -209.6986978 -0.445754E-04  0.667E-02    0.33       1.0  T
   3   -209.6986923  0.549347E-05  0.412E-02    0.32       1.0  T
   4   -209.6987015 -0.923223E-05  0.296E-02    0.33       1.0  T
   5   -209.6987041 -0.251176E-05  0.252E-02    0.32       1.0  T
   6   -209.6987335 -0.294711E-04  0.903E-03    0.33       1.1  T
   7   -209.6987353 -0.178073E-05  0.663E-03    0.33       1.5  T
   8   -209.6987371 -0.182608E-05  0.375E-03    0.32       2.7  T
   9   -209.6987375 -0.407413E-06  0.235E-03    0.33       4.3  T
  10   -209.6987376 -0.339776E-07  0.142E-03    0.33       7.1  T
  11   -209.6987376 -0.305012E-07  0.978E-04    0.33      10.4  T
  12   -209.6987376 -0.266703E-07  0.670E-04    0.33      15.1  T
     SCC iter.                  ...        0 min,  0.287 sec
     gradient                   ...        0 min,  0.056 sec
 * total energy  :  -207.5672413 Eh     change       -0.3610433E-03 Eh
   gradient norm :     0.0097618 Eh/α   predicted    -0.4788591E-03 (  32.63%)
   displ. norm   :     0.2914861 α      lambda       -0.7089396E-03
   maximum displ.:     0.1087500 α      in ANC's #39, #7, #19, ...

........................................................................
.............................. CYCLE   10 ..............................
........................................................................

 iter      E             dE          RMSdq      gap      omega  full diag
   1   -209.7006570 -0.209701E+03  0.103E-01    0.31       0.0  T
   2   -209.7006562  0.816173E-06  0.504E-02    0.31       1.0  T
   3   -209.7005466  0.109592E-03  0.526E-02    0.32       1.0  T
   4   -209.7006601 -0.113464E-03  0.297E-02    0.31       1.0  T
   5   -209.7007032 -0.431037E-04  0.138E-02    0.31       1.0  T
   6   -209.7007103 -0.713621E-05  0.618E-03    0.31       1.6  T
   7   -209.7007110 -0.639539E-06  0.428E-03    0.31       2.4  T
   8   -209.7007115 -0.487249E-06  0.294E-03    0.31       3.5  T
   9   -209.7007118 -0.334154E-06  0.173E-03    0.31       5.9  T
  10   -209.7007118 -0.348920E-07  0.102E-03    0.31       9.9  T
  11   -209.7007118  0.400115E-08  0.785E-04    0.31      12.9  T
  12   -209.7007119 -0.195649E-07  0.566E-04    0.31      17.9  T
     SCC iter.                  ...        0 min,  0.308 sec
     gradient                   ...        0 min,  0.054 sec
 * total energy  :  -207.5677842 Eh     change       -0.5428834E-03 Eh
   gradient norm :     0.0076629 Eh/α   predicted    -0.3845948E-03 ( -29.16%)
   displ. norm   :     0.4426613 α      lambda       -0.8450003E-03
   maximum displ.:     0.1758438 α      in ANC's #7, #39, #19, ...

........................................................................
.............................. CYCLE   11 ..............................
........................................................................

 iter      E             dE          RMSdq      gap      omega  full diag
   1   -209.7024727 -0.209702E+03  0.127E-01    0.29       0.0  T
   2   -209.7024722  0.480934E-06  0.674E-02    0.28       1.0  T
   3   -209.7023661  0.106101E-03  0.655E-02    0.31       1.0  T
   4   -209.7025648 -0.198672E-03  0.274E-02    0.28       1.0  T
   5   -209.7025800 -0.152182E-04  0.165E-02    0.29       1.0  T
   6   -209.7025938 -0.137981E-04  0.723E-03    0.29       1.4  T
   7   -209.7025941 -0.281689E-06  0.581E-03    0.29       1.7  T
   8   -209.7025951 -0.970826E-06  0.441E-03    0.29       2.3  T
   9   -209.7025958 -0.697109E-06  0.246E-03    0.29       4.1  T
  10   -209.7025957  0.311662E-07  0.196E-03    0.29       5.2  T
  11   -209.7025959 -0.136552E-06  0.122E-03    0.29       8.3  T
  12   -209.7025959 -0.311086E-07  0.849E-04    0.29      12.0  T
  13   -209.7025959 -0.311852E-08  0.670E-04    0.29      15.1  T
     SCC iter.                  ...        0 min,  0.570 sec
     gradient                   ...        0 min,  0.074 sec
 * total energy  :  -207.5683349 Eh     change       -0.5506730E-03 Eh
   gradient norm :     0.0102718 Eh/α   predicted    -0.5052947E-03 (  -8.24%)
   displ. norm   :     0.4695312 α      lambda       -0.7089444E-03
   maximum displ.:     0.1978334 α      in ANC's #7, #39, #19, ...

........................................................................
.............................. CYCLE   12 ..............................
........................................................................

 iter      E             dE          RMSdq      gap      omega  full diag
   1   -209.7028232 -0.209703E+03  0.122E-01    0.25       0.0  T
   2   -209.7027806  0.425754E-04  0.664E-02    0.31       1.0  T
   3   -209.7026262  0.154437E-03  0.739E-02    0.24       1.0  T
   4   -209.7028859 -0.259732E-03  0.297E-02    0.29       1.0  T
   5   -209.7029178 -0.319597E-04  0.159E-02    0.28       1.0  T
   6   -209.7029209 -0.308048E-05  0.110E-02    0.27       1.0  T
   7   -209.7029284 -0.746852E-05  0.508E-03    0.27       2.0  T
   8   -209.7029297 -0.130581E-05  0.295E-03    0.27       3.4  T
   9   -209.7029297 -0.365739E-07  0.251E-03    0.28       4.0  T
  10   -209.7029299 -0.153523E-06  0.164E-03    0.27       6.2  T
  11   -209.7029299 -0.548255E-07  0.119E-03    0.27       8.5  T
  12   -209.7029300 -0.310314E-07  0.667E-04    0.27      15.2  T
  13   -209.7029300 -0.746965E-08  0.490E-04    0.27      20.7  T
     SCC iter.                  ...        0 min,  0.705 sec
     gradient                   ...        0 min,  0.061 sec
 * total energy  :  -207.5688797 Eh     change       -0.5448149E-03 Eh
   gradient norm :     0.0112609 Eh/α   predicted    -0.4326228E-03 ( -20.59%)
   displ. norm   :     0.5516044 α      lambda       -0.9150974E-03
   maximum displ.:     0.2462039 α      in ANC's #7, #39, #19, ...

........................................................................
.............................. CYCLE   13 ..............................
........................................................................

 iter      E             dE          RMSdq      gap      omega  full diag
   1   -209.7040778 -0.209704E+03  0.123E-01    0.25       0.0  T
   2   -209.7041000 -0.222536E-04  0.638E-02    0.29       1.0  T
   3   -209.7039705  0.129584E-03  0.557E-02    0.24       1.0  T
   4   -209.7040738 -0.103374E-03  0.400E-02    0.28       1.0  T
   5   -209.7041460 -0.722126E-04  0.166E-02    0.27       1.0  T
   6   -209.7041537 -0.767014E-05  0.102E-02    0.26       1.0  T
   7   -209.7041592 -0.547400E-05  0.480E-03    0.27       2.1  T
   8   -209.7041600 -0.846262E-06  0.299E-03    0.27       3.4  T
   9   -209.7041602 -0.189874E-06  0.212E-03    0.27       4.8  T
  10   -209.7041603 -0.266650E-07  0.161E-03    0.27       6.3  T
  11   -209.7041603 -0.943551E-07  0.103E-03    0.27       9.8  T
  12   -209.7041604 -0.201652E-07  0.712E-04    0.27      14.3  T
  13   -209.7041604  0.140042E-08  0.587E-04    0.27      17.3  T
     SCC iter.                  ...        0 min,  0.406 sec
     gradient                   ...        0 min,  0.056 sec
 * total energy  :  -207.5696162 Eh     change       -0.7365545E-03 Eh
   gradient norm :     0.0120808 Eh/α   predicted    -0.5967718E-03 ( -18.98%)
   displ. norm   :     0.6117665 α      lambda       -0.1161326E-02
   maximum displ.:     0.2800962 α      in ANC's #7, #39, #8, ...

........................................................................
.............................. CYCLE   14 ..............................
........................................................................

 iter      E             dE          RMSdq      gap      omega  full diag
   1   -209.7044029 -0.209704E+03  0.129E-01    0.26       0.0  T
   2   -209.7044204 -0.175100E-04  0.672E-02    0.28       1.0  T
   3   -209.7040832  0.337241E-03  0.742E-02    0.24       1.0  T
   4   -209.7044027 -0.319455E-03  0.346E-02    0.27       1.0  T
   5   -209.7044548 -0.521467E-04  0.141E-02    0.27       1.0  T
   6   -209.7044644 -0.962486E-05  0.611E-03    0.26       1.7  T
   7   -209.7044657 -0.125972E-05  0.429E-03    0.26       2.4  T
   8   -209.7044660 -0.329581E-06  0.323E-03    0.26       3.1  T
   9   -209.7044663 -0.268771E-06  0.217E-03    0.26       4.7  T
  10   -209.7044664 -0.690832E-07  0.152E-03    0.26       6.7  T
  11   -209.7044664 -0.302323E-07  0.114E-03    0.26       8.9  T
  12   -209.7044664 -0.486869E-07  0.670E-04    0.26      15.1  T
  13   -209.7044664 -0.173716E-08  0.525E-04    0.26      19.3  T
     SCC iter.                  ...        0 min,  0.378 sec
     gradient                   ...        0 min,  0.050 sec
 * total energy  :  -207.5705647 Eh     change       -0.9484867E-03 Eh
   gradient norm :     0.0124616 Eh/α   predicted    -0.7979849E-03 ( -15.87%)
   displ. norm   :     0.6536269 α      lambda       -0.1212748E-02
   maximum displ.:     0.2997667 α      in ANC's #7, #39, #8, ...

........................................................................
.............................. CYCLE   15 ..............................
........................................................................

 iter      E             dE          RMSdq      gap      omega  full diag
   1   -209.7027576 -0.209703E+03  0.148E-01    0.27       0.0  T
   2   -209.7027868 -0.292029E-04  0.712E-02    0.27       1.0  T
   3   -209.7026791  0.107664E-03  0.554E-02    0.28       1.0  T
   4   -209.7027395 -0.603614E-04  0.371E-02    0.25       1.0  T
   5   -209.7027905 -0.510516E-04  0.208E-02    0.27       1.0  T
   6   -209.7028097 -0.191935E-04  0.101E-02    0.27       1.0  T
   7   -209.7028167 -0.698430E-05  0.387E-03    0.26       2.6  T
   8   -209.7028170 -0.339597E-06  0.283E-03    0.26       3.6  T
   9   -209.7028172 -0.129884E-06  0.214E-03    0.26       4.7  T
  10   -209.7028172 -0.661520E-07  0.167E-03    0.27       6.1  T
  11   -209.7028173 -0.807146E-07  0.108E-03    0.26       9.4  T
  12   -209.7028173 -0.276882E-07  0.675E-04    0.26      15.0  T
  13   -209.7028173 -0.779050E-08  0.508E-04    0.26      20.0  T
     SCC iter.                  ...        0 min,  0.360 sec
     gradient                   ...        0 min,  0.065 sec
 * total energy  :  -207.5715613 Eh     change       -0.9965551E-03 Eh
   gradient norm :     0.0134146 Eh/α   predicted    -0.8654385E-03 ( -13.16%)
   displ. norm   :     0.6513708 α      lambda       -0.1188556E-02
   maximum displ.:     0.3018517 α      in ANC's #7, #8, #39, ...

........................................................................
.............................. CYCLE   16 ..............................
........................................................................

 iter      E             dE          RMSdq      gap      omega  full diag
   1   -209.7010118 -0.209701E+03  0.143E-01    0.28       0.0  T
   2   -209.7010199 -0.811870E-05  0.742E-02    0.26       1.0  T
   3   -209.7007807  0.239229E-03  0.777E-02    0.31       1.0  T
   4   -209.7010418 -0.261072E-03  0.304E-02    0.26       1.0  T
   5   -209.7010556 -0.137912E-04  0.202E-02    0.27       1.0  T
   6   -209.7010692 -0.135882E-04  0.121E-02    0.27       1.0  T
   7   -209.7010785 -0.934076E-05  0.433E-03    0.27       2.3  T
   8   -209.7010789 -0.368823E-06  0.306E-03    0.27       3.3  T
   9   -209.7010789 -0.710284E-07  0.264E-03    0.27       3.8  T
  10   -209.7010791 -0.173482E-06  0.176E-03    0.27       5.8  T
  11   -209.7010792 -0.106308E-06  0.950E-04    0.27      10.7  T
  12   -209.7010792 -0.113478E-07  0.702E-04    0.27      14.5  T
     SCC iter.                  ...        0 min,  0.432 sec
     gradient                   ...        0 min,  0.067 sec
 * total energy  :  -207.5725166 Eh     change       -0.9552764E-03 Eh
   gradient norm :     0.0116599 Eh/α   predicted    -0.8464258E-03 ( -11.39%)
   displ. norm   :     0.6637783 α      lambda       -0.1087605E-02
   maximum displ.:     0.3146881 α      in ANC's #7, #8, #39, ...

........................................................................
.............................. CYCLE   17 ..............................
........................................................................

 iter      E             dE          RMSdq      gap      omega  full diag
   1   -209.6998655 -0.209700E+03  0.152E-01    0.28       0.0  T
   2   -209.6998815 -0.159448E-04  0.748E-02    0.27       1.0  T
   3   -209.6996092  0.272289E-03  0.742E-02    0.29       1.0  T
   4   -209.6998390 -0.229838E-03  0.383E-02    0.26       1.0  T
   5   -209.6999095 -0.705188E-04  0.156E-02    0.27       1.0  T
   6   -209.6999196 -0.100640E-04  0.723E-03    0.27       1.4  T
   7   -209.6999221 -0.256318E-05  0.406E-03    0.27       2.5  T
   8   -209.6999226 -0.470120E-06  0.276E-03    0.27       3.7  T
   9   -209.6999228 -0.152757E-06  0.196E-03    0.27       5.2  T
  10   -209.6999228 -0.580063E-07  0.138E-03    0.27       7.3  T
  11   -209.6999228 -0.773585E-08  0.103E-03    0.27       9.8  T
  12   -209.6999229 -0.467381E-07  0.630E-04    0.27      16.1  T
  13   -209.6999229 -0.466969E-08  0.492E-04    0.27      20.6  T
     SCC iter.                  ...        0 min,  0.385 sec
     gradient                   ...        0 min,  0.047 sec
 * total energy  :  -207.5733969 Eh     change       -0.8803441E-03 Eh
   gradient norm :     0.0112314 Eh/α   predicted    -0.7834099E-03 ( -11.01%)
   displ. norm   :     0.5637252 α      lambda       -0.1133432E-02
   maximum displ.:     0.2657878 α      in ANC's #7, #16, #8, ...

........................................................................
.............................. CYCLE   18 ..............................
........................................................................

 iter      E             dE          RMSdq      gap      omega  full diag
   1   -209.7097343 -0.209710E+03  0.143E-01    0.31       0.0  T
   2   -209.7096398  0.945687E-04  0.803E-02    0.27       1.0  T
   3   -209.7089947  0.645117E-03  0.116E-01    0.31       1.0  T
   4   -209.7097958 -0.801147E-03  0.255E-02    0.28       1.0  T
   5   -209.7098021 -0.627023E-05  0.155E-02    0.28       1.0  T
   6   -209.7098110 -0.893684E-05  0.933E-03    0.28       1.1  T
   7   -209.7098157 -0.466901E-05  0.418E-03    0.28       2.4  T
   8   -209.7098162 -0.477953E-06  0.250E-03    0.28       4.1  T
   9   -209.7098162 -0.369282E-07  0.209E-03    0.28       4.9  T
  10   -209.7098162 -0.355905E-07  0.144E-03    0.28       7.1  T
  11   -209.7098163 -0.690908E-07  0.863E-04    0.28      11.8  T
  12   -209.7098163 -0.282756E-07  0.474E-04    0.28      21.4  T
     SCC iter.                  ...        0 min,  0.321 sec
     gradient                   ...        0 min,  0.069 sec
 * total energy  :  -207.5740492 Eh     change       -0.6523235E-03 Eh
   gradient norm :     0.0152270 Eh/α   predicted    -0.7468103E-03 (  14.48%)
   displ. norm   :     0.7497212 α      lambda       -0.1490044E-02
   maximum displ.:     0.3450618 α      in ANC's #7, #39, #26, ...

........................................................................
.............................. CYCLE   19 ..............................
........................................................................

 iter      E             dE          RMSdq      gap      omega  full diag
   1   -209.6953979 -0.209695E+03  0.179E-01    0.28       0.0  T
   2   -209.6953681  0.297712E-04  0.908E-02    0.27       1.0  T
   3   -209.6947344  0.633719E-03  0.113E-01    0.29       1.0  T
   4   -209.6954160 -0.681545E-03  0.414E-02    0.27       1.0  T
   5   -209.6954644 -0.484078E-04  0.236E-02    0.27       1.0  T
   6   -209.6955066 -0.422728E-04  0.768E-03    0.27       1.3  T
   7   -209.6955078 -0.118170E-05  0.546E-03    0.27       1.9  T
   8   -209.6955086 -0.783497E-06  0.381E-03    0.27       2.7  T
   9   -209.6955089 -0.290134E-06  0.262E-03    0.27       3.9  T
  10   -209.6955090 -0.968350E-07  0.179E-03    0.27       5.7  T
  11   -209.6955091 -0.699852E-07  0.119E-03    0.27       8.5  T
  12   -209.6955091 -0.513515E-07  0.714E-04    0.27      14.2  T
  13   -209.6955091 -0.242474E-08  0.530E-04    0.27      19.1  T
     SCC iter.                  ...        0 min,  0.374 sec
     gradient                   ...        0 min,  0.055 sec
 * total energy  :  -207.5746231 Eh     change       -0.5738275E-03 Eh
   gradient norm :     0.0219841 Eh/α   predicted    -0.1163793E-02 ( 102.81%)
   displ. norm   :     0.2167977 α      lambda       -0.9656647E-03
   maximum displ.:     0.1016723 α      in ANC's #7, #16, #9, ...

........................................................................
.............................. CYCLE   20 ..............................
........................................................................

 iter      E             dE          RMSdq      gap      omega  full diag
   1   -209.7025881 -0.209703E+03  0.893E-02    0.27       0.0  T
   2   -209.7025898 -0.176971E-05  0.359E-02    0.28       1.0  T
   3   -209.7024800  0.109788E-03  0.462E-02    0.26       1.0  T
   4   -209.7026008 -0.120709E-03  0.165E-02    0.28       1.0  T
   5   -209.7026041 -0.336292E-05  0.120E-02    0.28       1.0  T
   6   -209.7026071 -0.300260E-05  0.676E-03    0.27       1.5  T
   7   -209.7026093 -0.216452E-05  0.338E-03    0.28       3.0  T
   8   -209.7026094 -0.144520E-06  0.245E-03    0.27       4.1  T
   9   -209.7026097 -0.243450E-06  0.154E-03    0.27       6.6  T
  10   -209.7026097 -0.336487E-07  0.101E-03    0.27      10.1  T
  11   -209.7026097 -0.158663E-07  0.634E-04    0.27      16.0  T
  12   -209.7026097 -0.824622E-08  0.399E-04    0.27      25.4  T
     SCC iter.                  ...        0 min,  0.334 sec
     gradient                   ...        0 min,  0.054 sec
 * total energy  :  -207.5752828 Eh     change       -0.6596995E-03 Eh
   gradient norm :     0.0116511 Eh/α   predicted    -0.5055281E-03 ( -23.37%)
   displ. norm   :     0.4615504 α      lambda       -0.8331639E-03
   maximum displ.:     0.2300889 α      in ANC's #7, #16, #8, ...
 * RMSD in coord.:     0.7027334 α      energy gain  -0.3406839E-01 Eh

generating ANC from exact Hessian ...
Using Lindh-Hessian (1995)
 Shifting diagonal of input Hessian by   1.834908412396095E-002
 Lowest  eigenvalues of input Hessian
    0.010000    0.017706    0.017823    0.017853    0.000000    0.018341
    0.000000    0.000000    0.000000    0.000000    0.000000    0.018364
    0.018415    0.018451    0.018483    0.018552    0.018655    0.018710
 Highest eigenvalues
    2.147089    2.243736    2.262406    2.343883    2.520566    3.351965
 

........................................................................
.............................. CYCLE   21 ..............................
........................................................................

 iter      E             dE          RMSdq      gap      omega  full diag
   1   -209.7079346 -0.209708E+03  0.106E-01    0.28       0.0  T
   2   -209.7078999  0.346763E-04  0.554E-02    0.27       1.0  T
   3   -209.7075273  0.372656E-03  0.811E-02    0.29       1.0  T
   4   -209.7079567 -0.429447E-03  0.193E-02    0.27       1.0  T
   5   -209.7079634 -0.668938E-05  0.107E-02    0.28       1.0  T
   6   -209.7079664 -0.299162E-05  0.587E-03    0.27       1.7  T
   7   -209.7079678 -0.136628E-05  0.331E-03    0.28       3.1  T
   8   -209.7079682 -0.376536E-06  0.206E-03    0.27       4.9  T
   9   -209.7079682 -0.710286E-07  0.150E-03    0.27       6.8  T
  10   -209.7079682 -0.807248E-08  0.117E-03    0.27       8.7  T
  11   -209.7079683 -0.413641E-07  0.686E-04    0.27      14.8  T
  12   -209.7079683 -0.113113E-07  0.422E-04    0.27      24.1  T
     SCC iter.                  ...        0 min,  0.301 sec
     gradient                   ...        0 min,  0.052 sec
 * total energy  :  -207.5759080 Eh     change       -0.6251982E-03 Eh
   gradient norm :     0.0073307 Eh/α   predicted     0.0000000E+00 (-100.00%)
   displ. norm   :     0.0882034 α      lambda       -0.2600169E-03
   maximum displ.:     0.0307399 α      in ANC's #14, #18, #45, ...

........................................................................
.............................. CYCLE   22 ..............................
........................................................................

 iter      E             dE          RMSdq      gap      omega  full diag
   1   -209.7095937 -0.209710E+03  0.594E-02    0.27       0.0  T
   2   -209.7095776  0.161256E-04  0.284E-02    0.26       1.0  T
   3   -209.7095316  0.459893E-04  0.365E-02    0.29       1.0  T
   4   -209.7096050 -0.734019E-04  0.950E-03    0.27       1.1  T
   5   -209.7096031  0.188334E-05  0.928E-03    0.27       1.1  T
   6   -209.7096055 -0.236711E-05  0.499E-03    0.27       2.0  T
   7   -209.7096064 -0.838895E-06  0.290E-03    0.27       3.5  T
   8   -209.7096067 -0.332897E-06  0.164E-03    0.27       6.2  T
   9   -209.7096067 -0.621088E-07  0.121E-03    0.27       8.4  T
  10   -209.7096068 -0.535930E-07  0.682E-04    0.27      14.9  T
  11   -209.7096068 -0.124369E-07  0.403E-04    0.27      25.2  T
     SCC iter.                  ...        0 min,  0.305 sec
     gradient                   ...        0 min,  0.059 sec
 * total energy  :  -207.5760896 Eh     change       -0.1816709E-03 Eh
   gradient norm :     0.0043276 Eh/α   predicted    -0.1338933E-03 ( -26.30%)
   displ. norm   :     0.2468232 α      lambda       -0.5255646E-03
   maximum displ.:     0.0990677 α      in ANC's #14, #18, #45, ...

........................................................................
.............................. CYCLE   23 ..............................
........................................................................

 iter      E             dE          RMSdq      gap      omega  full diag
   1   -209.7130221 -0.209713E+03  0.849E-02    0.25       0.0  T
   2   -209.7130061  0.160057E-04  0.422E-02    0.27       1.0  T
   3   -209.7127939  0.212124E-03  0.611E-02    0.24       1.0  T
   4   -209.7130321 -0.238162E-03  0.188E-02    0.26       1.0  T
   5   -209.7130388 -0.669730E-05  0.104E-02    0.26       1.0  T
   6   -209.7130412 -0.242285E-05  0.625E-03    0.26       1.6  T
   7   -209.7130430 -0.182015E-05  0.335E-03    0.26       3.0  T
   8   -209.7130432 -0.176252E-06  0.231E-03    0.26       4.4  T
   9   -209.7130434 -0.163490E-06  0.149E-03    0.26       6.8  T
  10   -209.7130434 -0.228082E-07  0.114E-03    0.26       8.9  T
  11   -209.7130434 -0.392794E-07  0.754E-04    0.26      13.5  T
  12   -209.7130435 -0.195874E-07  0.462E-04    0.26      22.0  T
     SCC iter.                  ...        0 min,  0.350 sec
     gradient                   ...        0 min,  0.053 sec
 * total energy  :  -207.5763292 Eh     change       -0.2395305E-03 Eh
   gradient norm :     0.0082013 Eh/α   predicted    -0.2787951E-03 (  16.39%)
   displ. norm   :     0.2459150 α      lambda       -0.4531622E-03
   maximum displ.:     0.1035896 α      in ANC's #14, #18, #10, ...

........................................................................
.............................. CYCLE   24 ..............................
........................................................................

 iter      E             dE          RMSdq      gap      omega  full diag
   1   -209.7136048 -0.209714E+03  0.139E-01    0.24       0.0  T
   2   -209.7135475  0.573000E-04  0.639E-02    0.29       1.0  T
   3   -209.7130329  0.514626E-03  0.868E-02    0.20       1.0  T
   4   -209.7136075 -0.574572E-03  0.335E-02    0.28       1.0  T
   5   -209.7136559 -0.483906E-04  0.213E-02    0.26       1.0  T
   6   -209.7136543  0.156759E-05  0.158E-02    0.24       1.0  T
   7   -209.7136668 -0.125499E-04  0.895E-03    0.25       1.1  T
   8   -209.7136716 -0.473073E-05  0.441E-03    0.25       2.3  T
   9   -209.7136718 -0.267914E-06  0.358E-03    0.25       2.8  T
  10   -209.7136724 -0.593518E-06  0.184E-03    0.25       5.5  T
  11   -209.7136725 -0.639343E-07  0.129E-03    0.25       7.9  T
  12   -209.7136725 -0.110019E-07  0.891E-04    0.25      11.4  T
  13   -209.7136725 -0.282953E-07  0.566E-04    0.25      17.9  T
     SCC iter.                  ...        0 min,  0.333 sec
     gradient                   ...        0 min,  0.056 sec
 * total energy  :  -207.5764172 Eh     change       -0.8807411E-04 Eh
   gradient norm :     0.0117291 Eh/α   predicted    -0.2402849E-03 ( 172.82%)
   displ. norm   :     0.3003839 α      lambda       -0.8346533E-03
   maximum displ.:     0.1287831 α      in ANC's #14, #1, #18, ...

........................................................................
.............................. CYCLE   25 ..............................
........................................................................

 iter      E             dE          RMSdq      gap      omega  full diag
   1   -209.7118482 -0.209712E+03  0.206E-01    0.25       0.0  T
   2   -209.7120006 -0.152426E-03  0.117E-01    0.23       1.0  T
   3   -209.7120519 -0.512840E-04  0.574E-02    0.27       1.0  T
   4   -209.7119141  0.137769E-03  0.599E-02    0.22       1.0  T
   5   -209.7121341 -0.220022E-03  0.270E-02    0.26       1.0  T
   6   -209.7121513 -0.171691E-04  0.156E-02    0.25       1.0  T
   7   -209.7121567 -0.538845E-05  0.107E-02    0.25       1.0  T
   8   -209.7121618 -0.510847E-05  0.463E-03    0.25       2.2  T
   9   -209.7121617  0.151666E-06  0.401E-03    0.25       2.5  T
  10   -209.7121622 -0.524521E-06  0.271E-03    0.25       3.8  T
  11   -209.7121624 -0.163886E-06  0.181E-03    0.25       5.6  T
  12   -209.7121624 -0.927203E-07  0.110E-03    0.25       9.2  T
  13   -209.7121625 -0.357222E-07  0.672E-04    0.25      15.1  T
  14   -209.7121625 -0.145845E-07  0.411E-04    0.25      24.7  T
     SCC iter.                  ...        0 min,  0.420 sec
     gradient                   ...        0 min,  0.054 sec
 * total energy  :  -207.5760643 Eh     change        0.3529738E-03 Eh
   gradient norm :     0.0253466 Eh/α   predicted    -0.4549831E-03 (-228.90%)
   displ. norm   :     0.1463160 α      lambda       -0.2398773E-02
   maximum displ.:     0.0899837 α      in ANC's #31, #38, #14, ...

........................................................................
.............................. CYCLE   26 ..............................
........................................................................

 iter      E             dE          RMSdq      gap      omega  full diag
   1   -209.7103601 -0.209710E+03  0.173E-01    0.26       0.0  T
   2   -209.7102796  0.804500E-04  0.934E-02    0.22       1.0  T
   3   -209.7101458  0.133792E-03  0.822E-02    0.30       1.0  T
   4   -209.7104426 -0.296785E-03  0.414E-02    0.23       1.0  T
   5   -209.7105285 -0.859457E-04  0.201E-02    0.25       1.0  T
   6   -209.7105200  0.859465E-05  0.176E-02    0.24       1.0  T
   7   -209.7105351 -0.151934E-04  0.887E-03    0.24       1.1  T
   8   -209.7105368 -0.167755E-05  0.602E-03    0.25       1.7  T
   9   -209.7105389 -0.204782E-05  0.362E-03    0.25       2.8  T
  10   -209.7105394 -0.503253E-06  0.188E-03    0.25       5.4  T
  11   -209.7105395 -0.885580E-07  0.133E-03    0.25       7.6  T
  12   -209.7105395  0.143210E-07  0.995E-04    0.25      10.2  T
  13   -209.7105395 -0.496257E-07  0.556E-04    0.25      18.3  T
     SCC iter.                  ...        0 min,  0.336 sec
     gradient                   ...        0 min,  0.054 sec
 * total energy  :  -207.5768585 Eh     change       -0.7942863E-03 Eh
   gradient norm :     0.0080068 Eh/α   predicted    -0.1225064E-02 (  54.23%)
   displ. norm   :     0.1860781 α      lambda       -0.6448316E-03
   maximum displ.:     0.0804824 α      in ANC's #14, #1, #18, ...

........................................................................
.............................. CYCLE   27 ..............................
........................................................................

 iter      E             dE          RMSdq      gap      omega  full diag
   1   -209.7103304 -0.209710E+03  0.182E-01    0.21       0.0  T
   2   -209.7100049  0.325536E-03  0.964E-02    0.31       1.0  T
   3   -209.7082387  0.176618E-02  0.141E-01    0.16       1.0  T
   4   -209.7102749 -0.203621E-02  0.499E-02    0.31       1.0  T
   5   -209.7104912 -0.216312E-03  0.236E-02    0.27       1.0  T
   6   -209.7105239 -0.326183E-04  0.168E-02    0.24       1.0  T
   7   -209.7105091  0.147449E-04  0.163E-02    0.23       1.0  T
   8   -209.7105259 -0.167920E-04  0.770E-03    0.23       1.3  T
   9   -209.7105286 -0.269428E-05  0.607E-03    0.23       1.7  T
  10   -209.7105298 -0.121163E-05  0.318E-03    0.24       3.2  T
  11   -209.7105298  0.443427E-07  0.244E-03    0.24       4.2  T
  12   -209.7105301 -0.332226E-06  0.138E-03    0.24       7.4  T
  13   -209.7105301 -0.187698E-07  0.103E-03    0.24       9.9  T
  14   -209.7105302 -0.351239E-07  0.590E-04    0.24      17.2  T
  15   -209.7105302 -0.136689E-07  0.337E-04    0.24      30.1  T
     SCC iter.                  ...        0 min,  0.515 sec
     gradient                   ...        0 min,  0.057 sec
 * total energy  :  -207.5770282 Eh     change       -0.1696237E-03 Eh
   gradient norm :     0.0072492 Eh/α   predicted    -0.3335790E-03 (  96.66%)
   displ. norm   :     0.2354937 α      lambda       -0.4199519E-03
   maximum displ.:     0.1207872 α      in ANC's #14, #18, #10, ...

........................................................................
.............................. CYCLE   28 ..............................
........................................................................

 iter      E             dE          RMSdq      gap      omega  full diag
   1   -209.7113557 -0.209711E+03  0.108E-01    0.24       0.0  T
   2   -209.7113526  0.304117E-05  0.371E-02    0.23       1.0  T
   3   -209.7112576  0.950066E-04  0.406E-02    0.27       1.0  T
   4   -209.7113478 -0.902031E-04  0.221E-02    0.23       1.0  T
   5   -209.7113707 -0.228552E-04  0.107E-02    0.24       1.0  T
   6   -209.7113714 -0.704707E-06  0.760E-03    0.24       1.3  T
   7   -209.7113742 -0.277518E-05  0.340E-03    0.24       3.0  T
   8   -209.7113744 -0.260896E-06  0.262E-03    0.24       3.9  T
   9   -209.7113747 -0.276918E-06  0.178E-03    0.24       5.7  T
  10   -209.7113748 -0.623068E-07  0.120E-03    0.24       8.5  T
  11   -209.7113748 -0.322835E-07  0.765E-04    0.24      13.3  T
  12   -209.7113748 -0.221523E-07  0.422E-04    0.24      24.0  T
     SCC iter.                  ...        0 min,  0.304 sec
     gradient                   ...        0 min,  0.057 sec
 * total energy  :  -207.5773173 Eh     change       -0.2891440E-03 Eh
   gradient norm :     0.0055642 Eh/α   predicted    -0.2216221E-03 ( -23.35%)
   displ. norm   :     0.3833057 α      lambda       -0.4546797E-03
   maximum displ.:     0.2103267 α      in ANC's #14, #18, #10, ...

........................................................................
.............................. CYCLE   29 ..............................
........................................................................

 iter      E             dE          RMSdq      gap      omega  full diag
   1   -209.7108241 -0.209711E+03  0.104E-01    0.24       0.0  T
   2   -209.7107977  0.263857E-04  0.532E-02    0.22       1.0  T
   3   -209.7105606  0.237077E-03  0.649E-02    0.28       1.0  T
   4   -209.7108171 -0.256451E-03  0.304E-02    0.23       1.0  T
   5   -209.7108526 -0.355094E-04  0.137E-02    0.23       1.0  T
   6   -209.7108498  0.274008E-05  0.118E-02    0.24       1.0  T
   7   -209.7108573 -0.743157E-05  0.482E-03    0.23       2.1  T
   8   -209.7108582 -0.888014E-06  0.312E-03    0.23       3.3  T
   9   -209.7108584 -0.278140E-06  0.230E-03    0.23       4.4  T
  10   -209.7108585 -0.276889E-07  0.168E-03    0.23       6.1  T
  11   -209.7108586 -0.875840E-07  0.115E-03    0.23       8.8  T
  12   -209.7108586 -0.613931E-07  0.558E-04    0.23      18.2  T
  13   -209.7108586 -0.572248E-08  0.394E-04    0.23      25.7  T
     SCC iter.                  ...        0 min,  0.322 sec
     gradient                   ...        0 min,  0.057 sec
 * total energy  :  -207.5776641 Eh     change       -0.3468003E-03 Eh
   gradient norm :     0.0048583 Eh/α   predicted    -0.2607453E-03 ( -24.81%)
   displ. norm   :     0.5598107 α      lambda       -0.5144402E-03
   maximum displ.:     0.3172992 α      in ANC's #14, #10, #18, ...

........................................................................
.............................. CYCLE   30 ..............................
........................................................................

 iter      E             dE          RMSdq      gap      omega  full diag
   1   -209.7095771 -0.209710E+03  0.131E-01    0.23       0.0  T
   2   -209.7095862 -0.911341E-05  0.608E-02    0.23       1.0  T
   3   -209.7095421  0.440826E-04  0.367E-02    0.23       1.0  T
   4   -209.7095206  0.214919E-04  0.341E-02    0.23       1.0  T
   5   -209.7095842 -0.636208E-04  0.143E-02    0.23       1.0  T
   6   -209.7095924 -0.810988E-05  0.777E-03    0.22       1.3  T
   7   -209.7095957 -0.331462E-05  0.473E-03    0.23       2.1  T
   8   -209.7095970 -0.133034E-05  0.297E-03    0.23       3.4  T
   9   -209.7095974 -0.379626E-06  0.200E-03    0.23       5.1  T
  10   -209.7095974  0.449143E-08  0.165E-03    0.23       6.2  T
  11   -209.7095975 -0.105102E-06  0.900E-04    0.23      11.3  T
  12   -209.7095975 -0.181568E-07  0.498E-04    0.23      20.4  T
     SCC iter.                  ...        0 min,  0.301 sec
     gradient                   ...        0 min,  0.057 sec
 * total energy  :  -207.5780896 Eh     change       -0.4255395E-03 Eh
   gradient norm :     0.0064769 Eh/α   predicted    -0.3378315E-03 ( -20.61%)
   displ. norm   :     0.6217666 α      lambda       -0.5898811E-03
   maximum displ.:     0.3606859 α      in ANC's #14, #10, #18, ...

........................................................................
.............................. CYCLE   31 ..............................
........................................................................

 iter      E             dE          RMSdq      gap      omega  full diag
   1   -209.7088481 -0.209709E+03  0.155E-01    0.22       0.0  T
   2   -209.7088406  0.747544E-05  0.686E-02    0.23       1.0  T
   3   -209.7083919  0.448749E-03  0.696E-02    0.18       1.0  T
   4   -209.7086472 -0.255371E-03  0.475E-02    0.27       1.0  T
   5   -209.7088445 -0.197237E-03  0.261E-02    0.22       1.0  T
   6   -209.7088707 -0.262657E-04  0.111E-02    0.22       1.0  T
   7   -209.7088664  0.432506E-05  0.996E-03    0.21       1.0  T
   8   -209.7088761 -0.967216E-05  0.350E-03    0.22       2.9  T
   9   -209.7088768 -0.702688E-06  0.216E-03    0.22       4.7  T
  10   -209.7088768 -0.312671E-07  0.174E-03    0.22       5.8  T
  11   -209.7088768 -0.317137E-07  0.123E-03    0.22       8.3  T
  12   -209.7088769 -0.631726E-07  0.683E-04    0.22      14.9  T
  13   -209.7088769 -0.278646E-08  0.536E-04    0.22      18.9  T
     SCC iter.                  ...        0 min,  0.360 sec
     gradient                   ...        0 min,  0.053 sec
 * total energy  :  -207.5785653 Eh     change       -0.4756042E-03 Eh
   gradient norm :     0.0074871 Eh/α   predicted    -0.4089692E-03 ( -14.01%)
   displ. norm   :     0.6310271 α      lambda       -0.5799515E-03
   maximum displ.:     0.3721079 α      in ANC's #14, #10, #18, ...

........................................................................
.............................. CYCLE   32 ..............................
........................................................................

 iter      E             dE          RMSdq      gap      omega  full diag
   1   -209.7082790 -0.209708E+03  0.157E-01    0.21       0.0  T
   2   -209.7082620  0.170295E-04  0.683E-02    0.23       1.0  T
   3   -209.7075720  0.690059E-03  0.814E-02    0.17       1.0  T
   4   -209.7080787 -0.506707E-03  0.449E-02    0.26       1.0  T
   5   -209.7082441 -0.165483E-03  0.343E-02    0.21       1.0  T
   6   -209.7083017 -0.575125E-04  0.954E-03    0.22       1.1  T
   7   -209.7082974  0.425620E-05  0.998E-03    0.21       1.0  T
   8   -209.7083051 -0.765956E-05  0.413E-03    0.21       2.5  T
   9   -209.7083058 -0.784541E-06  0.250E-03    0.21       4.1  T
  10   -209.7083060 -0.135645E-06  0.187E-03    0.21       5.4  T
  11   -209.7083059  0.376695E-07  0.145E-03    0.21       7.0  T
  12   -209.7083060 -0.905657E-07  0.828E-04    0.21      12.3  T
  13   -209.7083060 -0.159563E-07  0.550E-04    0.21      18.5  T
     SCC iter.                  ...        0 min,  0.317 sec
     gradient                   ...        0 min,  0.053 sec
 * total energy  :  -207.5790372 Eh     change       -0.4719488E-03 Eh
   gradient norm :     0.0074827 Eh/α   predicted    -0.4054483E-03 ( -14.09%)
   displ. norm   :     0.6540556 α      lambda       -0.6237795E-03
   maximum displ.:     0.3887419 α      in ANC's #14, #10, #18, ...

........................................................................
.............................. CYCLE   33 ..............................
........................................................................

 iter      E             dE          RMSdq      gap      omega  full diag
   1   -209.7076163 -0.209708E+03  0.167E-01    0.20       0.0  T
   2   -209.7075705  0.457520E-04  0.733E-02    0.23       1.0  T
   3   -209.7046723  0.289822E-02  0.134E-01    0.14       1.0  T
   4   -209.7073077 -0.263541E-02  0.532E-02    0.27       1.0  T
   5   -209.7075481 -0.240389E-03  0.406E-02    0.23       1.0  T
   6   -209.7076379 -0.897991E-04  0.153E-02    0.22       1.0  T
   7   -209.7076486 -0.107016E-04  0.116E-02    0.21       1.0  T
   8   -209.7076511 -0.253163E-05  0.701E-03    0.21       1.4  T
   9   -209.7076546 -0.344452E-05  0.319E-03    0.21       3.2  T
  10   -209.7076549 -0.311196E-06  0.216E-03    0.21       4.7  T
  11   -209.7076549 -0.586912E-07  0.143E-03    0.21       7.1  T
  12   -209.7076549 -0.794219E-08  0.943E-04    0.21      10.8  T
  13   -209.7076550 -0.250416E-07  0.615E-04    0.21      16.5  T
     SCC iter.                  ...        0 min,  0.317 sec
     gradient                   ...        0 min,  0.054 sec
 * total energy  :  -207.5795727 Eh     change       -0.5354996E-03 Eh
   gradient norm :     0.0070002 Eh/α   predicted    -0.4453160E-03 ( -16.84%)
   displ. norm   :     0.6689023 α      lambda       -0.7448080E-03
   maximum displ.:     0.3962827 α      in ANC's #14, #10, #9, ...

........................................................................
.............................. CYCLE   34 ..............................
........................................................................

 iter      E             dE          RMSdq      gap      omega  full diag
   1   -209.7098809 -0.209710E+03  0.173E-01    0.21       0.0  T
   2   -209.7098651  0.157749E-04  0.733E-02    0.20       1.0  T
   3   -209.7094903  0.374829E-03  0.831E-02    0.21       1.0  T
   4   -209.7098383 -0.348010E-03  0.368E-02    0.19       1.0  T
   5   -209.7098294  0.891060E-05  0.306E-02    0.22       1.0  T
   6   -209.7098373 -0.790825E-05  0.241E-02    0.18       1.0  T
   7   -209.7099196 -0.823020E-04  0.909E-03    0.21       1.1  T
   8   -209.7099274 -0.775268E-05  0.445E-03    0.20       2.3  T
   9   -209.7099278 -0.378349E-06  0.326E-03    0.20       3.1  T
  10   -209.7099281 -0.372809E-06  0.232E-03    0.20       4.4  T
  11   -209.7099282 -0.113114E-06  0.162E-03    0.20       6.3  T
  12   -209.7099282  0.223571E-08  0.104E-03    0.20       9.8  T
  13   -209.7099283 -0.595858E-07  0.687E-04    0.20      14.8  T
  14   -209.7099283 -0.114991E-08  0.546E-04    0.20      18.6  T
     SCC iter.                  ...        0 min,  0.346 sec
     gradient                   ...        0 min,  0.055 sec
 * total energy  :  -207.5802187 Eh     change       -0.6460359E-03 Eh
   gradient norm :     0.0080734 Eh/α   predicted    -0.5390293E-03 ( -16.56%)
   displ. norm   :     0.7574643 α      lambda       -0.8766546E-03
   maximum displ.:     0.4533265 α      in ANC's #14, #10, #9, ...

........................................................................
.............................. CYCLE   35 ..............................
........................................................................

 iter      E             dE          RMSdq      gap      omega  full diag
   1   -209.7039108 -0.209704E+03  0.198E-01    0.19       0.0  T
   2   -209.7037599  0.150872E-03  0.900E-02    0.22       1.0  T
   3   -209.6710437  0.327163E-01  0.414E-01    0.07       1.0  T
   4   -209.7035971 -0.325534E-01  0.650E-02    0.24       1.0  T
   5   -209.7038085 -0.211420E-03  0.484E-02    0.22       1.0  T
   6   -209.7038454 -0.368678E-04  0.315E-02    0.22       1.0  T
   7   -209.7039448 -0.994531E-04  0.205E-02    0.21       1.0  T
   8   -209.7039618 -0.170183E-04  0.120E-02    0.20       1.0  T
   9   -209.7039743 -0.124195E-04  0.727E-03    0.20       1.4  T
  10   -209.7039799 -0.560914E-05  0.423E-03    0.20       2.4  T
  11   -209.7039817 -0.180667E-05  0.180E-03    0.19       5.7  T
  12   -209.7039812  0.470447E-06  0.211E-03    0.19       4.8  T
  13   -209.7039812  0.141612E-07  0.193E-03    0.19       5.3  T
  14   -209.7039815 -0.291171E-06  0.135E-03    0.19       7.5  T
  15   -209.7039817 -0.223565E-06  0.634E-04    0.19      16.0  T
  16   -209.7039817 -0.388081E-07  0.316E-04    0.19      32.2  T
     SCC iter.                  ...        0 min,  0.411 sec
     gradient                   ...        0 min,  0.060 sec
 * total energy  :  -207.5809753 Eh     change       -0.7565990E-03 Eh
   gradient norm :     0.0100446 Eh/α   predicted    -0.6898234E-03 (  -8.83%)
   displ. norm   :     0.6974116 α      lambda       -0.1283884E-02
   maximum displ.:     0.2756007 α      in ANC's #14, #17, #10, ...

........................................................................
.............................. CYCLE   36 ..............................
........................................................................

 iter      E             dE          RMSdq      gap      omega  full diag
   1   -209.7225920 -0.209723E+03  0.204E-01    0.22       0.0  T
   2   -209.7194812  0.311080E-02  0.157E-01    0.13       1.0  T
   3   -209.7183906  0.109056E-02  0.225E-01    0.50       1.0  T
   4   -209.7215164 -0.312576E-02  0.986E-02    0.39       1.0  T
   5   -209.7221992 -0.682859E-03  0.657E-02    0.28       1.0  T
   6   -209.7225586 -0.359349E-03  0.512E-02    0.23       1.0  T
   7   -209.7227250 -0.166452E-03  0.262E-02    0.20       1.0  T
   8   -209.7226921  0.329651E-04  0.224E-02    0.18       1.0  T
   9   -209.7227460 -0.539350E-04  0.813E-03    0.19       1.2  T
  10   -209.7227500 -0.394510E-05  0.555E-03    0.19       1.8  T
  11   -209.7227524 -0.245017E-05  0.322E-03    0.19       3.2  T
  12   -209.7227525 -0.128473E-06  0.224E-03    0.19       4.5  T
  13   -209.7227525  0.784101E-07  0.189E-03    0.19       5.4  T
  14   -209.7227529 -0.402699E-06  0.984E-04    0.19      10.3  T
  15   -209.7227529 -0.227310E-07  0.672E-04    0.19      15.1  T
     SCC iter.                  ...        0 min,  0.462 sec
     gradient                   ...        0 min,  0.066 sec
 * total energy  :  -207.5814539 Eh     change       -0.4785475E-03 Eh
   gradient norm :     0.0185677 Eh/α   predicted    -0.9541771E-03 (  99.39%)
   displ. norm   :     0.6464959 α      lambda       -0.1266144E-02
   maximum displ.:     0.3991489 α      in ANC's #14, #10, #9, ...

........................................................................
.............................. CYCLE   37 ..............................
........................................................................

 iter      E             dE          RMSdq      gap      omega  full diag
   1   -209.7049639 -0.209705E+03  0.176E-01    0.15       0.0  T
   2   -209.7032706  0.169334E-02  0.150E-01    0.35       1.0  T
   3   -209.6823763  0.208943E-01  0.342E-01    0.08       1.0  T
   4   -209.7040152 -0.216390E-01  0.105E-01    0.36       1.0  T
   5   -209.7043709 -0.355712E-03  0.901E-02    0.31       1.0  T
   6   -209.7045459 -0.174988E-03  0.765E-02    0.29       1.0  T
   7   -209.7048943 -0.348372E-03  0.628E-02    0.25       1.0  T
   8   -209.7053741 -0.479827E-03  0.179E-02    0.19       1.0  T
   9   -209.7054146 -0.404761E-04  0.814E-03    0.18       1.2  T
  10   -209.7054184 -0.382572E-05  0.433E-03    0.18       2.3  T
  11   -209.7054193 -0.869457E-06  0.255E-03    0.18       4.0  T
  12   -209.7054192  0.109636E-06  0.222E-03    0.18       4.6  T
  13   -209.7054192 -0.667329E-07  0.176E-03    0.18       5.8  T
  14   -209.7054195 -0.217201E-06  0.118E-03    0.18       8.6  T
  15   -209.7054195 -0.648654E-07  0.901E-04    0.18      11.3  T
  16   -209.7054196 -0.743781E-07  0.497E-04    0.18      20.4  T
     SCC iter.                  ...        0 min,  0.444 sec
     gradient                   ...        0 min,  0.054 sec
 * total energy  :  -207.5823387 Eh     change       -0.8848193E-03 Eh
   gradient norm :     0.0141412 Eh/α   predicted    -0.8976698E-03 (   1.45%)
   displ. norm   :     0.3888079 α      lambda       -0.8485146E-03
   maximum displ.:     0.2210381 α      in ANC's #14, #10, #17, ...

........................................................................
.............................. CYCLE   38 ..............................
........................................................................

 iter      E             dE          RMSdq      gap      omega  full diag
   1   -209.6985412 -0.209699E+03  0.121E-01    0.16       0.0  T
   2   -209.6974887  0.105248E-02  0.978E-02    0.26       1.0  T
   3   -209.6466204  0.508683E-01  0.519E-01    0.05       1.0  T
   4   -209.6983135 -0.516931E-01  0.742E-02    0.22       1.0  T
   5   -209.6981853  0.128224E-03  0.555E-02    0.23       1.0  T
   6   -209.6984032 -0.217907E-03  0.479E-02    0.21       1.0  T
   7   -209.6984925 -0.892871E-04  0.365E-02    0.21       1.0  T
   8   -209.6986021 -0.109656E-03  0.240E-02    0.19       1.0  T
   9   -209.6986511 -0.489796E-04  0.158E-02    0.19       1.0  T
  10   -209.6986823 -0.311919E-04  0.791E-03    0.18       1.3  T
  11   -209.6986915 -0.922281E-05  0.248E-03    0.18       4.1  T
  12   -209.6986921 -0.581368E-06  0.142E-03    0.17       7.2  T
  13   -209.6986913  0.776431E-06  0.243E-03    0.17       4.2  T
  14   -209.6986917 -0.335191E-06  0.194E-03    0.17       5.2  T
  15   -209.6986922 -0.539051E-06  0.792E-04    0.17      12.8  T
  16   -209.6986923 -0.858211E-07  0.227E-04    0.18      44.7  T
     SCC iter.                  ...        0 min,  0.421 sec
     gradient                   ...        0 min,  0.058 sec
 * total energy  :  -207.5829603 Eh     change       -0.6215655E-03 Eh
   gradient norm :     0.0133198 Eh/α   predicted    -0.4883955E-03 ( -21.42%)
   displ. norm   :     0.5099854 α      lambda       -0.9897656E-03
   maximum displ.:     0.2467421 α      in ANC's #14, #17, #10, ...

........................................................................
.............................. CYCLE   39 ..............................
........................................................................

 iter      E             dE          RMSdq      gap      omega  full diag
   1   -209.7001018 -0.209700E+03  0.147E-01    0.15       0.0  T
   2   -209.6983142  0.178755E-02  0.125E-01    0.28       1.0  T
   3   -209.6050686  0.932456E-01  0.704E-01    0.03       1.0  T
   4   -209.6998219 -0.947533E-01  0.102E-01    0.22       1.0  T
   5   -209.6996037  0.218180E-03  0.684E-02    0.23       1.0  T
   6   -209.6998081 -0.204362E-03  0.631E-02    0.22       1.0  T
   7   -209.6999808 -0.172668E-03  0.492E-02    0.21       1.0  T
   8   -209.7001351 -0.154385E-03  0.351E-02    0.19       1.0  T
   9   -209.7002256 -0.904710E-04  0.250E-02    0.19       1.0  T
  10   -209.7002882 -0.626395E-04  0.157E-02    0.18       1.0  T
  11   -209.7003180 -0.297998E-04  0.799E-03    0.17       1.3  T
  12   -209.7003274 -0.937104E-05  0.219E-03    0.17       4.6  T
  13   -209.7003273  0.109250E-06  0.224E-03    0.17       4.5  T
  14   -209.7003271  0.204719E-06  0.248E-03    0.17       4.1  T
  15   -209.7003277 -0.620190E-06  0.158E-03    0.17       6.4  T
  16   -209.7003281 -0.341613E-06  0.650E-04    0.17      15.6  T
  17   -209.7003281 -0.541800E-07  0.178E-04    0.17      57.0  T
     SCC iter.                  ...        0 min,  0.453 sec
     gradient                   ...        0 min,  0.065 sec
 * total energy  :  -207.5837308 Eh     change       -0.7704921E-03 Eh
   gradient norm :     0.0123288 Eh/α   predicted    -0.6235953E-03 ( -19.07%)
   displ. norm   :     0.5632365 α      lambda       -0.9742391E-03
   maximum displ.:     0.2329006 α      in ANC's #14, #17, #10, ...

........................................................................
.............................. CYCLE   40 ..............................
........................................................................

 iter      E             dE          RMSdq      gap      omega  full diag
   1   -209.7059205 -0.209706E+03  0.155E-01    0.15       0.0  T
   2   -209.7037851  0.213545E-02  0.132E-01    0.28       1.0  T
   3   -209.5290227  0.174762E+00  0.969E-01    0.01       1.0  T
   4   -209.7057394 -0.176717E+00  0.109E-01    0.19       1.0  T
   5   -209.7052726  0.466787E-03  0.746E-02    0.22       1.0  T
   6   -209.7055340 -0.261433E-03  0.692E-02    0.21       1.0  T
   7   -209.7056953 -0.161299E-03  0.556E-02    0.20       1.0  T
   8   -209.7058443 -0.149017E-03  0.437E-02    0.19       1.0  T
   9   -209.7059524 -0.108093E-03  0.344E-02    0.18       1.0  T
  10   -209.7060439 -0.914422E-04  0.251E-02    0.18       1.0  T
  11   -209.7061022 -0.583198E-04  0.165E-02    0.17       1.0  T
  12   -209.7061365 -0.342941E-04  0.762E-03    0.17       1.3  T
  13   -209.7061459 -0.944529E-05  0.901E-04    0.16      11.3  T
  14   -209.7061452  0.750880E-06  0.225E-03    0.16       4.5  T
  15   -209.7061454 -0.228867E-06  0.195E-03    0.16       5.2  T
  16   -209.7061457 -0.320123E-06  0.138E-03    0.16       7.4  T
  17   -209.7061459 -0.171592E-06  0.874E-04    0.16      11.6  T
  18   -209.7061460 -0.943723E-07  0.427E-04    0.16      23.8  T
     SCC iter.                  ...        0 min,  0.493 sec
     gradient                   ...        0 min,  0.057 sec
 * total energy  :  -207.5844534 Eh     change       -0.7226229E-03 Eh
   gradient norm :     0.0128958 Eh/α   predicted    -0.6416562E-03 ( -11.20%)
   displ. norm   :     0.6523550 α      lambda       -0.8365546E-03
   maximum displ.:     0.3236175 α      in ANC's #14, #10, #17, ...

........................................................................
.............................. CYCLE   41 ..............................
........................................................................

 iter      E             dE          RMSdq      gap      omega  full diag
   1   -209.7048592 -0.209705E+03  0.188E-01    0.13       0.0  T
   2   -209.7004303  0.442890E-02  0.207E-01    0.40       1.0  T
   3   -209.6903958  0.100345E-01  0.284E-01    0.08       1.0  T
   4   -209.7028164 -0.124206E-01  0.139E-01    0.34       1.0  T
   5   -209.7037630 -0.946596E-03  0.111E-01    0.26       1.0  T
   6   -209.7044676 -0.704658E-03  0.948E-02    0.22       1.0  T
   7   -209.7055790 -0.111138E-02  0.316E-02    0.17       1.0  T
   8   -209.7047730  0.806005E-03  0.759E-02    0.13       1.0  T
   9   -209.7056703 -0.897313E-03  0.125E-02    0.16       1.0  T
  10   -209.7056914 -0.210677E-04  0.299E-03    0.16       3.4  T
  11   -209.7056917 -0.347356E-06  0.198E-03    0.16       5.1  T
  12   -209.7056919 -0.136842E-06  0.153E-03    0.16       6.6  T
  13   -209.7056916  0.266454E-06  0.168E-03    0.15       6.0  T
  14   -209.7056920 -0.354025E-06  0.676E-04    0.16      15.0  T
  15   -209.7056917  0.263961E-06  0.138E-03    0.15       7.3  T
  16   -209.7056919 -0.249016E-06  0.537E-04    0.16      18.9  T
     SCC iter.                  ...        0 min,  0.417 sec
     gradient                   ...        0 min,  0.054 sec
 * total energy  :  -207.5850848 Eh     change       -0.6314405E-03 Eh
   gradient norm :     0.0105812 Eh/α   predicted    -0.5962836E-03 (  -5.57%)
   displ. norm   :     0.4618731 α      lambda       -0.9592688E-03
   maximum displ.:     0.1487967 α      in ANC's #13, #17, #8, ...

........................................................................
.............................. CYCLE   42 ..............................
........................................................................

 iter      E             dE          RMSdq      gap      omega  full diag
   1   -209.7255087 -0.209726E+03  0.149E-01    0.14       0.0  T
   2   -209.7239375  0.157119E-02  0.112E-01    0.22       1.0  T
   3   -209.3673755  0.356562E+00  0.139E+00    0.05       1.0  T
   4   -209.7249236 -0.357548E+00  0.111E-01    0.15       1.0  T
   5   -209.7253580 -0.434406E-03  0.501E-02    0.17       1.0  T
   6   -209.7254153 -0.573248E-04  0.434E-02    0.17       1.0  T
   7   -209.7255724 -0.157056E-03  0.266E-02    0.17       1.0  T
   8   -209.7256113 -0.389745E-04  0.191E-02    0.16       1.0  T
   9   -209.7256438 -0.324250E-04  0.128E-02    0.16       1.0  T
  10   -209.7256603 -0.165101E-04  0.794E-03    0.16       1.3  T
  11   -209.7256674 -0.714298E-05  0.397E-03    0.15       2.6  T
  12   -209.7256692 -0.177477E-05  0.185E-03    0.15       5.5  T
  13   -209.7256682  0.988555E-06  0.295E-03    0.15       3.4  T
  14   -209.7256677  0.476169E-06  0.331E-03    0.15       3.1  T
  15   -209.7256686 -0.899089E-06  0.248E-03    0.15       4.1  T
  16   -209.7256690 -0.393415E-06  0.187E-03    0.15       5.4  T
  17   -209.7256693 -0.314877E-06  0.116E-03    0.15       8.7  T
  18   -209.7256695 -0.146516E-06  0.628E-04    0.15      16.2  T
  19   -209.7256695 -0.532660E-07  0.195E-04    0.15      51.9  T
     SCC iter.                  ...        0 min,  0.464 sec
     gradient                   ...        0 min,  0.055 sec
 * total energy  :  -207.5852849 Eh     change       -0.2000762E-03 Eh
   gradient norm :     0.0149757 Eh/α   predicted    -0.5819547E-03 ( 190.87%)
   displ. norm   :     0.6026973 α      lambda       -0.1188048E-02
   maximum displ.:     0.3534815 α      in ANC's #14, #10, #9, ...
 * RMSD in coord.:     0.8802227 α      energy gain  -0.1000215E-01 Eh

generating ANC from exact Hessian ...
Using Lindh-Hessian (1995)
 Shifting diagonal of input Hessian by   1.770463566510354E-002
 Lowest  eigenvalues of input Hessian
    0.010000    0.017048    0.017186    0.017211    0.017675    0.000000
    0.000000    0.000000    0.000000    0.000000    0.000000    0.017721
    0.017767    0.017810    0.017916    0.017929    0.017957    0.018008
 Highest eigenvalues
    2.143529    2.239293    2.265366    2.341819    2.518796    3.347110
 

........................................................................
.............................. CYCLE   43 ..............................
........................................................................

 iter      E             dE          RMSdq      gap      omega  full diag
   1   -209.7082802 -0.209708E+03  0.194E-01    0.11       0.0  T
   2   -209.7006698  0.761033E-02  0.292E-01    0.54       1.0  T
   3   -209.7087253 -0.805549E-02  0.149E-01    0.23       1.0  T
   4   -209.6979455  0.107798E-01  0.261E-01    0.08       1.0  T
   5   -209.7077875 -0.984201E-02  0.128E-01    0.26       1.0  T
   6   -209.7090461 -0.125860E-02  0.102E-01    0.21       1.0  T
   7   -209.7095764 -0.530251E-03  0.735E-02    0.19       1.0  T
   8   -209.7102562 -0.679839E-03  0.290E-02    0.16       1.0  T
   9   -209.7103839 -0.127673E-03  0.718E-03    0.15       1.4  T
  10   -209.7103744  0.950984E-05  0.947E-03    0.14       1.1  T
  11   -209.7103871 -0.127459E-04  0.290E-03    0.15       3.5  T
  12   -209.7103876 -0.530589E-06  0.166E-03    0.15       6.1  T
  13   -209.7103876  0.288794E-07  0.148E-03    0.15       6.9  T
  14   -209.7103877 -0.114016E-06  0.832E-04    0.15      12.2  T
  15   -209.7103877 -0.124874E-07  0.537E-04    0.15      18.9  T
     SCC iter.                  ...        0 min,  0.379 sec
     gradient                   ...        0 min,  0.059 sec
 * total energy  :  -207.5858908 Eh     change       -0.6059216E-03 Eh
   gradient norm :     0.0112102 Eh/α   predicted     0.0000000E+00 (-100.00%)
   displ. norm   :     0.0931479 α      lambda       -0.3703606E-03
   maximum displ.:     0.0323983 α      in ANC's #28, #23, #2, ...

........................................................................
.............................. CYCLE   44 ..............................
........................................................................

 iter      E             dE          RMSdq      gap      omega  full diag
   1   -209.7121567 -0.209712E+03  0.887E-02    0.14       0.0  T
   2   -209.7116364  0.520361E-03  0.671E-02    0.18       1.0  T
   3   -209.6189356  0.927008E-01  0.714E-01    0.03       1.0  T
   4   -209.7118207 -0.928851E-01  0.485E-02    0.17       1.0  T
   5   -209.7121011 -0.280358E-03  0.333E-02    0.16       1.0  T
   6   -209.7120631  0.379804E-04  0.282E-02    0.16       1.0  T
   7   -209.7121574 -0.942657E-04  0.158E-02    0.15       1.0  T
   8   -209.7121843 -0.269763E-04  0.764E-03    0.15       1.3  T
   9   -209.7121901 -0.578480E-05  0.333E-03    0.15       3.0  T
  10   -209.7121912 -0.103342E-05  0.166E-03    0.15       6.1  T
  11   -209.7121912 -0.581162E-07  0.116E-03    0.15       8.8  T
  12   -209.7121913 -0.698725E-07  0.742E-04    0.15      13.7  T
  13   -209.7121912  0.436085E-07  0.689E-04    0.15      14.7  T
     SCC iter.                  ...        0 min,  0.337 sec
     gradient                   ...        0 min,  0.058 sec
 * total energy  :  -207.5860489 Eh     change       -0.1580846E-03 Eh
   gradient norm :     0.0066513 Eh/α   predicted    -0.1871882E-03 (  18.41%)
   displ. norm   :     0.1563776 α      lambda       -0.5064838E-03
   maximum displ.:     0.0518136 α      in ANC's #2, #28, #23, ...

........................................................................
.............................. CYCLE   45 ..............................
........................................................................

 iter      E             dE          RMSdq      gap      omega  full diag
   1   -209.7153863 -0.209715E+03  0.124E-01    0.14       0.0  T
   2   -209.7138734  0.151296E-02  0.108E-01    0.21       1.0  T
   3   -209.4897193  0.224154E+00  0.111E+00    0.02       1.0  T
   4   -209.7151595 -0.225440E+00  0.658E-02    0.17       1.0  T
   5   -209.7145274  0.632029E-03  0.742E-02    0.19       1.0  T
   6   -209.7150874 -0.559930E-03  0.525E-02    0.17       1.0  T
   7   -209.7152941 -0.206701E-03  0.363E-02    0.16       1.0  T
   8   -209.7153542 -0.601780E-04  0.283E-02    0.16       1.0  T
   9   -209.7154431 -0.888836E-04  0.162E-02    0.15       1.0  T
  10   -209.7154750 -0.318644E-04  0.862E-03    0.15       1.2  T
  11   -209.7154828 -0.783703E-05  0.480E-03    0.15       2.1  T
  12   -209.7154858 -0.292905E-05  0.200E-03    0.15       5.1  T
  13   -209.7154863 -0.543441E-06  0.591E-04    0.15      17.2  T
  14   -209.7154862  0.901518E-07  0.894E-04    0.15      11.4  T
     SCC iter.                  ...        0 min,  0.385 sec
     gradient                   ...        0 min,  0.058 sec
 * total energy  :  -207.5860417 Eh     change        0.7236172E-05 Eh
   gradient norm :     0.0105163 Eh/α   predicted    -0.2594489E-03 (*******%)
   displ. norm   :     0.1046042 α      lambda       -0.4458677E-03
   maximum displ.:     0.0624840 α      in ANC's #1, #28, #27, ...

........................................................................
.............................. CYCLE   46 ..............................
........................................................................

 iter      E             dE          RMSdq      gap      omega  full diag
   1   -209.7167841 -0.209717E+03  0.115E-01    0.15       0.0  T
   2   -209.7163962  0.387905E-03  0.752E-02    0.13       1.0  T
   3   -209.7128779  0.351824E-02  0.152E-01    0.29       1.0  T
   4   -209.7166803 -0.380235E-02  0.492E-02    0.14       1.0  T
   5   -209.7167478 -0.674927E-04  0.301E-02    0.16       1.0  T
   6   -209.7167849 -0.371598E-04  0.238E-02    0.14       1.0  T
   7   -209.7168541 -0.691364E-04  0.111E-02    0.15       1.0  T
   8   -209.7168595 -0.540501E-05  0.703E-03    0.15       1.4  T
   9   -209.7168530  0.648059E-05  0.816E-03    0.14       1.2  T
  10   -209.7168600 -0.697652E-05  0.333E-03    0.15       3.1  T
  11   -209.7168610 -0.104681E-05  0.150E-03    0.15       6.8  T
  12   -209.7168610 -0.163430E-07  0.115E-03    0.15       8.8  T
  13   -209.7168610  0.546418E-07  0.101E-03    0.15      10.0  T
  14   -209.7168611 -0.103497E-06  0.419E-04    0.15      24.2  T
  15   -209.7168611 -0.187384E-08  0.278E-04    0.15      36.6  T
     SCC iter.                  ...        0 min,  0.376 sec
     gradient                   ...        0 min,  0.053 sec
 * total energy  :  -207.5861806 Eh     change       -0.1388926E-03 Eh
   gradient norm :     0.0079353 Eh/α   predicted    -0.2253753E-03 (  62.27%)
   displ. norm   :     0.1884452 α      lambda       -0.7300402E-03
   maximum displ.:     0.1331731 α      in ANC's #1, #28, #2, ...

........................................................................
.............................. CYCLE   47 ..............................
........................................................................

 iter      E             dE          RMSdq      gap      omega  full diag
   1   -209.7141845 -0.209714E+03  0.243E-01    0.14       0.0  T
   2   -209.7110547  0.312976E-02  0.164E-01    0.26       1.0  T
   3   -209.0720236  0.639031E+00  0.186E+00    0.14       1.0  T
   4   -209.7137919 -0.641768E+00  0.126E-01    0.19       1.0  T
   5   -209.7127901  0.100179E-02  0.106E-01    0.22       1.0  T
   6   -209.7134930 -0.702888E-03  0.868E-02    0.20       1.0  T
   7   -209.7137505 -0.257509E-03  0.692E-02    0.19       1.0  T
   8   -209.7140976 -0.347123E-03  0.495E-02    0.17       1.0  T
   9   -209.7142560 -0.158345E-03  0.397E-02    0.17       1.0  T
  10   -209.7143352 -0.792929E-04  0.314E-02    0.16       1.0  T
  11   -209.7144315 -0.962048E-04  0.203E-02    0.16       1.0  T
  12   -209.7144747 -0.432466E-04  0.110E-02    0.15       1.0  T
  13   -209.7144927 -0.180481E-04  0.327E-03    0.15       3.1  T
  14   -209.7144943 -0.150771E-05  0.751E-04    0.15      13.5  T
  15   -209.7144942  0.782982E-07  0.911E-04    0.15      11.1  T
  16   -209.7144942 -0.601852E-08  0.874E-04    0.15      11.6  T
     SCC iter.                  ...        0 min,  0.454 sec
     gradient                   ...        0 min,  0.057 sec
 * total energy  :  -207.5857074 Eh     change        0.4731599E-03 Eh
   gradient norm :     0.0131778 Eh/α   predicted    -0.3779849E-03 (-179.89%)
   displ. norm   :     0.1371310 α      lambda       -0.1377741E-02
   maximum displ.:     0.0756531 α      in ANC's #1, #23, #28, ...

........................................................................
.............................. CYCLE   48 ..............................
........................................................................

 iter      E             dE          RMSdq      gap      omega  full diag
   1   -209.7148686 -0.209715E+03  0.183E-01    0.14       0.0  T
   2   -209.7149006 -0.320761E-04  0.695E-02    0.15       1.0  T
   3   -209.7145039  0.396693E-03  0.629E-02    0.16       1.0  T
   4   -209.7013676  0.131363E-01  0.272E-01    0.08       1.0  T
   5   -209.7147936 -0.134260E-01  0.384E-02    0.16       1.0  T
   6   -209.7148779 -0.842926E-04  0.292E-02    0.14       1.0  T
   7   -209.7149203 -0.423890E-04  0.155E-02    0.15       1.0  T
   8   -209.7149412 -0.209041E-04  0.623E-03    0.15       1.6  T
   9   -209.7149420 -0.834454E-06  0.347E-03    0.15       2.9  T
  10   -209.7149422 -0.228972E-06  0.241E-03    0.15       4.2  T
  11   -209.7149425 -0.292426E-06  0.143E-03    0.15       7.1  T
  12   -209.7149426 -0.444501E-07  0.921E-04    0.15      11.0  T
  13   -209.7149426 -0.323624E-07  0.610E-04    0.15      16.7  T
     SCC iter.                  ...        0 min,  0.314 sec
     gradient                   ...        0 min,  0.056 sec
 * total energy  :  -207.5864272 Eh     change       -0.7198178E-03 Eh
   gradient norm :     0.0026368 Eh/α   predicted    -0.7018252E-03 (  -2.50%)
   displ. norm   :     0.1289800 α      lambda       -0.1774775E-03
   maximum displ.:     0.0545960 α      in ANC's #2, #13, #14, ...

........................................................................
.............................. CYCLE   49 ..............................
........................................................................

 iter      E             dE          RMSdq      gap      omega  full diag
   1   -209.7165627 -0.209717E+03  0.696E-02    0.15       0.0  T
   2   -209.7158734  0.689298E-03  0.640E-02    0.12       1.0  T
   3   -209.7131380  0.273542E-02  0.139E-01    0.26       1.0  T
   4   -209.7161621 -0.302416E-02  0.529E-02    0.17       1.0  T
   5   -209.7164923 -0.330174E-03  0.237E-02    0.16       1.0  T
   6   -209.7165751 -0.827922E-04  0.904E-03    0.15       1.1  T
   7   -209.7165779 -0.277702E-05  0.585E-03    0.15       1.7  T
   8   -209.7165772  0.651826E-06  0.481E-03    0.14       2.1  T
   9   -209.7165791 -0.185811E-05  0.256E-03    0.15       4.0  T
  10   -209.7165794 -0.364032E-06  0.172E-03    0.15       5.9  T
  11   -209.7165797 -0.238811E-06  0.101E-03    0.15      10.1  T
  12   -209.7165797 -0.598542E-07  0.495E-04    0.15      20.5  T
  13   -209.7165797  0.229051E-08  0.350E-04    0.15      29.0  T
     SCC iter.                  ...        0 min,  0.313 sec
     gradient                   ...        0 min,  0.055 sec
 * total energy  :  -207.5865331 Eh     change       -0.1058396E-03 Eh
   gradient norm :     0.0038551 Eh/α   predicted    -0.9021613E-04 ( -14.76%)
   displ. norm   :     0.2766188 α      lambda       -0.2569472E-03
   maximum displ.:     0.1250856 α      in ANC's #2, #13, #14, ...

........................................................................
.............................. CYCLE   50 ..............................
........................................................................

 iter      E             dE          RMSdq      gap      omega  full diag
   1   -209.7169363 -0.209717E+03  0.126E-01    0.13       0.0  T
   2   -209.7120963  0.483996E-02  0.186E-01    0.34       1.0  T
   3   -209.7112095  0.886876E-03  0.180E-01    0.10       1.0  T
   4   -209.7148909 -0.368142E-02  0.127E-01    0.24       1.0  T
   5   -209.7160404 -0.114950E-02  0.931E-02    0.20       1.0  T
   6   -209.7166715 -0.631109E-03  0.693E-02    0.18       1.0  T
   7   -209.7174208 -0.749323E-03  0.172E-02    0.15       1.0  T
   8   -209.7172092  0.211631E-03  0.388E-02    0.13       1.0  T
   9   -209.7174392 -0.229996E-03  0.578E-03    0.14       1.8  T
  10   -209.7174391  0.111724E-06  0.489E-03    0.15       2.1  T
  11   -209.7174373  0.173757E-05  0.568E-03    0.14       1.8  T
  12   -209.7174417 -0.435883E-05  0.156E-03    0.14       6.5  T
  13   -209.7174418 -0.665345E-07  0.797E-04    0.14      12.7  T
  14   -209.7174417  0.959973E-07  0.983E-04    0.14      10.3  T
     SCC iter.                  ...        0 min,  0.336 sec
     gradient                   ...        0 min,  0.055 sec
 * total energy  :  -207.5867423 Eh     change       -0.2092218E-03 Eh
   gradient norm :     0.0059586 Eh/α   predicted    -0.1383047E-03 ( -33.90%)
   displ. norm   :     0.6448016 α      lambda       -0.5691427E-03
   maximum displ.:     0.3005727 α      in ANC's #2, #14, #13, ...

........................................................................
.............................. CYCLE   51 ..............................
........................................................................

 iter      E             dE          RMSdq      gap      omega  full diag
   1   -209.7122755 -0.209712E+03  0.280E-01    0.10       0.0  T
   2   -209.7030437  0.923181E-02  0.331E-01    0.60       1.0  T
   3   -209.7141172 -0.110735E-01  0.182E-01    0.14       1.0  T
   4   -209.6810565  0.330607E-01  0.431E-01    0.06       1.0  T
   5   -209.7107494 -0.296930E-01  0.164E-01    0.31       1.0  T
   6   -209.7121393 -0.138982E-02  0.148E-01    0.25       1.0  T
   7   -209.7126912 -0.551931E-03  0.126E-01    0.23       1.0  T
   8   -209.7140689 -0.137771E-02  0.767E-02    0.18       1.0  T
   9   -209.7149662 -0.897341E-03  0.186E-02    0.15       1.0  T
  10   -209.7148672  0.990858E-04  0.310E-02    0.13       1.0  T
  11   -209.7149487 -0.815010E-04  0.205E-02    0.13       1.0  T
  12   -209.7150145 -0.658151E-04  0.296E-03    0.14       3.4  T
  13   -209.7150145 -0.205456E-07  0.260E-03    0.14       3.9  T
  14   -209.7150140  0.511039E-06  0.270E-03    0.14       3.8  T
  15   -209.7150142 -0.250965E-06  0.191E-03    0.14       5.3  T
  16   -209.7150147 -0.480325E-06  0.859E-04    0.14      11.8  T
  17   -209.7150148 -0.633910E-07  0.456E-04    0.14      22.3  T
     SCC iter.                  ...        0 min,  0.441 sec
     gradient                   ...        0 min,  0.058 sec
 * total energy  :  -207.5872136 Eh     change       -0.4712847E-03 Eh
   gradient norm :     0.0063653 Eh/α   predicted    -0.4028938E-03 ( -14.51%)
   displ. norm   :     0.6654956 α      lambda       -0.5357385E-03
   maximum displ.:     0.3232829 α      in ANC's #2, #14, #13, ...

........................................................................
.............................. CYCLE   52 ..............................
........................................................................

 iter      E             dE          RMSdq      gap      omega  full diag
   1   -209.7078647 -0.209708E+03  0.298E-01    0.10       0.0  T
   2   -209.6953511  0.125136E-01  0.410E-01    0.74       1.0  T
   3   -209.7092537 -0.139027E-01  0.224E-01    0.27       1.0  T
   4   -209.6305629  0.786908E-01  0.663E-01    0.03       1.0  T
   5   -209.7070610 -0.764981E-01  0.188E-01    0.36       1.0  T
   6   -209.7083183 -0.125725E-02  0.178E-01    0.30       1.0  T
   7   -209.7086978 -0.379536E-03  0.162E-01    0.28       1.0  T
   8   -209.7095408 -0.842969E-03  0.137E-01    0.23       1.0  T
   9   -209.7108465 -0.130578E-02  0.100E-01    0.19       1.0  T
  10   -209.7119922 -0.114565E-02  0.536E-02    0.16       1.0  T
  11   -209.7122763 -0.284065E-03  0.335E-02    0.13       1.0  T
  12   -209.7123321 -0.558048E-04  0.280E-02    0.13       1.0  T
  13   -209.7124541 -0.122001E-03  0.449E-03    0.14       2.3  T
  14   -209.7124570 -0.289105E-05  0.182E-03    0.14       5.6  T
  15   -209.7124571 -0.991180E-07  0.114E-03    0.14       8.9  T
  16   -209.7124563  0.778366E-06  0.231E-03    0.14       4.4  T
  17   -209.7124566 -0.304209E-06  0.188E-03    0.14       5.4  T
  18   -209.7124571 -0.512042E-06  0.315E-04    0.14      32.3  T
  19   -209.7124571  0.140135E-07  0.364E-04    0.14      27.9  T
     SCC iter.                  ...        0 min,  0.492 sec
     gradient                   ...        0 min,  0.071 sec
 * total energy  :  -207.5876467 Eh     change       -0.4331177E-03 Eh
   gradient norm :     0.0072053 Eh/α   predicted    -0.3865036E-03 ( -10.76%)
   displ. norm   :     0.6047299 α      lambda       -0.5224562E-03
   maximum displ.:     0.3077876 α      in ANC's #2, #14, #13, ...

........................................................................
.............................. CYCLE   53 ..............................
........................................................................

 iter      E             dE          RMSdq      gap      omega  full diag
   1   -209.7105955 -0.209711E+03  0.254E-01    0.10       0.0  T
   2   -209.7004800  0.101156E-01  0.324E-01    0.56       1.0  T
   3   -209.7121265 -0.116465E-01  0.156E-01    0.13       1.0  T
   4   -209.6942668  0.178596E-01  0.323E-01    0.07       1.0  T
   5   -209.7085920 -0.143252E-01  0.165E-01    0.27       1.0  T
   6   -209.7103759 -0.178397E-02  0.137E-01    0.21       1.0  T
   7   -209.7113543 -0.978342E-03  0.102E-01    0.19       1.0  T
   8   -209.7128710 -0.151669E-02  0.231E-02    0.14       1.0  T
   9   -209.7128401  0.308797E-04  0.276E-02    0.13       1.0  T
  10   -209.7128867 -0.465789E-04  0.202E-02    0.13       1.0  T
  11   -209.7129460 -0.593462E-04  0.412E-03    0.13       2.5  T
  12   -209.7129440  0.196888E-05  0.481E-03    0.14       2.1  T
  13   -209.7129465 -0.244455E-05  0.211E-03    0.14       4.8  T
  14   -209.7129462  0.280132E-06  0.205E-03    0.14       4.9  T
  15   -209.7129465 -0.286756E-06  0.119E-03    0.14       8.5  T
  16   -209.7129466 -0.978062E-07  0.803E-04    0.13      12.6  T
  17   -209.7129466 -0.319303E-07  0.567E-04    0.14      17.9  T
     SCC iter.                  ...        0 min,  0.744 sec
     gradient                   ...        0 min,  0.066 sec
 * total energy  :  -207.5880949 Eh     change       -0.4482359E-03 Eh
   gradient norm :     0.0075704 Eh/α   predicted    -0.3567601E-03 ( -20.41%)
   displ. norm   :     0.6312850 α      lambda       -0.7137459E-03
   maximum displ.:     0.3310575 α      in ANC's #2, #14, #13, ...

........................................................................
.............................. CYCLE   54 ..............................
........................................................................

 iter      E             dE          RMSdq      gap      omega  full diag
   1   -209.7157957 -0.209716E+03  0.252E-01    0.10       0.0  T
   2   -209.7046228  0.111729E-01  0.339E-01    0.57       1.0  T
   3   -209.7177668 -0.131440E-01  0.155E-01    0.14       1.0  T
   4   -209.6357736  0.819932E-01  0.679E-01    0.03       1.0  T
   5   -209.7132324 -0.774588E-01  0.177E-01    0.28       1.0  T
   6   -209.7146890 -0.145665E-02  0.160E-01    0.24       1.0  T
   7   -209.7152113 -0.522273E-03  0.142E-01    0.22       1.0  T
   8   -209.7164153 -0.120395E-02  0.108E-01    0.19       1.0  T
   9   -209.7175369 -0.112159E-02  0.679E-02    0.16       1.0  T
  10   -209.7181533 -0.616403E-03  0.288E-02    0.14       1.0  T
  11   -209.7182169 -0.635949E-04  0.212E-02    0.13       1.0  T
  12   -209.7182085  0.839104E-05  0.222E-02    0.13       1.0  T
  13   -209.7182821 -0.735977E-04  0.565E-03    0.13       1.8  T
  14   -209.7182869 -0.482815E-05  0.204E-03    0.13       5.0  T
  15   -209.7182865  0.401839E-06  0.222E-03    0.13       4.6  T
  16   -209.7182872 -0.683198E-06  0.671E-04    0.13      15.1  T
  17   -209.7182871  0.117951E-06  0.102E-03    0.13      10.0  T
  18   -209.7182872 -0.127851E-06  0.346E-04    0.13      29.3  T
     SCC iter.                  ...        0 min,  0.476 sec
     gradient                   ...        0 min,  0.056 sec
 * total energy  :  -207.5887029 Eh     change       -0.6080089E-03 Eh
   gradient norm :     0.0084293 Eh/α   predicted    -0.4990968E-03 ( -17.91%)
   displ. norm   :     0.7448054 α      lambda       -0.8468002E-03
   maximum displ.:     0.3914586 α      in ANC's #2, #14, #13, ...

........................................................................
.............................. CYCLE   55 ..............................
........................................................................

 iter      E             dE          RMSdq      gap      omega  full diag
   1   -209.7170327 -0.209717E+03  0.286E-01    0.10       0.0  T
   2   -209.7058348  0.111980E-01  0.334E-01    0.54       1.0  T
   3   -209.6853007  0.205340E-01  0.422E-01    0.05       1.0  T
   4   -209.7114082 -0.261075E-01  0.231E-01    0.46       1.0  T
   5   -209.7129634 -0.155520E-02  0.203E-01    0.34       1.0  T
   6   -209.7143759 -0.141245E-02  0.183E-01    0.27       1.0  T
   7   -209.7172816 -0.290577E-02  0.111E-01    0.18       1.0  T
   8   -209.6866547  0.306269E-01  0.444E-01    0.05       1.0  T
   9   -209.7189885 -0.323338E-01  0.381E-02    0.14       1.0  T
  10   -209.7190192 -0.306776E-04  0.345E-02    0.12       1.0  T
  11   -209.7191751 -0.155936E-03  0.130E-02    0.13       1.0  T
  12   -209.7191921 -0.170199E-04  0.742E-03    0.13       1.4  T
  13   -209.7191946 -0.241519E-05  0.601E-03    0.13       1.7  T
  14   -209.7191983 -0.376717E-05  0.291E-03    0.13       3.5  T
  15   -209.7191984 -0.998080E-07  0.247E-03    0.13       4.1  T
  16   -209.7191896  0.884365E-05  0.782E-03    0.13       1.3  T
  17   -209.7191958 -0.622042E-05  0.454E-03    0.13       2.2  T
  18   -209.7191992 -0.335159E-05  0.586E-04    0.13      17.3  T
  19   -209.7191991  0.325979E-07  0.684E-04    0.13      14.9  T
  20   -209.7191991 -0.204882E-07  0.601E-04    0.13      16.9  T
     SCC iter.                  ...        0 min,  0.484 sec
     gradient                   ...        0 min,  0.058 sec
 * total energy  :  -207.5894762 Eh     change       -0.7732457E-03 Eh
   gradient norm :     0.0081130 Eh/α   predicted    -0.6582782E-03 ( -14.87%)
   displ. norm   :     0.7513623 α      lambda       -0.1084415E-02
   maximum displ.:     0.3848474 α      in ANC's #2, #14, #13, ...

........................................................................
.............................. CYCLE   56 ..............................
........................................................................

 iter      E             dE          RMSdq      gap      omega  full diag
   1   -209.7239706 -0.209724E+03  0.293E-01    0.11       0.0  T
   2   -209.7152740  0.869656E-02  0.268E-01    0.37       1.0  T
   3   -209.0836455  0.631628E+00  0.186E+00    0.16       1.0  T
   4   -209.7220206 -0.638375E+00  0.239E-01    0.20       1.0  T
   5   -209.7192741  0.274646E-02  0.187E-01    0.27       1.0  T
   6   -209.7200533 -0.779246E-03  0.184E-01    0.25       1.0  T
   7   -209.7207155 -0.662184E-03  0.168E-01    0.24       1.0  T
   8   -209.7215778 -0.862321E-03  0.145E-01    0.21       1.0  T
   9   -209.7225408 -0.962995E-03  0.120E-01    0.19       1.0  T
  10   -209.7238325 -0.129164E-02  0.784E-02    0.16       1.0  T
  11   -209.7246581 -0.825626E-03  0.309E-02    0.14       1.0  T
  12   -209.7247969 -0.138770E-03  0.777E-03    0.13       1.3  T
  13   -209.7247715  0.253585E-04  0.143E-02    0.12       1.0  T
  14   -209.7247761 -0.462675E-05  0.135E-02    0.12       1.0  T
  15   -209.7247873 -0.111198E-04  0.107E-02    0.13       1.0  T
  16   -209.7248014 -0.140993E-04  0.522E-03    0.13       1.9  T
  17   -209.7248056 -0.421341E-05  0.827E-04    0.13      12.3  T
  18   -209.7248056 -0.239169E-09  0.702E-04    0.13      14.5  T
  19   -209.7248056 -0.285333E-07  0.571E-04    0.13      17.8  T
     SCC iter.                  ...        0 min,  0.471 sec
     gradient                   ...        0 min,  0.065 sec
 * total energy  :  -207.5903836 Eh     change       -0.9074402E-03 Eh
   gradient norm :     0.0088353 Eh/α   predicted    -0.8483077E-03 (  -6.52%)
   displ. norm   :     0.8716255 α      lambda       -0.1059044E-02
   maximum displ.:     0.4642440 α      in ANC's #2, #14, #13, ...

........................................................................
.............................. CYCLE   57 ..............................
........................................................................

 iter      E             dE          RMSdq      gap      omega  full diag
   1   -209.7117600 -0.209712E+03  0.339E-01    0.10       0.0  T
   2   -209.6979717  0.137882E-01  0.392E-01    0.62       1.0  T
   3   -209.6961849  0.178681E-02  0.330E-01    0.07       1.0  T
   4   -209.7063017 -0.101168E-01  0.234E-01    0.44       1.0  T
   5   -209.7091329 -0.283116E-02  0.198E-01    0.29       1.0  T
   6   -209.7107865 -0.165367E-02  0.167E-01    0.22       1.0  T
   7   -209.6966740  0.141125E-01  0.335E-01    0.06       1.0  T
   8   -209.7125185 -0.158445E-01  0.126E-01    0.19       1.0  T
   9   -209.7148121 -0.229366E-02  0.222E-02    0.12       1.0  T
  10   -209.7148314 -0.192981E-04  0.159E-02    0.13       1.0  T
  11   -209.7148178  0.136000E-04  0.171E-02    0.13       1.0  T
  12   -209.7147840  0.337945E-04  0.222E-02    0.12       1.0  T
  13   -209.7148501 -0.660277E-04  0.881E-03    0.13       1.2  T
  14   -209.7148601 -0.100710E-04  0.318E-03    0.13       3.2  T
  15   -209.7148614 -0.125069E-05  0.142E-03    0.13       7.2  T
  16   -209.7148585  0.292459E-05  0.445E-03    0.13       2.3  T
  17   -209.7148614 -0.293303E-05  0.949E-04    0.13      10.7  T
  18   -209.7148614  0.197926E-08  0.902E-04    0.13      11.3  T
  19   -209.7148614 -0.486228E-07  0.695E-04    0.13      14.6  T
     SCC iter.                  ...        0 min,  0.511 sec
     gradient                   ...        0 min,  0.058 sec
 * total energy  :  -207.5913351 Eh     change       -0.9514362E-03 Eh
   gradient norm :     0.0105297 Eh/α   predicted    -0.9318170E-03 (  -2.06%)
   displ. norm   :     0.7253146 α      lambda       -0.1466461E-02
   maximum displ.:     0.3242208 α      in ANC's #2, #9, #10, ...

........................................................................
.............................. CYCLE   58 ..............................
........................................................................

 iter      E             dE          RMSdq      gap      omega  full diag
   1   -209.7217955 -0.209722E+03  0.359E-01    0.17       0.0  T
   2   -209.0774169  0.644379E+00  0.191E+00    0.16       1.0  T
   3   -209.7163807 -0.638964E+00  0.240E-01    0.30       1.0  T
   4   -209.7202252 -0.384458E-02  0.238E-01    0.14       1.0  T
   5   -209.7194526  0.772675E-03  0.158E-01    0.22       1.0  T
   6   -209.7203327 -0.880113E-03  0.137E-01    0.21       1.0  T
   7   -209.7216881 -0.135544E-02  0.106E-01    0.18       1.0  T
   8   -209.7222915 -0.603335E-03  0.790E-02    0.17       1.0  T
   9   -209.7228247 -0.533201E-03  0.528E-02    0.15       1.0  T
  10   -209.7231549 -0.330254E-03  0.269E-02    0.14       1.0  T
  11   -209.7232709 -0.116021E-03  0.365E-03    0.13       2.8  T
  12   -209.7232595  0.114374E-04  0.875E-03    0.13       1.2  T
  13   -209.7232590  0.493835E-06  0.878E-03    0.13       1.2  T
  14   -209.7232659 -0.685220E-05  0.579E-03    0.13       1.8  T
  15   -209.7232709 -0.507802E-05  0.193E-03    0.13       5.3  T
  16   -209.7232711 -0.180075E-06  0.153E-03    0.13       6.6  T
  17   -209.7232711 -0.804243E-08  0.148E-03    0.13       6.8  T
  18   -209.7232714 -0.289625E-06  0.573E-04    0.13      17.7  T
  19   -209.7232714 -0.201410E-07  0.392E-04    0.13      25.9  T
     SCC iter.                  ...        0 min,  0.585 sec
     gradient                   ...        0 min,  0.057 sec
 * total energy  :  -207.5920795 Eh     change       -0.7444009E-03 Eh
   gradient norm :     0.0170669 Eh/α   predicted    -0.1118966E-02 (  50.32%)
   displ. norm   :     0.7021971 α      lambda       -0.1231714E-02
   maximum displ.:     0.3856793 α      in ANC's #2, #14, #13, ...

........................................................................
.............................. CYCLE   59 ..............................
........................................................................

 iter      E             dE          RMSdq      gap      omega  full diag
   1   -209.7102991 -0.209710E+03  0.271E-01    0.11       0.0  T
   2   -209.7015428  0.875630E-02  0.273E-01    0.41       1.0  T
   3   -209.2788579  0.422685E+00  0.152E+00    0.07       1.0  T
   4   -209.7079276 -0.429070E+00  0.235E-01    0.24       1.0  T
   5   -209.7057129  0.221474E-02  0.190E-01    0.31       1.0  T
   6   -209.7064646 -0.751740E-03  0.189E-01    0.29       1.0  T
   7   -209.7068221 -0.357520E-03  0.176E-01    0.27       1.0  T
   8   -209.7074299 -0.607815E-03  0.161E-01    0.24       1.0  T
   9   -209.7081372 -0.707273E-03  0.144E-01    0.22       1.0  T
  10   -209.7092692 -0.113201E-02  0.115E-01    0.19       1.0  T
  11   -209.7106245 -0.135526E-02  0.685E-02    0.16       1.0  T
  12   -209.7112905 -0.665992E-03  0.224E-02    0.14       1.0  T
  13   -209.7113591 -0.685857E-04  0.795E-03    0.13       1.3  T
  14   -209.7113579  0.116666E-05  0.835E-03    0.13       1.2  T
  15   -209.7113539  0.396465E-05  0.972E-03    0.13       1.0  T
  16   -209.7113612 -0.727244E-05  0.706E-03    0.13       1.4  T
  17   -209.7113684 -0.722982E-05  0.232E-03    0.13       4.4  T
  18   -209.7113692 -0.787684E-06  0.710E-04    0.13      14.3  T
  19   -209.7113692  0.315976E-07  0.778E-04    0.13      13.0  T
     SCC iter.                  ...        0 min,  0.458 sec
     gradient                   ...        0 min,  0.055 sec
 * total energy  :  -207.5930446 Eh     change       -0.9651232E-03 Eh
   gradient norm :     0.0147120 Eh/α   predicted    -0.9195253E-03 (  -4.72%)
   displ. norm   :     0.5317386 α      lambda       -0.1124633E-02
   maximum displ.:     0.3065020 α      in ANC's #2, #10, #9, ...

........................................................................
.............................. CYCLE   60 ..............................
........................................................................

 iter      E             dE          RMSdq      gap      omega  full diag
   1   -209.7122366 -0.209712E+03  0.212E-01    0.14       0.0  T
   2   -209.7118095  0.427067E-03  0.101E-01    0.12       1.0  T
   3   -209.7055552  0.625429E-02  0.204E-01    0.33       1.0  T
   4   -209.7113790 -0.582382E-02  0.867E-02    0.12       1.0  T
   5   -209.7107169  0.662152E-03  0.969E-02    0.18       1.0  T
   6   -209.7122548 -0.153792E-02  0.282E-02    0.14       1.0  T
   7   -209.7121904  0.644305E-04  0.306E-02    0.12       1.0  T
   8   -209.7123238 -0.133454E-03  0.106E-02    0.13       1.0  T
   9   -209.7123302 -0.636174E-05  0.534E-03    0.13       1.9  T
  10   -209.7123299  0.252838E-06  0.428E-03    0.13       2.4  T
  11   -209.7123299 -0.272971E-07  0.396E-03    0.13       2.6  T
  12   -209.7123310 -0.103250E-05  0.220E-03    0.13       4.6  T
  13   -209.7123313 -0.311948E-06  0.128E-03    0.13       7.9  T
  14   -209.7123314 -0.880089E-07  0.872E-04    0.13      11.6  T
  15   -209.7123313  0.491211E-07  0.881E-04    0.13      11.5  T
     SCC iter.                  ...        0 min,  0.359 sec
     gradient                   ...        0 min,  0.055 sec
 * total energy  :  -207.5939091 Eh     change       -0.8645557E-03 Eh
   gradient norm :     0.0106583 Eh/α   predicted    -0.7213150E-03 ( -16.57%)
   displ. norm   :     0.7166635 α      lambda       -0.1126118E-02
   maximum displ.:     0.4035270 α      in ANC's #2, #10, #9, ...

........................................................................
.............................. CYCLE   61 ..............................
........................................................................

 iter      E             dE          RMSdq      gap      omega  full diag
   1   -209.7125782 -0.209713E+03  0.278E-01    0.16       0.0  T
   2   -209.4839147  0.228664E+00  0.115E+00    0.02       1.0  T
   3   -209.7060678 -0.222153E+00  0.225E-01    0.33       1.0  T
   4   -209.7115139 -0.544609E-02  0.199E-01    0.16       1.0  T
   5   -209.7097038  0.181011E-02  0.147E-01    0.23       1.0  T
   6   -209.7104045 -0.700778E-03  0.134E-01    0.21       1.0  T
   7   -209.7113030 -0.898472E-03  0.109E-01    0.19       1.0  T
   8   -209.7122710 -0.967931E-03  0.705E-02    0.17       1.0  T
   9   -209.7127918 -0.520814E-03  0.405E-02    0.15       1.0  T
  10   -209.7130297 -0.237973E-03  0.129E-02    0.14       1.0  T
  11   -209.7130440 -0.142479E-04  0.863E-03    0.13       1.2  T
  12   -209.7130439  0.783247E-07  0.856E-03    0.13       1.2  T
  13   -209.7130521 -0.818033E-05  0.461E-03    0.13       2.2  T
  14   -209.7130551 -0.303005E-05  0.176E-03    0.13       5.8  T
  15   -209.7130554 -0.262259E-06  0.110E-03    0.14       9.3  T
  16   -209.7130553  0.124179E-06  0.127E-03    0.14       8.0  T
  17   -209.7130555 -0.227919E-06  0.323E-04    0.14      31.4  T
  18   -209.7130555 -0.124314E-08  0.217E-04    0.14      46.8  T
     SCC iter.                  ...        0 min,  0.484 sec
     gradient                   ...        0 min,  0.056 sec
 * total energy  :  -207.5948927 Eh     change       -0.9835711E-03 Eh
   gradient norm :     0.0099327 Eh/α   predicted    -0.8522561E-03 ( -13.35%)
   displ. norm   :     0.6675327 α      lambda       -0.1330756E-02
   maximum displ.:     0.3380590 α      in ANC's #2, #10, #9, ...

........................................................................
.............................. CYCLE   62 ..............................
........................................................................

 iter      E             dE          RMSdq      gap      omega  full diag
   1   -209.7274461 -0.209727E+03  0.254E-01    0.19       0.0  T
   2   -209.0459912  0.681455E+00  0.196E+00    0.17       1.0  T
   3   -209.7254314 -0.679440E+00  0.169E-01    0.24       1.0  T
   4   -209.7264809 -0.104947E-02  0.186E-01    0.13       1.0  T
   5   -209.7277995 -0.131862E-02  0.912E-02    0.18       1.0  T
   6   -209.7281229 -0.323368E-03  0.784E-02    0.17       1.0  T
   7   -209.7287350 -0.612065E-03  0.477E-02    0.16       1.0  T
   8   -209.7288267 -0.917816E-04  0.365E-02    0.15       1.0  T
   9   -209.7289583 -0.131544E-03  0.226E-02    0.15       1.0  T
  10   -209.7290010 -0.427078E-04  0.139E-02    0.14       1.0  T
  11   -209.7290294 -0.284213E-04  0.395E-03    0.14       2.6  T
  12   -209.7290281  0.136090E-05  0.413E-03    0.14       2.5  T
  13   -209.7290283 -0.202795E-06  0.373E-03    0.14       2.7  T
  14   -209.7290289 -0.649197E-06  0.294E-03    0.14       3.5  T
  15   -209.7290301 -0.118283E-05  0.110E-03    0.14       9.3  T
  16   -209.7290302 -0.579537E-07  0.670E-04    0.14      15.2  T
  17   -209.7290301  0.295896E-07  0.707E-04    0.14      14.4  T
     SCC iter.                  ...        0 min,  0.439 sec
     gradient                   ...        0 min,  0.056 sec
 * total energy  :  -207.5957795 Eh     change       -0.8867859E-03 Eh
   gradient norm :     0.0126246 Eh/α   predicted    -0.9618767E-03 (   8.47%)
   displ. norm   :     0.8081457 α      lambda       -0.1129193E-02
   maximum displ.:     0.4308011 α      in ANC's #2, #10, #9, ...

........................................................................
.............................. CYCLE   63 ..............................
........................................................................

 iter      E             dE          RMSdq      gap      omega  full diag
   1   -209.7181928 -0.209718E+03  0.311E-01    0.15       0.0  T
   2   -209.7127384  0.545440E-02  0.230E-01    0.09       1.0  T
   3   -209.7065206  0.621774E-02  0.319E-01    0.60       1.0  T
   4   -209.7150912 -0.857057E-02  0.194E-01    0.29       1.0  T
   5   -209.7167486 -0.165737E-02  0.115E-01    0.20       1.0  T
   6   -209.7183466 -0.159799E-02  0.411E-02    0.14       1.0  T
   7   -209.7177231  0.623472E-03  0.646E-02    0.17       1.0  T
   8   -209.7179809 -0.257776E-03  0.528E-02    0.12       1.0  T
   9   -209.7183855 -0.404639E-03  0.155E-02    0.14       1.0  T
  10   -209.7183986 -0.131047E-04  0.119E-02    0.14       1.0  T
  11   -209.7184141 -0.155132E-04  0.478E-03    0.14       2.1  T
  12   -209.7184150 -0.871503E-06  0.279E-03    0.14       3.6  T
  13   -209.7184148  0.158651E-06  0.258E-03    0.14       3.9  T
  14   -209.7184152 -0.400268E-06  0.161E-03    0.14       6.3  T
  15   -209.7184152  0.294995E-07  0.150E-03    0.14       6.8  T
  16   -209.7184154 -0.222755E-06  0.682E-04    0.14      14.9  T
  17   -209.7184154 -0.670212E-08  0.431E-04    0.14      23.6  T
     SCC iter.                  ...        0 min,  0.454 sec
     gradient                   ...        0 min,  0.059 sec
 * total energy  :  -207.5966279 Eh     change       -0.8483834E-03 Eh
   gradient norm :     0.0119930 Eh/α   predicted    -0.9333366E-03 (  10.01%)
   displ. norm   :     0.6849900 α      lambda       -0.8538832E-03
   maximum displ.:     0.3508052 α      in ANC's #2, #10, #9, ...

........................................................................
.............................. CYCLE   64 ..............................
........................................................................

 iter      E             dE          RMSdq      gap      omega  full diag
   1   -209.7169733 -0.209717E+03  0.236E-01    0.15       0.0  T
   2   -209.6879923  0.289809E-01  0.416E-01    0.06       1.0  T
   3   -209.7093534 -0.213611E-01  0.241E-01    0.43       1.0  T
   4   -209.7145809 -0.522752E-02  0.189E-01    0.25       1.0  T
   5   -209.7139438  0.637107E-03  0.141E-01    0.26       1.0  T
   6   -209.7150646 -0.112078E-02  0.122E-01    0.22       1.0  T
   7   -209.7160188 -0.954234E-03  0.869E-02    0.19       1.0  T
   8   -209.7171008 -0.108198E-02  0.183E-02    0.14       1.0  T
   9   -209.7170484  0.524304E-04  0.248E-02    0.13       1.0  T
  10   -209.7171335 -0.851746E-04  0.448E-03    0.14       2.3  T
  11   -209.7171331  0.393047E-06  0.405E-03    0.14       2.5  T
  12   -209.7171298  0.331466E-05  0.570E-03    0.14       1.8  T
  13   -209.7171336 -0.373877E-05  0.251E-03    0.14       4.0  T
  14   -209.7171341 -0.552326E-06  0.105E-03    0.14       9.6  T
  15   -209.7171341  0.262777E-07  0.994E-04    0.14      10.2  T
  16   -209.7171341 -0.434125E-07  0.628E-04    0.14      16.2  T
     SCC iter.                  ...        0 min,  0.442 sec
     gradient                   ...        0 min,  0.056 sec
 * total energy  :  -207.5972719 Eh     change       -0.6439909E-03 Eh
   gradient norm :     0.0116891 Eh/α   predicted    -0.6272700E-03 (  -2.60%)
   displ. norm   :     0.6158597 α      lambda       -0.9876541E-03
   maximum displ.:     0.3183303 α      in ANC's #10, #11, #2, ...

........................................................................
.............................. CYCLE   65 ..............................
........................................................................

 iter      E             dE          RMSdq      gap      omega  full diag
   1   -209.7295263 -0.209730E+03  0.233E-01    0.16       0.0  T
   2   -209.5222865  0.207240E+00  0.108E+00    0.01       1.0  T
   3   -209.7266579 -0.204371E+00  0.151E-01    0.25       1.0  T
   4   -209.7292589 -0.260098E-02  0.119E-01    0.14       1.0  T
   5   -209.7285506  0.708265E-03  0.956E-02    0.19       1.0  T
   6   -209.7290854 -0.534768E-03  0.764E-02    0.18       1.0  T
   7   -209.7296917 -0.606285E-03  0.476E-02    0.16       1.0  T
   8   -209.7298376 -0.145938E-03  0.302E-02    0.16       1.0  T
   9   -209.7299266 -0.890029E-04  0.169E-02    0.15       1.0  T
  10   -209.7299614 -0.348285E-04  0.814E-03    0.15       1.2  T
  11   -209.7299687 -0.730083E-05  0.326E-03    0.14       3.1  T
  12   -209.7299681  0.609030E-06  0.302E-03    0.14       3.4  T
  13   -209.7299681 -0.438035E-09  0.278E-03    0.14       3.7  T
  14   -209.7299689 -0.737573E-06  0.163E-03    0.14       6.2  T
  15   -209.7299691 -0.273446E-06  0.719E-04    0.14      14.1  T
  16   -209.7299691  0.370967E-07  0.761E-04    0.14      13.3  T
     SCC iter.                  ...        0 min,  0.392 sec
     gradient                   ...        0 min,  0.055 sec
 * total energy  :  -207.5977796 Eh     change       -0.5077525E-03 Eh
   gradient norm :     0.0166941 Eh/α   predicted    -0.6811333E-03 (  34.15%)
   displ. norm   :     0.5851865 α      lambda       -0.1079047E-02
   maximum displ.:     0.3020304 α      in ANC's #2, #10, #9, ...

........................................................................
.............................. CYCLE   66 ..............................
........................................................................

 iter      E             dE          RMSdq      gap      omega  full diag
   1   -209.7227130 -0.209723E+03  0.223E-01    0.13       0.0  T
   2   -209.7178647  0.484830E-02  0.199E-01    0.30       1.0  T
   3   -209.1641696  0.553695E+00  0.174E+00    0.10       1.0  T
   4   -209.7215994 -0.557430E+00  0.192E-01    0.18       1.0  T
   5   -209.7201540  0.144538E-02  0.139E-01    0.25       1.0  T
   6   -209.7204559 -0.301840E-03  0.135E-01    0.24       1.0  T
   7   -209.7210136 -0.557751E-03  0.120E-01    0.22       1.0  T
   8   -209.7213805 -0.366894E-03  0.106E-01    0.21       1.0  T
   9   -209.7217675 -0.386957E-03  0.923E-02    0.19       1.0  T
  10   -209.7223579 -0.590493E-03  0.686E-02    0.18       1.0  T
  11   -209.7228654 -0.507430E-03  0.387E-02    0.16       1.0  T
  12   -209.7230945 -0.229103E-03  0.705E-03    0.14       1.4  T
  13   -209.7230891  0.540300E-05  0.870E-03    0.14       1.2  T
  14   -209.7230786  0.105042E-04  0.119E-02    0.14       1.0  T
  15   -209.7230900 -0.113909E-04  0.859E-03    0.14       1.2  T
  16   -209.7230972 -0.723996E-05  0.531E-03    0.14       1.9  T
  17   -209.7231010 -0.381897E-05  0.223E-03    0.14       4.5  T
  18   -209.7231018 -0.732190E-06  0.508E-04    0.14      20.0  T
  19   -209.7231017  0.234773E-07  0.625E-04    0.14      16.2  T
     SCC iter.                  ...        0 min,  0.468 sec
     gradient                   ...        0 min,  0.060 sec
 * total energy  :  -207.5982301 Eh     change       -0.4505200E-03 Eh
   gradient norm :     0.0209316 Eh/α   predicted    -0.7242816E-03 (  60.77%)
   displ. norm   :     0.4171704 α      lambda       -0.7870949E-03
   maximum displ.:     0.2167025 α      in ANC's #10, #2, #11, ...
 * RMSD in coord.:     1.1121363 α      energy gain  -0.1294523E-01 Eh

generating ANC from exact Hessian ...
Using Lindh-Hessian (1995)
 Shifting diagonal of input Hessian by   1.816387239205440E-002
 Lowest  eigenvalues of input Hessian
    0.010000    0.017610    0.017648    0.017717    0.018137    0.000000
    0.000000    0.000000    0.000000    0.000000    0.000000    0.018186
    0.018218    0.018300    0.018388    0.018441    0.018469    0.018568
 Highest eigenvalues
    2.157122    2.247665    2.264641    2.334833    2.526328    3.366230
 

........................................................................
.............................. CYCLE   67 ..............................
........................................................................

 iter      E             dE          RMSdq      gap      omega  full diag
   1   -209.7290933 -0.209729E+03  0.175E-01    0.15       0.0  T
   2   -209.7217355  0.735780E-02  0.216E-01    0.09       1.0  T
   3   -209.7220603 -0.324808E-03  0.222E-01    0.40       1.0  T
   4   -209.7267731 -0.471281E-02  0.154E-01    0.24       1.0  T
   5   -209.7272122 -0.439111E-03  0.108E-01    0.21       1.0  T
   6   -209.7285684 -0.135614E-02  0.690E-02    0.17       1.0  T
   7   -209.7290981 -0.529776E-03  0.249E-02    0.15       1.0  T
   8   -209.7287337  0.364465E-03  0.534E-02    0.12       1.0  T
   9   -209.7291558 -0.422135E-03  0.107E-02    0.14       1.0  T
  10   -209.7291652 -0.940057E-05  0.544E-03    0.14       1.9  T
  11   -209.7291582  0.704548E-05  0.812E-03    0.14       1.3  T
  12   -209.7291679 -0.969389E-05  0.191E-03    0.14       5.3  T
  13   -209.7291681 -0.235214E-06  0.106E-03    0.14       9.6  T
  14   -209.7291681 -0.377662E-07  0.713E-04    0.14      14.2  T
  15   -209.7291682 -0.118633E-07  0.533E-04    0.14      19.0  T
     SCC iter.                  ...        0 min,  0.371 sec
     gradient                   ...        0 min,  0.068 sec
 * total energy  :  -207.5985601 Eh     change       -0.3299548E-03 Eh
   gradient norm :     0.0160711 Eh/α   predicted     0.0000000E+00 (-100.00%)
   displ. norm   :     0.1147074 α      lambda       -0.5386422E-03
   maximum displ.:     0.0420018 α      in ANC's #29, #34, #26, ...

........................................................................
.............................. CYCLE   68 ..............................
........................................................................

 iter      E             dE          RMSdq      gap      omega  full diag
   1   -209.7273091 -0.209727E+03  0.117E-01    0.14       0.0  T
   2   -209.7272900  0.191137E-04  0.449E-02    0.14       1.0  T
   3   -209.7256202  0.166982E-02  0.992E-02    0.19       1.0  T
   4   -209.7249075  0.712644E-03  0.116E-01    0.11       1.0  T
   5   -209.7271652 -0.225766E-02  0.399E-02    0.15       1.0  T
   6   -209.7272527 -0.874798E-04  0.249E-02    0.15       1.0  T
   7   -209.7273054 -0.527358E-04  0.158E-02    0.15       1.0  T
   8   -209.7273384 -0.329911E-04  0.487E-03    0.14       2.1  T
   9   -209.7273372  0.119779E-05  0.437E-03    0.14       2.3  T
  10   -209.7273386 -0.135015E-05  0.271E-03    0.14       3.7  T
  11   -209.7273389 -0.382482E-06  0.179E-03    0.14       5.7  T
  12   -209.7273389  0.394077E-07  0.165E-03    0.14       6.2  T
  13   -209.7273391 -0.181832E-06  0.938E-04    0.14      10.8  T
  14   -209.7273391 -0.568894E-07  0.501E-04    0.14      20.3  T
     SCC iter.                  ...        0 min,  0.351 sec
     gradient                   ...        0 min,  0.056 sec
 * total energy  :  -207.5987207 Eh     change       -0.1605618E-03 Eh
   gradient norm :     0.0072032 Eh/α   predicted    -0.2728682E-03 (  69.95%)
   displ. norm   :     0.2096887 α      lambda       -0.7091896E-03
   maximum displ.:     0.1594924 α      in ANC's #1, #10, #18, ...

........................................................................
.............................. CYCLE   69 ..............................
........................................................................

 iter      E             dE          RMSdq      gap      omega  full diag
   1   -209.7217358 -0.209722E+03  0.258E-01    0.13       0.0  T
   2   -209.7188734  0.286238E-02  0.186E-01    0.24       1.0  T
   3   -209.0887276  0.630146E+00  0.187E+00    0.14       1.0  T
   4   -209.7214173 -0.632690E+00  0.109E-01    0.18       1.0  T
   5   -209.7200341  0.138325E-02  0.114E-01    0.21       1.0  T
   6   -209.7215536 -0.151954E-02  0.817E-02    0.18       1.0  T
   7   -209.7215364  0.172062E-04  0.692E-02    0.18       1.0  T
   8   -209.7218648 -0.328392E-03  0.541E-02    0.16       1.0  T
   9   -209.7220391 -0.174241E-03  0.390E-02    0.16       1.0  T
  10   -209.7221816 -0.142558E-03  0.257E-02    0.15       1.0  T
  11   -209.7222436 -0.619699E-04  0.160E-02    0.15       1.0  T
  12   -209.7222752 -0.316256E-04  0.695E-03    0.14       1.5  T
  13   -209.7222827 -0.753242E-05  0.984E-04    0.14      10.3  T
  14   -209.7222824  0.364925E-06  0.171E-03    0.14       5.9  T
  15   -209.7222823  0.957894E-07  0.185E-03    0.14       5.5  T
  16   -209.7222825 -0.218532E-06  0.139E-03    0.14       7.3  T
  17   -209.7222827 -0.202140E-06  0.742E-04    0.14      13.7  T
  18   -209.7222828 -0.596032E-07  0.398E-04    0.14      25.5  T
     SCC iter.                  ...        0 min,  0.423 sec
     gradient                   ...        0 min,  0.057 sec
 * total energy  :  -207.5981540 Eh     change        0.5666409E-03 Eh
   gradient norm :     0.0200084 Eh/α   predicted    -0.3702057E-03 (-165.33%)
   displ. norm   :     0.1542736 α      lambda       -0.1596191E-02
   maximum displ.:     0.1154950 α      in ANC's #1, #29, #31, ...

........................................................................
.............................. CYCLE   70 ..............................
........................................................................

 iter      E             dE          RMSdq      gap      omega  full diag
   1   -209.7247824 -0.209725E+03  0.198E-01    0.15       0.0  T
   2   -209.6705817  0.542007E-01  0.552E-01    0.04       1.0  T
   3   -209.7194374 -0.488557E-01  0.198E-01    0.34       1.0  T
   4   -209.7235245 -0.408709E-02  0.152E-01    0.21       1.0  T
   5   -209.7226761  0.848453E-03  0.122E-01    0.22       1.0  T
   6   -209.7239797 -0.130363E-02  0.962E-02    0.19       1.0  T
   7   -209.7248489 -0.869217E-03  0.485E-02    0.16       1.0  T
   8   -209.7249779 -0.128965E-03  0.363E-02    0.13       1.0  T
   9   -209.7250851 -0.107241E-03  0.236E-02    0.13       1.0  T
  10   -209.7251500 -0.648788E-04  0.851E-03    0.14       1.2  T
  11   -209.7251581 -0.811344E-05  0.391E-03    0.14       2.6  T
  12   -209.7251595 -0.137476E-05  0.191E-03    0.14       5.3  T
  13   -209.7251588  0.637801E-06  0.257E-03    0.14       4.0  T
  14   -209.7251594 -0.533880E-06  0.133E-03    0.14       7.6  T
  15   -209.7251596 -0.224443E-06  0.552E-04    0.14      18.4  T
  16   -209.7251596 -0.234903E-07  0.266E-04    0.14      38.2  T
     SCC iter.                  ...        0 min,  0.376 sec
     gradient                   ...        0 min,  0.055 sec
 * total energy  :  -207.5990028 Eh     change       -0.8488032E-03 Eh
   gradient norm :     0.0090444 Eh/α   predicted    -0.8170912E-03 (  -3.74%)
   displ. norm   :     0.0817033 α      lambda       -0.2267223E-03
   maximum displ.:     0.0306011 α      in ANC's #10, #18, #2, ...

........................................................................
.............................. CYCLE   71 ..............................
........................................................................

 iter      E             dE          RMSdq      gap      omega  full diag
   1   -209.7273321 -0.209727E+03  0.621E-02    0.13       0.0  T
   2   -209.7244243  0.290782E-02  0.128E-01    0.23       1.0  T
   3   -209.7216022  0.282209E-02  0.176E-01    0.09       1.0  T
   4   -209.7270088 -0.540667E-02  0.591E-02    0.16       1.0  T
   5   -209.7270456 -0.367728E-04  0.485E-02    0.16       1.0  T
   6   -209.7273593 -0.313720E-03  0.234E-02    0.15       1.0  T
   7   -209.7274423 -0.829935E-04  0.776E-03    0.14       1.3  T
   8   -209.7274277  0.146196E-04  0.119E-02    0.14       1.0  T
   9   -209.7274377 -0.100271E-04  0.773E-03    0.14       1.3  T
  10   -209.7274457 -0.794902E-05  0.233E-03    0.14       4.4  T
  11   -209.7274464 -0.710331E-06  0.102E-03    0.14      10.0  T
  12   -209.7274463  0.403091E-07  0.933E-04    0.14      10.9  T
  13   -209.7274464 -0.584851E-08  0.803E-04    0.14      12.6  T
     SCC iter.                  ...        0 min,  0.320 sec
     gradient                   ...        0 min,  0.057 sec
 * total energy  :  -207.5991361 Eh     change       -0.1332566E-03 Eh
   gradient norm :     0.0031097 Eh/α   predicted    -0.1141424E-03 ( -14.34%)
   displ. norm   :     0.1849620 α      lambda       -0.2320799E-03
   maximum displ.:     0.0815845 α      in ANC's #10, #2, #18, ...

........................................................................
.............................. CYCLE   72 ..............................
........................................................................

 iter      E             dE          RMSdq      gap      omega  full diag
   1   -209.7278586 -0.209728E+03  0.915E-02    0.14       0.0  T
   2   -209.7274022  0.456418E-03  0.624E-02    0.16       1.0  T
   3   -209.6030497  0.124353E+00  0.831E-01    0.01       1.0  T
   4   -209.7273886 -0.124339E+00  0.555E-02    0.16       1.0  T
   5   -209.7277542 -0.365594E-03  0.366E-02    0.15       1.0  T
   6   -209.7277038  0.503687E-04  0.329E-02    0.15       1.0  T
   7   -209.7278269 -0.123060E-03  0.193E-02    0.15       1.0  T
   8   -209.7278777 -0.508483E-04  0.760E-03    0.14       1.3  T
   9   -209.7278818 -0.402997E-05  0.464E-03    0.14       2.2  T
  10   -209.7278852 -0.345188E-05  0.150E-03    0.14       6.8  T
  11   -209.7278850  0.251790E-06  0.169E-03    0.14       6.0  T
  12   -209.7278849  0.209786E-08  0.157E-03    0.14       6.5  T
  13   -209.7278851 -0.103515E-06  0.129E-03    0.14       7.9  T
  14   -209.7278852 -0.122826E-06  0.902E-04    0.14      11.3  T
  15   -209.7278853 -0.118392E-06  0.261E-04    0.14      39.0  T
     SCC iter.                  ...        0 min,  0.543 sec
     gradient                   ...        0 min,  0.061 sec
 * total energy  :  -207.5993159 Eh     change       -0.1798519E-03 Eh
   gradient norm :     0.0053555 Eh/α   predicted    -0.1200106E-03 ( -33.27%)
   displ. norm   :     0.6341798 α      lambda       -0.7188962E-03
   maximum displ.:     0.2830470 α      in ANC's #10, #2, #18, ...

........................................................................
.............................. CYCLE   73 ..............................
........................................................................

 iter      E             dE          RMSdq      gap      omega  full diag
   1   -209.7251498 -0.209725E+03  0.307E-01    0.12       0.0  T
   2   -209.7203383  0.481151E-02  0.208E-01    0.31       1.0  T
   3   -209.0229169  0.697421E+00  0.196E+00    0.20       1.0  T
   4   -209.7220666 -0.699150E+00  0.183E-01    0.25       1.0  T
   5   -209.7221643 -0.976489E-04  0.162E-01    0.25       1.0  T
   6   -209.7220815  0.827213E-04  0.148E-01    0.25       1.0  T
   7   -209.7234533 -0.137178E-02  0.129E-01    0.22       1.0  T
   8   -209.7239896 -0.536238E-03  0.105E-01    0.20       1.0  T
   9   -209.7249406 -0.951003E-03  0.718E-02    0.17       1.0  T
  10   -209.7255849 -0.644319E-03  0.334E-02    0.15       1.0  T
  11   -209.7257581 -0.173234E-03  0.573E-03    0.14       1.8  T
  12   -209.7257252  0.328767E-04  0.154E-02    0.13       1.0  T
  13   -209.7257335 -0.820080E-05  0.131E-02    0.13       1.0  T
  14   -209.7257475 -0.139998E-04  0.933E-03    0.13       1.1  T
  15   -209.7257585 -0.110245E-04  0.436E-03    0.14       2.3  T
  16   -209.7257609 -0.242439E-05  0.165E-03    0.14       6.1  T
  17   -209.7257601  0.800267E-06  0.272E-03    0.14       3.7  T
  18   -209.7257612 -0.108322E-05  0.882E-04    0.14      11.5  T
  19   -209.7257613 -0.115138E-06  0.280E-04    0.14      36.2  T
  20   -209.7257613 -0.862599E-10  0.215E-04    0.14      47.1  T
     SCC iter.                  ...        0 min,  0.503 sec
     gradient                   ...        0 min,  0.058 sec
 * total energy  :  -207.5997951 Eh     change       -0.4791930E-03 Eh
   gradient norm :     0.0122374 Eh/α   predicted    -0.5040214E-03 (   5.18%)
   displ. norm   :     0.4920458 α      lambda       -0.5154111E-03
   maximum displ.:     0.2262362 α      in ANC's #2, #10, #18, ...

........................................................................
.............................. CYCLE   74 ..............................
........................................................................

 iter      E             dE          RMSdq      gap      omega  full diag
   1   -209.7226416 -0.209723E+03  0.245E-01    0.12       0.0  T
   2   -209.7160204  0.662123E-02  0.232E-01    0.37       1.0  T
   3   -209.2731558  0.442865E+00  0.156E+00    0.07       1.0  T
   4   -209.7207337 -0.447578E+00  0.196E-01    0.24       1.0  T
   5   -209.7190577  0.167607E-02  0.166E-01    0.28       1.0  T
   6   -209.7199418 -0.884113E-03  0.157E-01    0.26       1.0  T
   7   -209.7202985 -0.356776E-03  0.144E-01    0.24       1.0  T
   8   -209.7211669 -0.868307E-03  0.121E-01    0.21       1.0  T
   9   -209.7218375 -0.670667E-03  0.102E-01    0.19       1.0  T
  10   -209.7227349 -0.897422E-03  0.684E-02    0.17       1.0  T
  11   -209.7233934 -0.658447E-03  0.236E-02    0.15       1.0  T
  12   -209.7234825 -0.891004E-04  0.277E-03    0.14       3.7  T
  13   -209.7234679  0.145717E-04  0.944E-03    0.13       1.1  T
  14   -209.7234613  0.664322E-05  0.117E-02    0.13       1.0  T
  15   -209.7234732 -0.119147E-04  0.780E-03    0.13       1.3  T
  16   -209.7234808 -0.762474E-05  0.378E-03    0.14       2.7  T
  17   -209.7234829 -0.207969E-05  0.829E-04    0.14      12.2  T
  18   -209.7234829 -0.469481E-07  0.566E-04    0.14      17.9  T
  19   -209.7234829  0.106771E-07  0.516E-04    0.14      19.7  T
     SCC iter.                  ...        0 min,  0.493 sec
     gradient                   ...        0 min,  0.054 sec
 * total energy  :  -207.6001515 Eh     change       -0.3563602E-03 Eh
   gradient norm :     0.0129915 Eh/α   predicted    -0.3200999E-03 ( -10.18%)
   displ. norm   :     0.4935640 α      lambda       -0.6090492E-03
   maximum displ.:     0.2526866 α      in ANC's #2, #10, #18, ...

........................................................................
.............................. CYCLE   75 ..............................
........................................................................

 iter      E             dE          RMSdq      gap      omega  full diag
   1   -209.7239848 -0.209724E+03  0.262E-01    0.14       0.0  T
   2   -209.7058129  0.181720E-01  0.319E-01    0.07       1.0  T
   3   -209.7117995 -0.598667E-02  0.319E-01    0.56       1.0  T
   4   -209.7188826 -0.708303E-02  0.201E-01    0.38       1.0  T
   5   -209.7196604 -0.777866E-03  0.167E-01    0.29       1.0  T
   6   -209.7213975 -0.173711E-02  0.137E-01    0.23       1.0  T
   7   -209.7229173 -0.151981E-02  0.901E-02    0.18       1.0  T
   8   -209.7225145  0.402884E-03  0.101E-01    0.11       1.0  T
   9   -209.7240684 -0.155391E-02  0.228E-02    0.13       1.0  T
  10   -209.7241371 -0.687654E-04  0.633E-03    0.14       1.6  T
  11   -209.7241389 -0.177807E-05  0.403E-03    0.14       2.5  T
  12   -209.7241333  0.561482E-05  0.682E-03    0.14       1.5  T
  13   -209.7241388 -0.553800E-05  0.267E-03    0.14       3.8  T
  14   -209.7241394 -0.567707E-06  0.138E-03    0.14       7.3  T
  15   -209.7241388  0.645620E-06  0.231E-03    0.14       4.4  T
  16   -209.7241395 -0.709500E-06  0.832E-04    0.14      12.2  T
  17   -209.7241395 -0.156510E-07  0.505E-04    0.14      20.1  T
     SCC iter.                  ...        0 min,  0.403 sec
     gradient                   ...        0 min,  0.059 sec
 * total energy  :  -207.6006714 Eh     change       -0.5199225E-03 Eh
   gradient norm :     0.0104649 Eh/α   predicted    -0.3787105E-03 ( -27.16%)
   displ. norm   :     0.6156347 α      lambda       -0.9358748E-03
   maximum displ.:     0.3462797 α      in ANC's #2, #10, #18, ...

........................................................................
.............................. CYCLE   76 ..............................
........................................................................

 iter      E             dE          RMSdq      gap      omega  full diag
   1   -209.7282923 -0.209728E+03  0.344E-01    0.14       0.0  T
   2   -209.7199487  0.834365E-02  0.235E-01    0.09       1.0  T
   3   -209.7094657  0.104830E-01  0.431E-01    0.74       1.0  T
   4   -209.7215077 -0.120420E-01  0.215E-01    0.47       1.0  T
   5   -209.7244074 -0.289966E-02  0.163E-01    0.27       1.0  T
   6   -209.7265315 -0.212408E-02  0.117E-01    0.20       1.0  T
   7   -209.7284137 -0.188226E-02  0.316E-02    0.14       1.0  T
   8   -209.7267406  0.167307E-02  0.104E-01    0.11       1.0  T
   9   -209.7283068 -0.156618E-02  0.313E-02    0.15       1.0  T
  10   -209.7284490 -0.142161E-03  0.732E-03    0.14       1.4  T
  11   -209.7284428  0.617209E-05  0.841E-03    0.14       1.2  T
  12   -209.7284456 -0.274830E-05  0.663E-03    0.14       1.5  T
  13   -209.7284505 -0.489052E-05  0.231E-03    0.14       4.4  T
  14   -209.7284505 -0.305753E-07  0.183E-03    0.14       5.5  T
  15   -209.7284502  0.321027E-06  0.209E-03    0.14       4.9  T
  16   -209.7284506 -0.416804E-06  0.113E-03    0.14       9.0  T
  17   -209.7284506 -0.279757E-07  0.787E-04    0.14      12.9  T
  18   -209.7284507 -0.641414E-07  0.329E-04    0.14      30.8  T
     SCC iter.                  ...        0 min,  0.521 sec
     gradient                   ...        0 min,  0.058 sec
 * total energy  :  -207.6014319 Eh     change       -0.7605446E-03 Eh
   gradient norm :     0.0098098 Eh/α   predicted    -0.6452902E-03 ( -15.15%)
   displ. norm   :     0.7438225 α      lambda       -0.1067775E-02
   maximum displ.:     0.4167671 α      in ANC's #2, #10, #18, ...

........................................................................
.............................. CYCLE   77 ..............................
........................................................................

 iter      E             dE          RMSdq      gap      omega  full diag
   1   -209.7268519 -0.209727E+03  0.418E-01    0.15       0.0  T
   2   -209.6897881  0.370638E-01  0.461E-01    0.05       1.0  T
   3   -209.7051607 -0.153726E-01  0.480E-01    0.86       1.0  T
   4   -209.7201088 -0.149481E-01  0.245E-01    0.55       1.0  T
   5   -209.7211640 -0.105523E-02  0.203E-01    0.40       1.0  T
   6   -209.7228975 -0.173354E-02  0.182E-01    0.32       1.0  T
   7   -209.7240423 -0.114473E-02  0.150E-01    0.25       1.0  T
   8   -209.7270420 -0.299977E-02  0.366E-02    0.13       1.0  T
   9   -209.7253644  0.167759E-02  0.107E-01    0.11       1.0  T
  10   -209.7269647 -0.160030E-02  0.371E-02    0.16       1.0  T
  11   -209.7271647 -0.199936E-03  0.105E-02    0.14       1.0  T
  12   -209.7271657 -0.100005E-05  0.989E-03    0.14       1.0  T
  13   -209.7271768 -0.111682E-04  0.314E-03    0.14       3.2  T
  14   -209.7271765  0.343736E-06  0.270E-03    0.14       3.8  T
  15   -209.7271768 -0.285927E-06  0.204E-03    0.14       5.0  T
  16   -209.7271769 -0.859091E-07  0.170E-03    0.14       6.0  T
  17   -209.7271771 -0.260035E-06  0.652E-04    0.14      15.6  T
  18   -209.7271771  0.237363E-07  0.652E-04    0.14      15.6  T
     SCC iter.                  ...        0 min,  0.464 sec
     gradient                   ...        0 min,  0.057 sec
 * total energy  :  -207.6023535 Eh     change       -0.9215855E-03 Eh
   gradient norm :     0.0172694 Eh/α   predicted    -0.8292806E-03 ( -10.02%)
   displ. norm   :     0.6464934 α      lambda       -0.1434229E-02
   maximum displ.:     0.3678812 α      in ANC's #2, #23, #10, ...

........................................................................
.............................. CYCLE   78 ..............................
........................................................................

 iter      E             dE          RMSdq      gap      omega  full diag
   1   -209.7332218 -0.209733E+03  0.406E-01    0.16       0.0  T
   2   -209.6127760  0.120446E+00  0.826E-01    0.02       1.0  T
   3   -209.7196607 -0.106885E+00  0.359E-01    0.65       1.0  T
   4   -209.7296212 -0.996049E-02  0.271E-01    0.36       1.0  T
   5   -209.7281969  0.142429E-02  0.194E-01    0.39       1.0  T
   6   -209.7294116 -0.121470E-02  0.184E-01    0.34       1.0  T
   7   -209.7300520 -0.640437E-03  0.163E-01    0.30       1.0  T
   8   -209.7315021 -0.145003E-02  0.121E-01    0.22       1.0  T
   9   -209.7336632 -0.216113E-02  0.224E-02    0.15       1.0  T
  10   -209.7333746  0.288599E-03  0.480E-02    0.13       1.0  T
  11   -209.7337153 -0.340686E-03  0.978E-03    0.14       1.0  T
  12   -209.7337228 -0.750873E-05  0.455E-03    0.14       2.2  T
  13   -209.7337063  0.164628E-04  0.101E-02    0.14       1.0  T
  14   -209.7337179 -0.115603E-04  0.606E-03    0.15       1.7  T
  15   -209.7337234 -0.552285E-05  0.172E-03    0.14       5.9  T
  16   -209.7337235 -0.820546E-07  0.148E-03    0.14       6.9  T
  17   -209.7337237 -0.228261E-06  0.651E-04    0.14      15.6  T
  18   -209.7337238 -0.204223E-07  0.455E-04    0.14      22.3  T
     SCC iter.                  ...        0 min,  0.452 sec
     gradient                   ...        0 min,  0.057 sec
 * total energy  :  -207.6034491 Eh     change       -0.1095565E-02 Eh
   gradient norm :     0.0228569 Eh/α   predicted    -0.1016844E-02 (  -7.19%)
   displ. norm   :     0.6798935 α      lambda       -0.1437071E-02
   maximum displ.:     0.3913204 α      in ANC's #2, #10, #23, ...

........................................................................
.............................. CYCLE   79 ..............................
........................................................................

 iter      E             dE          RMSdq      gap      omega  full diag
   1   -209.7257073 -0.209726E+03  0.411E-01    0.13       0.0  T
   2   -209.7224292  0.327811E-02  0.188E-01    0.26       1.0  T
   3   -208.9987582  0.723671E+00  0.197E+00    0.29       1.0  T
   4   -209.7246984 -0.725940E+00  0.141E-01    0.20       1.0  T
   5   -209.7233393  0.135909E-02  0.130E-01    0.23       1.0  T
   6   -209.7247769 -0.143760E-02  0.103E-01    0.20       1.0  T
   7   -209.7252080 -0.431172E-03  0.808E-02    0.19       1.0  T
   8   -209.7257002 -0.492195E-03  0.554E-02    0.17       1.0  T
   9   -209.7260670 -0.366744E-03  0.246E-02    0.15       1.0  T
  10   -209.7261537 -0.866831E-04  0.633E-03    0.14       1.6  T
  11   -209.7261509  0.272760E-05  0.685E-03    0.14       1.5  T
  12   -209.7261403  0.106489E-04  0.978E-03    0.14       1.0  T
  13   -209.7261479 -0.761358E-05  0.699E-03    0.14       1.5  T
  14   -209.7261533 -0.537634E-05  0.366E-03    0.14       2.8  T
  15   -209.7261551 -0.183906E-05  0.913E-04    0.14      11.1  T
  16   -209.7261549  0.192689E-06  0.126E-03    0.14       8.0  T
  17   -209.7261549  0.269058E-07  0.129E-03    0.14       7.9  T
  18   -209.7261551 -0.198477E-06  0.645E-04    0.14      15.8  T
  19   -209.7261551 -0.452448E-07  0.290E-04    0.14      35.0  T
     SCC iter.                  ...        0 min,  0.499 sec
     gradient                   ...        0 min,  0.056 sec
 * total energy  :  -207.6046040 Eh     change       -0.1154943E-02 Eh
   gradient norm :     0.0329470 Eh/α   predicted    -0.1050692E-02 (  -9.03%)
   displ. norm   :     0.5884666 α      lambda       -0.3479873E-02
   maximum displ.:     0.2277972 α      in ANC's #2, #17, #1, ...

........................................................................
.............................. CYCLE   80 ..............................
........................................................................

 iter      E             dE          RMSdq      gap      omega  full diag
   1   -209.7317325 -0.209732E+03  0.466E-01    0.12       0.0  T
   2   -209.7241582  0.757431E-02  0.300E-01    0.43       1.0  T
   3   -209.0135374  0.710621E+00  0.193E+00    0.22       1.0  T
   4   -209.7270313 -0.713494E+00  0.336E-01    0.33       1.0  T
   5   -209.7284281 -0.139674E-02  0.195E-01    0.36       1.0  T
   6   -209.7289026 -0.474587E-03  0.181E-01    0.35       1.0  T
   7   -209.7297117 -0.809107E-03  0.168E-01    0.32       1.0  T
   8   -209.7299802 -0.268446E-03  0.158E-01    0.30       1.0  T
   9   -209.7306653 -0.685155E-03  0.137E-01    0.26       1.0  T
  10   -209.7315631 -0.897742E-03  0.113E-01    0.22       1.0  T
  11   -209.7323479 -0.784793E-03  0.843E-02    0.19       1.0  T
  12   -209.7334041 -0.105622E-02  0.137E-02    0.15       1.0  T
  13   -209.7334035  0.549601E-06  0.105E-02    0.14       1.0  T
  14   -209.7334195 -0.159164E-04  0.263E-03    0.15       3.9  T
  15   -209.7334076  0.118750E-04  0.888E-03    0.14       1.1  T
  16   -209.7334192 -0.116363E-04  0.224E-03    0.15       4.5  T
  17   -209.7334195 -0.257922E-06  0.166E-03    0.15       6.1  T
  18   -209.7334198 -0.322002E-06  0.578E-04    0.15      17.6  T
  19   -209.7334196  0.171571E-06  0.118E-03    0.15       8.6  T
  20   -209.7334196  0.117040E-07  0.121E-03    0.15       8.4  T
  21   -209.7334198 -0.191031E-06  0.281E-04    0.15      36.2  T
     SCC iter.                  ...        0 min,  0.534 sec
     gradient                   ...        0 min,  0.057 sec
 * total energy  :  -207.6056630 Eh     change       -0.1058944E-02 Eh
   gradient norm :     0.0323703 Eh/α   predicted    -0.2342473E-02 ( 121.21%)
   displ. norm   :     0.4809433 α      lambda       -0.3551591E-02
   maximum displ.:     0.2598413 α      in ANC's #2, #17, #23, ...

........................................................................
.............................. CYCLE   81 ..............................
........................................................................

 iter      E             dE          RMSdq      gap      omega  full diag
   1   -209.7277723 -0.209728E+03  0.388E-01    0.16       0.0  T
   2   -209.7247158  0.305649E-02  0.179E-01    0.11       1.0  T
   3   -209.7153446  0.937123E-02  0.353E-01    0.62       1.0  T
   4   -209.7242154 -0.887085E-02  0.168E-01    0.35       1.0  T
   5   -209.7278782 -0.366278E-02  0.742E-02    0.17       1.0  T
   6   -209.7279400 -0.618092E-04  0.575E-02    0.14       1.0  T
   7   -209.7280540 -0.113935E-03  0.393E-02    0.16       1.0  T
   8   -209.7281106 -0.566776E-04  0.280E-02    0.14       1.0  T
   9   -209.7281958 -0.851214E-04  0.116E-02    0.15       1.0  T
  10   -209.7281982 -0.242001E-05  0.895E-03    0.15       1.1  T
  11   -209.7281959  0.228744E-05  0.862E-03    0.15       1.2  T
  12   -209.7282051 -0.920935E-05  0.413E-03    0.15       2.5  T
  13   -209.7282074 -0.227938E-05  0.145E-03    0.15       7.0  T
  14   -209.7282074  0.908585E-09  0.126E-03    0.15       8.1  T
  15   -209.7282074 -0.581115E-07  0.822E-04    0.15      12.4  T
  16   -209.7282074 -0.210977E-08  0.629E-04    0.15      16.2  T
     SCC iter.                  ...        0 min,  0.397 sec
     gradient                   ...        0 min,  0.058 sec
 * total energy  :  -207.6080222 Eh     change       -0.2359270E-02 Eh
   gradient norm :     0.0369131 Eh/α   predicted    -0.2186559E-02 (  -7.32%)
   displ. norm   :     0.4362279 α      lambda       -0.3100655E-02
   maximum displ.:     0.2189205 α      in ANC's #2, #17, #23, ...

........................................................................
.............................. CYCLE   82 ..............................
........................................................................

 iter      E             dE          RMSdq      gap      omega  full diag
   1   -209.7268688 -0.209727E+03  0.392E-01    0.20       0.0  T
   2   -209.2198107  0.507058E+00  0.167E+00    0.09       1.0  T
   3   -209.7234173 -0.503607E+00  0.200E-01    0.39       1.0  T
   4   -209.7264083 -0.299097E-02  0.188E-01    0.26       1.0  T
   5   -209.7248997  0.150856E-02  0.143E-01    0.31       1.0  T
   6   -209.7258402 -0.940507E-03  0.136E-01    0.28       1.0  T
   7   -209.7261762 -0.335994E-03  0.121E-01    0.26       1.0  T
   8   -209.7265372 -0.361003E-03  0.104E-01    0.24       1.0  T
   9   -209.7270802 -0.542948E-03  0.840E-02    0.21       1.0  T
  10   -209.7275906 -0.510403E-03  0.602E-02    0.19       1.0  T
  11   -209.7279621 -0.371493E-03  0.346E-02    0.17       1.0  T
  12   -209.7281234 -0.161334E-03  0.127E-02    0.16       1.0  T
  13   -209.7281478 -0.244356E-04  0.250E-03    0.16       4.1  T
  14   -209.7281467  0.112454E-05  0.345E-03    0.15       2.9  T
  15   -209.7281468 -0.807044E-07  0.334E-03    0.15       3.0  T
  16   -209.7281477 -0.934530E-06  0.220E-03    0.16       4.6  T
  17   -209.7281477 -0.667447E-08  0.213E-03    0.16       4.8  T
  18   -209.7281483 -0.576628E-06  0.993E-04    0.16      10.2  T
  19   -209.7281484 -0.113664E-06  0.320E-04    0.16      31.7  T
     SCC iter.                  ...        0 min,  0.459 sec
     gradient                   ...        0 min,  0.055 sec
 * total energy  :  -207.6103912 Eh     change       -0.2368912E-02 Eh
   gradient norm :     0.0423925 Eh/α   predicted    -0.1845354E-02 ( -22.10%)
   displ. norm   :     0.4562954 α      lambda       -0.4061962E-02
   maximum displ.:     0.1752577 α      in ANC's #2, #17, #3, ...

........................................................................
.............................. CYCLE   83 ..............................
........................................................................

 iter      E             dE          RMSdq      gap      omega  full diag
   1   -209.7390582 -0.209739E+03  0.449E-01    0.21       0.0  T
   2   -209.3570037  0.382055E+00  0.144E+00    0.06       1.0  T
   3   -209.7343123 -0.377309E+00  0.245E-01    0.51       1.0  T
   4   -209.7383063 -0.399397E-02  0.217E-01    0.33       1.0  T
   5   -209.7369827  0.132363E-02  0.149E-01    0.39       1.0  T
   6   -209.7379819 -0.999217E-03  0.141E-01    0.35       1.0  T
   7   -209.7380868 -0.104916E-03  0.126E-01    0.33       1.0  T
   8   -209.7385646 -0.477758E-03  0.112E-01    0.29       1.0  T
   9   -209.7388946 -0.330004E-03  0.977E-02    0.26       1.0  T
  10   -209.7394675 -0.572986E-03  0.758E-02    0.23       1.0  T
  11   -209.7399591 -0.491596E-03  0.487E-02    0.20       1.0  T
  12   -209.7402818 -0.322671E-03  0.165E-02    0.17       1.0  T
  13   -209.7403129 -0.311248E-04  0.773E-03    0.16       1.3  T
  14   -209.7403200 -0.710590E-05  0.436E-03    0.16       2.3  T
  15   -209.7403206 -0.561345E-06  0.383E-03    0.16       2.6  T
  16   -209.7403216 -0.981075E-06  0.272E-03    0.16       3.7  T
  17   -209.7403222 -0.580623E-06  0.191E-03    0.16       5.3  T
  18   -209.7403227 -0.538859E-06  0.451E-04    0.17      22.5  T
  19   -209.7403227  0.407559E-07  0.606E-04    0.17      16.8  T
     SCC iter.                  ...        0 min,  0.449 sec
     gradient                   ...        0 min,  0.055 sec
 * total energy  :  -207.6135349 Eh     change       -0.3143697E-02 Eh
   gradient norm :     0.0433849 Eh/α   predicted    -0.2453846E-02 ( -21.94%)
   displ. norm   :     0.5678224 α      lambda       -0.5238604E-02
   maximum displ.:     0.2136769 α      in ANC's #3, #2, #22, ...

........................................................................
.............................. CYCLE   84 ..............................
........................................................................

 iter      E             dE          RMSdq      gap      omega  full diag
   1   -209.7427216 -0.209743E+03  0.604E-01    0.19       0.0  T
   2   -209.7327677  0.995395E-02  0.287E-01    0.10       1.0  T
   3   -209.7197034  0.130642E-01  0.578E-01    0.97       1.0  T
   4   -209.7364532 -0.167498E-01  0.243E-01    0.69       1.0  T
   5   -209.7413249 -0.487166E-02  0.145E-01    0.37       1.0  T
   6   -209.7424703 -0.114538E-02  0.129E-01    0.26       1.0  T
   7   -209.7434657 -0.995405E-03  0.658E-02    0.19       1.0  T
   8   -209.7428998  0.565860E-03  0.700E-02    0.14       1.0  T
   9   -209.7434003 -0.500486E-03  0.376E-02    0.20       1.0  T
  10   -209.7434708 -0.705391E-04  0.288E-02    0.16       1.0  T
  11   -209.7435952 -0.124330E-03  0.718E-03    0.17       1.4  T
  12   -209.7435951  0.108357E-06  0.574E-03    0.17       1.8  T
  13   -209.7435968 -0.178185E-05  0.336E-03    0.17       3.0  T
  14   -209.7435963  0.498484E-06  0.302E-03    0.17       3.4  T
  15   -209.7435967 -0.355522E-06  0.235E-03    0.17       4.3  T
  16   -209.7435974 -0.745723E-06  0.713E-04    0.17      14.2  T
  17   -209.7435974  0.170432E-07  0.643E-04    0.17      15.8  T
     SCC iter.                  ...        0 min,  0.424 sec
     gradient                   ...        0 min,  0.060 sec
 * total energy  :  -207.6179232 Eh     change       -0.4388315E-02 Eh
   gradient norm :     0.0484475 Eh/α   predicted    -0.3463830E-02 ( -21.07%)
   displ. norm   :     0.6282909 α      lambda       -0.9767048E-02
   maximum displ.:     0.2505512 α      in ANC's #259, #13, #3, ...

........................................................................
.............................. CYCLE   85 ..............................
........................................................................

 iter      E             dE          RMSdq      gap      omega  full diag
   1   -209.7641011 -0.209764E+03  0.756E-01    0.17       0.0  T
   2   -209.7635462  0.554916E-03  0.270E-01    0.23       1.0  T
   3   -209.6766632  0.868830E-01  0.755E-01    0.04       1.0  T
   4   -209.7558187 -0.791555E-01  0.339E-01    0.56       1.0  T
   5   -209.7644844 -0.866570E-02  0.133E-01    0.31       1.0  T
   6   -209.7646338 -0.149334E-03  0.105E-01    0.27       1.0  T
   7   -209.7651233 -0.489512E-03  0.809E-02    0.25       1.0  T
   8   -209.7655119 -0.388624E-03  0.538E-02    0.21       1.0  T
   9   -209.7657845 -0.272543E-03  0.197E-02    0.19       1.0  T
  10   -209.7657939 -0.946019E-05  0.153E-02    0.17       1.0  T
  11   -209.7658157 -0.217646E-04  0.772E-03    0.18       1.3  T
  12   -209.7658165 -0.807340E-06  0.519E-03    0.18       2.0  T
  13   -209.7658165 -0.558952E-07  0.390E-03    0.18       2.6  T
  14   -209.7658169 -0.323714E-06  0.257E-03    0.18       4.0  T
  15   -209.7658172 -0.352092E-06  0.159E-03    0.18       6.4  T
  16   -209.7658173 -0.634784E-07  0.101E-03    0.18      10.0  T
  17   -209.7658173  0.126761E-08  0.864E-04    0.18      11.8  T
  18   -209.7658173 -0.331591E-07  0.502E-04    0.18      20.2  T
     SCC iter.                  ...        0 min,  0.458 sec
     gradient                   ...        0 min,  0.059 sec
 * total energy  :  -207.6253570 Eh     change       -0.7433794E-02 Eh
   gradient norm :     0.0466488 Eh/α   predicted    -0.6811305E-02 (  -8.37%)
   displ. norm   :     0.7714856 α      lambda       -0.1367580E-01
   maximum displ.:     0.3401366 α      in ANC's #259, #30, #23, ...

........................................................................
.............................. CYCLE   86 ..............................
........................................................................

 iter      E             dE          RMSdq      gap      omega  full diag
   1   -209.7396083 -0.209740E+03  0.103E+00    0.07       0.0  T
   2   -209.7208603  0.187480E-01  0.872E-01    0.86       1.0  T
   3   -209.7573311 -0.364708E-01  0.662E-01    0.17       1.0  T
   4   -209.7633836 -0.605246E-02  0.330E-01    0.12       1.0  T
   5   -209.7670597 -0.367615E-02  0.271E-01    0.24       1.0  T
   6   -209.7676318 -0.572069E-03  0.208E-01    0.19       1.0  T
   7   -209.7658604  0.177145E-02  0.148E-01    0.12       1.0  T
   8   -209.7669476 -0.108729E-02  0.130E-01    0.29       1.0  T
   9   -209.7692908 -0.234318E-02  0.422E-02    0.16       1.0  T
  10   -209.7691454  0.145399E-03  0.421E-02    0.15       1.0  T
  11   -209.7692658 -0.120391E-03  0.309E-02    0.17       1.0  T
  12   -209.7692965 -0.307116E-04  0.214E-02    0.16       1.0  T
  13   -209.7693120 -0.154335E-04  0.172E-02    0.18       1.0  T
  14   -209.7693268 -0.148356E-04  0.119E-02    0.17       1.0  T
  15   -209.7693393 -0.124986E-04  0.580E-03    0.17       1.8  T
  16   -209.7693402 -0.936364E-06  0.427E-03    0.17       2.4  T
  17   -209.7693413 -0.104893E-05  0.265E-03    0.17       3.8  T
  18   -209.7693405  0.774897E-06  0.289E-03    0.17       3.5  T
  19   -209.7693416 -0.105744E-05  0.118E-03    0.17       8.6  T
  20   -209.7693414  0.203141E-06  0.139E-03    0.17       7.3  T
  21   -209.7693416 -0.243571E-06  0.500E-04    0.17      20.3  T
  22   -209.7693416  0.130590E-07  0.439E-04    0.17      23.1  T
     SCC iter.                  ...        0 min,  0.612 sec
     gradient                   ...        0 min,  0.056 sec
 * total energy  :  -207.6355017 Eh     change       -0.1014474E-01 Eh
   gradient norm :     0.0663815 Eh/α   predicted    -0.1090776E-01 (   7.52%)
   displ. norm   :     0.6742965 α      lambda       -0.1863286E-01
   maximum displ.:     0.3173116 α      in ANC's #259, #30, #49, ...

........................................................................
.............................. CYCLE   87 ..............................
........................................................................

 iter      E             dE          RMSdq      gap      omega  full diag
   1   -209.0346678 -0.209035E+03  0.357E+00    0.02       0.0  T
   2   -205.9994381  0.303523E+01  0.692E+00    0.08       1.0  T
   3   -209.5057107 -0.350627E+01  0.231E+00    0.68       1.0  T
   4   -209.6867989 -0.181088E+00  0.132E+00    0.07       1.0  T
   5   -209.6670026  0.197963E-01  0.118E+00    1.27       1.0  T
   6   -209.7187597 -0.517571E-01  0.848E-01    0.80       1.0  T
   7   -209.7401603 -0.214005E-01  0.683E-01    0.24       1.0  T
   8   -209.7456053 -0.544506E-02  0.487E-01    0.12       1.0  T
   9   -209.7493094 -0.370406E-02  0.355E-01    0.19       1.0  T
  10   -209.7524647 -0.315535E-02  0.219E-01    0.16       1.0  T
  11   -209.7437881  0.867668E-02  0.442E-01    0.09       1.0  T
  12   -209.7515992 -0.781112E-02  0.228E-01    0.16       1.0  T
  13   -209.7549014 -0.330220E-02  0.105E-01    0.13       1.0  T
  14   -209.7552758 -0.374371E-03  0.617E-02    0.15       1.0  T
  15   -209.7553284 -0.526132E-04  0.422E-02    0.14       1.0  T
  16   -209.7542545  0.107389E-02  0.124E-01    0.17       1.0  T
  17   -209.7547372 -0.482718E-03  0.972E-02    0.13       1.0  T
  18   -209.7546216  0.115640E-03  0.112E-01    0.15       1.0  T
  19   -209.7554194 -0.797800E-03  0.185E-02    0.15       1.0  T
  20   -209.7553642  0.551432E-04  0.346E-02    0.14       1.0  T
  21   -209.7554151 -0.508736E-04  0.197E-02    0.14       1.0  T
  22   -209.7554392 -0.241001E-04  0.911E-03    0.14       1.1  T
  23   -209.7554424 -0.317089E-05  0.493E-03    0.14       2.1  T
  24   -209.7554426 -0.282590E-06  0.372E-03    0.15       2.7  T
  25   -209.7554438 -0.114261E-05  0.849E-04    0.14      12.0  T
  26   -209.7554437  0.985880E-07  0.155E-03    0.15       6.6  T
  27   -209.7554438 -0.980854E-07  0.678E-04    0.14      15.0  T
  28   -209.7554439 -0.692943E-07  0.225E-04    0.14      45.0  T
     SCC iter.                  ...        0 min,  0.704 sec
     gradient                   ...        0 min,  0.057 sec
 * total energy  :  -207.6451685 Eh     change       -0.9666787E-02 Eh
   gradient norm :     0.0669495 Eh/α   predicted    -0.1355240E-01 (  40.20%)
   displ. norm   :     0.4297542 α      lambda       -0.9788304E-02
   maximum displ.:     0.1792908 α      in ANC's #13, #19, #3, ...

........................................................................
.............................. CYCLE   88 ..............................
........................................................................

 iter      E             dE          RMSdq      gap      omega  full diag
   1   -209.7598094 -0.209760E+03  0.442E-01    0.20       0.0  T
   2   -208.1291880  0.163062E+01  0.489E+00    0.02       1.0  T
   3   -209.0477032 -0.918515E+00  0.320E+00    0.02       1.0  T
   4   -209.0252515  0.224517E-01  0.329E+00    0.02       1.0  T
   5   -209.0735461 -0.482946E-01  0.305E+00    0.02       1.0  T
   6   -209.4681247 -0.394579E+00  0.205E+00    0.01       1.0  T
   7   -209.7562673 -0.288143E+00  0.591E-01    0.17       1.0  T
   8   -209.7599682 -0.370086E-02  0.495E-01    0.17       1.0  T
   9   -209.7606216 -0.653475E-03  0.469E-01    0.17       1.0  T
  10   -209.7614041 -0.782492E-03  0.443E-01    0.17       1.0  T
  11   -209.7621405 -0.736419E-03  0.385E-01    0.17       1.0  T
  12   -209.7599854  0.215516E-02  0.294E-01    0.11       1.0  T
  13   -209.7622761 -0.229074E-02  0.298E-01    0.14       1.0  T
  14   -209.7578061  0.447002E-02  0.251E-01    0.10       1.0  T
  15   -209.7636956 -0.588952E-02  0.115E-01    0.16       1.0  T
  16   -209.7642252 -0.529584E-03  0.109E-01    0.15       1.0  T
  17   -209.7646505 -0.425243E-03  0.674E-02    0.14       1.0  T
  18   -209.7645143  0.136153E-03  0.637E-02    0.13       1.0  T
  19   -209.7646487 -0.134433E-03  0.416E-02    0.13       1.0  T
  20   -209.7647498 -0.101026E-03  0.181E-02    0.13       1.0  T
  21   -209.7647621 -0.123772E-04  0.201E-02    0.14       1.0  T
  22   -209.7647800 -0.178663E-04  0.431E-03    0.14       2.4  T
  23   -209.7647801 -0.112014E-06  0.333E-03    0.14       3.0  T
  24   -209.7647807 -0.634659E-06  0.280E-03    0.14       3.6  T
  25   -209.7647806  0.143252E-06  0.305E-03    0.14       3.3  T
  26   -209.7647809 -0.249327E-06  0.142E-03    0.14       7.1  T
  27   -209.7647809 -0.249976E-07  0.300E-04    0.14      33.9  T
  28   -209.7647809 -0.104351E-07  0.195E-04    0.14      52.0  T
     SCC iter.                  ...        0 min,  0.736 sec
     gradient                   ...        0 min,  0.066 sec
 * total energy  :  -207.6508752 Eh     change       -0.5706700E-02 Eh
   gradient norm :     0.0426836 Eh/α   predicted    -0.5798052E-02 (   1.60%)
   displ. norm   :     0.6718827 α      lambda       -0.1530157E-01
   maximum displ.:     0.2112801 α      in ANC's #17, #23, #36, ...

........................................................................
.............................. CYCLE   89 ..............................
........................................................................

 iter      E             dE          RMSdq      gap      omega  full diag
   1   -209.7589783 -0.209759E+03  0.840E-01    0.30       0.0  T
   2   -209.0272642  0.731714E+00  0.196E+00    0.27       1.0  T
   3   -209.7384714 -0.711207E+00  0.609E-01    0.72       1.0  T
   4   -209.7591944 -0.207230E-01  0.493E-01    0.40       1.0  T
   5   -209.7564592  0.273524E-02  0.318E-01    0.50       1.0  T
   6   -209.7601523 -0.369311E-02  0.315E-01    0.40       1.0  T
   7   -209.7617134 -0.156115E-02  0.261E-01    0.39       1.0  T
   8   -209.7625320 -0.818555E-03  0.211E-01    0.37       1.0  T
   9   -209.7643598 -0.182781E-02  0.167E-01    0.33       1.0  T
  10   -209.7663979 -0.203814E-02  0.102E-01    0.24       1.0  T
  11   -209.7675196 -0.112165E-02  0.460E-02    0.14       1.0  T
  12   -209.7677043 -0.184719E-03  0.308E-02    0.15       1.0  T
  13   -209.7678145 -0.110215E-03  0.131E-02    0.16       1.0  T
  14   -209.7676903  0.124262E-03  0.298E-02    0.15       1.0  T
  15   -209.7677919 -0.101634E-03  0.154E-02    0.15       1.0  T
  16   -209.7678252 -0.333499E-04  0.474E-03    0.16       2.1  T
  17   -209.7678258 -0.537972E-06  0.336E-03    0.16       3.0  T
  18   -209.7678229  0.284800E-05  0.463E-03    0.16       2.2  T
  19   -209.7678263 -0.336752E-05  0.127E-03    0.16       8.0  T
  20   -209.7678262  0.951425E-07  0.123E-03    0.16       8.3  T
  21   -209.7678264 -0.140043E-06  0.471E-04    0.16      21.6  T
  22   -209.7678263  0.359514E-07  0.587E-04    0.16      17.3  T
     SCC iter.                  ...        0 min,  0.730 sec
     gradient                   ...        0 min,  0.076 sec
 * total energy  :  -207.6438811 Eh     change        0.6994096E-02 Eh
   gradient norm :     0.0779744 Eh/α   predicted    -0.1110456E-01 (-258.77%)
   displ. norm   :     0.3462542 α      lambda       -0.1787976E-01
   maximum displ.:     0.1147578 α      in ANC's #259, #17, #34, ...

........................................................................
.............................. CYCLE   90 ..............................
........................................................................

 iter      E             dE          RMSdq      gap      omega  full diag
   1   -209.1482843 -0.209148E+03  0.317E+00    0.02       0.0  T
   2   -206.4001140  0.274817E+01  0.669E+00    0.12       1.0  T
   3   -209.5555081 -0.315539E+01  0.222E+00    0.65       1.0  T
   4   -209.7317714 -0.176263E+00  0.123E+00    0.09       1.0  T
   5   -209.7017330  0.300383E-01  0.108E+00    1.01       1.0  T
   6   -209.7414158 -0.396828E-01  0.788E-01    0.59       1.0  T
   7   -209.7612700 -0.198542E-01  0.580E-01    0.15       1.0  T
   8   -209.7612095  0.605046E-04  0.454E-01    0.24       1.0  T
   9   -209.7674417 -0.623226E-02  0.302E-01    0.14       1.0  T
  10   -209.7692816 -0.183989E-02  0.222E-01    0.16       1.0  T
  11   -209.7713340 -0.205233E-02  0.122E-01    0.15       1.0  T
  12   -209.7389820  0.323519E-01  0.709E-01    0.07       1.0  T
  13   -209.7700198 -0.310377E-01  0.172E-01    0.16       1.0  T
  14   -209.7714009 -0.138115E-02  0.114E-01    0.15       1.0  T
  15   -209.7696664  0.173449E-02  0.192E-01    0.16       1.0  T
  16   -209.7703214 -0.654948E-03  0.166E-01    0.16       1.0  T
  17   -209.7707393 -0.417923E-03  0.144E-01    0.16       1.0  T
  18   -209.7713230 -0.583680E-03  0.104E-01    0.16       1.0  T
  19   -209.7718882 -0.565270E-03  0.549E-02    0.15       1.0  T
  20   -209.7719923 -0.104100E-03  0.363E-02    0.15       1.0  T
  21   -209.7720657 -0.733566E-04  0.183E-02    0.15       1.0  T
  22   -209.7720761 -0.104403E-04  0.123E-02    0.15       1.0  T
  23   -209.7720889 -0.127435E-04  0.156E-03    0.15       6.5  T
  24   -209.7720887  0.154409E-06  0.213E-03    0.15       4.8  T
  25   -209.7720871  0.164114E-05  0.528E-03    0.15       1.9  T
  26   -209.7720867  0.362454E-06  0.583E-03    0.15       1.7  T
  27   -209.7720885 -0.181517E-05  0.269E-03    0.15       3.8  T
  28   -209.7720889 -0.375824E-06  0.124E-03    0.15       8.2  T
  29   -209.7720890 -0.102339E-06  0.164E-04    0.15      61.8  T
  30   -209.7720890  0.110228E-08  0.170E-04    0.15      59.7  T
     SCC iter.                  ...        0 min,  0.867 sec
     gradient                   ...        0 min,  0.056 sec
 * total energy  :  -207.6547157 Eh     change       -0.1083460E-01 Eh
   gradient norm :     0.0287119 Eh/α   predicted    -0.1001171E-01 (  -7.60%)
   displ. norm   :     0.3094685 α      lambda       -0.4818980E-02
   maximum displ.:     0.1121046 α      in ANC's #1, #23, #259, ...

........................................................................
.............................. CYCLE   91 ..............................
........................................................................

 iter      E             dE          RMSdq      gap      omega  full diag
   1   -209.7080946 -0.209708E+03  0.114E+00    0.05       0.0  T
   2   -209.6331036  0.749910E-01  0.155E+00    0.87       1.0  T
   3   -209.7490645 -0.115961E+00  0.667E-01    0.46       1.0  T
   4   -209.7638674 -0.148029E-01  0.464E-01    0.20       1.0  T
   5   -209.7696194 -0.575197E-02  0.350E-01    0.15       1.0  T
   6   -209.7716803 -0.206091E-02  0.154E-01    0.13       1.0  T
   7   -209.7286599  0.430203E-01  0.795E-01    0.06       1.0  T
   8   -209.7666956 -0.380357E-01  0.328E-01    0.17       1.0  T
   9   -209.7725980 -0.590236E-02  0.128E-01    0.15       1.0  T
  10   -209.7729687 -0.370697E-03  0.122E-01    0.11       1.0  T
  11   -209.7742687 -0.129999E-02  0.290E-02    0.13       1.0  T
  12   -209.7737477  0.520986E-03  0.893E-02    0.12       1.0  T
  13   -209.7739987 -0.250970E-03  0.532E-02    0.12       1.0  T
  14   -209.7742801 -0.281458E-03  0.190E-02    0.13       1.0  T
  15   -209.7742725  0.761672E-05  0.187E-02    0.13       1.0  T
  16   -209.7742966 -0.240877E-04  0.120E-02    0.13       1.0  T
  17   -209.7742984 -0.178412E-05  0.105E-02    0.13       1.0  T
  18   -209.7743029 -0.452120E-05  0.695E-03    0.13       1.5  T
  19   -209.7743052 -0.227134E-05  0.372E-03    0.13       2.7  T
  20   -209.7743058 -0.605454E-06  0.165E-03    0.13       6.2  T
  21   -209.7743059 -0.751047E-07  0.201E-03    0.13       5.0  T
  22   -209.7743061 -0.260385E-06  0.533E-04    0.13      19.0  T
  23   -209.7743061  0.321208E-08  0.583E-04    0.13      17.4  T
     SCC iter.                  ...        0 min,  0.702 sec
     gradient                   ...        0 min,  0.059 sec
 * total energy  :  -207.6555062 Eh     change       -0.7904892E-03 Eh
   gradient norm :     0.0306126 Eh/α   predicted    -0.2640257E-02 ( 234.00%)
   displ. norm   :     0.1714182 α      lambda       -0.3282582E-02
   maximum displ.:     0.0740367 α      in ANC's #1, #19, #23, ...

........................................................................
.............................. CYCLE   92 ..............................
........................................................................

 iter      E             dE          RMSdq      gap      omega  full diag
   1   -209.7708953 -0.209771E+03  0.344E-01    0.16       0.0  T
   2   -208.9058330  0.865062E+00  0.346E+00    0.02       1.0  T
   3   -209.7648180 -0.858985E+00  0.333E-01    0.20       1.0  T
   4   -209.7582057  0.661231E-02  0.353E-01    0.08       1.0  T
   5   -209.7654918 -0.728610E-02  0.330E-01    0.24       1.0  T
   6   -209.7681242 -0.263239E-02  0.290E-01    0.18       1.0  T
   7   -209.7685668 -0.442598E-03  0.278E-01    0.17       1.0  T
   8   -209.7698627 -0.129591E-02  0.251E-01    0.15       1.0  T
   9   -209.7709744 -0.111167E-02  0.214E-01    0.14       1.0  T
  10   -209.7716680 -0.693643E-03  0.187E-01    0.14       1.0  T
  11   -209.7728855 -0.121750E-02  0.130E-01    0.14       1.0  T
  12   -209.7739411 -0.105556E-02  0.371E-02    0.14       1.0  T
  13   -209.7733594  0.581703E-03  0.912E-02    0.12       1.0  T
  14   -209.7738909 -0.531553E-03  0.377E-02    0.13       1.0  T
  15   -209.7739577 -0.667901E-04  0.307E-02    0.13       1.0  T
  16   -209.7738480  0.109744E-03  0.509E-02    0.13       1.0  T
  17   -209.7740004 -0.152366E-03  0.179E-02    0.14       1.0  T
  18   -209.7740236 -0.232866E-04  0.320E-03    0.14       3.2  T
  19   -209.7740218  0.188783E-05  0.648E-03    0.14       1.6  T
  20   -209.7740242 -0.246388E-05  0.229E-03    0.14       4.4  T
  21   -209.7740239  0.328479E-06  0.338E-03    0.14       3.0  T
  22   -209.7740245 -0.627181E-06  0.182E-03    0.14       5.6  T
  23   -209.7740246 -0.377938E-07  0.170E-03    0.14       6.0  T
  24   -209.7740247 -0.187052E-06  0.269E-04    0.14      37.7  T
  25   -209.7740247  0.280412E-07  0.745E-04    0.14      13.6  T
     SCC iter.                  ...        0 min,  0.745 sec
     gradient                   ...        0 min,  0.076 sec
 * total energy  :  -207.6570801 Eh     change       -0.1573859E-02 Eh
   gradient norm :     0.0137864 Eh/α   predicted    -0.1689520E-02 (   7.35%)
   displ. norm   :     0.1951449 α      lambda       -0.7907930E-03
   maximum displ.:     0.0703483 α      in ANC's #19, #2, #4, ...
 * RMSD in coord.:     0.7075768 α      energy gain  -0.5884992E-01 Eh

generating ANC from exact Hessian ...
Using Lindh-Hessian (1995)
 Shifting diagonal of input Hessian by   1.060341296381245E-002
 Lowest  eigenvalues of input Hessian
    0.010000    0.010057    0.010172    0.010577    0.000000    0.000000
    0.000000    0.000000    0.000000    0.000000    0.010627    0.010664
    0.010751    0.010857    0.010897    0.010995    0.011021    0.011252
 Highest eigenvalues
    2.139881    2.237522    2.241917    2.337817    2.516820    3.343386
 

........................................................................
.............................. CYCLE   93 ..............................
........................................................................

 iter      E             dE          RMSdq      gap      omega  full diag
   1   -209.7751172 -0.209775E+03  0.238E-01    0.10       0.0  T
   2   -209.7562696  0.188476E-01  0.478E-01    0.37       1.0  T
   3   -209.7642670 -0.799747E-02  0.333E-01    0.08       1.0  T
   4   -209.7694706 -0.520356E-02  0.303E-01    0.25       1.0  T
   5   -209.7771939 -0.772328E-02  0.113E-01    0.15       1.0  T
   6   -209.7751783  0.201557E-02  0.144E-01    0.10       1.0  T
   7   -209.7778875 -0.270918E-02  0.749E-02    0.12       1.0  T
   8   -209.7783279 -0.440405E-03  0.300E-02    0.14       1.0  T
   9   -209.7783829 -0.549965E-04  0.167E-02    0.14       1.0  T
  10   -209.7783883 -0.544460E-05  0.176E-02    0.13       1.0  T
  11   -209.7784089 -0.206028E-04  0.492E-03    0.13       2.1  T
  12   -209.7784097 -0.731856E-06  0.270E-03    0.13       3.8  T
  13   -209.7784092  0.453559E-06  0.312E-03    0.13       3.3  T
  14   -209.7784099 -0.700949E-06  0.114E-03    0.13       8.9  T
  15   -209.7784099  0.325580E-07  0.105E-03    0.13       9.7  T
  16   -209.7784098  0.407781E-07  0.118E-03    0.13       8.6  T
  17   -209.7784100 -0.114726E-06  0.385E-04    0.13      26.4  T
  18   -209.7784100  0.699291E-08  0.414E-04    0.13      24.5  T
     SCC iter.                  ...        0 min,  0.493 sec
     gradient                   ...        0 min,  0.057 sec
 * total energy  :  -207.6576914 Eh     change       -0.6113750E-03 Eh
   gradient norm :     0.0123891 Eh/α   predicted     0.0000000E+00 (-100.00%)
   displ. norm   :     0.1631341 α      lambda       -0.6767714E-03
   maximum displ.:     0.0698736 α      in ANC's #19, #30, #15, ...

........................................................................
.............................. CYCLE   94 ..............................
........................................................................

 iter      E             dE          RMSdq      gap      omega  full diag
   1   -209.7685713 -0.209769E+03  0.376E-01    0.09       0.0  T
   2   -209.7383727  0.301987E-01  0.705E-01    0.49       1.0  T
   3   -209.7658010 -0.274284E-01  0.390E-01    0.09       1.0  T
   4   -209.7620029  0.379818E-02  0.416E-01    0.40       1.0  T
   5   -209.7700531 -0.805026E-02  0.326E-01    0.23       1.0  T
   6   -209.7740789 -0.402574E-02  0.246E-01    0.11       1.0  T
   7   -209.7517692  0.223096E-01  0.589E-01    0.07       1.0  T
   8   -209.7780210 -0.262518E-01  0.114E-01    0.14       1.0  T
   9   -209.7788810 -0.859961E-03  0.263E-02    0.13       1.0  T
  10   -209.7788234  0.575589E-04  0.382E-02    0.12       1.0  T
  11   -209.7789188 -0.953107E-04  0.679E-03    0.13       1.5  T
  12   -209.7788903  0.284456E-04  0.213E-02    0.13       1.0  T
  13   -209.7789112 -0.208491E-04  0.130E-02    0.13       1.0  T
  14   -209.7789207 -0.951262E-05  0.552E-03    0.13       1.8  T
  15   -209.7789222 -0.149856E-05  0.286E-03    0.13       3.5  T
  16   -209.7789225 -0.370765E-06  0.133E-03    0.13       7.6  T
  17   -209.7789227 -0.113583E-06  0.117E-03    0.13       8.7  T
  18   -209.7789227 -0.805042E-07  0.485E-04    0.13      20.9  T
  19   -209.7789227 -0.574366E-08  0.384E-04    0.13      26.4  T
     SCC iter.                  ...        0 min,  0.505 sec
     gradient                   ...        0 min,  0.056 sec
 * total energy  :  -207.6581547 Eh     change       -0.4632997E-03 Eh
   gradient norm :     0.0104554 Eh/α   predicted    -0.3473937E-03 ( -25.02%)
   displ. norm   :     0.3811683 α      lambda       -0.1215259E-02
   maximum displ.:     0.1387085 α      in ANC's #15, #30, #26, ...

........................................................................
.............................. CYCLE   95 ..............................
........................................................................

 iter      E             dE          RMSdq      gap      omega  full diag
   1   -209.7722610 -0.209772E+03  0.390E-01    0.09       0.0  T
   2   -209.7435897  0.286713E-01  0.631E-01    0.46       1.0  T
   3   -209.7530650 -0.947528E-02  0.445E-01    0.07       1.0  T
   4   -209.7631777 -0.101127E-01  0.408E-01    0.26       1.0  T
   5   -209.7743991 -0.112214E-01  0.223E-01    0.10       1.0  T
   6   -209.7700932  0.430595E-02  0.308E-01    0.21       1.0  T
   7   -209.7724796 -0.238646E-02  0.271E-01    0.19       1.0  T
   8   -209.7752587 -0.277909E-02  0.215E-01    0.15       1.0  T
   9   -209.7781261 -0.286736E-02  0.645E-02    0.12       1.0  T
  10   -209.7780998  0.262971E-04  0.782E-02    0.12       1.0  T
  11   -209.7784746 -0.374802E-03  0.397E-02    0.12       1.0  T
  12   -209.7784700  0.463458E-05  0.398E-02    0.13       1.0  T
  13   -209.7785398 -0.697955E-04  0.257E-02    0.13       1.0  T
  14   -209.7785387  0.106045E-05  0.257E-02    0.12       1.0  T
  15   -209.7785843 -0.455527E-04  0.686E-03    0.13       1.5  T
  16   -209.7785865 -0.229184E-05  0.513E-03    0.12       2.0  T
  17   -209.7785856  0.952943E-06  0.575E-03    0.12       1.8  T
  18   -209.7785872 -0.162682E-05  0.395E-03    0.12       2.6  T
  19   -209.7785879 -0.713873E-06  0.213E-03    0.12       4.8  T
  20   -209.7785883 -0.361887E-06  0.787E-04    0.12      12.9  T
  21   -209.7785883 -0.380450E-07  0.386E-04    0.13      26.3  T
     SCC iter.                  ...        0 min,  0.581 sec
     gradient                   ...        0 min,  0.063 sec
 * total energy  :  -207.6589104 Eh     change       -0.7557156E-03 Eh
   gradient norm :     0.0111620 Eh/α   predicted    -0.6959575E-03 (  -7.91%)
   displ. norm   :     0.4470121 α      lambda       -0.1231055E-02
   maximum displ.:     0.1539194 α      in ANC's #30, #37, #26, ...

........................................................................
.............................. CYCLE   96 ..............................
........................................................................

 iter      E             dE          RMSdq      gap      omega  full diag
   1   -209.7778242 -0.209778E+03  0.342E-01    0.10       0.0  T
   2   -209.7550715  0.227527E-01  0.497E-01    0.46       1.0  T
   3   -209.2804512  0.474620E+00  0.263E+00    0.02       1.0  T
   4   -209.5829364 -0.302485E+00  0.101E+00    0.03       1.0  T
   5   -209.7683660 -0.185430E+00  0.411E-01    0.24       1.0  T
   6   -209.7648160  0.354994E-02  0.404E-01    0.28       1.0  T
   7   -209.7677567 -0.294066E-02  0.381E-01    0.25       1.0  T
   8   -209.7689678 -0.121110E-02  0.363E-01    0.23       1.0  T
   9   -209.7719711 -0.300330E-02  0.319E-01    0.18       1.0  T
  10   -209.7748439 -0.287287E-02  0.267E-01    0.13       1.0  T
  11   -209.7759142 -0.107021E-02  0.236E-01    0.13       1.0  T
  12   -209.7771434 -0.122925E-02  0.196E-01    0.13       1.0  T
  13   -209.7793166 -0.217319E-02  0.875E-02    0.13       1.0  T
  14   -209.7795004 -0.183760E-03  0.690E-02    0.11       1.0  T
  15   -209.7796768 -0.176466E-03  0.498E-02    0.11       1.0  T
  16   -209.7797153 -0.384770E-04  0.441E-02    0.12       1.0  T
  17   -209.7798364 -0.121098E-03  0.154E-02    0.12       1.0  T
  18   -209.7798516 -0.152411E-04  0.366E-03    0.12       2.8  T
  19   -209.7798527 -0.110632E-05  0.120E-03    0.12       8.5  T
  20   -209.7798511  0.161383E-05  0.495E-03    0.12       2.1  T
  21   -209.7798500  0.116817E-05  0.610E-03    0.12       1.7  T
  22   -209.7798518 -0.184753E-05  0.354E-03    0.12       2.9  T
  23   -209.7798527 -0.871325E-06  0.125E-03    0.12       8.1  T
  24   -209.7798528 -0.105439E-06  0.273E-04    0.12      37.1  T
  25   -209.7798528 -0.442981E-08  0.206E-04    0.12      49.3  T
     SCC iter.                  ...        0 min,  0.669 sec
     gradient                   ...        0 min,  0.058 sec
 * total energy  :  -207.6594535 Eh     change       -0.5430815E-03 Eh
   gradient norm :     0.0130442 Eh/α   predicted    -0.7385227E-03 (  35.99%)
   displ. norm   :     0.2603862 α      lambda       -0.7726558E-03
   maximum displ.:     0.0896323 α      in ANC's #41, #15, #26, ...

........................................................................
.............................. CYCLE   97 ..............................
........................................................................

 iter      E             dE          RMSdq      gap      omega  full diag
   1   -209.7776627 -0.209778E+03  0.256E-01    0.15       0.0  T
   2   -209.0076929  0.769970E+00  0.327E+00    0.02       1.0  T
   3   -209.7292534 -0.721560E+00  0.548E-01    0.04       1.0  T
   4   -209.7698199 -0.405666E-01  0.320E-01    0.21       1.0  T
   5   -209.7784324 -0.861242E-02  0.143E-01    0.14       1.0  T
   6   -209.7773878  0.104452E-02  0.171E-01    0.15       1.0  T
   7   -209.7797012 -0.231334E-02  0.871E-02    0.13       1.0  T
   8   -209.7801793 -0.478154E-03  0.309E-02    0.12       1.0  T
   9   -209.7800930  0.863422E-04  0.373E-02    0.12       1.0  T
  10   -209.7800916  0.134693E-05  0.409E-02    0.11       1.0  T
  11   -209.7802250 -0.133313E-03  0.284E-02    0.12       1.0  T
  12   -209.7802718 -0.468552E-04  0.135E-02    0.12       1.0  T
  13   -209.7802780 -0.618318E-05  0.824E-03    0.12       1.2  T
  14   -209.7802723  0.571113E-05  0.126E-02    0.12       1.0  T
  15   -209.7802842 -0.118707E-04  0.611E-03    0.12       1.7  T
  16   -209.7802871 -0.297540E-05  0.250E-03    0.12       4.1  T
  17   -209.7802873 -0.182299E-06  0.139E-03    0.12       7.3  T
  18   -209.7802874 -0.104111E-06  0.111E-03    0.12       9.1  T
  19   -209.7802870  0.405289E-06  0.225E-03    0.12       4.5  T
  20   -209.7802876 -0.555075E-06  0.318E-04    0.12      31.9  T
  21   -209.7802876  0.137550E-07  0.357E-04    0.12      28.4  T
     SCC iter.                  ...        0 min,  0.581 sec
     gradient                   ...        0 min,  0.058 sec
 * total energy  :  -207.6599040 Eh     change       -0.4504490E-03 Eh
   gradient norm :     0.0101045 Eh/α   predicted    -0.4125289E-03 (  -8.42%)
   displ. norm   :     0.2716260 α      lambda       -0.6876981E-03
   maximum displ.:     0.0912689 α      in ANC's #21, #3, #46, ...

........................................................................
.............................. CYCLE   98 ..............................
........................................................................

 iter      E             dE          RMSdq      gap      omega  full diag
   1   -209.7792501 -0.209779E+03  0.294E-01    0.15       0.0  T
   2   -209.0276704  0.751580E+00  0.323E+00    0.02       1.0  T
   3   -209.7703055 -0.742635E+00  0.345E-01    0.09       1.0  T
   4   -209.7609516  0.935395E-02  0.437E-01    0.30       1.0  T
   5   -209.7740014 -0.130498E-01  0.297E-01    0.18       1.0  T
   6   -209.7745959 -0.594570E-03  0.280E-01    0.18       1.0  T
   7   -209.7786478 -0.405187E-02  0.211E-01    0.14       1.0  T
   8   -209.7790281 -0.380245E-03  0.189E-01    0.14       1.0  T
   9   -209.7806910 -0.166296E-02  0.116E-01    0.13       1.0  T
  10   -209.7816249 -0.933888E-03  0.233E-02    0.12       1.0  T
  11   -209.7815089  0.115950E-03  0.448E-02    0.11       1.0  T
  12   -209.7816346 -0.125614E-03  0.217E-02    0.12       1.0  T
  13   -209.7816604 -0.258693E-04  0.850E-03    0.12       1.2  T
  14   -209.7816672 -0.674427E-05  0.584E-03    0.12       1.7  T
  15   -209.7816591  0.811459E-05  0.108E-02    0.12       1.0  T
  16   -209.7816683 -0.925936E-05  0.356E-03    0.12       2.9  T
  17   -209.7816689 -0.610109E-06  0.251E-03    0.12       4.0  T
  18   -209.7816687  0.279618E-06  0.334E-03    0.12       3.0  T
  19   -209.7816691 -0.437873E-06  0.171E-03    0.12       5.9  T
  20   -209.7816694 -0.281111E-06  0.105E-03    0.12       9.6  T
  21   -209.7816694 -0.518840E-07  0.524E-04    0.12      19.4  T
  22   -209.7816694 -0.246252E-07  0.180E-04    0.12      56.3  T
     SCC iter.                  ...        0 min,  0.574 sec
     gradient                   ...        0 min,  0.056 sec
 * total energy  :  -207.6602737 Eh     change       -0.3697345E-03 Eh
   gradient norm :     0.0092405 Eh/α   predicted    -0.3692281E-03 (  -0.14%)
   displ. norm   :     0.2593300 α      lambda       -0.4654677E-03
   maximum displ.:     0.0841542 α      in ANC's #21, #3, #4, ...

........................................................................
.............................. CYCLE   99 ..............................
........................................................................

 iter      E             dE          RMSdq      gap      omega  full diag
   1   -209.7762405 -0.209776E+03  0.274E-01    0.09       0.0  T
   2   -209.7402407  0.359998E-01  0.654E-01    0.61       1.0  T
   3   -209.7670786 -0.268379E-01  0.441E-01    0.23       1.0  T
   4   -209.7756652 -0.858659E-02  0.278E-01    0.17       1.0  T
   5   -209.7491733  0.264919E-01  0.559E-01    0.06       1.0  T
   6   -209.7795030 -0.303297E-01  0.119E-01    0.12       1.0  T
   7   -209.7811086 -0.160561E-02  0.102E-01    0.13       1.0  T
   8   -209.7815218 -0.413219E-03  0.709E-02    0.11       1.0  T
   9   -209.7819009 -0.379070E-03  0.198E-02    0.11       1.0  T
  10   -209.7818179  0.829111E-04  0.387E-02    0.12       1.0  T
  11   -209.7819035 -0.855454E-04  0.229E-02    0.12       1.0  T
  12   -209.7819349 -0.313933E-04  0.964E-03    0.12       1.1  T
  13   -209.7819383 -0.346144E-05  0.670E-03    0.12       1.5  T
  14   -209.7819377  0.673508E-06  0.732E-03    0.12       1.4  T
  15   -209.7819405 -0.283191E-05  0.311E-03    0.12       3.3  T
  16   -209.7819403  0.224609E-06  0.370E-03    0.12       2.7  T
  17   -209.7819409 -0.599472E-06  0.222E-03    0.12       4.6  T
  18   -209.7819410 -0.146991E-06  0.162E-03    0.12       6.3  T
  19   -209.7819411 -0.695925E-07  0.147E-03    0.12       6.9  T
  20   -209.7819412 -0.109402E-06  0.670E-04    0.12      15.2  T
  21   -209.7819412 -0.219882E-07  0.418E-04    0.12      24.3  T
     SCC iter.                  ...        0 min,  0.531 sec
     gradient                   ...        0 min,  0.055 sec
 * total energy  :  -207.6605871 Eh     change       -0.3133780E-03 Eh
   gradient norm :     0.0081808 Eh/α   predicted    -0.2483883E-03 ( -20.74%)
   displ. norm   :     0.3479650 α      lambda       -0.4897119E-03
   maximum displ.:     0.1172650 α      in ANC's #3, #4, #41, ...

........................................................................
.............................. CYCLE  100 ..............................
........................................................................

 iter      E             dE          RMSdq      gap      omega  full diag
   1   -209.7813093 -0.209781E+03  0.219E-01    0.10       0.0  T
   2   -209.7601204  0.211889E-01  0.476E-01    0.26       1.0  T
   3   -209.7559939  0.412645E-02  0.381E-01    0.05       1.0  T
   4   -209.7784340 -0.224401E-01  0.169E-01    0.12       1.0  T
   5   -209.7778636  0.570393E-03  0.189E-01    0.14       1.0  T
   6   -209.7798874 -0.202380E-02  0.132E-01    0.11       1.0  T
   7   -209.7802428 -0.355355E-03  0.114E-01    0.12       1.0  T
   8   -209.7807536 -0.510862E-03  0.124E-01    0.13       1.0  T
   9   -209.7821168 -0.136320E-02  0.402E-02    0.12       1.0  T
  10   -209.7823007 -0.183867E-03  0.186E-02    0.11       1.0  T
  11   -209.7821798  0.120902E-03  0.319E-02    0.11       1.0  T
  12   -209.7823209 -0.141100E-03  0.150E-02    0.11       1.0  T
  13   -209.7823073  0.135784E-04  0.201E-02    0.12       1.0  T
  14   -209.7823335 -0.262068E-04  0.746E-03    0.11       1.4  T
  15   -209.7823298  0.368632E-05  0.102E-02    0.11       1.0  T
  16   -209.7823368 -0.698008E-05  0.231E-03    0.11       4.4  T
  17   -209.7823347  0.216803E-05  0.597E-03    0.11       1.7  T
  18   -209.7823366 -0.190670E-05  0.278E-03    0.11       3.7  T
  19   -209.7823369 -0.311857E-06  0.205E-03    0.11       5.0  T
  20   -209.7823372 -0.361886E-06  0.573E-04    0.11      17.7  T
  21   -209.7823372 -0.816172E-08  0.334E-04    0.11      30.4  T
     SCC iter.                  ...        0 min,  0.531 sec
     gradient                   ...        0 min,  0.056 sec
 * total energy  :  -207.6608784 Eh     change       -0.2912964E-03 Eh
   gradient norm :     0.0072695 Eh/α   predicted    -0.2745079E-03 (  -5.76%)
   displ. norm   :     0.3124263 α      lambda       -0.3864779E-03
   maximum displ.:     0.1190152 α      in ANC's #3, #4, #10, ...

........................................................................
.............................. CYCLE  101 ..............................
........................................................................

 iter      E             dE          RMSdq      gap      omega  full diag
   1   -209.7636877 -0.209764E+03  0.448E-01    0.07       0.0  T
   2   -209.7008352  0.628525E-01  0.986E-01    1.05       1.0  T
   3   -209.7529667 -0.521315E-01  0.577E-01    0.50       1.0  T
   4   -209.7639234 -0.109567E-01  0.466E-01    0.27       1.0  T
   5   -209.7775805 -0.136571E-01  0.245E-01    0.15       1.0  T
   6   -209.4256047  0.351976E+00  0.144E+00    0.07       1.0  T
   7   -209.5856165 -0.160012E+00  0.168E+00    0.00       1.0  T
   8   -209.7790148 -0.193398E+00  0.212E-01    0.15       1.0  T
   9   -209.7827509 -0.373609E-02  0.521E-02    0.11       1.0  T
  10   -209.7823831  0.367762E-03  0.870E-02    0.12       1.0  T
  11   -209.7830379 -0.654851E-03  0.343E-02    0.12       1.0  T
  12   -209.7831633 -0.125322E-03  0.142E-02    0.11       1.0  T
  13   -209.7831684 -0.513102E-05  0.131E-02    0.11       1.0  T
  14   -209.7831730 -0.458658E-05  0.694E-03    0.11       1.5  T
  15   -209.7831668  0.621212E-05  0.136E-02    0.11       1.0  T
  16   -209.7831734 -0.664528E-05  0.681E-03    0.11       1.5  T
  17   -209.7831733  0.702780E-07  0.832E-03    0.11       1.2  T
  18   -209.7831740 -0.657979E-06  0.890E-03    0.11       1.1  T
  19   -209.7831783 -0.426804E-05  0.537E-03    0.11       1.9  T
  20   -209.7831793 -0.101778E-05  0.375E-03    0.11       2.7  T
  21   -209.7831801 -0.803721E-06  0.125E-03    0.11       8.1  T
  22   -209.7831803 -0.169023E-06  0.499E-04    0.11      20.3  T
  23   -209.7831803 -0.340495E-07  0.108E-04    0.11      94.1  T
     SCC iter.                  ...        0 min,  0.813 sec
     gradient                   ...        0 min,  0.058 sec
 * total energy  :  -207.6611263 Eh     change       -0.2479613E-03 Eh
   gradient norm :     0.0070056 Eh/α   predicted    -0.2121073E-03 ( -14.46%)
   displ. norm   :     0.3049843 α      lambda       -0.3389275E-03
   maximum displ.:     0.1339160 α      in ANC's #10, #3, #4, ...

........................................................................
.............................. CYCLE  102 ..............................
........................................................................

 iter      E             dE          RMSdq      gap      omega  full diag
   1   -209.7731463 -0.209773E+03  0.312E-01    0.07       0.0  T
   2   -209.7208776  0.522687E-01  0.803E-01    0.90       1.0  T
   3   -209.7580573 -0.371798E-01  0.510E-01    0.33       1.0  T
   4   -209.7797916 -0.217343E-01  0.186E-01    0.12       1.0  T
   5   -209.7778700  0.192158E-02  0.305E-01    0.15       1.0  T
   6   -209.7795451 -0.167511E-02  0.188E-01    0.08       1.0  T
   7   -209.7832442 -0.369906E-02  0.119E-01    0.11       1.0  T
   8   -209.7830984  0.145761E-03  0.121E-01    0.12       1.0  T
   9   -209.7845797 -0.148127E-02  0.871E-02    0.11       1.0  T
  10   -209.7850428 -0.463138E-03  0.234E-02    0.11       1.0  T
  11   -209.7850277  0.151789E-04  0.291E-02    0.11       1.0  T
  12   -209.7851073 -0.796892E-04  0.151E-02    0.11       1.0  T
  13   -209.7851241 -0.168016E-04  0.585E-03    0.11       1.7  T
  14   -209.7851248 -0.699608E-06  0.477E-03    0.11       2.1  T
  15   -209.7851264 -0.151033E-05  0.115E-03    0.11       8.8  T
  16   -209.7851253  0.102476E-05  0.349E-03    0.11       2.9  T
  17   -209.7851264 -0.105543E-05  0.663E-04    0.11      15.3  T
  18   -209.7851261  0.330224E-06  0.153E-03    0.11       6.6  T
  19   -209.7851264 -0.298809E-06  0.820E-04    0.11      12.4  T
  20   -209.7851264 -0.585420E-07  0.355E-04    0.11      28.6  T
     SCC iter.                  ...        0 min,  0.661 sec
     gradient                   ...        0 min,  0.057 sec
 * total energy  :  -207.6613776 Eh     change       -0.2512377E-03 Eh
   gradient norm :     0.0064394 Eh/α   predicted    -0.1852288E-03 ( -26.27%)
   displ. norm   :     0.4273373 α      lambda       -0.4238317E-03
   maximum displ.:     0.1895582 α      in ANC's #10, #3, #4, ...

........................................................................
.............................. CYCLE  103 ..............................
........................................................................

 iter      E             dE          RMSdq      gap      omega  full diag
   1   -209.7820478 -0.209782E+03  0.261E-01    0.08       0.0  T
   2   -209.7429928  0.390550E-01  0.620E-01    0.52       1.0  T
   3   -209.7806280 -0.376352E-01  0.239E-01    0.10       1.0  T
   4   -209.7654572  0.151708E-01  0.406E-01    0.06       1.0  T
   5   -209.7810846 -0.156274E-01  0.202E-01    0.13       1.0  T
   6   -209.7824043 -0.131966E-02  0.170E-01    0.13       1.0  T
   7   -209.7845110 -0.210674E-02  0.157E-01    0.13       1.0  T
   8   -209.7705380  0.139730E-01  0.333E-01    0.06       1.0  T
   9   -209.7836695 -0.131314E-01  0.170E-01    0.09       1.0  T
  10   -209.7814744  0.219508E-02  0.179E-01    0.07       1.0  T
  11   -209.7849976 -0.352324E-02  0.125E-01    0.09       1.0  T
  12   -209.7865790 -0.158143E-02  0.282E-02    0.10       1.0  T
  13   -209.7866928 -0.113774E-03  0.626E-03    0.11       1.6  T
  14   -209.7866681  0.247336E-04  0.174E-02    0.11       1.0  T
  15   -209.7866938 -0.257319E-04  0.441E-03    0.11       2.3  T
  16   -209.7866949 -0.113070E-05  0.246E-03    0.11       4.1  T
  17   -209.7866935  0.139403E-05  0.476E-03    0.11       2.1  T
  18   -209.7866944 -0.814775E-06  0.353E-03    0.11       2.9  T
  19   -209.7866952 -0.841265E-06  0.136E-03    0.11       7.5  T
  20   -209.7866952 -0.538836E-08  0.102E-03    0.11      10.0  T
  21   -209.7866951  0.159283E-06  0.140E-03    0.11       7.2  T
  22   -209.7866952 -0.186514E-06  0.846E-04    0.11      12.0  T
  23   -209.7866953 -0.981535E-07  0.444E-04    0.11      22.9  T
     SCC iter.                  ...        0 min,  0.589 sec
     gradient                   ...        0 min,  0.056 sec
 * total energy  :  -207.6616767 Eh     change       -0.2991449E-03 Eh
   gradient norm :     0.0073720 Eh/α   predicted    -0.2506185E-03 ( -16.22%)
   displ. norm   :     0.4845925 α      lambda       -0.4451817E-03
   maximum displ.:     0.2169927 α      in ANC's #10, #3, #4, ...

........................................................................
.............................. CYCLE  104 ..............................
........................................................................

 iter      E             dE          RMSdq      gap      omega  full diag
   1   -209.7820554 -0.209782E+03  0.315E-01    0.07       0.0  T
   2   -209.7708422  0.112132E-01  0.455E-01    0.09       1.0  T
   3   -209.7676248  0.321733E-02  0.443E-01    0.23       1.0  T
   4   -209.3045204  0.463104E+00  0.261E+00    0.02       1.0  T
   5   -209.7762366 -0.471716E+00  0.287E-01    0.07       1.0  T
   6   -209.7812187 -0.498202E-02  0.223E-01    0.13       1.0  T
   7   -209.7820063 -0.787607E-03  0.211E-01    0.13       1.0  T
   8   -209.7851149 -0.310859E-02  0.147E-01    0.12       1.0  T
   9   -209.7869486 -0.183378E-02  0.931E-02    0.09       1.0  T
  10   -209.7882675 -0.131886E-02  0.401E-02    0.10       1.0  T
  11   -209.7882437  0.238196E-04  0.307E-02    0.10       1.0  T
  12   -209.7883797 -0.136057E-03  0.146E-02    0.10       1.0  T
  13   -209.7883886 -0.883304E-05  0.997E-03    0.10       1.0  T
  14   -209.7883916 -0.298511E-05  0.752E-03    0.11       1.3  T
  15   -209.7883925 -0.923129E-06  0.595E-03    0.10       1.7  T
  16   -209.7883953 -0.279106E-05  0.125E-03    0.11       8.1  T
  17   -209.7883953 -0.340988E-07  0.118E-03    0.11       8.6  T
  18   -209.7883953  0.278827E-07  0.110E-03    0.11       9.2  T
  19   -209.7883953 -0.142689E-07  0.898E-04    0.11      11.3  T
  20   -209.7883954 -0.789509E-07  0.557E-04    0.11      18.2  T
     SCC iter.                  ...        0 min,  0.536 sec
     gradient                   ...        0 min,  0.078 sec
 * total energy  :  -207.6620071 Eh     change       -0.3303854E-03 Eh
   gradient norm :     0.0083766 Eh/α   predicted    -0.2748656E-03 ( -16.80%)
   displ. norm   :     0.5661247 α      lambda       -0.5313564E-03
   maximum displ.:     0.2498809 α      in ANC's #3, #10, #4, ...

........................................................................
.............................. CYCLE  105 ..............................
........................................................................

 iter      E             dE          RMSdq      gap      omega  full diag
   1   -209.7750245 -0.209775E+03  0.387E-01    0.06       0.0  T
   2   -209.7152547  0.597697E-01  0.835E-01    0.80       1.0  T
   3   -209.7690108 -0.537561E-01  0.430E-01    0.18       1.0  T
   4   -209.5937670  0.175244E+00  0.166E+00    0.00       1.0  T
   5   -209.7800068 -0.186240E+00  0.359E-01    0.10       1.0  T
   6   -209.7812249 -0.121809E-02  0.295E-01    0.15       1.0  T
   7   -209.7472080  0.340169E-01  0.515E-01    0.04       1.0  T
   8   -209.7761629 -0.289549E-01  0.361E-01    0.17       1.0  T
   9   -209.7820322 -0.586931E-02  0.292E-01    0.13       1.0  T
  10   -209.7860374 -0.400516E-02  0.194E-01    0.11       1.0  T
  11   -209.7881570 -0.211962E-02  0.962E-02    0.10       1.0  T
  12   -209.7888105 -0.653504E-03  0.932E-03    0.10       1.1  T
  13   -209.7886103  0.200150E-03  0.538E-02    0.10       1.0  T
  14   -209.7887656 -0.155210E-03  0.253E-02    0.10       1.0  T
  15   -209.7888126 -0.470029E-04  0.640E-03    0.10       1.6  T
  16   -209.7888162 -0.359764E-05  0.436E-03    0.10       2.3  T
  17   -209.7888170 -0.832384E-06  0.395E-03    0.10       2.6  T
  18   -209.7888170 -0.151873E-07  0.390E-03    0.10       2.6  T
  19   -209.7888179 -0.887719E-06  0.146E-03    0.10       7.0  T
  20   -209.7888178  0.719051E-07  0.186E-03    0.10       5.4  T
  21   -209.7888172  0.615765E-06  0.345E-03    0.10       2.9  T
  22   -209.7888178 -0.640159E-06  0.177E-03    0.10       5.7  T
  23   -209.7888180 -0.206364E-06  0.370E-04    0.10      27.5  T
  24   -209.7888181 -0.148345E-07  0.697E-05    0.10     145.6  T
     SCC iter.                  ...        0 min,  0.815 sec
     gradient                   ...        0 min,  0.058 sec
 * total energy  :  -207.6624609 Eh     change       -0.4538281E-03 Eh
   gradient norm :     0.0091505 Eh/α   predicted    -0.3508301E-03 ( -22.70%)
   displ. norm   :     0.6599352 α      lambda       -0.8146493E-03
   maximum displ.:     0.2927930 α      in ANC's #3, #10, #4, ...

........................................................................
.............................. CYCLE  106 ..............................
........................................................................

 iter      E             dE          RMSdq      gap      omega  full diag
   1   -209.7808808 -0.209781E+03  0.409E-01    0.06       0.0  T
   2   -209.7407625  0.401184E-01  0.647E-01    0.27       1.0  T
   3   -209.1043376  0.636425E+00  0.312E+00    0.02       1.0  T
   4   -209.7743515 -0.670014E+00  0.446E-01    0.18       1.0  T
   5   -209.5816308  0.192721E+00  0.106E+00    0.03       1.0  T
   6   -209.7769691 -0.195338E+00  0.310E-01    0.14       1.0  T
   7   -209.7783236 -0.135448E-02  0.293E-01    0.14       1.0  T
   8   -209.7808120 -0.248840E-02  0.245E-01    0.13       1.0  T
   9   -209.7831388 -0.232687E-02  0.202E-01    0.12       1.0  T
  10   -209.7856706 -0.253176E-02  0.155E-01    0.11       1.0  T
  11   -209.7887887 -0.311815E-02  0.924E-02    0.11       1.0  T
  12   -209.7889201 -0.131361E-03  0.910E-02    0.10       1.0  T
  13   -209.7893289 -0.408764E-03  0.376E-02    0.10       1.0  T
  14   -209.7894646 -0.135736E-03  0.200E-02    0.09       1.0  T
  15   -209.7894748 -0.102123E-04  0.186E-02    0.09       1.0  T
  16   -209.7895079 -0.330938E-04  0.126E-02    0.10       1.0  T
  17   -209.7895096 -0.171673E-05  0.118E-02    0.10       1.0  T
  18   -209.7895299 -0.202275E-04  0.272E-03    0.10       3.7  T
  19   -209.7895294  0.403384E-06  0.339E-03    0.10       3.0  T
  20   -209.7895304 -0.950359E-06  0.224E-03    0.10       4.5  T
  21   -209.7895307 -0.291510E-06  0.775E-04    0.10      13.1  T
  22   -209.7895307 -0.496153E-07  0.642E-04    0.10      15.8  T
     SCC iter.                  ...        0 min,  0.591 sec
     gradient                   ...        0 min,  0.063 sec
 * total energy  :  -207.6631412 Eh     change       -0.6802584E-03 Eh
   gradient norm :     0.0101469 Eh/α   predicted    -0.5847210E-03 ( -14.04%)
   displ. norm   :     0.7279475 α      lambda       -0.9109759E-03
   maximum displ.:     0.3461028 α      in ANC's #3, #10, #4, ...

........................................................................
.............................. CYCLE  107 ..............................
........................................................................

 iter      E             dE          RMSdq      gap      omega  full diag
   1   -209.7620712 -0.209762E+03  0.525E-01    0.04       0.0  T
   2   -209.6858131  0.762581E-01  0.985E-01    0.80       1.0  T
   3   -209.7605288 -0.747158E-01  0.494E-01    0.18       1.0  T
   4   -209.2814462  0.479083E+00  0.269E+00    0.02       1.0  T
   5   -209.7750319 -0.493586E+00  0.390E-01    0.09       1.0  T
   6   -209.7678038  0.722816E-02  0.435E-01    0.18       1.0  T
   7   -209.7354559  0.323479E-01  0.562E-01    0.03       1.0  T
   8   -209.7627747 -0.273188E-01  0.475E-01    0.20       1.0  T
   9   -209.7712853 -0.851059E-02  0.406E-01    0.14       1.0  T
  10   -209.7767465 -0.546123E-02  0.337E-01    0.11       1.0  T
  11   -209.7797164 -0.296988E-02  0.277E-01    0.09       1.0  T
  12   -209.7814310 -0.171460E-02  0.229E-01    0.10       1.0  T
  13   -209.7839184 -0.248741E-02  0.130E-01    0.10       1.0  T
  14   -209.7851644 -0.124597E-02  0.131E-02    0.10       1.0  T
  15   -209.7851369  0.275085E-04  0.202E-02    0.09       1.0  T
  16   -209.7850848  0.520136E-04  0.342E-02    0.09       1.0  T
  17   -209.7851386 -0.537773E-04  0.229E-02    0.09       1.0  T
  18   -209.7851788 -0.402234E-04  0.380E-03    0.09       2.7  T
  19   -209.7851798 -0.968192E-06  0.249E-03    0.09       4.1  T
  20   -209.7851805 -0.686954E-06  0.176E-03    0.09       5.8  T
  21   -209.7851807 -0.237002E-06  0.583E-04    0.09      17.4  T
  22   -209.7851806  0.161807E-06  0.161E-03    0.09       6.3  T
  23   -209.7851801  0.429636E-06  0.291E-03    0.09       3.5  T
  24   -209.7851807 -0.599881E-06  0.419E-04    0.09      24.2  T
     SCC iter.                  ...        0 min,  0.863 sec
     gradient                   ...        0 min,  0.055 sec
 * total energy  :  -207.6639439 Eh     change       -0.8027240E-03 Eh
   gradient norm :     0.0109288 Eh/α   predicted    -0.6968526E-03 ( -13.19%)
   displ. norm   :     0.7106126 α      lambda       -0.1055012E-02
   maximum displ.:     0.3392423 α      in ANC's #3, #10, #4, ...

........................................................................
.............................. CYCLE  108 ..............................
........................................................................

 iter      E             dE          RMSdq      gap      omega  full diag
   1   -209.7470013 -0.209747E+03  0.596E-01    0.03       0.0  T
   2   -209.6544665  0.925348E-01  0.114E+00    0.65       1.0  T
   3   -209.7412386 -0.867721E-01  0.629E-01    0.28       1.0  T
   4   -209.1864775  0.554761E+00  0.294E+00    0.02       1.0  T
   5   -209.7593381 -0.572861E+00  0.547E-01    0.21       1.0  T
   6   -209.7619490 -0.261086E-02  0.418E-01    0.05       1.0  T
   7   -209.7536159  0.833307E-02  0.532E-01    0.24       1.0  T
   8   -209.7592465 -0.563058E-02  0.491E-01    0.22       1.0  T
   9   -209.7717613 -0.125148E-01  0.390E-01    0.12       1.0  T
  10   -209.7757501 -0.398872E-02  0.322E-01    0.08       1.0  T
  11   -209.7772293 -0.147926E-02  0.303E-01    0.10       1.0  T
  12   -209.7795846 -0.235527E-02  0.247E-01    0.09       1.0  T
  13   -209.7811915 -0.160686E-02  0.195E-01    0.09       1.0  T
  14   -209.7832785 -0.208701E-02  0.894E-02    0.08       1.0  T
  15   -209.7838005 -0.522079E-03  0.431E-02    0.09       1.0  T
  16   -209.7839493 -0.148789E-03  0.120E-02    0.09       1.0  T
  17   -209.7839381  0.112324E-04  0.192E-02    0.09       1.0  T
  18   -209.7839250  0.131010E-04  0.228E-02    0.09       1.0  T
  19   -209.7839596 -0.345906E-04  0.816E-03    0.09       1.2  T
  20   -209.7839646 -0.498642E-05  0.156E-03    0.09       6.5  T
  21   -209.7839609  0.369783E-05  0.498E-03    0.09       2.0  T
  22   -209.7839633 -0.238382E-05  0.365E-03    0.09       2.8  T
  23   -209.7839647 -0.139344E-05  0.132E-03    0.09       7.7  T
  24   -209.7839649 -0.230126E-06  0.746E-04    0.09      13.6  T
  25   -209.7839649 -0.951195E-08  0.533E-04    0.09      19.1  T
     SCC iter.                  ...        0 min,  0.945 sec
     gradient                   ...        0 min,  0.063 sec
 * total energy  :  -207.6648728 Eh     change       -0.9288447E-03 Eh
   gradient norm :     0.0119806 Eh/α   predicted    -0.7938814E-03 ( -14.53%)
   displ. norm   :     0.7616359 α      lambda       -0.1231184E-02
   maximum displ.:     0.3795482 α      in ANC's #3, #4, #10, ...

........................................................................
.............................. CYCLE  109 ..............................
........................................................................

 iter      E             dE          RMSdq      gap      omega  full diag
   1   -209.7104834 -0.209710E+03  0.760E-01    0.02       0.0  T
   2   -209.4141655  0.296318E+00  0.168E+00    0.04       1.0  T
   3   -209.7025295 -0.288364E+00  0.804E-01    0.92       1.0  T
   4   -209.2935771  0.408952E+00  0.255E+00    0.02       1.0  T
   5   -209.7378172 -0.444240E+00  0.654E-01    0.41       1.0  T
   6   -209.7532298 -0.154126E-01  0.552E-01    0.17       1.0  T
   7   -209.4443668  0.308863E+00  0.139E+00    0.08       1.0  T
   8   -209.7449521 -0.300585E+00  0.581E-01    0.26       1.0  T
   9   -209.7506505 -0.569837E-02  0.527E-01    0.20       1.0  T
  10   -209.7615574 -0.109069E-01  0.424E-01    0.14       1.0  T
  11   -209.7732914 -0.117341E-01  0.259E-01    0.10       1.0  T
  12   -209.7778401 -0.454870E-02  0.105E-01    0.09       1.0  T
  13   -209.7766508  0.118932E-02  0.166E-01    0.08       1.0  T
  14   -209.7784590 -0.180822E-02  0.484E-02    0.08       1.0  T
  15   -209.7787154 -0.256379E-03  0.236E-02    0.08       1.0  T
  16   -209.7786222  0.931787E-04  0.416E-02    0.08       1.0  T
  17   -209.7787704 -0.148157E-03  0.144E-02    0.09       1.0  T
  18   -209.7787837 -0.132578E-04  0.545E-03    0.09       1.9  T
  19   -209.7787772  0.647256E-05  0.869E-03    0.09       1.2  T
  20   -209.7787795 -0.231674E-05  0.756E-03    0.08       1.3  T
  21   -209.7787847 -0.523627E-05  0.276E-03    0.09       3.7  T
  22   -209.7787834  0.130634E-05  0.403E-03    0.08       2.5  T
  23   -209.7787835 -0.715674E-07  0.426E-03    0.08       2.4  T
  24   -209.7787852 -0.171039E-05  0.132E-03    0.09       7.7  T
  25   -209.7787854 -0.235007E-06  0.441E-04    0.09      23.0  T
  26   -209.7787854  0.194813E-07  0.451E-04    0.09      22.5  T
     SCC iter.                  ...        0 min,  0.674 sec
     gradient                   ...        0 min,  0.056 sec
 * total energy  :  -207.6659944 Eh     change       -0.1121610E-02 Eh
   gradient norm :     0.0127908 Eh/α   predicted    -0.9726980E-03 ( -13.28%)
   displ. norm   :     0.7186367 α      lambda       -0.1580548E-02
   maximum displ.:     0.3550707 α      in ANC's #3, #2, #10, ...

........................................................................
.............................. CYCLE  110 ..............................
........................................................................

 iter      E             dE          RMSdq      gap      omega  full diag
   1   -209.7051762 -0.209705E+03  0.783E-01    0.02       0.0  T
   2   -209.4552949  0.249881E+00  0.161E+00    0.05       1.0  T
   3   -209.7052810 -0.249986E+00  0.802E-01    0.87       1.0  T
   4   -209.2222096  0.483071E+00  0.277E+00    0.02       1.0  T
   5   -209.7408620 -0.518652E+00  0.657E-01    0.37       1.0  T
   6   -209.7550470 -0.141850E-01  0.567E-01    0.19       1.0  T
   7   -209.3755539  0.379493E+00  0.153E+00    0.12       1.0  T
   8   -209.7482794 -0.372725E+00  0.570E-01    0.26       1.0  T
   9   -209.7551309 -0.685156E-02  0.505E-01    0.20       1.0  T
  10   -209.7738073 -0.186764E-01  0.308E-01    0.12       1.0  T
  11   -209.7819954 -0.818811E-02  0.124E-01    0.09       1.0  T
  12   -209.7832367 -0.124127E-02  0.279E-02    0.08       1.0  T
  13   -209.7814096  0.182704E-02  0.134E-01    0.07       1.0  T
  14   -209.7832680 -0.185839E-02  0.139E-02    0.08       1.0  T
  15   -209.7832345  0.335224E-04  0.186E-02    0.08       1.0  T
  16   -209.7832718 -0.372883E-04  0.980E-03    0.08       1.0  T
  17   -209.7832826 -0.108436E-04  0.669E-03    0.08       1.5  T
  18   -209.7832731  0.953066E-05  0.110E-02    0.08       1.0  T
  19   -209.7832840 -0.108719E-04  0.450E-03    0.08       2.3  T
  20   -209.7832786  0.536308E-05  0.758E-03    0.08       1.3  T
  21   -209.7832812 -0.262469E-05  0.626E-03    0.08       1.6  T
  22   -209.7832849 -0.362845E-05  0.254E-03    0.08       4.0  T
  23   -209.7832848  0.590426E-07  0.225E-03    0.08       4.5  T
  24   -209.7832855 -0.737589E-06  0.200E-04    0.08      50.7  T
  25   -209.7832855 -0.174231E-08  0.976E-05    0.08     104.0  T
     SCC iter.                  ...        0 min,  0.818 sec
     gradient                   ...        0 min,  0.067 sec
 * total energy  :  -207.6672416 Eh     change       -0.1247267E-02 Eh
   gradient norm :     0.0135187 Eh/α   predicted    -0.1198405E-02 (  -3.92%)
   displ. norm   :     0.8367318 α      lambda       -0.1528055E-02
   maximum displ.:     0.4116589 α      in ANC's #3, #4, #10, ...

........................................................................
.............................. CYCLE  111 ..............................
........................................................................

 iter      E             dE          RMSdq      gap      omega  full diag
   1   -209.6428563 -0.209643E+03  0.984E-01    0.03       0.0  T
   2   -208.4659262  0.117693E+01  0.347E+00    0.02       1.0  T
   3   -209.5896531 -0.112373E+01  0.132E+00    1.05       1.0  T
   4   -209.7150119 -0.125359E+00  0.821E-01    0.38       1.0  T
   5   -209.7506592 -0.356474E-01  0.539E-01    0.15       1.0  T
   6   -209.7604621 -0.980282E-02  0.368E-01    0.14       1.0  T
   7   -209.2894757  0.470986E+00  0.168E+00    0.20       1.0  T
   8   -209.7474881 -0.458012E+00  0.470E-01    0.17       1.0  T
   9   -209.7645433 -0.170551E-01  0.317E-01    0.09       1.0  T
  10   -209.7677789 -0.323566E-02  0.234E-01    0.12       1.0  T
  11   -209.7744046 -0.662573E-02  0.148E-01    0.07       1.0  T
  12   -209.7745660 -0.161385E-03  0.134E-01    0.08       1.0  T
  13   -209.7747351 -0.169045E-03  0.922E-02    0.06       1.0  T
  14   -209.7758741 -0.113901E-02  0.212E-02    0.07       1.0  T
  15   -209.7755309  0.343197E-03  0.515E-02    0.07       1.0  T
  16   -209.7756505 -0.119576E-03  0.433E-02    0.07       1.0  T
  17   -209.7758773 -0.226876E-03  0.199E-02    0.08       1.0  T
  18   -209.7759283 -0.509306E-04  0.531E-03    0.08       1.9  T
  19   -209.7758957  0.325973E-04  0.146E-02    0.08       1.0  T
  20   -209.7759297 -0.340153E-04  0.332E-03    0.08       3.1  T
  21   -209.7759301 -0.435246E-06  0.295E-03    0.08       3.4  T
  22   -209.7759303 -0.135651E-06  0.207E-03    0.08       4.9  T
  23   -209.7759308 -0.547148E-06  0.532E-04    0.08      19.1  T
  24   -209.7759306  0.193013E-06  0.128E-03    0.08       8.0  T
  25   -209.7759308 -0.154779E-06  0.613E-04    0.08      16.6  T
     SCC iter.                  ...        0 min,  0.862 sec
     gradient                   ...        0 min,  0.058 sec
 * total energy  :  -207.6686072 Eh     change       -0.1365559E-02 Eh
   gradient norm :     0.0140811 Eh/α   predicted    -0.1298957E-02 (  -4.88%)
   displ. norm   :     0.6678298 α      lambda       -0.1754563E-02
   maximum displ.:     0.3217609 α      in ANC's #3, #2, #4, ...

........................................................................
.............................. CYCLE  112 ..............................
........................................................................

 iter      E             dE          RMSdq      gap      omega  full diag
   1   -209.6853512 -0.209685E+03  0.808E-01    0.02       0.0  T
   2   -208.5117729  0.117358E+01  0.340E+00    0.02       1.0  T
   3   -209.6208263 -0.110905E+01  0.116E+00    1.02       1.0  T
   4   -209.7291446 -0.108318E+00  0.747E-01    0.24       1.0  T
   5   -209.7603309 -0.311863E-01  0.477E-01    0.09       1.0  T
   6   -209.7410008  0.193301E-01  0.558E-01    0.22       1.0  T
   7   -209.7470585 -0.605773E-02  0.513E-01    0.03       1.0  T
   8   -209.7599496 -0.128911E-01  0.417E-01    0.15       1.0  T
   9   -209.7764521 -0.165025E-01  0.251E-01    0.09       1.0  T
  10   -209.7793247 -0.287259E-02  0.177E-01    0.07       1.0  T
  11   -209.7778580  0.146669E-02  0.163E-01    0.10       1.0  T
  12   -209.7760740  0.178397E-02  0.182E-01    0.05       1.0  T
  13   -209.7810683 -0.499424E-02  0.973E-02    0.07       1.0  T
  14   -209.7815913 -0.523017E-03  0.432E-02    0.07       1.0  T
  15   -209.7815351  0.561823E-04  0.343E-02    0.07       1.0  T
  16   -209.7817104 -0.175244E-03  0.854E-03    0.07       1.2  T
  17   -209.7815697  0.140710E-03  0.317E-02    0.07       1.0  T
  18   -209.7817082 -0.138549E-03  0.766E-03    0.07       1.3  T
  19   -209.7817068  0.136842E-05  0.894E-03    0.07       1.1  T
  20   -209.7817155 -0.864136E-05  0.394E-03    0.07       2.6  T
  21   -209.7817168 -0.135131E-05  0.314E-03    0.07       3.2  T
  22   -209.7817153  0.154876E-05  0.451E-03    0.07       2.3  T
  23   -209.7817179 -0.257721E-05  0.384E-04    0.07      26.4  T
  24   -209.7817177  0.130903E-06  0.109E-03    0.07       9.3  T
  25   -209.7817178 -0.121836E-06  0.450E-04    0.07      22.6  T
  26   -209.7817178  0.191692E-07  0.456E-04    0.07      22.3  T
     SCC iter.                  ...        0 min,  0.672 sec
     gradient                   ...        0 min,  0.058 sec
 * total energy  :  -207.6698476 Eh     change       -0.1240373E-02 Eh
   gradient norm :     0.0131753 Eh/α   predicted    -0.1268551E-02 (   2.27%)
   displ. norm   :     0.8324489 α      lambda       -0.1540071E-02
   maximum displ.:     0.3989910 α      in ANC's #3, #10, #4, ...

........................................................................
.............................. CYCLE  113 ..............................
........................................................................

 iter      E             dE          RMSdq      gap      omega  full diag
   1   -209.6562199 -0.209656E+03  0.924E-01    0.03       0.0  T
   2   -208.5202720  0.113595E+01  0.339E+00    0.02       1.0  T
   3   -209.5647928 -0.104452E+01  0.139E+00    1.03       1.0  T
   4   -209.6982751 -0.133482E+00  0.840E-01    0.47       1.0  T
   5   -209.7369142 -0.386392E-01  0.619E-01    0.17       1.0  T
   6   -209.7721598 -0.352456E-01  0.201E-01    0.09       1.0  T
   7   -209.6659545  0.106205E+00  0.808E-01    0.03       1.0  T
   8   -209.7648455 -0.988910E-01  0.309E-01    0.11       1.0  T
   9   -209.6483249  0.116521E+00  0.852E-01    0.03       1.0  T
  10   -209.7691748 -0.120850E+00  0.220E-01    0.10       1.0  T
  11   -209.7742359 -0.506108E-02  0.104E-01    0.08       1.0  T
  12   -209.7713340  0.290195E-02  0.167E-01    0.09       1.0  T
  13   -209.7744430 -0.310909E-02  0.923E-02    0.08       1.0  T
  14   -209.7755110 -0.106795E-02  0.379E-02    0.07       1.0  T
  15   -209.7752753  0.235676E-03  0.617E-02    0.06       1.0  T
  16   -209.7755697 -0.294414E-03  0.294E-02    0.06       1.0  T
  17   -209.7753178  0.251967E-03  0.497E-02    0.06       1.0  T
  18   -209.7755680 -0.250263E-03  0.282E-02    0.06       1.0  T
  19   -209.7756882 -0.120217E-03  0.750E-03    0.07       1.4  T
  20   -209.7756940 -0.580101E-05  0.381E-03    0.07       2.7  T
  21   -209.7756907  0.332501E-05  0.548E-03    0.07       1.9  T
  22   -209.7756953 -0.462486E-05  0.825E-04    0.07      12.3  T
  23   -209.7756953  0.287875E-07  0.915E-04    0.07      11.1  T
  24   -209.7756953  0.600354E-07  0.107E-03    0.07       9.5  T
  25   -209.7756954 -0.158042E-06  0.148E-04    0.07      68.6  T
     SCC iter.                  ...        0 min,  0.748 sec
     gradient                   ...        0 min,  0.066 sec
 * total energy  :  -207.6711935 Eh     change       -0.1345893E-02 Eh
   gradient norm :     0.0129786 Eh/α   predicted    -0.1303655E-02 (  -3.14%)
   displ. norm   :     0.6545667 α      lambda       -0.1870018E-02
   maximum displ.:     0.3264832 α      in ANC's #2, #3, #1, ...

........................................................................
.............................. CYCLE  114 ..............................
........................................................................

 iter      E             dE          RMSdq      gap      omega  full diag
   1   -209.6470781 -0.209647E+03  0.942E-01    0.04       0.0  T
   2   -208.8799142  0.767164E+00  0.273E+00    0.02       1.0  T
   3   -209.5804791 -0.700565E+00  0.132E+00    1.14       1.0  T
   4   -209.6998857 -0.119407E+00  0.860E-01    0.42       1.0  T
   5   -209.7311486 -0.312629E-01  0.674E-01    0.20       1.0  T
   6   -209.7513839 -0.202353E-01  0.468E-01    0.13       1.0  T
   7   -209.7694641 -0.180802E-01  0.359E-01    0.09       1.0  T
   8   -209.3466605  0.422804E+00  0.159E+00    0.20       1.0  T
   9   -209.7551097 -0.408449E+00  0.418E-01    0.13       1.0  T
  10   -209.7783317 -0.232219E-01  0.164E-01    0.08       1.0  T
  11   -209.7800393 -0.170766E-02  0.161E-01    0.07       1.0  T
  12   -209.7808420 -0.802675E-03  0.914E-02    0.07       1.0  T
  13   -209.7819743 -0.113226E-02  0.411E-02    0.06       1.0  T
  14   -209.7812680  0.706279E-03  0.709E-02    0.05       1.0  T
  15   -209.7819094 -0.641454E-03  0.374E-02    0.06       1.0  T
  16   -209.7820796 -0.170207E-03  0.145E-02    0.06       1.0  T
  17   -209.7821003 -0.206130E-04  0.763E-03    0.06       1.3  T
  18   -209.7820971  0.316451E-05  0.739E-03    0.06       1.4  T
  19   -209.7821051 -0.802562E-05  0.213E-03    0.06       4.8  T
  20   -209.7821056 -0.481584E-06  0.135E-03    0.06       7.5  T
  21   -209.7821045  0.111993E-05  0.277E-03    0.06       3.7  T
  22   -209.7821052 -0.708581E-06  0.192E-03    0.06       5.3  T
  23   -209.7821057 -0.555008E-06  0.486E-04    0.06      20.9  T
  24   -209.7821058 -0.146158E-07  0.345E-04    0.06      29.4  T
     SCC iter.                  ...        0 min,  0.799 sec
     gradient                   ...        0 min,  0.066 sec
 * total energy  :  -207.6725827 Eh     change       -0.1389182E-02 Eh
   gradient norm :     0.0126571 Eh/α   predicted    -0.1335622E-02 (  -3.86%)
   displ. norm   :     0.8084120 α      lambda       -0.1740568E-02
   maximum displ.:     0.3801653 α      in ANC's #3, #2, #10, ...

........................................................................
.............................. CYCLE  115 ..............................
........................................................................

 iter      E             dE          RMSdq      gap      omega  full diag
   1   -209.5898755 -0.209590E+03  0.111E+00    0.06       0.0  T
   2   -208.2809935  0.130888E+01  0.370E+00    0.02       1.0  T
   3   -209.5175325 -0.123654E+01  0.151E+00    0.82       1.0  T
   4   -209.6803625 -0.162830E+00  0.931E-01    0.43       1.0  T
   5   -209.7252935 -0.449309E-01  0.697E-01    0.17       1.0  T
   6   -209.7432381 -0.179446E-01  0.491E-01    0.12       1.0  T
   7   -209.7446073 -0.136922E-02  0.465E-01    0.02       1.0  T
   8   -209.6878941  0.567132E-01  0.710E-01    0.03       1.0  T
   9   -209.7350975 -0.472033E-01  0.533E-01    0.17       1.0  T
  10   -209.7644451 -0.293477E-01  0.293E-01    0.10       1.0  T
  11   -209.7770399 -0.125948E-01  0.895E-02    0.07       1.0  T
  12   -209.7774648 -0.424847E-03  0.865E-02    0.05       1.0  T
  13   -209.7771404  0.324367E-03  0.102E-01    0.06       1.0  T
  14   -209.7779613 -0.820919E-03  0.303E-02    0.06       1.0  T
  15   -209.7778868  0.745602E-04  0.362E-02    0.05       1.0  T
  16   -209.7777931  0.936055E-04  0.412E-02    0.05       1.0  T
  17   -209.7780184 -0.225264E-03  0.169E-02    0.06       1.0  T
  18   -209.7780558 -0.374093E-04  0.687E-03    0.06       1.5  T
  19   -209.7780583 -0.252089E-05  0.358E-03    0.06       2.8  T
  20   -209.7780536  0.469899E-05  0.590E-03    0.06       1.7  T
  21   -209.7780581 -0.442550E-05  0.280E-03    0.06       3.6  T
  22   -209.7780575  0.611385E-06  0.353E-03    0.06       2.9  T
  23   -209.7780584 -0.993735E-06  0.235E-03    0.06       4.3  T
  24   -209.7780580  0.415101E-06  0.274E-03    0.06       3.7  T
  25   -209.7780593 -0.122295E-05  0.502E-04    0.06      20.2  T
  26   -209.7780593 -0.123071E-07  0.278E-04    0.06      36.5  T
  27   -209.7780593  0.139978E-07  0.368E-04    0.06      27.6  T
     SCC iter.                  ...        0 min,  1.099 sec
     gradient                   ...        0 min,  0.060 sec
 * total energy  :  -207.6741233 Eh     change       -0.1540636E-02 Eh
   gradient norm :     0.0127133 Eh/α   predicted    -0.1439047E-02 (  -6.59%)
   displ. norm   :     0.7729686 α      lambda       -0.1908472E-02
   maximum displ.:     0.3692838 α      in ANC's #2, #3, #1, ...

........................................................................
.............................. CYCLE  116 ..............................
........................................................................

 iter      E             dE          RMSdq      gap      omega  full diag
   1   -209.5330792 -0.209533E+03  0.125E+00    0.08       0.0  T
   2   -206.4595779  0.307350E+01  0.602E+00    0.09       1.0  T
   3   -209.3985815 -0.293900E+01  0.192E+00    0.25       1.0  T
   4   -209.6375859 -0.239004E+00  0.103E+00    0.35       1.0  T
   5   -209.7068383 -0.692524E-01  0.821E-01    0.24       1.0  T
   6   -209.7373006 -0.304623E-01  0.547E-01    0.11       1.0  T
   7   -209.7588487 -0.215481E-01  0.386E-01    0.10       1.0  T
   8   -209.3494774  0.409371E+00  0.157E+00    0.26       1.0  T
   9   -209.7452200 -0.395743E+00  0.461E-01    0.14       1.0  T
  10   -209.7740279 -0.288079E-01  0.187E-01    0.08       1.0  T
  11   -209.7768045 -0.277659E-02  0.129E-01    0.04       1.0  T
  12   -209.7796205 -0.281597E-02  0.203E-02    0.05       1.0  T
  13   -209.7793091  0.311326E-03  0.442E-02    0.06       1.0  T
  14   -209.7788095  0.499593E-03  0.715E-02    0.05       1.0  T
  15   -209.7796441 -0.834543E-03  0.668E-03    0.05       1.5  T
  16   -209.7796291  0.150291E-04  0.133E-02    0.05       1.0  T
  17   -209.7795890  0.400695E-04  0.189E-02    0.05       1.0  T
  18   -209.7796388 -0.497822E-04  0.780E-03    0.05       1.3  T
  19   -209.7796142  0.245670E-04  0.142E-02    0.05       1.0  T
  20   -209.7796386 -0.244329E-04  0.747E-03    0.05       1.4  T
  21   -209.7796400 -0.136204E-05  0.684E-03    0.05       1.5  T
  22   -209.7796412 -0.120458E-05  0.617E-03    0.05       1.6  T
  23   -209.7796414 -0.154156E-06  0.607E-03    0.05       1.7  T
  24   -209.7796474 -0.608385E-05  0.706E-04    0.05      14.4  T
  25   -209.7796471  0.338567E-06  0.154E-03    0.05       6.6  T
  26   -209.7796473 -0.177702E-06  0.109E-03    0.05       9.3  T
  27   -209.7796474 -0.150596E-06  0.534E-04    0.05      19.0  T
  28   -209.7796474 -0.146183E-07  0.415E-04    0.05      24.5  T
     SCC iter.                  ...        0 min,  0.907 sec
     gradient                   ...        0 min,  0.061 sec
 * total energy  :  -207.6757665 Eh     change       -0.1643182E-02 Eh
   gradient norm :     0.0113569 Eh/α   predicted    -0.1524377E-02 (  -7.23%)
   displ. norm   :     0.8328850 α      lambda       -0.1765087E-02
   maximum displ.:     0.4007807 α      in ANC's #2, #3, #10, ...

........................................................................
.............................. CYCLE  117 ..............................
........................................................................

 iter      E             dE          RMSdq      gap      omega  full diag
   1   -209.5397930 -0.209540E+03  0.124E+00    0.09       0.0  T
   2   -207.3160993  0.222369E+01  0.496E+00    0.01       1.0  T
   3   -209.4160400 -0.209994E+01  0.184E+00    0.43       1.0  T
   4   -209.6348437 -0.218804E+00  0.103E+00    0.35       1.0  T
   5   -209.7005114 -0.656677E-01  0.823E-01    0.22       1.0  T
   6   -209.7304128 -0.299014E-01  0.580E-01    0.11       1.0  T
   7   -209.7435554 -0.131426E-01  0.485E-01    0.12       1.0  T
   8   -209.3629044  0.380651E+00  0.155E+00    0.32       1.0  T
   9   -209.7549524 -0.392048E+00  0.393E-01    0.10       1.0  T
  10   -209.7779940 -0.230416E-01  0.715E-02    0.04       1.0  T
  11   -209.7749599  0.303406E-02  0.143E-01    0.03       1.0  T
  12   -209.7714666  0.349332E-02  0.208E-01    0.07       1.0  T
  13   -209.7779027 -0.643605E-02  0.679E-02    0.06       1.0  T
  14   -209.7778693  0.333432E-04  0.669E-02    0.04       1.0  T
  15   -209.7785741 -0.704729E-03  0.511E-03    0.05       2.0  T
  16   -209.7782843  0.289776E-03  0.420E-02    0.04       1.0  T
  17   -209.7785149 -0.230602E-03  0.193E-02    0.05       1.0  T
  18   -209.7785449 -0.300232E-04  0.138E-02    0.05       1.0  T
  19   -209.7785675 -0.225739E-04  0.759E-03    0.05       1.3  T
  20   -209.7785754 -0.790857E-05  0.150E-03    0.05       6.8  T
  21   -209.7785728  0.259790E-05  0.402E-03    0.05       2.5  T
  22   -209.7785672  0.559417E-05  0.701E-03    0.05       1.4  T
  23   -209.7785752 -0.801453E-05  0.137E-03    0.05       7.4  T
  24   -209.7785750  0.195414E-06  0.173E-03    0.05       5.9  T
  25   -209.7785754 -0.348871E-06  0.969E-04    0.05      10.5  T
  26   -209.7785754 -0.897723E-07  0.642E-04    0.05      15.8  T
     SCC iter.                  ...        0 min,  0.876 sec
     gradient                   ...        0 min,  0.061 sec
 * total energy  :  -207.6773616 Eh     change       -0.1595091E-02 Eh
   gradient norm :     0.0110204 Eh/α   predicted    -0.1494768E-02 (  -6.29%)
   displ. norm   :     0.7687923 α      lambda       -0.1748602E-02
   maximum displ.:     0.3980528 α      in ANC's #2, #3, #1, ...

........................................................................
.............................. CYCLE  118 ..............................
........................................................................

 iter      E             dE          RMSdq      gap      omega  full diag
   1   -209.5714452 -0.209571E+03  0.117E+00    0.09       0.0  T
   2   -208.0512379  0.152021E+01  0.403E+00    0.02       1.0  T
   3   -209.4561360 -0.140490E+01  0.169E+00    0.63       1.0  T
   4   -209.6479406 -0.191805E+00  0.102E+00    0.31       1.0  T
   5   -209.7066172 -0.586766E-01  0.797E-01    0.18       1.0  T
   6   -209.7302846 -0.236673E-01  0.608E-01    0.12       1.0  T
   7   -209.7747953 -0.445108E-01  0.301E-01    0.07       1.0  T
   8   -209.3950318  0.379763E+00  0.150E+00    0.31       1.0  T
   9   -209.7623793 -0.367347E+00  0.393E-01    0.09       1.0  T
  10   -209.7850373 -0.226580E-01  0.898E-02    0.04       1.0  T
  11   -209.7853099 -0.272668E-03  0.729E-02    0.04       1.0  T
  12   -209.7800490  0.526097E-02  0.192E-01    0.07       1.0  T
  13   -209.7857765 -0.572757E-02  0.510E-02    0.05       1.0  T
  14   -209.7860390 -0.262449E-03  0.245E-02    0.04       1.0  T
  15   -209.7860868 -0.478323E-04  0.787E-03    0.05       1.3  T
  16   -209.7859947  0.920762E-04  0.242E-02    0.04       1.0  T
  17   -209.7860381 -0.433245E-04  0.180E-02    0.04       1.0  T
  18   -209.7860198  0.183034E-04  0.205E-02    0.05       1.0  T
  19   -209.7860899 -0.701073E-04  0.310E-03    0.05       3.3  T
  20   -209.7860903 -0.391747E-06  0.183E-03    0.05       5.5  T
  21   -209.7860902  0.874911E-07  0.191E-03    0.05       5.3  T
  22   -209.7860904 -0.256475E-06  0.146E-03    0.05       7.0  T
  23   -209.7860903  0.928857E-07  0.162E-03    0.05       6.3  T
  24   -209.7860905 -0.194702E-06  0.120E-03    0.05       8.4  T
  25   -209.7860905  0.385934E-07  0.130E-03    0.05       7.8  T
  26   -209.7860908 -0.284529E-06  0.177E-04    0.05      57.4  T
  27   -209.7860908  0.147777E-07  0.324E-04    0.05      31.3  T
     SCC iter.                  ...        0 min,  0.782 sec
     gradient                   ...        0 min,  0.061 sec
 * total energy  :  -207.6787973 Eh     change       -0.1435706E-02 Eh
   gradient norm :     0.0114152 Eh/α   predicted    -0.1391047E-02 (  -3.11%)
   displ. norm   :     0.8300029 α      lambda       -0.1552101E-02
   maximum displ.:     0.4018701 α      in ANC's #3, #2, #10, ...

........................................................................
.............................. CYCLE  119 ..............................
........................................................................

 iter      E             dE          RMSdq      gap      omega  full diag
   1   -209.5301180 -0.209530E+03  0.125E+00    0.11       0.0  T
   2   -207.7382207  0.179190E+01  0.392E+00    0.07       1.0  T
   3   -209.4677970 -0.172958E+01  0.158E+00    0.75       1.0  T
   4   -209.6438164 -0.176019E+00  0.102E+00    0.40       1.0  T
   5   -209.7064292 -0.626127E-01  0.776E-01    0.09       1.0  T
   6   -209.6781436  0.282856E-01  0.834E-01    0.28       1.0  T
   7   -209.7707081 -0.925645E-01  0.274E-01    0.05       1.0  T
   8   -209.5091977  0.261510E+00  0.123E+00    0.13       1.0  T
   9   -209.7274868 -0.218289E+00  0.568E-01    0.12       1.0  T
  10   -209.7370391 -0.955229E-02  0.470E-01    0.03       1.0  T
  11   -209.7642761 -0.272369E-01  0.285E-01    0.07       1.0  T
  12   -209.7762599 -0.119838E-01  0.546E-02    0.05       1.0  T
  13   -209.7761904  0.694271E-04  0.594E-02    0.05       1.0  T
  14   -209.7765581 -0.367648E-03  0.207E-02    0.04       1.0  T
  15   -209.7763416  0.216459E-03  0.380E-02    0.04       1.0  T
  16   -209.7765615 -0.219855E-03  0.104E-02    0.04       1.0  T
  17   -209.7765747 -0.131994E-04  0.659E-03    0.04       1.5  T
  18   -209.7765050  0.696281E-04  0.210E-02    0.04       1.0  T
  19   -209.7765557 -0.506562E-04  0.118E-02    0.04       1.0  T
  20   -209.7765752 -0.195069E-04  0.445E-03    0.04       2.3  T
  21   -209.7765759 -0.719815E-06  0.350E-03    0.04       2.9  T
  22   -209.7765771 -0.113971E-05  0.216E-03    0.04       4.7  T
  23   -209.7765777 -0.658179E-06  0.695E-04    0.04      14.6  T
  24   -209.7765775  0.262972E-06  0.142E-03    0.04       7.1  T
  25   -209.7765778 -0.332541E-06  0.125E-04    0.04      81.2  T
     SCC iter.                  ...        0 min,  0.913 sec
     gradient                   ...        0 min,  0.058 sec
 * total energy  :  -207.6799399 Eh     change       -0.1142593E-02 Eh
   gradient norm :     0.0173379 Eh/α   predicted    -0.1310683E-02 (  14.71%)
   displ. norm   :     0.6264609 α      lambda       -0.1440416E-02
   maximum displ.:     0.3535440 α      in ANC's #2, #3, #1, ...

........................................................................
.............................. CYCLE  120 ..............................
........................................................................

 iter      E             dE          RMSdq      gap      omega  full diag
   1   -209.6520678 -0.209652E+03  0.914E-01    0.07       0.0  T
   2   -208.2855147  0.136655E+01  0.370E+00    0.02       1.0  T
   3   -209.4841952 -0.119868E+01  0.154E+00    0.87       1.0  T
   4   -209.6462282 -0.162033E+00  0.986E-01    0.42       1.0  T
   5   -209.7026941 -0.564659E-01  0.770E-01    0.15       1.0  T
   6   -209.7165177 -0.138236E-01  0.662E-01    0.14       1.0  T
   7   -209.4748428  0.241675E+00  0.132E+00    0.17       1.0  T
   8   -209.7663073 -0.291464E+00  0.364E-01    0.08       1.0  T
   9   -209.7822878 -0.159806E-01  0.153E-01    0.03       1.0  T
  10   -209.7744705  0.781735E-02  0.278E-01    0.07       1.0  T
  11   -209.7850177 -0.105472E-01  0.933E-02    0.04       1.0  T
  12   -209.7805158  0.450189E-02  0.187E-01    0.06       1.0  T
  13   -209.7858108 -0.529501E-02  0.590E-02    0.05       1.0  T
  14   -209.7862115 -0.400712E-03  0.315E-02    0.05       1.0  T
  15   -209.7862614 -0.498533E-04  0.241E-02    0.04       1.0  T
  16   -209.7861510  0.110406E-03  0.341E-02    0.04       1.0  T
  17   -209.7862839 -0.132893E-03  0.192E-02    0.04       1.0  T
  18   -209.7863309 -0.470432E-04  0.961E-03    0.04       1.1  T
  19   -209.7863435 -0.125544E-04  0.339E-03    0.04       3.0  T
  20   -209.7863427  0.783374E-06  0.369E-03    0.04       2.8  T
  21   -209.7863448 -0.210065E-05  0.747E-04    0.04      13.6  T
  22   -209.7863412  0.358213E-05  0.458E-03    0.04       2.2  T
  23   -209.7863440 -0.276320E-05  0.226E-03    0.04       4.5  T
  24   -209.7863448 -0.852124E-06  0.424E-04    0.04      24.0  T
  25   -209.7863444  0.368228E-06  0.150E-03    0.04       6.7  T
  26   -209.7863448 -0.383222E-06  0.980E-05    0.04     103.6  T
     SCC iter.                  ...        0 min,  0.941 sec
     gradient                   ...        0 min,  0.059 sec
 * total energy  :  -207.6809892 Eh     change       -0.1049325E-02 Eh
   gradient norm :     0.0156128 Eh/α   predicted    -0.1002861E-02 (  -4.43%)
   displ. norm   :     0.6668128 α      lambda       -0.1375873E-02
   maximum displ.:     0.3507256 α      in ANC's #3, #2, #4, ...
 * RMSD in coord.:     1.4055580 α      energy gain  -0.2390913E-01 Eh

generating ANC from exact Hessian ...
Using Lindh-Hessian (1995)
 Shifting diagonal of input Hessian by   1.062755523282179E-002
 Lowest  eigenvalues of input Hessian
    0.010000    0.010195    0.010287    0.000000    0.000000    0.000000
    0.000000    0.000000    0.000000    0.010682    0.010743    0.010758
    0.010858    0.010946    0.011051    0.011124    0.011258    0.011517
 Highest eigenvalues
    2.118465    2.234348    2.250744    2.415294    2.512534    3.341950
 

........................................................................
.............................. CYCLE  121 ..............................
........................................................................

 iter      E             dE          RMSdq      gap      omega  full diag
   1   -209.6648922 -0.209665E+03  0.897E-01    0.07       0.0  T
   2   -208.3003853  0.136451E+01  0.369E+00    0.02       1.0  T
   3   -209.4809272 -0.118054E+01  0.157E+00    0.88       1.0  T
   4   -209.6432787 -0.162351E+00  0.999E-01    0.40       1.0  T
   5   -209.7086358 -0.653571E-01  0.759E-01    0.14       1.0  T
   6   -209.7228664 -0.142306E-01  0.642E-01    0.15       1.0  T
   7   -209.4625787  0.260288E+00  0.136E+00    0.19       1.0  T
   8   -209.7911958 -0.328617E+00  0.850E-02    0.04       1.0  T
   9   -209.7770122  0.141836E-01  0.295E-01    0.07       1.0  T
  10   -209.7856960 -0.868380E-02  0.185E-01    0.03       1.0  T
  11   -209.7915946 -0.589863E-02  0.255E-02    0.04       1.0  T
  12   -209.7916709 -0.762796E-04  0.192E-02    0.04       1.0  T
  13   -209.7916459  0.250368E-04  0.193E-02    0.04       1.0  T
  14   -209.7913278  0.318085E-03  0.475E-02    0.04       1.0  T
  15   -209.7916389 -0.311082E-03  0.179E-02    0.04       1.0  T
  16   -209.7916961 -0.572631E-04  0.437E-03    0.04       2.3  T
  17   -209.7916969 -0.771969E-06  0.280E-03    0.04       3.6  T
  18   -209.7916784  0.184637E-04  0.110E-02    0.04       1.0  T
  19   -209.7916848 -0.641454E-05  0.888E-03    0.04       1.1  T
  20   -209.7916954 -0.105609E-04  0.337E-03    0.04       3.0  T
  21   -209.7916974 -0.204079E-05  0.642E-04    0.04      15.8  T
  22   -209.7916972  0.257179E-06  0.157E-03    0.04       6.5  T
  23   -209.7916949  0.225987E-05  0.386E-03    0.04       2.6  T
  24   -209.7916975 -0.252520E-05  0.487E-04    0.04      20.9  T
  25   -209.7916975 -0.194084E-07  0.316E-04    0.04      32.1  T
  26   -209.7916974  0.393601E-07  0.566E-04    0.04      17.9  T
     SCC iter.                  ...        0 min,  0.957 sec
     gradient                   ...        0 min,  0.066 sec
 * total energy  :  -207.6816465 Eh     change       -0.6572943E-03 Eh
   gradient norm :     0.0293160 Eh/α   predicted     0.0000000E+00 (-100.00%)
   displ. norm   :     0.1704948 α      lambda       -0.1138822E-02
   maximum displ.:     0.0689528 α      in ANC's #3, #23, #40, ...

........................................................................
.............................. CYCLE  122 ..............................
........................................................................

 iter      E             dE          RMSdq      gap      omega  full diag
   1   -209.7813884 -0.209781E+03  0.280E-01    0.03       0.0  T
   2   -209.6400409  0.141348E+00  0.908E-01    0.34       1.0  T
   3   -209.2285305  0.411510E+00  0.287E+00    0.03       1.0  T
   4   -209.7804165 -0.551886E+00  0.230E-01    0.03       1.0  T
   5   -209.7457816  0.346350E-01  0.489E-01    0.11       1.0  T
   6   -209.7252645  0.205171E-01  0.598E-01    0.13       1.0  T
   7   -209.7788720 -0.536075E-01  0.220E-01    0.03       1.0  T
   8   -209.7857742 -0.690219E-02  0.990E-02    0.05       1.0  T
   9   -209.7854972  0.277012E-03  0.104E-01    0.04       1.0  T
  10   -209.7873231 -0.182591E-02  0.207E-02    0.04       1.0  T
  11   -209.7873450 -0.219403E-04  0.151E-02    0.04       1.0  T
  12   -209.7873514 -0.639797E-05  0.121E-02    0.04       1.0  T
  13   -209.7873576 -0.621704E-05  0.107E-02    0.04       1.0  T
  14   -209.7873656 -0.795461E-05  0.720E-03    0.04       1.4  T
  15   -209.7873653  0.280422E-06  0.617E-03    0.04       1.6  T
  16   -209.7873680 -0.270344E-05  0.427E-03    0.04       2.4  T
  17   -209.7873689 -0.902484E-06  0.254E-03    0.04       4.0  T
  18   -209.7873693 -0.366937E-06  0.122E-03    0.04       8.4  T
  19   -209.7873692  0.438147E-07  0.115E-03    0.04       8.8  T
  20   -209.7873694 -0.181376E-06  0.310E-04    0.04      32.8  T
  21   -209.7873694  0.631204E-08  0.335E-04    0.04      30.3  T
     SCC iter.                  ...        0 min,  0.712 sec
     gradient                   ...        0 min,  0.065 sec
 * total energy  :  -207.6819541 Eh     change       -0.3076416E-03 Eh
   gradient norm :     0.0168735 Eh/α   predicted    -0.5860287E-03 (  90.49%)
   displ. norm   :     0.3246428 α      lambda       -0.2494086E-02
   maximum displ.:     0.1312694 α      in ANC's #3, #27, #29, ...

........................................................................
.............................. CYCLE  123 ..............................
........................................................................

 iter      E             dE          RMSdq      gap      omega  full diag
   1   -209.7153927 -0.209715E+03  0.102E+00    0.03       0.0  T
   2   -209.4200530  0.295340E+00  0.203E+00    0.06       1.0  T
   3   -209.7030034 -0.282950E+00  0.940E-01    0.13       1.0  T
   4   -209.3718318  0.331172E+00  0.149E+00    0.46       1.0  T
   5   -209.6653631 -0.293531E+00  0.856E-01    0.23       1.0  T
   6   -209.6779667 -0.126036E-01  0.775E-01    0.06       1.0  T
   7   -209.7574244 -0.794577E-01  0.430E-01    0.08       1.0  T
   8   -209.7166672  0.407571E-01  0.613E-01    0.13       1.0  T
   9   -209.7322016 -0.155344E-01  0.707E-01    0.06       1.0  T
  10   -209.7732109 -0.410093E-01  0.224E-01    0.05       1.0  T
  11   -209.7765752 -0.336426E-02  0.121E-01    0.04       1.0  T
  12   -209.7774021 -0.826916E-03  0.528E-02    0.04       1.0  T
  13   -209.7769205  0.481644E-03  0.969E-02    0.04       1.0  T
  14   -209.7774641 -0.543667E-03  0.471E-02    0.04       1.0  T
  15   -209.7775350 -0.708586E-04  0.263E-02    0.05       1.0  T
  16   -209.7775907 -0.556936E-04  0.201E-02    0.04       1.0  T
  17   -209.7775673  0.233406E-04  0.262E-02    0.04       1.0  T
  18   -209.7776030 -0.356225E-04  0.941E-03    0.04       1.1  T
  19   -209.7775996  0.333893E-05  0.150E-02    0.04       1.0  T
  20   -209.7776168 -0.171316E-04  0.392E-03    0.04       2.6  T
  21   -209.7776162  0.572203E-06  0.370E-03    0.04       2.7  T
  22   -209.7776171 -0.928187E-06  0.319E-03    0.04       3.2  T
  23   -209.7776171 -0.912149E-08  0.315E-03    0.04       3.2  T
  24   -209.7776178 -0.638410E-06  0.102E-03    0.04      10.0  T
  25   -209.7776178 -0.367158E-07  0.672E-04    0.04      15.1  T
  26   -209.7776178 -0.512495E-08  0.467E-04    0.04      21.7  T
     SCC iter.                  ...        0 min,  0.928 sec
     gradient                   ...        0 min,  0.059 sec
 * total energy  :  -207.6814053 Eh     change        0.5488349E-03 Eh
   gradient norm :     0.0492876 Eh/α   predicted    -0.1378474E-02 (-351.16%)
   displ. norm   :     0.1633139 α      lambda       -0.2267461E-02
   maximum displ.:     0.0593763 α      in ANC's #29, #16, #42, ...

........................................................................
.............................. CYCLE  124 ..............................
........................................................................

 iter      E             dE          RMSdq      gap      omega  full diag
   1   -209.7860463 -0.209786E+03  0.214E-01    0.04       0.0  T
   2   -209.2224707  0.563576E+00  0.291E+00    0.02       1.0  T
   3   -209.7030472 -0.480576E+00  0.686E-01    0.17       1.0  T
   4   -209.5313775  0.171670E+00  0.118E+00    0.13       1.0  T
   5   -209.7850007 -0.253623E+00  0.131E-01    0.05       1.0  T
   6   -209.7749462  0.100545E-01  0.265E-01    0.07       1.0  T
   7   -209.7838421 -0.889597E-02  0.139E-01    0.06       1.0  T
   8   -209.7851329 -0.129081E-02  0.103E-01    0.04       1.0  T
   9   -209.7866924 -0.155943E-02  0.441E-02    0.04       1.0  T
  10   -209.7869840 -0.291630E-03  0.157E-02    0.04       1.0  T
  11   -209.7869935 -0.951133E-05  0.101E-02    0.04       1.0  T
  12   -209.7869993 -0.575161E-05  0.651E-03    0.04       1.6  T
  13   -209.7869913  0.799642E-05  0.851E-03    0.04       1.2  T
  14   -209.7870022 -0.109733E-04  0.237E-03    0.04       4.3  T
  15   -209.7870027 -0.435311E-06  0.141E-03    0.04       7.2  T
  16   -209.7870028 -0.166695E-06  0.967E-04    0.04      10.5  T
  17   -209.7870029 -0.542067E-07  0.696E-04    0.04      14.6  T
     SCC iter.                  ...        0 min,  0.635 sec
     gradient                   ...        0 min,  0.065 sec
 * total energy  :  -207.6826071 Eh     change       -0.1201778E-02 Eh
   gradient norm :     0.0134491 Eh/α   predicted    -0.1163968E-02 (  -3.15%)
   displ. norm   :     0.1597604 α      lambda       -0.6397946E-03
   maximum displ.:     0.0822990 α      in ANC's #3, #28, #5, ...

........................................................................
.............................. CYCLE  125 ..............................
........................................................................

 iter      E             dE          RMSdq      gap      omega  full diag
   1   -209.7834935 -0.209783E+03  0.227E-01    0.03       0.0  T
   2   -209.6282223  0.155271E+00  0.963E-01    0.50       1.0  T
   3   -209.7022189 -0.739966E-01  0.992E-01    0.05       1.0  T
   4   -209.7376060 -0.353871E-01  0.570E-01    0.12       1.0  T
   5   -209.7766679 -0.390619E-01  0.332E-01    0.07       1.0  T
   6   -209.7728029  0.386498E-02  0.324E-01    0.03       1.0  T
   7   -209.7903494 -0.175465E-01  0.785E-02    0.05       1.0  T
   8   -209.7910545 -0.705091E-03  0.446E-02    0.05       1.0  T
   9   -209.7910825 -0.280799E-04  0.428E-02    0.04       1.0  T
  10   -209.7913899 -0.307338E-03  0.619E-03    0.04       1.6  T
  11   -209.7913704  0.194954E-04  0.122E-02    0.05       1.0  T
  12   -209.7913932 -0.227821E-04  0.396E-03    0.04       2.6  T
  13   -209.7913899  0.321249E-05  0.563E-03    0.04       1.8  T
  14   -209.7913943 -0.438580E-05  0.283E-03    0.04       3.6  T
  15   -209.7913951 -0.794262E-06  0.129E-03    0.04       7.8  T
  16   -209.7913950  0.157494E-06  0.156E-03    0.04       6.5  T
  17   -209.7913947  0.242573E-06  0.190E-03    0.04       5.4  T
  18   -209.7913953 -0.610561E-06  0.439E-04    0.04      23.1  T
  19   -209.7913953  0.403817E-07  0.663E-04    0.04      15.3  T
     SCC iter.                  ...        0 min,  0.720 sec
     gradient                   ...        0 min,  0.057 sec
 * total energy  :  -207.6828754 Eh     change       -0.2683837E-03 Eh
   gradient norm :     0.0101096 Eh/α   predicted    -0.3280621E-03 (  22.24%)
   displ. norm   :     0.2497999 α      lambda       -0.5896671E-03
   maximum displ.:     0.1403994 α      in ANC's #3, #5, #9, ...

........................................................................
.............................. CYCLE  126 ..............................
........................................................................

 iter      E             dE          RMSdq      gap      omega  full diag
   1   -209.7901740 -0.209790E+03  0.209E-01    0.04       0.0  T
   2   -209.5663369  0.223837E+00  0.179E+00    0.00       1.0  T
   3   -209.7116633 -0.145326E+00  0.660E-01    0.16       1.0  T
   4   -209.5148440  0.196819E+00  0.123E+00    0.14       1.0  T
   5   -209.7868013 -0.271957E+00  0.181E-01    0.06       1.0  T
   6   -209.7856422  0.115908E-02  0.171E-01    0.06       1.0  T
   7   -209.7908492 -0.520697E-02  0.328E-02    0.04       1.0  T
   8   -209.7892572  0.159192E-02  0.101E-01    0.04       1.0  T
   9   -209.7907239 -0.146668E-02  0.390E-02    0.04       1.0  T
  10   -209.7909053 -0.181384E-03  0.145E-02    0.05       1.0  T
  11   -209.7909329 -0.275990E-04  0.772E-03    0.04       1.3  T
  12   -209.7909267  0.624670E-05  0.862E-03    0.04       1.2  T
  13   -209.7909364 -0.973514E-05  0.309E-03    0.05       3.3  T
  14   -209.7909374 -0.995894E-06  0.192E-03    0.05       5.3  T
  15   -209.7909377 -0.351762E-06  0.650E-04    0.05      15.6  T
  16   -209.7909374  0.293143E-06  0.137E-03    0.04       7.4  T
  17   -209.7909377 -0.252460E-06  0.652E-04    0.05      15.6  T
     SCC iter.                  ...        0 min,  0.476 sec
     gradient                   ...        0 min,  0.056 sec
 * total energy  :  -207.6832572 Eh     change       -0.3817618E-03 Eh
   gradient norm :     0.0111246 Eh/α   predicted    -0.3132307E-03 ( -17.95%)
   displ. norm   :     0.3848080 α      lambda       -0.6239697E-03
   maximum displ.:     0.2145149 α      in ANC's #3, #9, #5, ...

........................................................................
.............................. CYCLE  127 ..............................
........................................................................

 iter      E             dE          RMSdq      gap      omega  full diag
   1   -209.7670159 -0.209767E+03  0.423E-01    0.04       0.0  T
   2   -209.5756582  0.191358E+00  0.115E+00    0.44       1.0  T
   3   -209.7036062 -0.127948E+00  0.734E-01    0.13       1.0  T
   4   -209.7592599 -0.556538E-01  0.386E-01    0.04       1.0  T
   5   -209.6411771  0.118083E+00  0.139E+00    0.02       1.0  T
   6   -209.7006494 -0.594723E-01  0.723E-01    0.18       1.0  T
   7   -209.7617135 -0.610641E-01  0.414E-01    0.09       1.0  T
   8   -209.7848195 -0.231059E-01  0.158E-01    0.04       1.0  T
   9   -209.7852964 -0.476889E-03  0.157E-01    0.05       1.0  T
  10   -209.7862709 -0.974565E-03  0.125E-01    0.05       1.0  T
  11   -209.7861836  0.872834E-04  0.119E-01    0.05       1.0  T
  12   -209.7864643 -0.280699E-03  0.104E-01    0.05       1.0  T
  13   -209.7866703 -0.205998E-03  0.890E-02    0.05       1.0  T
  14   -209.7869862 -0.315838E-03  0.645E-02    0.05       1.0  T
  15   -209.7873029 -0.316683E-03  0.233E-02    0.05       1.0  T
  16   -209.7873374 -0.345800E-04  0.714E-03    0.05       1.4  T
  17   -209.7872942  0.432040E-04  0.172E-02    0.04       1.0  T
  18   -209.7873358 -0.415978E-04  0.922E-03    0.05       1.1  T
  19   -209.7873396 -0.376916E-05  0.620E-03    0.05       1.6  T
  20   -209.7873400 -0.371682E-06  0.435E-03    0.05       2.3  T
  21   -209.7873418 -0.180952E-05  0.253E-03    0.05       4.0  T
  22   -209.7873420 -0.239435E-06  0.147E-03    0.05       6.9  T
  23   -209.7873423 -0.324705E-06  0.422E-04    0.05      24.1  T
  24   -209.7873423  0.446603E-07  0.601E-04    0.05      16.9  T
     SCC iter.                  ...        0 min,  0.864 sec
     gradient                   ...        0 min,  0.059 sec
 * total energy  :  -207.6836957 Eh     change       -0.4384536E-03 Eh
   gradient norm :     0.0079956 Eh/α   predicted    -0.3581829E-03 ( -18.31%)
   displ. norm   :     0.4900112 α      lambda       -0.6525676E-03
   maximum displ.:     0.2722714 α      in ANC's #3, #9, #5, ...

........................................................................
.............................. CYCLE  128 ..............................
........................................................................

 iter      E             dE          RMSdq      gap      omega  full diag
   1   -209.7758741 -0.209776E+03  0.353E-01    0.04       0.0  T
   2   -209.6112685  0.164606E+00  0.997E-01    0.58       1.0  T
   3   -209.7395233 -0.128255E+00  0.761E-01    0.04       1.0  T
   4   -209.7530064 -0.134830E-01  0.405E-01    0.04       1.0  T
   5   -209.6820702  0.709361E-01  0.788E-01    0.20       1.0  T
   6   -209.7030432 -0.209730E-01  0.696E-01    0.17       1.0  T
   7   -209.7509131 -0.478699E-01  0.449E-01    0.10       1.0  T
   8   -209.7532973 -0.238422E-02  0.423E-01    0.04       1.0  T
   9   -209.7825136 -0.292162E-01  0.139E-01    0.05       1.0  T
  10   -209.7820600  0.453528E-03  0.127E-01    0.04       1.0  T
  11   -209.7844452 -0.238516E-02  0.486E-02    0.05       1.0  T
  12   -209.7844734 -0.281992E-04  0.375E-02    0.05       1.0  T
  13   -209.7845302 -0.567719E-04  0.298E-02    0.05       1.0  T
  14   -209.7846444 -0.114246E-03  0.159E-02    0.05       1.0  T
  15   -209.7846737 -0.292331E-04  0.918E-03    0.05       1.1  T
  16   -209.7846805 -0.683624E-05  0.551E-03    0.05       1.8  T
  17   -209.7846807 -0.210318E-06  0.390E-03    0.05       2.6  T
  18   -209.7846817 -0.100605E-05  0.280E-03    0.05       3.6  T
  19   -209.7846800  0.169109E-05  0.423E-03    0.05       2.4  T
  20   -209.7846828 -0.274814E-05  0.136E-03    0.05       7.5  T
  21   -209.7846828  0.123676E-07  0.136E-03    0.05       7.4  T
  22   -209.7846830 -0.243603E-06  0.725E-04    0.05      14.0  T
  23   -209.7846831 -0.761217E-07  0.273E-04    0.05      37.2  T
     SCC iter.                  ...        0 min,  0.729 sec
     gradient                   ...        0 min,  0.058 sec
 * total energy  :  -207.6842110 Eh     change       -0.5153841E-03 Eh
   gradient norm :     0.0132195 Eh/α   predicted    -0.4046277E-03 ( -21.49%)
   displ. norm   :     0.5949069 α      lambda       -0.7471879E-03
   maximum displ.:     0.3312597 α      in ANC's #3, #9, #5, ...

........................................................................
.............................. CYCLE  129 ..............................
........................................................................

 iter      E             dE          RMSdq      gap      omega  full diag
   1   -209.7684821 -0.209768E+03  0.424E-01    0.04       0.0  T
   2   -209.5824766  0.186005E+00  0.110E+00    0.43       1.0  T
   3   -209.6880870 -0.105610E+00  0.110E+00    0.04       1.0  T
   4   -209.7519768 -0.638899E-01  0.506E-01    0.10       1.0  T
   5   -209.5670952  0.184882E+00  0.138E+00    0.04       1.0  T
   6   -209.6993958 -0.132301E+00  0.703E-01    0.16       1.0  T
   7   -209.7453648 -0.459690E-01  0.484E-01    0.10       1.0  T
   8   -209.7833953 -0.380305E-01  0.940E-02    0.05       1.0  T
   9   -209.7844485 -0.105312E-02  0.382E-02    0.05       1.0  T
  10   -209.7842995  0.148955E-03  0.454E-02    0.05       1.0  T
  11   -209.7844897 -0.190216E-03  0.212E-02    0.05       1.0  T
  12   -209.7845416 -0.519005E-04  0.954E-03    0.05       1.1  T
  13   -209.7845133  0.283499E-04  0.153E-02    0.05       1.0  T
  14   -209.7845498 -0.365386E-04  0.319E-03    0.05       3.2  T
  15   -209.7845374  0.124061E-04  0.953E-03    0.05       1.1  T
  16   -209.7845473 -0.986228E-05  0.488E-03    0.05       2.1  T
  17   -209.7845468  0.457010E-06  0.503E-03    0.05       2.0  T
  18   -209.7845486 -0.179461E-05  0.353E-03    0.05       2.9  T
  19   -209.7845505 -0.193050E-05  0.781E-04    0.05      13.0  T
  20   -209.7845505  0.671281E-07  0.955E-04    0.05      10.6  T
  21   -209.7845506 -0.135656E-06  0.279E-04    0.05      36.3  T
     SCC iter.                  ...        0 min,  0.709 sec
     gradient                   ...        0 min,  0.059 sec
 * total energy  :  -207.6847937 Eh     change       -0.5826853E-03 Eh
   gradient norm :     0.0114817 Eh/α   predicted    -0.5058141E-03 ( -13.19%)
   displ. norm   :     0.6010623 α      lambda       -0.7728757E-03
   maximum displ.:     0.3388282 α      in ANC's #3, #9, #5, ...

........................................................................
.............................. CYCLE  130 ..............................
........................................................................

 iter      E             dE          RMSdq      gap      omega  full diag
   1   -209.7411484 -0.209741E+03  0.543E-01    0.05       0.0  T
   2   -209.4603784  0.280770E+00  0.145E+00    0.11       1.0  T
   3   -209.6433873 -0.183009E+00  0.935E-01    0.47       1.0  T
   4   -209.5417505  0.101637E+00  0.189E+00    0.00       1.0  T
   5   -209.7308001 -0.189050E+00  0.632E-01    0.09       1.0  T
   6   -209.6672721  0.635280E-01  0.835E-01    0.07       1.0  T
   7   -209.7392461 -0.719741E-01  0.516E-01    0.11       1.0  T
   8   -209.7831256 -0.438795E-01  0.196E-01    0.05       1.0  T
   9   -209.7770348  0.609082E-02  0.263E-01    0.04       1.0  T
  10   -209.7838772 -0.684241E-02  0.121E-01    0.05       1.0  T
  11   -209.7847653 -0.888146E-03  0.841E-02    0.05       1.0  T
  12   -209.7857221 -0.956745E-03  0.277E-02    0.05       1.0  T
  13   -209.7857609 -0.388654E-04  0.188E-02    0.05       1.0  T
  14   -209.7857652 -0.424489E-05  0.151E-02    0.05       1.0  T
  15   -209.7857974 -0.322628E-04  0.451E-03    0.05       2.3  T
  16   -209.7857966  0.880796E-06  0.471E-03    0.05       2.2  T
  17   -209.7858001 -0.349389E-05  0.166E-03    0.05       6.1  T
  18   -209.7857994  0.636795E-06  0.236E-03    0.05       4.3  T
  19   -209.7858000 -0.549754E-06  0.141E-03    0.05       7.2  T
  20   -209.7858000 -0.363551E-07  0.128E-03    0.05       8.0  T
  21   -209.7858003 -0.264377E-06  0.355E-04    0.05      28.6  T
  22   -209.7858002  0.120861E-06  0.908E-04    0.05      11.2  T
     SCC iter.                  ...        0 min,  0.804 sec
     gradient                   ...        0 min,  0.059 sec
 * total energy  :  -207.6853553 Eh     change       -0.5616091E-03 Eh
   gradient norm :     0.0090900 Eh/α   predicted    -0.5260468E-03 (  -6.33%)
   displ. norm   :     0.5581977 α      lambda       -0.6445171E-03
   maximum displ.:     0.3169903 α      in ANC's #3, #9, #5, ...

........................................................................
.............................. CYCLE  131 ..............................
........................................................................

 iter      E             dE          RMSdq      gap      omega  full diag
   1   -209.7740233 -0.209774E+03  0.357E-01    0.04       0.0  T
   2   -209.5938300  0.180193E+00  0.106E+00    0.25       1.0  T
   3   -209.2916784  0.302152E+00  0.279E+00    0.03       1.0  T
   4   -209.7206014 -0.428923E+00  0.804E-01    0.07       1.0  T
   5   -209.7034034  0.171981E-01  0.814E-01    0.06       1.0  T
   6   -209.7090903 -0.568690E-02  0.668E-01    0.13       1.0  T
   7   -209.7638278 -0.547376E-01  0.380E-01    0.09       1.0  T
   8   -209.7873419 -0.235140E-01  0.771E-02    0.05       1.0  T
   9   -209.7869419  0.399963E-03  0.826E-02    0.05       1.0  T
  10   -209.7866202  0.321695E-03  0.873E-02    0.05       1.0  T
  11   -209.7877626 -0.114239E-02  0.305E-02    0.05       1.0  T
  12   -209.7877875 -0.249326E-04  0.239E-02    0.05       1.0  T
  13   -209.7878069 -0.194144E-04  0.173E-02    0.05       1.0  T
  14   -209.7878132 -0.627211E-05  0.136E-02    0.05       1.0  T
  15   -209.7878198 -0.663021E-05  0.961E-03    0.05       1.1  T
  16   -209.7878225 -0.266200E-05  0.680E-03    0.05       1.5  T
  17   -209.7878261 -0.358240E-05  0.364E-03    0.05       2.8  T
  18   -209.7878268 -0.735118E-06  0.182E-03    0.05       5.6  T
  19   -209.7878269 -0.593244E-07  0.144E-03    0.05       7.1  T
  20   -209.7878271 -0.181479E-06  0.823E-04    0.05      12.3  T
  21   -209.7878271 -0.692159E-07  0.518E-04    0.05      19.6  T
     SCC iter.                  ...        0 min,  0.661 sec
     gradient                   ...        0 min,  0.060 sec
 * total energy  :  -207.6858328 Eh     change       -0.4775046E-03 Eh
   gradient norm :     0.0084276 Eh/α   predicted    -0.4226712E-03 ( -11.48%)
   displ. norm   :     0.5784543 α      lambda       -0.5474088E-03
   maximum displ.:     0.3328568 α      in ANC's #3, #9, #5, ...

........................................................................
.............................. CYCLE  132 ..............................
........................................................................

 iter      E             dE          RMSdq      gap      omega  full diag
   1   -209.7389811 -0.209739E+03  0.566E-01    0.05       0.0  T
   2   -209.3106133  0.428368E+00  0.180E+00    0.05       1.0  T
   3   -209.6114291 -0.300816E+00  0.101E+00    0.80       1.0  T
   4   -209.5302997  0.811293E-01  0.193E+00    0.00       1.0  T
   5   -209.7061174 -0.175818E+00  0.689E-01    0.14       1.0  T
   6   -209.7725928 -0.664754E-01  0.320E-01    0.05       1.0  T
   7   -209.7244145  0.481783E-01  0.602E-01    0.13       1.0  T
   8   -209.7756394 -0.512249E-01  0.249E-01    0.07       1.0  T
   9   -209.7818216 -0.618222E-02  0.193E-01    0.05       1.0  T
  10   -209.7851536 -0.333199E-02  0.100E-01    0.05       1.0  T
  11   -209.7846893  0.464290E-03  0.108E-01    0.05       1.0  T
  12   -209.7859435 -0.125422E-02  0.545E-02    0.05       1.0  T
  13   -209.7861236 -0.180016E-03  0.360E-02    0.05       1.0  T
  14   -209.7863129 -0.189357E-03  0.793E-03    0.05       1.3  T
  15   -209.7863212 -0.824084E-05  0.399E-03    0.05       2.5  T
  16   -209.7863165  0.466915E-05  0.664E-03    0.05       1.5  T
  17   -209.7863025  0.140245E-04  0.119E-02    0.05       1.0  T
  18   -209.7863158 -0.133656E-04  0.634E-03    0.05       1.6  T
  19   -209.7863212 -0.537898E-05  0.232E-03    0.05       4.4  T
  20   -209.7863214 -0.225780E-06  0.266E-03    0.05       3.8  T
  21   -209.7863212  0.249716E-06  0.288E-03    0.05       3.5  T
  22   -209.7863208  0.419387E-06  0.282E-03    0.05       3.6  T
  23   -209.7863218 -0.994277E-06  0.104E-03    0.05       9.8  T
  24   -209.7863219 -0.130001E-06  0.421E-04    0.05      24.1  T
  25   -209.7863219 -0.193054E-07  0.231E-04    0.05      43.9  T
     SCC iter.                  ...        0 min,  0.926 sec
     gradient                   ...        0 min,  0.061 sec
 * total energy  :  -207.6862101 Eh     change       -0.3772954E-03 Eh
   gradient norm :     0.0072802 Eh/α   predicted    -0.3652892E-03 (  -3.18%)
   displ. norm   :     0.4520231 α      lambda       -0.3802565E-03
   maximum displ.:     0.2620395 α      in ANC's #3, #9, #1, ...

........................................................................
.............................. CYCLE  133 ..............................
........................................................................

 iter      E             dE          RMSdq      gap      omega  full diag
   1   -209.7695126 -0.209770E+03  0.361E-01    0.05       0.0  T
   2   -209.5712694  0.198243E+00  0.113E+00    0.25       1.0  T
   3   -209.6993338 -0.128064E+00  0.859E-01    0.08       1.0  T
   4   -209.6979167  0.141715E-02  0.742E-01    0.17       1.0  T
   5   -209.7667360 -0.688194E-01  0.541E-01    0.05       1.0  T
   6   -209.7725856 -0.584955E-02  0.297E-01    0.05       1.0  T
   7   -209.7819499 -0.936433E-02  0.205E-01    0.07       1.0  T
   8   -209.7871656 -0.521563E-02  0.914E-02    0.05       1.0  T
   9   -209.7877572 -0.591662E-03  0.671E-02    0.05       1.0  T
  10   -209.7874463  0.310927E-03  0.736E-02    0.06       1.0  T
  11   -209.7877714 -0.325089E-03  0.539E-02    0.06       1.0  T
  12   -209.7879783 -0.206880E-03  0.293E-02    0.05       1.0  T
  13   -209.7880521 -0.738678E-04  0.132E-02    0.05       1.0  T
  14   -209.7880653 -0.131839E-04  0.325E-03    0.05       3.1  T
  15   -209.7880613  0.406076E-05  0.744E-03    0.05       1.4  T
  16   -209.7880504  0.108722E-04  0.971E-03    0.05       1.0  T
  17   -209.7880656 -0.151837E-04  0.189E-03    0.05       5.4  T
  18   -209.7880658 -0.266243E-06  0.847E-04    0.05      12.0  T
  19   -209.7880659 -0.584569E-07  0.446E-04    0.05      22.8  T
     SCC iter.                  ...        0 min,  0.655 sec
     gradient                   ...        0 min,  0.062 sec
 * total energy  :  -207.6864750 Eh     change       -0.2648169E-03 Eh
   gradient norm :     0.0052841 Eh/α   predicted    -0.2289764E-03 ( -13.53%)
   displ. norm   :     0.4585894 α      lambda       -0.2704686E-03
   maximum displ.:     0.2696129 α      in ANC's #3, #9, #1, ...

........................................................................
.............................. CYCLE  134 ..............................
........................................................................

 iter      E             dE          RMSdq      gap      omega  full diag
   1   -209.7832452 -0.209783E+03  0.253E-01    0.05       0.0  T
   2   -209.6303608  0.152884E+00  0.917E-01    0.39       1.0  T
   3   -209.6977983 -0.674375E-01  0.102E+00    0.04       1.0  T
   4   -209.7447391 -0.469408E-01  0.520E-01    0.05       1.0  T
   5   -209.6954815  0.492576E-01  0.727E-01    0.15       1.0  T
   6   -209.7118955 -0.164140E-01  0.650E-01    0.15       1.0  T
   7   -209.7706587 -0.587632E-01  0.306E-01    0.08       1.0  T
   8   -209.7861208 -0.154621E-01  0.867E-02    0.05       1.0  T
   9   -209.7860328  0.880004E-04  0.885E-02    0.05       1.0  T
  10   -209.7870933 -0.106054E-02  0.436E-02    0.06       1.0  T
  11   -209.7873986 -0.305277E-03  0.146E-02    0.05       1.0  T
  12   -209.7874315 -0.329634E-04  0.470E-03    0.06       2.2  T
  13   -209.7874127  0.187984E-04  0.111E-02    0.06       1.0  T
  14   -209.7874221 -0.939387E-05  0.814E-03    0.05       1.2  T
  15   -209.7874296 -0.747975E-05  0.490E-03    0.06       2.1  T
  16   -209.7874323 -0.272334E-05  0.267E-03    0.06       3.8  T
  17   -209.7874323  0.494821E-07  0.252E-03    0.06       4.0  T
  18   -209.7874329 -0.609744E-06  0.179E-03    0.06       5.7  T
  19   -209.7874332 -0.284698E-06  0.111E-03    0.06       9.2  T
  20   -209.7874333 -0.152804E-06  0.534E-04    0.06      19.0  T
  21   -209.7874334 -0.252093E-07  0.341E-04    0.06      29.8  T
     SCC iter.                  ...        0 min,  1.016 sec
     gradient                   ...        0 min,  0.059 sec
 * total energy  :  -207.6866752 Eh     change       -0.2002150E-03 Eh
   gradient norm :     0.0047267 Eh/α   predicted    -0.1636748E-03 ( -18.25%)
   displ. norm   :     0.3941144 α      lambda       -0.2808038E-03
   maximum displ.:     0.2314426 α      in ANC's #3, #9, #1, ...

........................................................................
.............................. CYCLE  135 ..............................
........................................................................

 iter      E             dE          RMSdq      gap      omega  full diag
   1   -209.7897112 -0.209790E+03  0.216E-01    0.05       0.0  T
   2   -209.6379433  0.151768E+00  0.909E-01    0.40       1.0  T
   3   -209.7758767 -0.137933E+00  0.485E-01    0.05       1.0  T
   4   -209.7873514 -0.114747E-01  0.181E-01    0.05       1.0  T
   5   -209.7472814  0.400699E-01  0.511E-01    0.11       1.0  T
   6   -209.7512269 -0.394552E-02  0.488E-01    0.11       1.0  T
   7   -209.7934726 -0.422457E-01  0.272E-02    0.06       1.0  T
   8   -209.7923380  0.113462E-02  0.812E-02    0.05       1.0  T
   9   -209.7927434 -0.405381E-03  0.666E-02    0.05       1.0  T
  10   -209.7934807 -0.737315E-03  0.205E-02    0.06       1.0  T
  11   -209.7935229 -0.421777E-04  0.102E-02    0.06       1.0  T
  12   -209.7935257 -0.281351E-05  0.725E-03    0.06       1.4  T
  13   -209.7935272 -0.146323E-05  0.484E-03    0.06       2.1  T
  14   -209.7935278 -0.673239E-06  0.281E-03    0.06       3.6  T
  15   -209.7935236  0.418651E-05  0.556E-03    0.06       1.8  T
  16   -209.7935280 -0.438581E-05  0.214E-03    0.06       4.7  T
  17   -209.7935283 -0.291920E-06  0.167E-03    0.06       6.1  T
  18   -209.7935287 -0.421577E-06  0.584E-04    0.06      17.4  T
  19   -209.7935288 -0.162972E-07  0.436E-04    0.06      23.3  T
     SCC iter.                  ...        0 min,  0.888 sec
     gradient                   ...        0 min,  0.060 sec
 * total energy  :  -207.6868567 Eh     change       -0.1815017E-03 Eh
   gradient norm :     0.0049635 Eh/α   predicted    -0.1622144E-03 ( -10.63%)
   displ. norm   :     0.4995239 α      lambda       -0.2364032E-03
   maximum displ.:     0.3005388 α      in ANC's #3, #9, #1, ...

........................................................................
.............................. CYCLE  136 ..............................
........................................................................

 iter      E             dE          RMSdq      gap      omega  full diag
   1   -209.7858161 -0.209786E+03  0.258E-01    0.05       0.0  T
   2   -209.6415117  0.144304E+00  0.878E-01    0.41       1.0  T
   3   -209.6150509  0.264608E-01  0.952E-01    0.11       1.0  T
   4   -209.7310867 -0.116036E+00  0.602E-01    0.13       1.0  T
   5   -209.7429740 -0.118873E-01  0.525E-01    0.11       1.0  T
   6   -209.7440681 -0.109414E-02  0.507E-01    0.11       1.0  T
   7   -209.7558152 -0.117470E-01  0.431E-01    0.10       1.0  T
   8   -209.7870678 -0.312527E-01  0.101E-01    0.06       1.0  T
   9   -209.7873354 -0.267642E-03  0.777E-02    0.06       1.0  T
  10   -209.7881535 -0.818081E-03  0.266E-02    0.06       1.0  T
  11   -209.7881483  0.526268E-05  0.265E-02    0.06       1.0  T
  12   -209.7882566 -0.108323E-03  0.868E-03    0.06       1.2  T
  13   -209.7882372  0.193618E-04  0.126E-02    0.06       1.0  T
  14   -209.7882517 -0.144554E-04  0.897E-03    0.06       1.1  T
  15   -209.7882534 -0.171928E-05  0.807E-03    0.06       1.3  T
  16   -209.7882646 -0.112077E-04  0.170E-03    0.06       6.0  T
  17   -209.7882625  0.210062E-05  0.376E-03    0.06       2.7  T
  18   -209.7882637 -0.118889E-05  0.271E-03    0.06       3.8  T
  19   -209.7882644 -0.653911E-06  0.176E-03    0.06       5.8  T
  20   -209.7882649 -0.541788E-06  0.442E-04    0.06      23.0  T
  21   -209.7882649  0.219427E-07  0.459E-04    0.06      22.1  T
     SCC iter.                  ...        0 min,  0.756 sec
     gradient                   ...        0 min,  0.063 sec
 * total energy  :  -207.6870113 Eh     change       -0.1546202E-03 Eh
   gradient norm :     0.0065593 Eh/α   predicted    -0.1476972E-03 (  -4.48%)
   displ. norm   :     0.3615156 α      lambda       -0.2140926E-03
   maximum displ.:     0.2099567 α      in ANC's #3, #9, #1, ...

........................................................................
.............................. CYCLE  137 ..............................
........................................................................

 iter      E             dE          RMSdq      gap      omega  full diag
   1   -209.7881578 -0.209788E+03  0.189E-01    0.07       0.0  T
   2   -209.4433715  0.344786E+00  0.133E+00    0.34       1.0  T
   3   -209.7749396 -0.331568E+00  0.300E-01    0.08       1.0  T
   4   -209.7273468  0.475929E-01  0.919E-01    0.05       1.0  T
   5   -209.7516925 -0.243458E-01  0.465E-01    0.06       1.0  T
   6   -209.7812734 -0.295809E-01  0.231E-01    0.05       1.0  T
   7   -209.7902117 -0.893825E-02  0.825E-02    0.06       1.0  T
   8   -209.7912110 -0.999386E-03  0.331E-02    0.06       1.0  T
   9   -209.7913285 -0.117467E-03  0.187E-02    0.06       1.0  T
  10   -209.7913113  0.171782E-04  0.202E-02    0.06       1.0  T
  11   -209.7913410 -0.296599E-04  0.135E-02    0.06       1.0  T
  12   -209.7913472 -0.624457E-05  0.803E-03    0.06       1.3  T
  13   -209.7913502 -0.297876E-05  0.481E-03    0.06       2.1  T
  14   -209.7913496  0.602416E-06  0.401E-03    0.06       2.5  T
  15   -209.7913497 -0.105630E-06  0.376E-03    0.06       2.7  T
  16   -209.7913506 -0.838053E-06  0.308E-03    0.06       3.3  T
  17   -209.7913516 -0.103378E-05  0.193E-03    0.06       5.3  T
  18   -209.7913520 -0.385692E-06  0.121E-03    0.06       8.4  T
  19   -209.7913522 -0.252696E-06  0.355E-04    0.06      28.6  T
  20   -209.7913522  0.764176E-07  0.731E-04    0.06      13.9  T
     SCC iter.                  ...        0 min,  0.682 sec
     gradient                   ...        0 min,  0.059 sec
 * total energy  :  -207.6871745 Eh     change       -0.1632137E-03 Eh
   gradient norm :     0.0059950 Eh/α   predicted    -0.1210415E-03 ( -25.84%)
   displ. norm   :     0.5135834 α      lambda       -0.2974875E-03
   maximum displ.:     0.3057223 α      in ANC's #3, #9, #1, ...

........................................................................
.............................. CYCLE  138 ..............................
........................................................................

 iter      E             dE          RMSdq      gap      omega  full diag
   1   -209.7926354 -0.209793E+03  0.187E-01    0.06       0.0  T
   2   -209.6274919  0.165144E+00  0.938E-01    0.11       1.0  T
   3   -209.7108705 -0.833787E-01  0.661E-01    0.16       1.0  T
   4   -209.7915832 -0.807127E-01  0.118E-01    0.06       1.0  T
   5   -209.7924306 -0.847482E-03  0.686E-02    0.06       1.0  T
   6   -209.7889584  0.347229E-02  0.149E-01    0.07       1.0  T
   7   -209.7919853 -0.302697E-02  0.699E-02    0.06       1.0  T
   8   -209.7923983 -0.412982E-03  0.511E-02    0.06       1.0  T
   9   -209.7924411 -0.428018E-04  0.476E-02    0.06       1.0  T
  10   -209.7927930 -0.351895E-03  0.146E-02    0.06       1.0  T
  11   -209.7928218 -0.288215E-04  0.677E-03    0.06       1.5  T
  12   -209.7928059  0.159591E-04  0.109E-02    0.06       1.0  T
  13   -209.7928256 -0.197203E-04  0.288E-03    0.06       3.5  T
  14   -209.7928178  0.777957E-05  0.664E-03    0.06       1.5  T
  15   -209.7928248 -0.696447E-05  0.277E-03    0.06       3.7  T
  16   -209.7928260 -0.125415E-05  0.721E-04    0.06      14.1  T
  17   -209.7928254  0.618658E-06  0.194E-03    0.06       5.2  T
  18   -209.7928259 -0.452393E-06  0.106E-03    0.06       9.5  T
  19   -209.7928260 -0.176569E-06  0.217E-04    0.06      46.8  T
  20   -209.7928260 -0.137726E-08  0.173E-04    0.06      58.5  T
     SCC iter.                  ...        0 min,  0.769 sec
     gradient                   ...        0 min,  0.059 sec
 * total energy  :  -207.6874100 Eh     change       -0.2354813E-03 Eh
   gradient norm :     0.0055133 Eh/α   predicted    -0.1879795E-03 ( -20.17%)
   displ. norm   :     0.5644430 α      lambda       -0.3214845E-03
   maximum displ.:     0.3288186 α      in ANC's #3, #9, #1, ...

........................................................................
.............................. CYCLE  139 ..............................
........................................................................

 iter      E             dE          RMSdq      gap      omega  full diag
   1   -209.7886368 -0.209789E+03  0.263E-01    0.07       0.0  T
   2   -209.4058491  0.382788E+00  0.138E+00    0.20       1.0  T
   3   -209.7572076 -0.351358E+00  0.441E-01    0.11       1.0  T
   4   -209.6965927  0.606149E-01  0.738E-01    0.08       1.0  T
   5   -209.7446513 -0.480586E-01  0.525E-01    0.06       1.0  T
   6   -209.7579042 -0.132529E-01  0.444E-01    0.06       1.0  T
   7   -209.7938521 -0.359479E-01  0.536E-02    0.06       1.0  T
   8   -209.7931048  0.747333E-03  0.836E-02    0.07       1.0  T
   9   -209.7939183 -0.813529E-03  0.485E-02    0.06       1.0  T
  10   -209.7943018 -0.383478E-03  0.802E-03    0.06       1.3  T
  11   -209.7942957  0.611737E-05  0.862E-03    0.06       1.2  T
  12   -209.7942863  0.940815E-05  0.111E-02    0.06       1.0  T
  13   -209.7942255  0.607161E-04  0.211E-02    0.06       1.0  T
  14   -209.7943033 -0.777254E-04  0.375E-03    0.06       2.7  T
  15   -209.7942996  0.371235E-05  0.563E-03    0.06       1.8  T
  16   -209.7943029 -0.337216E-05  0.354E-03    0.06       2.9  T
  17   -209.7943047 -0.179273E-05  0.938E-04    0.06      10.8  T
  18   -209.7943048 -0.690549E-07  0.612E-04    0.06      16.6  T
  19   -209.7943047  0.706276E-07  0.793E-04    0.06      12.8  T
     SCC iter.                  ...        0 min,  0.561 sec
     gradient                   ...        0 min,  0.060 sec
 * total energy  :  -207.6876690 Eh     change       -0.2589735E-03 Eh
   gradient norm :     0.0062468 Eh/α   predicted    -0.2119529E-03 ( -18.16%)
   displ. norm   :     0.6213355 α      lambda       -0.3252317E-03
   maximum displ.:     0.3666097 α      in ANC's #3, #9, #1, ...

........................................................................
.............................. CYCLE  140 ..............................
........................................................................

 iter      E             dE          RMSdq      gap      omega  full diag
   1   -209.7895949 -0.209790E+03  0.255E-01    0.07       0.0  T
   2   -209.4287471  0.360848E+00  0.135E+00    0.25       1.0  T
   3   -209.7279192 -0.299172E+00  0.585E-01    0.14       1.0  T
   4   -209.7444715 -0.165523E-01  0.530E-01    0.06       1.0  T
   5   -209.7626596 -0.181881E-01  0.405E-01    0.06       1.0  T
   6   -209.7931123 -0.304527E-01  0.405E-02    0.06       1.0  T
   7   -209.7922487  0.863625E-03  0.804E-02    0.06       1.0  T
   8   -209.7928710 -0.622354E-03  0.463E-02    0.07       1.0  T
   9   -209.7927674  0.103581E-03  0.500E-02    0.06       1.0  T
  10   -209.7932031 -0.435664E-03  0.968E-03    0.06       1.0  T
  11   -209.7929274  0.275736E-03  0.395E-02    0.07       1.0  T
  12   -209.7932057 -0.278334E-03  0.789E-03    0.06       1.3  T
  13   -209.7931661  0.396269E-04  0.155E-02    0.06       1.0  T
  14   -209.7932076 -0.415286E-04  0.467E-03    0.06       2.2  T
  15   -209.7932080 -0.386361E-06  0.460E-03    0.06       2.2  T
  16   -209.7932094 -0.143691E-05  0.186E-03    0.06       5.5  T
  17   -209.7932050  0.443379E-05  0.523E-03    0.06       1.9  T
  18   -209.7932097 -0.473140E-05  0.133E-03    0.06       7.6  T
  19   -209.7932098 -0.107465E-06  0.561E-04    0.06      18.1  T
  20   -209.7932097  0.174314E-06  0.104E-03    0.06       9.7  T
  21   -209.7932098 -0.170592E-06  0.410E-04    0.06      24.7  T
     SCC iter.                  ...        0 min,  0.669 sec
     gradient                   ...        0 min,  0.060 sec
 * total energy  :  -207.6879515 Eh     change       -0.2825018E-03 Eh
   gradient norm :     0.0065118 Eh/α   predicted    -0.2253995E-03 ( -20.21%)
   displ. norm   :     0.5911335 α      lambda       -0.3764019E-03
   maximum displ.:     0.3250073 α      in ANC's #3, #10, #9, ...

........................................................................
.............................. CYCLE  141 ..............................
........................................................................

 iter      E             dE          RMSdq      gap      omega  full diag
   1   -209.7876981 -0.209788E+03  0.284E-01    0.08       0.0  T
   2   -209.3413622  0.446336E+00  0.147E+00    0.13       1.0  T
   3   -209.7626206 -0.421258E+00  0.412E-01    0.11       1.0  T
   4   -209.6964721  0.661486E-01  0.748E-01    0.08       1.0  T
   5   -209.7503621 -0.538900E-01  0.503E-01    0.06       1.0  T
   6   -209.7655593 -0.151972E-01  0.405E-01    0.06       1.0  T
   7   -209.7949946 -0.294353E-01  0.558E-02    0.07       1.0  T
   8   -209.7952713 -0.276669E-03  0.185E-02    0.06       1.0  T
   9   -209.7947729  0.498395E-03  0.571E-02    0.07       1.0  T
  10   -209.7945287  0.244249E-03  0.664E-02    0.07       1.0  T
  11   -209.7952832 -0.754588E-03  0.830E-03    0.06       1.2  T
  12   -209.7951327  0.150561E-03  0.294E-02    0.06       1.0  T
  13   -209.7952567 -0.124065E-03  0.142E-02    0.06       1.0  T
  14   -209.7952855 -0.287746E-04  0.496E-03    0.06       2.0  T
  15   -209.7952864 -0.845284E-06  0.266E-03    0.06       3.8  T
  16   -209.7952820  0.439143E-05  0.539E-03    0.06       1.9  T
  17   -209.7952868 -0.479085E-05  0.150E-03    0.06       6.8  T
  18   -209.7952869 -0.185421E-06  0.784E-04    0.06      13.0  T
  19   -209.7952870 -0.301008E-07  0.409E-04    0.06      24.8  T
     SCC iter.                  ...        0 min,  0.514 sec
     gradient                   ...        0 min,  0.060 sec
 * total energy  :  -207.6882621 Eh     change       -0.3106383E-03 Eh
   gradient norm :     0.0062198 Eh/α   predicted    -0.2539664E-03 ( -18.24%)
   displ. norm   :     0.7103087 α      lambda       -0.3904981E-03
   maximum displ.:     0.4170254 α      in ANC's #3, #9, #1, ...

........................................................................
.............................. CYCLE  142 ..............................
........................................................................

 iter      E             dE          RMSdq      gap      omega  full diag
   1   -209.7868713 -0.209787E+03  0.267E-01    0.07       0.0  T
   2   -209.4355978  0.351273E+00  0.134E+00    0.29       1.0  T
   3   -209.7125453 -0.276947E+00  0.635E-01    0.17       1.0  T
   4   -209.7326010 -0.200558E-01  0.552E-01    0.07       1.0  T
   5   -209.7843181 -0.517171E-01  0.169E-01    0.06       1.0  T
   6   -209.7892508 -0.493269E-02  0.573E-02    0.07       1.0  T
   7   -209.7893736 -0.122785E-03  0.368E-02    0.07       1.0  T
   8   -209.7886865  0.687123E-03  0.708E-02    0.06       1.0  T
   9   -209.7893731 -0.686608E-03  0.331E-02    0.06       1.0  T
  10   -209.7894118 -0.387177E-04  0.288E-02    0.07       1.0  T
  11   -209.7895075 -0.957048E-04  0.169E-02    0.07       1.0  T
  12   -209.7895213 -0.137940E-04  0.140E-02    0.06       1.0  T
  13   -209.7894669  0.544039E-04  0.219E-02    0.06       1.0  T
  14   -209.7895527 -0.858235E-04  0.283E-03    0.07       3.6  T
  15   -209.7895453  0.736178E-05  0.680E-03    0.07       1.5  T
  16   -209.7895536 -0.825037E-05  0.119E-03    0.07       8.5  T
  17   -209.7895536  0.488856E-08  0.939E-04    0.07      10.8  T
  18   -209.7895535  0.675574E-07  0.944E-04    0.07      10.8  T
     SCC iter.                  ...        0 min,  0.678 sec
     gradient                   ...        0 min,  0.060 sec
 * total energy  :  -207.6885869 Eh     change       -0.3247571E-03 Eh
   gradient norm :     0.0061502 Eh/α   predicted    -0.2937591E-03 (  -9.54%)
   displ. norm   :     0.6519850 α      lambda       -0.4145326E-03
   maximum displ.:     0.3600845 α      in ANC's #3, #10, #1, ...

........................................................................
.............................. CYCLE  143 ..............................
........................................................................

 iter      E             dE          RMSdq      gap      omega  full diag
   1   -209.7888468 -0.209789E+03  0.246E-01    0.08       0.0  T
   2   -209.4283104  0.360536E+00  0.136E+00    0.32       1.0  T
   3   -209.7342960 -0.305986E+00  0.553E-01    0.14       1.0  T
   4   -209.7266187  0.767733E-02  0.618E-01    0.07       1.0  T
   5   -209.7458908 -0.192722E-01  0.496E-01    0.06       1.0  T
   6   -209.7849526 -0.390618E-01  0.195E-01    0.06       1.0  T
   7   -209.7907889 -0.583629E-02  0.879E-02    0.07       1.0  T
   8   -209.7917037 -0.914821E-03  0.513E-02    0.06       1.0  T
   9   -209.7918426 -0.138905E-03  0.413E-02    0.06       1.0  T
  10   -209.7921393 -0.296632E-03  0.778E-03    0.07       1.3  T
  11   -209.7919741  0.165164E-03  0.305E-02    0.07       1.0  T
  12   -209.7921370 -0.162931E-03  0.577E-03    0.07       1.8  T
  13   -209.7921248  0.122916E-04  0.962E-03    0.07       1.1  T
  14   -209.7921398 -0.150459E-04  0.287E-03    0.07       3.5  T
  15   -209.7921405 -0.705570E-06  0.186E-03    0.07       5.4  T
  16   -209.7921407 -0.200214E-06  0.128E-03    0.07       7.9  T
  17   -209.7921404  0.287574E-06  0.164E-03    0.07       6.2  T
  18   -209.7921406 -0.208303E-06  0.115E-03    0.07       8.8  T
  19   -209.7921406  0.401674E-07  0.120E-03    0.07       8.5  T
  20   -209.7921408 -0.231372E-06  0.348E-04    0.07      29.2  T
  21   -209.7921408 -0.109904E-07  0.175E-04    0.07      58.1  T
     SCC iter.                  ...        0 min,  0.594 sec
     gradient                   ...        0 min,  0.060 sec
 * total energy  :  -207.6889127 Eh     change       -0.3258275E-03 Eh
   gradient norm :     0.0070624 Eh/α   predicted    -0.2953733E-03 (  -9.35%)
   displ. norm   :     0.7017860 α      lambda       -0.3864506E-03
   maximum displ.:     0.4122434 α      in ANC's #3, #10, #1, ...

........................................................................
.............................. CYCLE  144 ..............................
........................................................................

 iter      E             dE          RMSdq      gap      omega  full diag
   1   -209.7865578 -0.209787E+03  0.235E-01    0.07       0.0  T
   2   -209.4522688  0.334289E+00  0.132E+00    0.28       1.0  T
   3   -209.7208281 -0.268559E+00  0.597E-01    0.16       1.0  T
   4   -209.7563020 -0.354738E-01  0.498E-01    0.06       1.0  T
   5   -209.7574476 -0.114558E-02  0.399E-01    0.06       1.0  T
   6   -209.7871702 -0.297226E-01  0.816E-02    0.07       1.0  T
   7   -209.7870777  0.924346E-04  0.765E-02    0.07       1.0  T
   8   -209.7867181  0.359643E-03  0.857E-02    0.06       1.0  T
   9   -209.7870590 -0.340925E-03  0.723E-02    0.06       1.0  T
  10   -209.7879998 -0.940807E-03  0.112E-02    0.07       1.0  T
  11   -209.7878989  0.100939E-03  0.250E-02    0.07       1.0  T
  12   -209.7880042 -0.105285E-03  0.590E-03    0.07       1.7  T
  13   -209.7879626  0.415945E-04  0.154E-02    0.07       1.0  T
  14   -209.7880002 -0.375872E-04  0.620E-03    0.07       1.6  T
  15   -209.7880045 -0.432040E-05  0.387E-03    0.07       2.6  T
  16   -209.7880052 -0.664605E-06  0.292E-03    0.07       3.5  T
  17   -209.7880059 -0.724351E-06  0.110E-03    0.07       9.2  T
  18   -209.7880059 -0.408566E-07  0.656E-04    0.07      15.5  T
  19   -209.7880059 -0.240469E-07  0.510E-04    0.07      19.9  T
     SCC iter.                  ...        0 min,  0.533 sec
     gradient                   ...        0 min,  0.060 sec
 * total energy  :  -207.6892378 Eh     change       -0.3251115E-03 Eh
   gradient norm :     0.0090207 Eh/α   predicted    -0.2883915E-03 ( -11.29%)
   displ. norm   :     0.6250646 α      lambda       -0.4980735E-03
   maximum displ.:     0.3540326 α      in ANC's #3, #10, #1, ...

........................................................................
.............................. CYCLE  145 ..............................
........................................................................

 iter      E             dE          RMSdq      gap      omega  full diag
   1   -209.7929022 -0.209793E+03  0.200E-01    0.07       0.0  T
   2   -209.7048548  0.880474E-01  0.682E-01    0.20       1.0  T
   3   -209.5806909  0.124164E+00  0.106E+00    0.13       1.0  T
   4   -209.7501563 -0.169465E+00  0.794E-01    0.06       1.0  T
   5   -209.7881220 -0.379656E-01  0.169E-01    0.06       1.0  T
   6   -209.7848498  0.327220E-02  0.228E-01    0.09       1.0  T
   7   -209.7931653 -0.831556E-02  0.547E-02    0.07       1.0  T
   8   -209.7921598  0.100550E-02  0.854E-02    0.07       1.0  T
   9   -209.7929621 -0.802249E-03  0.549E-02    0.07       1.0  T
  10   -209.7932219 -0.259819E-03  0.405E-02    0.07       1.0  T
  11   -209.7932670 -0.450960E-04  0.325E-02    0.07       1.0  T
  12   -209.7932891 -0.221001E-04  0.246E-02    0.07       1.0  T
  13   -209.7933087 -0.196029E-04  0.162E-02    0.07       1.0  T
  14   -209.7933126 -0.387345E-05  0.113E-02    0.07       1.0  T
  15   -209.7933136 -0.101925E-05  0.861E-03    0.07       1.2  T
  16   -209.7933227 -0.908978E-05  0.267E-03    0.07       3.8  T
  17   -209.7933214  0.132783E-05  0.346E-03    0.07       2.9  T
  18   -209.7933232 -0.180235E-05  0.138E-03    0.07       7.3  T
  19   -209.7933234 -0.240681E-06  0.624E-04    0.07      16.3  T
  20   -209.7933235 -0.581421E-07  0.197E-04    0.07      51.5  T
     SCC iter.                  ...        0 min,  0.548 sec
     gradient                   ...        0 min,  0.059 sec
 * total energy  :  -207.6896223 Eh     change       -0.3844813E-03 Eh
   gradient norm :     0.0096491 Eh/α   predicted    -0.3463366E-03 (  -9.92%)
   displ. norm   :     0.7479142 α      lambda       -0.5060832E-03
   maximum displ.:     0.4471859 α      in ANC's #3, #10, #1, ...

........................................................................
.............................. CYCLE  146 ..............................
........................................................................

 iter      E             dE          RMSdq      gap      omega  full diag
   1   -209.7878363 -0.209788E+03  0.237E-01    0.07       0.0  T
   2   -209.6819800  0.105856E+00  0.747E-01    0.27       1.0  T
   3   -209.5422724  0.139708E+00  0.114E+00    0.15       1.0  T
   4   -209.7382424 -0.195970E+00  0.860E-01    0.06       1.0  T
   5   -209.7881097 -0.498673E-01  0.120E-01    0.07       1.0  T
   6   -209.7739422  0.141675E-01  0.300E-01    0.10       1.0  T
   7   -209.7880070 -0.140648E-01  0.771E-02    0.07       1.0  T
   8   -209.7866755  0.133155E-02  0.109E-01    0.07       1.0  T
   9   -209.7883766 -0.170116E-02  0.562E-02    0.07       1.0  T
  10   -209.7884408 -0.641967E-04  0.521E-02    0.07       1.0  T
  11   -209.7885351 -0.943149E-04  0.406E-02    0.07       1.0  T
  12   -209.7885683 -0.331735E-04  0.322E-02    0.07       1.0  T
  13   -209.7886033 -0.349954E-04  0.206E-02    0.07       1.0  T
  14   -209.7886028  0.504988E-06  0.162E-02    0.07       1.0  T
  15   -209.7886005  0.229603E-05  0.134E-02    0.07       1.0  T
  16   -209.7886261 -0.256265E-04  0.276E-03    0.07       3.7  T
  17   -209.7886248  0.131047E-05  0.350E-03    0.07       2.9  T
  18   -209.7886265 -0.165869E-05  0.168E-03    0.07       6.0  T
  19   -209.7886268 -0.304774E-06  0.852E-04    0.07      11.9  T
  20   -209.7886269 -0.698531E-07  0.411E-04    0.07      24.7  T
     SCC iter.                  ...        0 min,  0.844 sec
     gradient                   ...        0 min,  0.060 sec
 * total energy  :  -207.6900493 Eh     change       -0.4270043E-03 Eh
   gradient norm :     0.0096479 Eh/α   predicted    -0.3945892E-03 (  -7.59%)
   displ. norm   :     0.5924258 α      lambda       -0.7021105E-03
   maximum displ.:     0.3403561 α      in ANC's #3, #10, #1, ...

........................................................................
.............................. CYCLE  147 ..............................
........................................................................

 iter      E             dE          RMSdq      gap      omega  full diag
   1   -209.7848757 -0.209785E+03  0.326E-01    0.07       0.0  T
   2   -209.6178157  0.167060E+00  0.101E+00    0.53       1.0  T
   3   -209.7345822 -0.116766E+00  0.609E-01    0.16       1.0  T
   4   -209.6973486  0.372336E-01  0.723E-01    0.09       1.0  T
   5   -209.7478204 -0.504718E-01  0.516E-01    0.14       1.0  T
   6   -209.7859817 -0.381613E-01  0.246E-01    0.09       1.0  T
   7   -209.7921344 -0.615267E-02  0.152E-01    0.08       1.0  T
   8   -209.7923913 -0.256907E-03  0.139E-01    0.08       1.0  T
   9   -209.7955071 -0.311580E-02  0.375E-02    0.08       1.0  T
  10   -209.7955838 -0.766418E-04  0.317E-02    0.07       1.0  T
  11   -209.7956736 -0.898645E-04  0.194E-02    0.07       1.0  T
  12   -209.7957189 -0.453002E-04  0.102E-02    0.07       1.0  T
  13   -209.7957251 -0.617924E-05  0.791E-03    0.08       1.3  T
  14   -209.7957060  0.191152E-04  0.127E-02    0.08       1.0  T
  15   -209.7957329 -0.268641E-04  0.346E-03    0.07       2.9  T
  16   -209.7957341 -0.128225E-05  0.197E-03    0.07       5.1  T
  17   -209.7957323  0.186768E-05  0.374E-03    0.07       2.7  T
  18   -209.7957332 -0.918583E-06  0.291E-03    0.07       3.5  T
  19   -209.7957346 -0.137242E-05  0.773E-04    0.07      13.1  T
  20   -209.7957346 -0.514648E-07  0.434E-04    0.07      23.4  T
  21   -209.7957345  0.144094E-06  0.973E-04    0.07      10.4  T
     SCC iter.                  ...        0 min,  0.734 sec
     gradient                   ...        0 min,  0.060 sec
 * total energy  :  -207.6905062 Eh     change       -0.4569230E-03 Eh
   gradient norm :     0.0101264 Eh/α   predicted    -0.4742659E-03 (   3.80%)
   displ. norm   :     0.7276285 α      lambda       -0.6524978E-03
   maximum displ.:     0.4421978 α      in ANC's #3, #1, #10, ...

........................................................................
.............................. CYCLE  148 ..............................
........................................................................

 iter      E             dE          RMSdq      gap      omega  full diag
   1   -209.7784573 -0.209778E+03  0.336E-01    0.07       0.0  T
   2   -209.6100033  0.168454E+00  0.101E+00    0.53       1.0  T
   3   -209.7453351 -0.135332E+00  0.525E-01    0.14       1.0  T
   4   -209.6628711  0.824640E-01  0.814E-01    0.10       1.0  T
   5   -209.7387582 -0.758871E-01  0.536E-01    0.14       1.0  T
   6   -209.7554722 -0.167139E-01  0.434E-01    0.12       1.0  T
   7   -209.7853280 -0.298558E-01  0.156E-01    0.09       1.0  T
   8   -209.7875694 -0.224143E-02  0.921E-02    0.08       1.0  T
   9   -209.7886988 -0.112936E-02  0.343E-02    0.08       1.0  T
  10   -209.7885814  0.117337E-03  0.393E-02    0.08       1.0  T
  11   -209.7886927 -0.111269E-03  0.309E-02    0.08       1.0  T
  12   -209.7887576 -0.649183E-04  0.231E-02    0.08       1.0  T
  13   -209.7888208 -0.631563E-04  0.121E-02    0.08       1.0  T
  14   -209.7887978  0.229911E-04  0.159E-02    0.08       1.0  T
  15   -209.7888425 -0.447469E-04  0.195E-03    0.08       5.2  T
  16   -209.7888418  0.694746E-06  0.270E-03    0.08       3.8  T
  17   -209.7888418  0.186248E-07  0.256E-03    0.08       4.0  T
  18   -209.7888414  0.419273E-06  0.284E-03    0.08       3.6  T
  19   -209.7888427 -0.134115E-05  0.576E-04    0.08      17.6  T
  20   -209.7888428 -0.131355E-07  0.383E-04    0.08      26.5  T
  21   -209.7888427  0.188934E-07  0.456E-04    0.08      22.3  T
     SCC iter.                  ...        0 min,  0.668 sec
     gradient                   ...        0 min,  0.061 sec
 * total energy  :  -207.6910545 Eh     change       -0.5482633E-03 Eh
   gradient norm :     0.0099766 Eh/α   predicted    -0.4989719E-03 (  -8.99%)
   displ. norm   :     0.6183202 α      lambda       -0.8069883E-03
   maximum displ.:     0.3658777 α      in ANC's #3, #1, #7, ...

........................................................................
.............................. CYCLE  149 ..............................
........................................................................

 iter      E             dE          RMSdq      gap      omega  full diag
   1   -209.7657254 -0.209766E+03  0.422E-01    0.08       0.0  T
   2   -209.5604963  0.205229E+00  0.121E+00    0.35       1.0  T
   3   -209.6761743 -0.115678E+00  0.813E-01    0.25       1.0  T
   4   -209.7887536 -0.112579E+00  0.137E-01    0.08       1.0  T
   5   -209.7827610  0.599256E-02  0.230E-01    0.09       1.0  T
   6   -209.7893786 -0.661756E-02  0.979E-02    0.08       1.0  T
   7   -209.7791464  0.102322E-01  0.255E-01    0.10       1.0  T
   8   -209.7887238 -0.957740E-02  0.897E-02    0.08       1.0  T
   9   -209.7898503 -0.112647E-02  0.208E-02    0.08       1.0  T
  10   -209.7888050  0.104535E-02  0.767E-02    0.08       1.0  T
  11   -209.7898455 -0.104059E-02  0.150E-02    0.08       1.0  T
  12   -209.7897954  0.501927E-04  0.219E-02    0.08       1.0  T
  13   -209.7898706 -0.752937E-04  0.658E-03    0.08       1.5  T
  14   -209.7898735 -0.289753E-05  0.559E-03    0.08       1.8  T
  15   -209.7898705  0.307129E-05  0.537E-03    0.08       1.9  T
  16   -209.7898743 -0.382238E-05  0.290E-03    0.08       3.5  T
  17   -209.7898702  0.410109E-05  0.549E-03    0.08       1.9  T
  18   -209.7898754 -0.516532E-05  0.725E-04    0.08      14.0  T
  19   -209.7898715  0.388486E-05  0.467E-03    0.08       2.2  T
  20   -209.7898752 -0.376331E-05  0.933E-04    0.08      10.9  T
  21   -209.7898754 -0.147468E-06  0.288E-04    0.08      35.3  T
  22   -209.7898754  0.236989E-07  0.432E-04    0.08      23.5  T
     SCC iter.                  ...        0 min,  0.738 sec
     gradient                   ...        0 min,  0.073 sec
 * total energy  :  -207.6916919 Eh     change       -0.6374183E-03 Eh
   gradient norm :     0.0103497 Eh/α   predicted    -0.5577519E-03 ( -12.50%)
   displ. norm   :     0.7549482 α      lambda       -0.8230126E-03
   maximum displ.:     0.4515172 α      in ANC's #3, #1, #10, ...

........................................................................
.............................. CYCLE  150 ..............................
........................................................................

 iter      E             dE          RMSdq      gap      omega  full diag
   1   -209.7732394 -0.209773E+03  0.378E-01    0.08       0.0  T
   2   -209.5897834  0.183456E+00  0.107E+00    0.48       1.0  T
   3   -209.7389227 -0.149139E+00  0.559E-01    0.13       1.0  T
   4   -209.6453945  0.935282E-01  0.859E-01    0.12       1.0  T
   5   -209.7224057 -0.770112E-01  0.609E-01    0.17       1.0  T
   6   -209.7503771 -0.279714E-01  0.467E-01    0.13       1.0  T
   7   -209.7475683  0.280876E-02  0.474E-01    0.14       1.0  T
   8   -209.7740161 -0.264478E-01  0.270E-01    0.11       1.0  T
   9   -209.7847325 -0.107164E-01  0.104E-01    0.09       1.0  T
  10   -209.7856162 -0.883661E-03  0.690E-02    0.09       1.0  T
  11   -209.7863899 -0.773702E-03  0.167E-02    0.09       1.0  T
  12   -209.7859528  0.437078E-03  0.512E-02    0.09       1.0  T
  13   -209.7862451 -0.292254E-03  0.314E-02    0.09       1.0  T
  14   -209.7863886 -0.143512E-03  0.136E-02    0.09       1.0  T
  15   -209.7863729  0.156660E-04  0.159E-02    0.09       1.0  T
  16   -209.7864174 -0.445066E-04  0.241E-03    0.09       4.2  T
  17   -209.7864166  0.810400E-06  0.283E-03    0.09       3.6  T
  18   -209.7864176 -0.984816E-06  0.123E-03    0.09       8.2  T
  19   -209.7864164  0.123505E-05  0.281E-03    0.09       3.6  T
  20   -209.7864177 -0.136462E-05  0.363E-04    0.09      28.0  T
  21   -209.7864177  0.385205E-07  0.545E-04    0.09      18.6  T
  22   -209.7864176  0.590542E-07  0.767E-04    0.09      13.2  T
     SCC iter.                  ...        0 min,  0.678 sec
     gradient                   ...        0 min,  0.058 sec
 * total energy  :  -207.6924211 Eh     change       -0.7291890E-03 Eh
   gradient norm :     0.0097344 Eh/α   predicted    -0.6460319E-03 ( -11.40%)
   displ. norm   :     0.7038209 α      lambda       -0.1080736E-02
   maximum displ.:     0.3566507 α      in ANC's #3, #7, #5, ...
 * RMSD in coord.:     1.2650580 α      energy gain  -0.1143189E-01 Eh

generating ANC from exact Hessian ...
Using Lindh-Hessian (1995)
 Shifting diagonal of input Hessian by   1.063179113206035E-002
 Lowest  eigenvalues of input Hessian
    0.010000    0.010207    0.010321    0.000000    0.000000    0.000000
    0.000000    0.000000    0.000000    0.010695    0.010761    0.010819
    0.010830    0.010894    0.011069    0.011262    0.011305    0.011550
 Highest eigenvalues
    2.135802    2.228021    2.228217    2.412149    2.519055    3.341091
 

........................................................................
.............................. CYCLE  151 ..............................
........................................................................

 iter      E             dE          RMSdq      gap      omega  full diag
   1   -209.7744426 -0.209774E+03  0.472E-01    0.09       0.0  T
   2   -209.5630112  0.211431E+00  0.121E+00    0.42       1.0  T
   3   -209.6992171 -0.136206E+00  0.775E-01    0.21       1.0  T
   4   -209.6835914  0.156257E-01  0.760E-01    0.12       1.0  T
   5   -209.7101875 -0.265961E-01  0.703E-01    0.22       1.0  T
   6   -209.7463846 -0.361970E-01  0.543E-01    0.15       1.0  T
   7   -209.7648774 -0.184928E-01  0.440E-01    0.13       1.0  T
   8   -209.7800879 -0.152105E-01  0.317E-01    0.12       1.0  T
   9   -209.7945162 -0.144283E-01  0.133E-01    0.10       1.0  T
  10   -209.7974277 -0.291156E-02  0.176E-02    0.09       1.0  T
  11   -209.7973758  0.519294E-04  0.229E-02    0.09       1.0  T
  12   -209.7973805 -0.472000E-05  0.207E-02    0.09       1.0  T
  13   -209.7973236  0.569602E-04  0.274E-02    0.10       1.0  T
  14   -209.7974404 -0.116789E-03  0.957E-03    0.10       1.1  T
  15   -209.7974405 -0.145709E-06  0.960E-03    0.09       1.1  T
  16   -209.7974470 -0.649714E-05  0.718E-03    0.09       1.4  T
  17   -209.7974540 -0.695082E-05  0.342E-03    0.09       3.0  T
  18   -209.7974556 -0.163124E-05  0.143E-03    0.09       7.1  T
  19   -209.7974553  0.289462E-06  0.194E-03    0.09       5.2  T
  20   -209.7974552  0.117071E-06  0.204E-03    0.09       5.0  T
  21   -209.7974558 -0.658421E-06  0.444E-04    0.09      22.9  T
  22   -209.7974559 -0.116679E-07  0.314E-04    0.09      32.3  T
     SCC iter.                  ...        0 min,  0.671 sec
     gradient                   ...        0 min,  0.066 sec
 * total energy  :  -207.6932442 Eh     change       -0.8231178E-03 Eh
   gradient norm :     0.0135254 Eh/α   predicted     0.0000000E+00 (-100.00%)
   displ. norm   :     0.1544354 α      lambda       -0.6431382E-03
   maximum displ.:     0.0548477 α      in ANC's #6, #3, #2, ...

........................................................................
.............................. CYCLE  152 ..............................
........................................................................

 iter      E             dE          RMSdq      gap      omega  full diag
   1   -209.7946008 -0.209795E+03  0.143E-01    0.09       0.0  T
   2   -209.6854196  0.109181E+00  0.755E-01    0.26       1.0  T
   3   -209.7196096 -0.341900E-01  0.637E-01    0.11       1.0  T
   4   -209.7954509 -0.758413E-01  0.638E-02    0.10       1.0  T
   5   -209.7916030  0.384790E-02  0.149E-01    0.10       1.0  T
   6   -209.7955576 -0.395460E-02  0.153E-02    0.10       1.0  T
   7   -209.7954488  0.108786E-03  0.268E-02    0.09       1.0  T
   8   -209.7955661 -0.117303E-03  0.854E-03    0.10       1.2  T
   9   -209.7955103  0.558129E-04  0.185E-02    0.10       1.0  T
  10   -209.7955653 -0.549891E-04  0.750E-03    0.10       1.4  T
  11   -209.7955626  0.273478E-05  0.804E-03    0.10       1.3  T
  12   -209.7955688 -0.623534E-05  0.347E-03    0.10       2.9  T
  13   -209.7955705 -0.171552E-05  0.139E-03    0.10       7.3  T
  14   -209.7955699  0.617218E-06  0.216E-03    0.10       4.7  T
  15   -209.7955705 -0.588170E-06  0.965E-04    0.10      10.5  T
  16   -209.7955703  0.257288E-06  0.150E-03    0.10       6.8  T
  17   -209.7955706 -0.303709E-06  0.923E-04    0.10      11.0  T
     SCC iter.                  ...        0 min,  0.567 sec
     gradient                   ...        0 min,  0.059 sec
 * total energy  :  -207.6936724 Eh     change       -0.4281690E-03 Eh
   gradient norm :     0.0076926 Eh/α   predicted    -0.3292440E-03 ( -23.10%)
   displ. norm   :     0.4111755 α      lambda       -0.1226974E-02
   maximum displ.:     0.1548662 α      in ANC's #3, #6, #5, ...

........................................................................
.............................. CYCLE  153 ..............................
........................................................................

 iter      E             dE          RMSdq      gap      omega  full diag
   1   -209.7917301 -0.209792E+03  0.292E-01    0.10       0.0  T
   2   -209.7395152  0.522149E-01  0.567E-01    0.12       1.0  T
   3   -209.4961989  0.243316E+00  0.124E+00    0.31       1.0  T
   4   -209.7606268 -0.264428E+00  0.429E-01    0.13       1.0  T
   5   -209.7618702 -0.124335E-02  0.403E-01    0.10       1.0  T
   6   -209.7916593 -0.297891E-01  0.102E-01    0.10       1.0  T
   7   -209.7915440  0.115269E-03  0.900E-02    0.10       1.0  T
   8   -209.7894446  0.209936E-02  0.121E-01    0.09       1.0  T
   9   -209.7920413 -0.259665E-02  0.249E-02    0.10       1.0  T
  10   -209.7918810  0.160319E-03  0.375E-02    0.10       1.0  T
  11   -209.7920887 -0.207764E-03  0.160E-02    0.10       1.0  T
  12   -209.7921096 -0.208827E-04  0.994E-03    0.10       1.0  T
  13   -209.7921237 -0.140517E-04  0.400E-03    0.10       2.5  T
  14   -209.7921216  0.204960E-05  0.548E-03    0.10       1.9  T
  15   -209.7921232 -0.153374E-05  0.335E-03    0.10       3.0  T
  16   -209.7921235 -0.384417E-06  0.295E-03    0.10       3.4  T
  17   -209.7921240 -0.492002E-06  0.154E-03    0.10       6.6  T
  18   -209.7921242 -0.195988E-06  0.851E-04    0.10      11.9  T
  19   -209.7921242  0.216023E-07  0.897E-04    0.10      11.3  T
     SCC iter.                  ...        0 min,  0.594 sec
     gradient                   ...        0 min,  0.058 sec
 * total energy  :  -207.6938024 Eh     change       -0.1300276E-03 Eh
   gradient norm :     0.0222208 Eh/α   predicted    -0.7172223E-03 ( 451.59%)
   displ. norm   :     0.2482298 α      lambda       -0.1726286E-02
   maximum displ.:     0.1012555 α      in ANC's #6, #3, #2, ...

........................................................................
.............................. CYCLE  154 ..............................
........................................................................

 iter      E             dE          RMSdq      gap      omega  full diag
   1   -209.7870653 -0.209787E+03  0.275E-01    0.11       0.0  T
   2   -209.4434227  0.343643E+00  0.134E+00    0.46       1.0  T
   3   -209.7754427 -0.332020E+00  0.330E-01    0.12       1.0  T
   4   -209.7377304  0.377123E-01  0.566E-01    0.10       1.0  T
   5   -209.7927974 -0.550670E-01  0.114E-01    0.10       1.0  T
   6   -209.7810427  0.117547E-01  0.276E-01    0.12       1.0  T
   7   -209.7908846 -0.984193E-02  0.132E-01    0.10       1.0  T
   8   -209.7924346 -0.155001E-02  0.797E-02    0.10       1.0  T
   9   -209.7935076 -0.107294E-02  0.389E-02    0.10       1.0  T
  10   -209.7935701 -0.625307E-04  0.209E-02    0.10       1.0  T
  11   -209.7935303  0.397655E-04  0.231E-02    0.10       1.0  T
  12   -209.7936029 -0.725705E-04  0.951E-03    0.10       1.1  T
  13   -209.7936037 -0.809728E-06  0.826E-03    0.10       1.2  T
  14   -209.7935965  0.717969E-05  0.111E-02    0.10       1.0  T
  15   -209.7936131 -0.165462E-04  0.425E-03    0.10       2.4  T
  16   -209.7936145 -0.141935E-05  0.196E-03    0.10       5.2  T
  17   -209.7936148 -0.270398E-06  0.151E-03    0.10       6.7  T
  18   -209.7936150 -0.248845E-06  0.103E-03    0.10       9.8  T
  19   -209.7936149  0.837267E-07  0.107E-03    0.10       9.5  T
  20   -209.7936150 -0.953430E-07  0.627E-04    0.10      16.2  T
  21   -209.7936150  0.121560E-08  0.603E-04    0.10      16.8  T
     SCC iter.                  ...        0 min,  0.609 sec
     gradient                   ...        0 min,  0.061 sec
 * total energy  :  -207.6943640 Eh     change       -0.5615888E-03 Eh
   gradient norm :     0.0146537 Eh/α   predicted    -0.9163320E-03 (  63.17%)
   displ. norm   :     0.2329960 α      lambda       -0.1141457E-02
   maximum displ.:     0.1035546 α      in ANC's #19, #3, #25, ...

........................................................................
.............................. CYCLE  155 ..............................
........................................................................

 iter      E             dE          RMSdq      gap      omega  full diag
   1   -209.7755656 -0.209776E+03  0.420E-01    0.10       0.0  T
   2   -209.5641076  0.211458E+00  0.122E+00    0.68       1.0  T
   3   -209.6903695 -0.126262E+00  0.783E-01    0.28       1.0  T
   4   -209.6876995  0.267001E-02  0.755E-01    0.13       1.0  T
   5   -209.7520979 -0.643985E-01  0.582E-01    0.09       1.0  T
   6   -209.7772726 -0.251747E-01  0.352E-01    0.13       1.0  T
   7   -209.7906947 -0.134220E-01  0.203E-01    0.11       1.0  T
   8   -209.7933030 -0.260830E-02  0.148E-01    0.11       1.0  T
   9   -209.7948605 -0.155758E-02  0.983E-02    0.10       1.0  T
  10   -209.7955975 -0.736937E-03  0.506E-02    0.10       1.0  T
  11   -209.7957064 -0.108872E-03  0.232E-02    0.10       1.0  T
  12   -209.7956920  0.144000E-04  0.208E-02    0.10       1.0  T
  13   -209.7957292 -0.372918E-04  0.164E-02    0.10       1.0  T
  14   -209.7957590 -0.297178E-04  0.533E-03    0.10       1.9  T
  15   -209.7957612 -0.219121E-05  0.371E-03    0.10       2.7  T
  16   -209.7957633 -0.216677E-05  0.995E-04    0.10      10.2  T
  17   -209.7957633 -0.371458E-08  0.118E-03    0.10       8.6  T
  18   -209.7957631  0.194002E-06  0.124E-03    0.10       8.2  T
  19   -209.7957634 -0.254044E-06  0.375E-04    0.10      27.1  T
  20   -209.7957634 -0.373853E-08  0.318E-04    0.10      32.0  T
     SCC iter.                  ...        0 min,  0.831 sec
     gradient                   ...        0 min,  0.070 sec
 * total energy  :  -207.6946965 Eh     change       -0.3325098E-03 Eh
   gradient norm :     0.0100400 Eh/α   predicted    -0.6017157E-03 (  80.96%)
   displ. norm   :     0.3139100 α      lambda       -0.8919460E-03
   maximum displ.:     0.1371393 α      in ANC's #6, #3, #5, ...

........................................................................
.............................. CYCLE  156 ..............................
........................................................................

 iter      E             dE          RMSdq      gap      omega  full diag
   1   -209.7866887 -0.209787E+03  0.260E-01    0.10       0.0  T
   2   -209.6077132  0.178975E+00  0.102E+00    0.47       1.0  T
   3   -209.7532230 -0.145510E+00  0.511E-01    0.14       1.0  T
   4   -209.7936731 -0.404502E-01  0.128E-01    0.10       1.0  T
   5   -209.7850185  0.865465E-02  0.388E-01    0.10       1.0  T
   6   -209.7812101  0.380839E-02  0.297E-01    0.12       1.0  T
   7   -209.7944598 -0.132497E-01  0.112E-01    0.11       1.0  T
   8   -209.7950304 -0.570563E-03  0.906E-02    0.11       1.0  T
   9   -209.7957146 -0.684223E-03  0.551E-02    0.10       1.0  T
  10   -209.7958216 -0.107007E-03  0.392E-02    0.10       1.0  T
  11   -209.7957604  0.611785E-04  0.383E-02    0.10       1.0  T
  12   -209.7958807 -0.120319E-03  0.196E-02    0.10       1.0  T
  13   -209.7959042 -0.235149E-04  0.941E-03    0.10       1.1  T
  14   -209.7959010  0.323308E-05  0.788E-03    0.10       1.3  T
  15   -209.7959043 -0.331553E-05  0.665E-03    0.10       1.5  T
  16   -209.7959047 -0.341374E-06  0.696E-03    0.10       1.5  T
  17   -209.7959097 -0.507570E-05  0.416E-03    0.10       2.4  T
  18   -209.7959109 -0.117379E-05  0.220E-03    0.10       4.6  T
  19   -209.7959111 -0.230622E-06  0.869E-04    0.10      11.7  T
  20   -209.7959111  0.754687E-08  0.544E-04    0.10      18.6  T
     SCC iter.                  ...        0 min,  0.647 sec
     gradient                   ...        0 min,  0.060 sec
 * total energy  :  -207.6954360 Eh     change       -0.7394935E-03 Eh
   gradient norm :     0.0072886 Eh/α   predicted    -0.4899207E-03 ( -33.75%)
   displ. norm   :     0.6979154 α      lambda       -0.1583377E-02
   maximum displ.:     0.2998205 α      in ANC's #6, #3, #5, ...

........................................................................
.............................. CYCLE  157 ..............................
........................................................................

 iter      E             dE          RMSdq      gap      omega  full diag
   1   -209.7921205 -0.209792E+03  0.300E-01    0.11       0.0  T
   2   -209.6913889  0.100732E+00  0.727E-01    0.17       1.0  T
   3   -209.5297441  0.161645E+00  0.117E+00    0.19       1.0  T
   4   -209.7917189 -0.261975E+00  0.168E-01    0.11       1.0  T
   5   -209.7925879 -0.869006E-03  0.111E-01    0.11       1.0  T
   6   -209.7909943  0.159359E-02  0.127E-01    0.12       1.0  T
   7   -209.7931088 -0.211444E-02  0.501E-02    0.11       1.0  T
   8   -209.7928231  0.285726E-03  0.578E-02    0.11       1.0  T
   9   -209.7933022 -0.479154E-03  0.227E-02    0.11       1.0  T
  10   -209.7932942  0.800214E-05  0.245E-02    0.11       1.0  T
  11   -209.7933398 -0.455489E-04  0.934E-03    0.11       1.1  T
  12   -209.7933380  0.179390E-05  0.872E-03    0.11       1.2  T
  13   -209.7933379  0.587316E-07  0.829E-03    0.11       1.2  T
  14   -209.7933403 -0.238142E-05  0.564E-03    0.11       1.8  T
  15   -209.7933268  0.135145E-04  0.971E-03    0.11       1.0  T
  16   -209.7933423 -0.155593E-04  0.398E-03    0.11       2.5  T
  17   -209.7933411  0.118412E-05  0.384E-03    0.11       2.6  T
  18   -209.7933432 -0.202555E-05  0.146E-03    0.11       6.9  T
  19   -209.7933433 -0.116278E-06  0.105E-03    0.11       9.7  T
  20   -209.7933434 -0.154666E-06  0.383E-04    0.11      26.5  T
  21   -209.7933434 -0.353032E-08  0.417E-04    0.11      24.3  T
     SCC iter.                  ...        0 min,  0.576 sec
     gradient                   ...        0 min,  0.059 sec
 * total energy  :  -207.6966264 Eh     change       -0.1190382E-02 Eh
   gradient norm :     0.0098132 Eh/α   predicted    -0.1177320E-02 (  -1.10%)
   displ. norm   :     0.7636799 α      lambda       -0.1448235E-02
   maximum displ.:     0.3317180 α      in ANC's #3, #6, #5, ...

........................................................................
.............................. CYCLE  158 ..............................
........................................................................

 iter      E             dE          RMSdq      gap      omega  full diag
   1   -209.7562697 -0.209756E+03  0.494E-01    0.11       0.0  T
   2   -209.5114137  0.244856E+00  0.135E+00    0.40       1.0  T
   3   -209.6613348 -0.149921E+00  0.866E-01    0.30       1.0  T
   4   -209.7851441 -0.123809E+00  0.231E-01    0.12       1.0  T
   5   -209.7867042 -0.156017E-02  0.188E-01    0.12       1.0  T
   6   -209.7889626 -0.225842E-02  0.122E-01    0.11       1.0  T
   7   -209.7861445  0.281819E-02  0.158E-01    0.12       1.0  T
   8   -209.7827797  0.336479E-02  0.197E-01    0.11       1.0  T
   9   -209.7887855 -0.600587E-02  0.642E-02    0.11       1.0  T
  10   -209.7894247 -0.639133E-03  0.182E-02    0.11       1.0  T
  11   -209.7894431 -0.183864E-04  0.110E-02    0.11       1.0  T
  12   -209.7894435 -0.474407E-06  0.960E-03    0.11       1.1  T
  13   -209.7893953  0.482633E-04  0.202E-02    0.12       1.0  T
  14   -209.7894215 -0.261893E-04  0.126E-02    0.11       1.0  T
  15   -209.7893537  0.677668E-04  0.232E-02    0.11       1.0  T
  16   -209.7894473 -0.936281E-04  0.427E-03    0.11       2.4  T
  17   -209.7894479 -0.623619E-06  0.220E-03    0.11       4.6  T
  18   -209.7894444  0.358530E-05  0.479E-03    0.11       2.1  T
  19   -209.7894461 -0.175929E-05  0.348E-03    0.11       2.9  T
  20   -209.7894477 -0.156431E-05  0.179E-03    0.11       5.7  T
  21   -209.7894478 -0.875248E-07  0.172E-03    0.11       5.9  T
  22   -209.7894482 -0.423758E-06  0.603E-04    0.11      16.9  T
  23   -209.7894482 -0.487344E-07  0.284E-04    0.11      35.8  T
     SCC iter.                  ...        0 min,  0.679 sec
     gradient                   ...        0 min,  0.059 sec
 * total energy  :  -207.6978299 Eh     change       -0.1203502E-02 Eh
   gradient norm :     0.0144803 Eh/α   predicted    -0.1146433E-02 (  -4.74%)
   displ. norm   :     0.7374227 α      lambda       -0.1657688E-02
   maximum displ.:     0.3278413 α      in ANC's #6, #3, #2, ...

........................................................................
.............................. CYCLE  159 ..............................
........................................................................

 iter      E             dE          RMSdq      gap      omega  full diag
   1   -209.7581052 -0.209758E+03  0.491E-01    0.12       0.0  T
   2   -209.5097035  0.248402E+00  0.133E+00    0.44       1.0  T
   3   -209.6655695 -0.155866E+00  0.849E-01    0.27       1.0  T
   4   -209.7761109 -0.110541E+00  0.270E-01    0.12       1.0  T
   5   -209.7531916  0.229192E-01  0.467E-01    0.16       1.0  T
   6   -209.7754774 -0.222858E-01  0.295E-01    0.13       1.0  T
   7   -209.7761471 -0.669646E-03  0.276E-01    0.13       1.0  T
   8   -209.7885882 -0.124411E-01  0.477E-02    0.12       1.0  T
   9   -209.7884211  0.167162E-03  0.532E-02    0.12       1.0  T
  10   -209.7872084  0.121272E-02  0.938E-02    0.12       1.0  T
  11   -209.7887108 -0.150246E-02  0.201E-02    0.12       1.0  T
  12   -209.7887443 -0.334524E-04  0.134E-02    0.12       1.0  T
  13   -209.7886929  0.513843E-04  0.205E-02    0.12       1.0  T
  14   -209.7887617 -0.687948E-04  0.542E-03    0.12       1.9  T
  15   -209.7887519  0.980072E-05  0.853E-03    0.12       1.2  T
  16   -209.7887537 -0.181218E-05  0.798E-03    0.12       1.3  T
  17   -209.7887561 -0.244749E-05  0.675E-03    0.12       1.5  T
  18   -209.7887624 -0.623102E-05  0.280E-03    0.12       3.6  T
  19   -209.7887634 -0.106034E-05  0.139E-03    0.12       7.3  T
  20   -209.7887635 -0.966275E-07  0.593E-04    0.12      17.1  T
  21   -209.7887632  0.342972E-06  0.146E-03    0.12       7.0  T
  22   -209.7887635 -0.362201E-06  0.196E-04    0.12      51.7  T
     SCC iter.                  ...        0 min,  0.714 sec
     gradient                   ...        0 min,  0.060 sec
 * total energy  :  -207.6993052 Eh     change       -0.1475311E-02 Eh
   gradient norm :     0.0144883 Eh/α   predicted    -0.1279566E-02 ( -13.27%)
   displ. norm   :     0.6929381 α      lambda       -0.2218394E-02
   maximum displ.:     0.3052449 α      in ANC's #3, #6, #2, ...

........................................................................
.............................. CYCLE  160 ..............................
........................................................................

 iter      E             dE          RMSdq      gap      omega  full diag
   1   -209.7799004 -0.209780E+03  0.414E-01    0.12       0.0  T
   2   -209.5485350  0.231365E+00  0.122E+00    0.57       1.0  T
   3   -209.7120688 -0.163534E+00  0.727E-01    0.23       1.0  T
   4   -209.7417234 -0.296546E-01  0.553E-01    0.13       1.0  T
   5   -209.7180484  0.236751E-01  0.101E+00    0.06       1.0  T
   6   -209.7814251 -0.633767E-01  0.341E-01    0.14       1.0  T
   7   -209.7932941 -0.118690E-01  0.204E-01    0.13       1.0  T
   8   -209.7966519 -0.335776E-02  0.137E-01    0.13       1.0  T
   9   -209.7983943 -0.174245E-02  0.729E-02    0.12       1.0  T
  10   -209.7985433 -0.149012E-03  0.589E-02    0.12       1.0  T
  11   -209.7985775 -0.341116E-04  0.474E-02    0.12       1.0  T
  12   -209.7986596 -0.821632E-04  0.370E-02    0.12       1.0  T
  13   -209.7985008  0.158845E-03  0.424E-02    0.12       1.0  T
  14   -209.7987015 -0.200764E-03  0.171E-02    0.12       1.0  T
  15   -209.7987416 -0.400859E-04  0.104E-02    0.12       1.0  T
  16   -209.7987329  0.876243E-05  0.135E-02    0.12       1.0  T
  17   -209.7987425 -0.967239E-05  0.858E-03    0.12       1.2  T
  18   -209.7987473 -0.475741E-05  0.423E-03    0.12       2.4  T
  19   -209.7987456  0.167170E-05  0.476E-03    0.12       2.1  T
  20   -209.7987484 -0.273365E-05  0.100E-03    0.12      10.1  T
  21   -209.7987484 -0.626013E-07  0.425E-04    0.12      23.9  T
  22   -209.7987484 -0.552092E-08  0.210E-04    0.12      48.5  T
     SCC iter.                  ...        0 min,  1.118 sec
     gradient                   ...        0 min,  0.065 sec
 * total energy  :  -207.7008895 Eh     change       -0.1584298E-02 Eh
   gradient norm :     0.0127939 Eh/α   predicted    -0.1641797E-02 (   3.63%)
   displ. norm   :     0.8433832 α      lambda       -0.2045381E-02
   maximum displ.:     0.3674439 α      in ANC's #6, #3, #2, ...

........................................................................
.............................. CYCLE  161 ..............................
........................................................................

 iter      E             dE          RMSdq      gap      omega  full diag
   1   -209.7766380 -0.209777E+03  0.399E-01    0.12       0.0  T
   2   -209.5575456  0.219092E+00  0.114E+00    0.43       1.0  T
   3   -209.7775898 -0.220044E+00  0.348E-01    0.13       1.0  T
   4   -209.7118895  0.657003E-01  0.656E-01    0.15       1.0  T
   5   -209.7509105 -0.390210E-01  0.493E-01    0.16       1.0  T
   6   -209.7790464 -0.281360E-01  0.276E-01    0.14       1.0  T
   7   -209.7731924  0.585407E-02  0.323E-01    0.14       1.0  T
   8   -209.7855557 -0.123634E-01  0.164E-01    0.13       1.0  T
   9   -209.7894314 -0.387569E-02  0.427E-02    0.13       1.0  T
  10   -209.7895657 -0.134252E-03  0.228E-02    0.13       1.0  T
  11   -209.7895998 -0.341672E-04  0.145E-02    0.13       1.0  T
  12   -209.7896134 -0.135397E-04  0.113E-02    0.13       1.0  T
  13   -209.7895856  0.277753E-04  0.154E-02    0.13       1.0  T
  14   -209.7896194 -0.337955E-04  0.658E-03    0.13       1.5  T
  15   -209.7895976  0.217805E-04  0.121E-02    0.13       1.0  T
  16   -209.7896214 -0.237427E-04  0.337E-03    0.13       3.0  T
  17   -209.7896166  0.473208E-05  0.591E-03    0.13       1.7  T
  18   -209.7896191 -0.252484E-05  0.431E-03    0.13       2.4  T
  19   -209.7896220 -0.288420E-05  0.107E-03    0.13       9.4  T
  20   -209.7896220  0.225518E-08  0.838E-04    0.13      12.1  T
  21   -209.7896221 -0.533141E-07  0.528E-04    0.13      19.2  T
     SCC iter.                  ...        0 min,  0.985 sec
     gradient                   ...        0 min,  0.061 sec
 * total energy  :  -207.7026575 Eh     change       -0.1768013E-02 Eh
   gradient norm :     0.0133695 Eh/α   predicted    -0.1750129E-02 (  -1.01%)
   displ. norm   :     0.7653946 α      lambda       -0.2029415E-02
   maximum displ.:     0.3266934 α      in ANC's #6, #3, #2, ...

........................................................................
.............................. CYCLE  162 ..............................
........................................................................

 iter      E             dE          RMSdq      gap      omega  full diag
   1   -209.7725183 -0.209773E+03  0.390E-01    0.13       0.0  T
   2   -209.5370765  0.235442E+00  0.119E+00    0.41       1.0  T
   3   -209.7285644 -0.191488E+00  0.621E-01    0.16       1.0  T
   4   -209.7571957 -0.286313E-01  0.416E-01    0.13       1.0  T
   5   -209.7651009 -0.790519E-02  0.375E-01    0.15       1.0  T
   6   -209.7855701 -0.204692E-01  0.148E-01    0.13       1.0  T
   7   -209.7850107  0.559391E-03  0.160E-01    0.13       1.0  T
   8   -209.7885361 -0.352546E-02  0.420E-02    0.13       1.0  T
   9   -209.7887578 -0.221649E-03  0.136E-02    0.13       1.0  T
  10   -209.7886329  0.124890E-03  0.295E-02    0.13       1.0  T
  11   -209.7886907 -0.578211E-04  0.222E-02    0.13       1.0  T
  12   -209.7887404 -0.497341E-04  0.138E-02    0.13       1.0  T
  13   -209.7887227  0.177182E-04  0.168E-02    0.13       1.0  T
  14   -209.7887615 -0.387999E-04  0.704E-03    0.13       1.4  T
  15   -209.7887663 -0.472675E-05  0.462E-03    0.13       2.2  T
  16   -209.7887574  0.881768E-05  0.831E-03    0.13       1.2  T
  17   -209.7887688 -0.113730E-04  0.146E-03    0.13       7.0  T
  18   -209.7887690 -0.200298E-06  0.748E-04    0.13      13.6  T
  19   -209.7887688  0.165454E-06  0.116E-03    0.13       8.7  T
  20   -209.7887690 -0.139852E-06  0.621E-04    0.13      16.4  T
     SCC iter.                  ...        0 min,  1.133 sec
     gradient                   ...        0 min,  0.067 sec
 * total energy  :  -207.7044406 Eh     change       -0.1783137E-02 Eh
   gradient norm :     0.0124381 Eh/α   predicted    -0.1609154E-02 (  -9.76%)
   displ. norm   :     0.7769648 α      lambda       -0.2172665E-02
   maximum displ.:     0.3219803 α      in ANC's #6, #3, #2, ...

........................................................................
.............................. CYCLE  163 ..............................
........................................................................

 iter      E             dE          RMSdq      gap      omega  full diag
   1   -209.7747734 -0.209775E+03  0.391E-01    0.13       0.0  T
   2   -209.5241292  0.250644E+00  0.124E+00    0.43       1.0  T
   3   -209.7082390 -0.184110E+00  0.726E-01    0.22       1.0  T
   4   -209.7862087 -0.779697E-01  0.205E-01    0.13       1.0  T
   5   -209.7677998  0.184088E-01  0.391E-01    0.15       1.0  T
   6   -209.7814374 -0.136376E-01  0.275E-01    0.14       1.0  T
   7   -209.7925653 -0.111278E-01  0.828E-02    0.13       1.0  T
   8   -209.7929639 -0.398593E-03  0.566E-02    0.13       1.0  T
   9   -209.7934472 -0.483332E-03  0.191E-02    0.13       1.0  T
  10   -209.7934722 -0.249628E-04  0.105E-02    0.13       1.0  T
  11   -209.7934600  0.121754E-04  0.121E-02    0.13       1.0  T
  12   -209.7934361  0.239460E-04  0.161E-02    0.13       1.0  T
  13   -209.7934251  0.109675E-04  0.172E-02    0.13       1.0  T
  14   -209.7934759 -0.508174E-04  0.342E-03    0.13       3.0  T
  15   -209.7934614  0.144734E-04  0.968E-03    0.13       1.0  T
  16   -209.7934754 -0.139576E-04  0.323E-03    0.13       3.1  T
  17   -209.7934763 -0.865312E-06  0.205E-03    0.13       5.0  T
  18   -209.7934767 -0.432310E-06  0.115E-03    0.13       8.8  T
  19   -209.7934768 -0.684675E-07  0.772E-04    0.13      13.1  T
  20   -209.7934767  0.954248E-07  0.104E-03    0.13       9.7  T
  21   -209.7934767 -0.608691E-07  0.764E-04    0.13      13.3  T
     SCC iter.                  ...        0 min,  0.846 sec
     gradient                   ...        0 min,  0.062 sec
 * total energy  :  -207.7063269 Eh     change       -0.1886230E-02 Eh
   gradient norm :     0.0090144 Eh/α   predicted    -0.1742126E-02 (  -7.64%)
   displ. norm   :     0.8648042 α      lambda       -0.2035651E-02
   maximum displ.:     0.3679630 α      in ANC's #6, #3, #2, ...

........................................................................
.............................. CYCLE  164 ..............................
........................................................................

 iter      E             dE          RMSdq      gap      omega  full diag
   1   -209.7614434 -0.209761E+03  0.484E-01    0.14       0.0  T
   2   -209.4708017  0.290642E+00  0.140E+00    0.42       1.0  T
   3   -209.6564495 -0.185648E+00  0.901E-01    0.31       1.0  T
   4   -209.7895296 -0.133080E+00  0.145E-01    0.13       1.0  T
   5   -209.7544064  0.351232E-01  0.473E-01    0.15       1.0  T
   6   -209.7755687 -0.211623E-01  0.318E-01    0.14       1.0  T
   7   -209.7913653 -0.157966E-01  0.711E-02    0.13       1.0  T
   8   -209.7882152  0.315012E-02  0.149E-01    0.13       1.0  T
   9   -209.7917165 -0.350133E-02  0.456E-02    0.13       1.0  T
  10   -209.7918922 -0.175743E-03  0.314E-02    0.13       1.0  T
  11   -209.7920095 -0.117258E-03  0.119E-02    0.13       1.0  T
  12   -209.7918700  0.139468E-03  0.295E-02    0.13       1.0  T
  13   -209.7919784 -0.108357E-03  0.173E-02    0.13       1.0  T
  14   -209.7919497  0.287242E-04  0.204E-02    0.13       1.0  T
  15   -209.7920087 -0.590310E-04  0.776E-03    0.13       1.3  T
  16   -209.7920178 -0.912964E-05  0.213E-03    0.13       4.8  T
  17   -209.7920171  0.768525E-06  0.275E-03    0.13       3.7  T
  18   -209.7920178 -0.699924E-06  0.162E-03    0.13       6.3  T
  19   -209.7920180 -0.225583E-06  0.666E-04    0.13      15.2  T
  20   -209.7920180 -0.183508E-07  0.400E-04    0.13      25.4  T
     SCC iter.                  ...        0 min,  0.810 sec
     gradient                   ...        0 min,  0.067 sec
 * total energy  :  -207.7081507 Eh     change       -0.1823888E-02 Eh
   gradient norm :     0.0105844 Eh/α   predicted    -0.1779045E-02 (  -2.46%)
   displ. norm   :     0.8280380 α      lambda       -0.2024955E-02
   maximum displ.:     0.3229985 α      in ANC's #3, #2, #6, ...

........................................................................
.............................. CYCLE  165 ..............................
........................................................................

 iter      E             dE          RMSdq      gap      omega  full diag
   1   -209.7836390 -0.209784E+03  0.418E-01    0.14       0.0  T
   2   -209.5128351  0.270804E+00  0.129E+00    0.48       1.0  T
   3   -209.7351030 -0.222268E+00  0.664E-01    0.19       1.0  T
   4   -209.7738938 -0.387908E-01  0.403E-01    0.14       1.0  T
   5   -209.7633874  0.105064E-01  0.600E-01    0.10       1.0  T
   6   -209.7905771 -0.271897E-01  0.291E-01    0.15       1.0  T
   7   -209.7981140 -0.753692E-02  0.183E-01    0.14       1.0  T
   8   -209.8025825 -0.446852E-02  0.638E-02    0.14       1.0  T
   9   -209.8026216 -0.391078E-04  0.495E-02    0.13       1.0  T
  10   -209.8027114 -0.898019E-04  0.375E-02    0.13       1.0  T
  11   -209.8028277 -0.116303E-03  0.188E-02    0.13       1.0  T
  12   -209.8028608 -0.330470E-04  0.763E-03    0.13       1.3  T
  13   -209.8028043  0.564775E-04  0.191E-02    0.13       1.0  T
  14   -209.8028494 -0.451541E-04  0.108E-02    0.13       1.0  T
  15   -209.8028625 -0.130306E-04  0.652E-03    0.13       1.6  T
  16   -209.8028547  0.772402E-05  0.871E-03    0.13       1.2  T
  17   -209.8028584 -0.368937E-05  0.662E-03    0.13       1.5  T
  18   -209.8028624 -0.401443E-05  0.398E-03    0.13       2.5  T
  19   -209.8028650 -0.258804E-05  0.101E-03    0.13      10.0  T
  20   -209.8028648  0.262413E-06  0.146E-03    0.13       7.0  T
  21   -209.8028651 -0.294662E-06  0.436E-04    0.13      23.3  T
  22   -209.8028651 -0.243429E-07  0.177E-04    0.13      57.3  T
     SCC iter.                  ...        0 min,  0.880 sec
     gradient                   ...        0 min,  0.065 sec
 * total energy  :  -207.7097933 Eh     change       -0.1642538E-02 Eh
   gradient norm :     0.0107285 Eh/α   predicted    -0.1706684E-02 (   3.91%)
   displ. norm   :     0.8869086 α      lambda       -0.1972435E-02
   maximum displ.:     0.3751849 α      in ANC's #3, #6, #2, ...

........................................................................
.............................. CYCLE  166 ..............................
........................................................................

 iter      E             dE          RMSdq      gap      omega  full diag
   1   -209.7661787 -0.209766E+03  0.455E-01    0.14       0.0  T
   2   -209.4727942  0.293384E+00  0.136E+00    0.41       1.0  T
   3   -209.6964442 -0.223650E+00  0.764E-01    0.21       1.0  T
   4   -209.7565696 -0.601254E-01  0.426E-01    0.14       1.0  T
   5   -209.7663301 -0.976046E-02  0.380E-01    0.15       1.0  T
   6   -209.7785246 -0.121945E-01  0.261E-01    0.14       1.0  T
   7   -209.7831072 -0.458257E-02  0.188E-01    0.13       1.0  T
   8   -209.7884471 -0.533995E-02  0.398E-02    0.13       1.0  T
   9   -209.7881089  0.338251E-03  0.535E-02    0.13       1.0  T
  10   -209.7885769 -0.468079E-03  0.126E-02    0.13       1.0  T
  11   -209.7882835  0.293481E-03  0.424E-02    0.13       1.0  T
  12   -209.7885539 -0.270428E-03  0.140E-02    0.13       1.0  T
  13   -209.7885739 -0.199871E-04  0.925E-03    0.13       1.1  T
  14   -209.7885707  0.318145E-05  0.961E-03    0.13       1.1  T
  15   -209.7885625  0.815870E-05  0.111E-02    0.13       1.0  T
  16   -209.7885835 -0.209884E-04  0.167E-03    0.13       6.1  T
  17   -209.7885780  0.552096E-05  0.587E-03    0.13       1.7  T
  18   -209.7885808 -0.281346E-05  0.410E-03    0.13       2.5  T
  19   -209.7885835 -0.274369E-05  0.725E-04    0.13      14.0  T
  20   -209.7885836 -0.507737E-07  0.353E-04    0.13      28.8  T
  21   -209.7885836 -0.505852E-08  0.241E-04    0.13      42.1  T
     SCC iter.                  ...        0 min,  0.910 sec
     gradient                   ...        0 min,  0.078 sec
 * total energy  :  -207.7113112 Eh     change       -0.1517962E-02 Eh
   gradient norm :     0.0125489 Eh/α   predicted    -0.1761984E-02 (  16.08%)
   displ. norm   :     0.6968719 α      lambda       -0.1818116E-02
   maximum displ.:     0.2727910 α      in ANC's #2, #3, #12, ...

........................................................................
.............................. CYCLE  167 ..............................
........................................................................

 iter      E             dE          RMSdq      gap      omega  full diag
   1   -209.7828793 -0.209783E+03  0.323E-01    0.13       0.0  T
   2   -209.5388359  0.244043E+00  0.118E+00    0.41       1.0  T
   3   -209.7907369 -0.251901E+00  0.129E-01    0.12       1.0  T
   4   -209.7872779  0.345893E-02  0.166E-01    0.13       1.0  T
   5   -209.7814597  0.581821E-02  0.247E-01    0.13       1.0  T
   6   -209.7905098 -0.905004E-02  0.693E-02    0.13       1.0  T
   7   -209.7906761 -0.166374E-03  0.511E-02    0.12       1.0  T
   8   -209.7910075 -0.331395E-03  0.189E-02    0.13       1.0  T
   9   -209.7908343  0.173242E-03  0.352E-02    0.13       1.0  T
  10   -209.7909931 -0.158859E-03  0.148E-02    0.12       1.0  T
  11   -209.7910019 -0.876515E-05  0.124E-02    0.12       1.0  T
  12   -209.7910241 -0.221494E-04  0.478E-03    0.12       2.1  T
  13   -209.7910262 -0.210404E-05  0.288E-03    0.12       3.5  T
  14   -209.7910266 -0.483392E-06  0.195E-03    0.12       5.2  T
  15   -209.7910270 -0.391494E-06  0.875E-04    0.12      11.6  T
  16   -209.7910271 -0.582485E-07  0.528E-04    0.12      19.2  T
     SCC iter.                  ...        0 min,  2.639 sec
     gradient                   ...        0 min,  0.069 sec
 * total energy  :  -207.7124133 Eh     change       -0.1102057E-02 Eh
   gradient norm :     0.0237612 Eh/α   predicted    -0.1350529E-02 (  22.55%)
   displ. norm   :     0.6532494 α      lambda       -0.1802112E-02
   maximum displ.:     0.2616005 α      in ANC's #2, #3, #6, ...

........................................................................
.............................. CYCLE  168 ..............................
........................................................................

 iter      E             dE          RMSdq      gap      omega  full diag
   1   -209.7834719 -0.209783E+03  0.332E-01    0.14       0.0  T
   2   -209.5400757  0.243396E+00  0.117E+00    0.42       1.0  T
   3   -209.7408461 -0.200770E+00  0.523E-01    0.16       1.0  T
   4   -209.7417363 -0.890267E-03  0.562E-01    0.16       1.0  T
   5   -209.7774085 -0.356722E-01  0.291E-01    0.14       1.0  T
   6   -209.7842413 -0.683276E-02  0.208E-01    0.13       1.0  T
   7   -209.7892809 -0.503963E-02  0.973E-02    0.13       1.0  T
   8   -209.7881740  0.110689E-02  0.114E-01    0.13       1.0  T
   9   -209.7900924 -0.191838E-02  0.295E-02    0.13       1.0  T
  10   -209.7901479 -0.555293E-04  0.183E-02    0.13       1.0  T
  11   -209.7901908 -0.428853E-04  0.705E-03    0.13       1.4  T
  12   -209.7901878  0.305898E-05  0.756E-03    0.13       1.3  T
  13   -209.7901933 -0.554420E-05  0.393E-03    0.13       2.6  T
  14   -209.7901898  0.350653E-05  0.522E-03    0.13       1.9  T
  15   -209.7901932 -0.339684E-05  0.258E-03    0.13       3.9  T
  16   -209.7901938 -0.626037E-06  0.153E-03    0.13       6.6  T
  17   -209.7901939 -0.910296E-07  0.110E-03    0.13       9.2  T
  18   -209.7901933  0.556822E-06  0.199E-03    0.13       5.1  T
  19   -209.7901939 -0.596654E-06  0.601E-04    0.13      16.9  T
  20   -209.7901938  0.145514E-06  0.107E-03    0.13       9.5  T
  21   -209.7901940 -0.167083E-06  0.198E-04    0.13      51.2  T
     SCC iter.                  ...        0 min,  1.741 sec
     gradient                   ...        0 min,  0.066 sec
 * total energy  :  -207.7136297 Eh     change       -0.1216402E-02 Eh
   gradient norm :     0.0112672 Eh/α   predicted    -0.1285572E-02 (   5.69%)
   displ. norm   :     0.5831999 α      lambda       -0.1331588E-02
   maximum displ.:     0.2430583 α      in ANC's #12, #2, #3, ...

........................................................................
.............................. CYCLE  169 ..............................
........................................................................

 iter      E             dE          RMSdq      gap      omega  full diag
   1   -209.7857670 -0.209786E+03  0.338E-01    0.14       0.0  T
   2   -209.5485909  0.237176E+00  0.117E+00    0.45       1.0  T
   3   -209.7012964 -0.152706E+00  0.720E-01    0.19       1.0  T
   4   -209.7711458 -0.698493E-01  0.394E-01    0.15       1.0  T
   5   -209.7790925 -0.794677E-02  0.274E-01    0.13       1.0  T
   6   -209.7903245 -0.112320E-01  0.100E-01    0.13       1.0  T
   7   -209.7908063 -0.481777E-03  0.821E-02    0.13       1.0  T
   8   -209.7905160  0.290371E-03  0.809E-02    0.13       1.0  T
   9   -209.7905234 -0.742297E-05  0.714E-02    0.13       1.0  T
  10   -209.7912620 -0.738578E-03  0.152E-02    0.13       1.0  T
  11   -209.7912472  0.148000E-04  0.146E-02    0.13       1.0  T
  12   -209.7912717 -0.244988E-04  0.521E-03    0.13       1.9  T
  13   -209.7912693  0.234497E-05  0.564E-03    0.13       1.8  T
  14   -209.7912724 -0.313668E-05  0.277E-03    0.13       3.7  T
  15   -209.7912716  0.872097E-06  0.308E-03    0.13       3.3  T
  16   -209.7912728 -0.122923E-05  0.123E-03    0.13       8.3  T
  17   -209.7912726  0.218469E-06  0.147E-03    0.13       6.9  T
  18   -209.7912728 -0.255541E-06  0.571E-04    0.13      17.8  T
  19   -209.7912728 -0.698662E-09  0.409E-04    0.13      24.8  T
     SCC iter.                  ...        0 min,  1.134 sec
     gradient                   ...        0 min,  0.065 sec
 * total energy  :  -207.7145167 Eh     change       -0.8870198E-03 Eh
   gradient norm :     0.0162120 Eh/α   predicted    -0.8922473E-03 (   0.59%)
   displ. norm   :     0.6385039 α      lambda       -0.1231491E-02
   maximum displ.:     0.2817599 α      in ANC's #12, #2, #3, ...

........................................................................
.............................. CYCLE  170 ..............................
........................................................................

 iter      E             dE          RMSdq      gap      omega  full diag
   1   -209.7910607 -0.209791E+03  0.350E-01    0.14       0.0  T
   2   -209.5649024  0.226158E+00  0.117E+00    0.39       1.0  T
   3   -209.6655961 -0.100694E+00  0.902E-01    0.24       1.0  T
   4   -209.7828656 -0.117269E+00  0.317E-01    0.14       1.0  T
   5   -209.7845930 -0.172738E-02  0.323E-01    0.12       1.0  T
   6   -209.7946902 -0.100972E-01  0.124E-01    0.13       1.0  T
   7   -209.7949033 -0.213075E-03  0.926E-02    0.13       1.0  T
   8   -209.7955182 -0.614930E-03  0.581E-02    0.13       1.0  T
   9   -209.7954179  0.100344E-03  0.536E-02    0.13       1.0  T
  10   -209.7956388 -0.220964E-03  0.211E-02    0.13       1.0  T
  11   -209.7956460 -0.712526E-05  0.131E-02    0.13       1.0  T
  12   -209.7956643 -0.182970E-04  0.509E-03    0.13       2.0  T
  13   -209.7956637  0.556543E-06  0.427E-03    0.13       2.4  T
  14   -209.7956635  0.229683E-06  0.412E-03    0.13       2.5  T
  15   -209.7956655 -0.202893E-05  0.154E-03    0.13       6.6  T
  16   -209.7956656 -0.108637E-06  0.767E-04    0.13      13.2  T
  17   -209.7956656 -0.173073E-07  0.493E-04    0.13      20.6  T
     SCC iter.                  ...        0 min,  0.884 sec
     gradient                   ...        0 min,  0.071 sec
 * total energy  :  -207.7152756 Eh     change       -0.7588979E-03 Eh
   gradient norm :     0.0205081 Eh/α   predicted    -0.8667811E-03 (  14.22%)
   displ. norm   :     0.6075617 α      lambda       -0.1322602E-02
   maximum displ.:     0.2694000 α      in ANC's #12, #2, #3, ...

........................................................................
.............................. CYCLE  171 ..............................
........................................................................

 iter      E             dE          RMSdq      gap      omega  full diag
   1   -209.7816548 -0.209782E+03  0.431E-01    0.16       0.0  T
   2   -209.5475768  0.234078E+00  0.128E+00    0.37       1.0  T
   3   -209.6223957 -0.748189E-01  0.106E+00    0.24       1.0  T
   4   -209.7814154 -0.159020E+00  0.244E-01    0.14       1.0  T
   5   -209.7565332  0.248822E-01  0.663E-01    0.08       1.0  T
   6   -209.7867890 -0.302558E-01  0.136E-01    0.13       1.0  T
   7   -209.7857459  0.104312E-02  0.142E-01    0.14       1.0  T
   8   -209.7872465 -0.150066E-02  0.793E-02    0.13       1.0  T
   9   -209.7873005 -0.539438E-04  0.690E-02    0.13       1.0  T
  10   -209.7872282  0.722383E-04  0.609E-02    0.13       1.0  T
  11   -209.7875326 -0.304349E-03  0.348E-02    0.13       1.0  T
  12   -209.7875894 -0.568302E-04  0.218E-02    0.13       1.0  T
  13   -209.7876136 -0.241401E-04  0.126E-02    0.13       1.0  T
  14   -209.7876222 -0.868723E-05  0.557E-03    0.13       1.8  T
  15   -209.7876235 -0.127549E-05  0.216E-03    0.13       4.7  T
  16   -209.7876238 -0.237555E-06  0.146E-03    0.13       7.0  T
  17   -209.7876238 -0.179261E-07  0.123E-03    0.13       8.3  T
  18   -209.7876238 -0.703624E-07  0.688E-04    0.13      14.8  T
  19   -209.7876239 -0.577575E-08  0.485E-04    0.13      20.9  T
     SCC iter.                  ...        0 min,  2.092 sec
     gradient                   ...        0 min,  0.072 sec
 * total energy  :  -207.7161793 Eh     change       -0.9036766E-03 Eh
   gradient norm :     0.0167269 Eh/α   predicted    -0.9054118E-03 (   0.19%)
   displ. norm   :     0.5919399 α      lambda       -0.1464647E-02
   maximum displ.:     0.2849029 α      in ANC's #12, #2, #11, ...

........................................................................
.............................. CYCLE  172 ..............................
........................................................................

 iter      E             dE          RMSdq      gap      omega  full diag
   1   -209.7751470 -0.209775E+03  0.684E-01    0.20       0.0  T
   2   -209.4960752  0.279072E+00  0.163E+00    0.32       1.0  T
   3   -209.4180035  0.780716E-01  0.163E+00    0.05       1.0  T
   4   -209.7670527 -0.349049E+00  0.444E-01    0.17       1.0  T
   5   -209.7013938  0.656589E-01  0.739E-01    0.17       1.0  T
   6   -209.7812947 -0.799009E-01  0.341E-01    0.16       1.0  T
   7   -209.7842489 -0.295416E-02  0.298E-01    0.16       1.0  T
   8   -209.7883867 -0.413783E-02  0.158E-01    0.15       1.0  T
   9   -209.7885737 -0.186962E-03  0.140E-01    0.15       1.0  T
  10   -209.7884364  0.137252E-03  0.126E-01    0.15       1.0  T
  11   -209.7887296 -0.293161E-03  0.108E-01    0.15       1.0  T
  12   -209.7889797 -0.250085E-03  0.769E-02    0.15       1.0  T
  13   -209.7889848 -0.515172E-05  0.683E-02    0.15       1.0  T
  14   -209.7893775 -0.392670E-03  0.335E-02    0.14       1.0  T
  15   -209.7894762 -0.986899E-04  0.129E-02    0.14       1.0  T
  16   -209.7894843 -0.810655E-05  0.494E-03    0.14       2.1  T
  17   -209.7894749  0.935472E-05  0.109E-02    0.14       1.0  T
  18   -209.7894835 -0.854141E-05  0.403E-03    0.14       2.5  T
  19   -209.7894849 -0.142981E-05  0.255E-03    0.14       4.0  T
  20   -209.7894855 -0.562775E-06  0.109E-03    0.14       9.3  T
  21   -209.7894844  0.105853E-05  0.306E-03    0.14       3.3  T
  22   -209.7894855 -0.113367E-05  0.620E-04    0.14      16.4  T
  23   -209.7894855  0.120392E-07  0.751E-04    0.14      13.5  T
  24   -209.7894855 -0.259590E-08  0.563E-04    0.14      18.0  T
     SCC iter.                  ...        0 min,  1.093 sec
     gradient                   ...        0 min,  0.073 sec
 * total energy  :  -207.7173648 Eh     change       -0.1185476E-02 Eh
   gradient norm :     0.0226132 Eh/α   predicted    -0.9889275E-03 ( -16.58%)
   displ. norm   :     0.7327142 α      lambda       -0.2355396E-02
   maximum displ.:     0.3251651 α      in ANC's #12, #2, #23, ...

........................................................................
.............................. CYCLE  173 ..............................
........................................................................

 iter      E             dE          RMSdq      gap      omega  full diag
   1   -209.7543540 -0.209754E+03  0.112E+00    0.22       0.0  T
   2   -209.3618989  0.392455E+00  0.269E+00    0.25       1.0  T
   3   -209.5001313 -0.138232E+00  0.148E+00    0.05       1.0  T
   4   -209.7638108 -0.263680E+00  0.535E-01    0.15       1.0  T
   5   -209.7855068 -0.216960E-01  0.311E-01    0.15       1.0  T
   6   -209.7426348  0.428719E-01  0.597E-01    0.15       1.0  T
   7   -209.7793226 -0.366878E-01  0.450E-01    0.20       1.0  T
   8   -209.7867325 -0.740989E-02  0.270E-01    0.17       1.0  T
   9   -209.7847992  0.193331E-02  0.317E-01    0.18       1.0  T
  10   -209.7871344 -0.233518E-02  0.223E-01    0.17       1.0  T
  11   -209.7872738 -0.139389E-03  0.198E-01    0.17       1.0  T
  12   -209.7854896  0.178414E-02  0.233E-01    0.18       1.0  T
  13   -209.7882977 -0.280805E-02  0.120E-01    0.14       1.0  T
  14   -209.7890150 -0.717366E-03  0.508E-02    0.15       1.0  T
  15   -209.7889366  0.784544E-04  0.583E-02    0.15       1.0  T
  16   -209.7890968 -0.160193E-03  0.356E-02    0.16       1.0  T
  17   -209.7891655 -0.687274E-04  0.183E-02    0.16       1.0  T
  18   -209.7891712 -0.568651E-05  0.838E-03    0.16       1.2  T
  19   -209.7891726 -0.141236E-05  0.650E-03    0.16       1.6  T
  20   -209.7891749 -0.229863E-05  0.429E-03    0.16       2.4  T
  21   -209.7891752 -0.274582E-06  0.279E-03    0.16       3.6  T
  22   -209.7891753 -0.118058E-06  0.155E-03    0.16       6.5  T
  23   -209.7891754 -0.161345E-06  0.693E-04    0.16      14.7  T
  24   -209.7891755 -0.697042E-08  0.389E-04    0.16      26.1  T
     SCC iter.                  ...        0 min,  0.851 sec
     gradient                   ...        0 min,  0.067 sec
 * total energy  :  -207.7200740 Eh     change       -0.2709184E-02 Eh
   gradient norm :     0.0332806 Eh/α   predicted    -0.1809973E-02 ( -33.19%)
   displ. norm   :     0.6833262 α      lambda       -0.4152734E-02
   maximum displ.:     0.2925780 α      in ANC's #12, #2, #23, ...

........................................................................
.............................. CYCLE  174 ..............................
........................................................................

 iter      E             dE          RMSdq      gap      omega  full diag
   1   -209.7614221 -0.209761E+03  0.108E+00    0.16       0.0  T
   2   -209.2619303  0.499492E+00  0.359E+00    0.45       1.0  T
   3   -209.7366507 -0.474720E+00  0.655E-01    0.17       1.0  T
   4   -209.5676887  0.168962E+00  0.167E+00    0.06       1.0  T
   5   -209.7415495 -0.173861E+00  0.841E-01    0.13       1.0  T
   6   -209.7801113 -0.385618E-01  0.304E-01    0.14       1.0  T
   7   -209.7810512 -0.939923E-03  0.448E-01    0.19       1.0  T
   8   -209.7838109 -0.275967E-02  0.356E-01    0.16       1.0  T
   9   -209.7856143 -0.180337E-02  0.184E-01    0.16       1.0  T
  10   -209.7866944 -0.108011E-02  0.173E-01    0.15       1.0  T
  11   -209.7867870 -0.926675E-04  0.895E-02    0.13       1.0  T
  12   -209.7870456 -0.258584E-03  0.690E-02    0.14       1.0  T
  13   -209.7872674 -0.221776E-03  0.226E-02    0.15       1.0  T
  14   -209.7872757 -0.828050E-05  0.251E-02    0.15       1.0  T
  15   -209.7872742  0.153540E-05  0.159E-02    0.15       1.0  T
  16   -209.7872748 -0.600968E-06  0.143E-02    0.15       1.0  T
  17   -209.7872812 -0.646899E-05  0.330E-03    0.15       3.1  T
  18   -209.7872792  0.205479E-05  0.594E-03    0.15       1.7  T
  19   -209.7872807 -0.153690E-05  0.500E-03    0.15       2.0  T
  20   -209.7872809 -0.209070E-06  0.512E-03    0.15       2.0  T
  21   -209.7872815 -0.599519E-06  0.135E-03    0.15       7.5  T
  22   -209.7872815 -0.230254E-07  0.490E-04    0.15      20.7  T
  23   -209.7872815  0.843431E-08  0.638E-04    0.15      15.9  T
     SCC iter.                  ...        0 min,  1.258 sec
     gradient                   ...        0 min,  0.066 sec
 * total energy  :  -207.7243795 Eh     change       -0.4305523E-02 Eh
   gradient norm :     0.0448391 Eh/α   predicted    -0.3045897E-02 ( -29.26%)
   displ. norm   :     0.7839040 α      lambda       -0.1127078E-01
   maximum displ.:     0.3896388 α      in ANC's #31, #23, #40, ...

........................................................................
.............................. CYCLE  175 ..............................
........................................................................

 iter      E             dE          RMSdq      gap      omega  full diag
   1   -209.7717496 -0.209772E+03  0.128E+00    0.09       0.0  T
   2   -209.1803699  0.591380E+00  0.447E+00    0.28       1.0  T
   3   -209.7403013 -0.559931E+00  0.957E-01    0.60       1.0  T
   4   -209.3089395  0.431362E+00  0.283E+00    0.02       1.0  T
   5   -209.7806227 -0.471683E+00  0.839E-01    0.32       1.0  T
   6   -209.7778359  0.278674E-02  0.730E-01    0.38       1.0  T
   7   -209.7857418 -0.790592E-02  0.593E-01    0.27       1.0  T
   8   -209.7908234 -0.508160E-02  0.461E-01    0.22       1.0  T
   9   -209.7913449 -0.521429E-03  0.674E-01    0.13       1.0  T
  10   -209.7950590 -0.371409E-02  0.518E-01    0.14       1.0  T
  11   -209.7982980 -0.323903E-02  0.362E-01    0.15       1.0  T
  12   -209.8006742 -0.237625E-02  0.251E-01    0.17       1.0  T
  13   -209.8039377 -0.326349E-02  0.119E-01    0.15       1.0  T
  14   -209.8033161  0.621597E-03  0.163E-01    0.11       1.0  T
  15   -209.8049380 -0.162183E-02  0.361E-02    0.13       1.0  T
  16   -209.8049383 -0.393174E-06  0.348E-02    0.13       1.0  T
  17   -209.8049576 -0.193033E-04  0.219E-02    0.13       1.0  T
  18   -209.8049699 -0.122387E-04  0.896E-03    0.13       1.1  T
  19   -209.8049636  0.633662E-05  0.140E-02    0.13       1.0  T
  20   -209.8049691 -0.553144E-05  0.950E-03    0.13       1.1  T
  21   -209.8049722 -0.309650E-05  0.528E-03    0.13       1.9  T
  22   -209.8049729 -0.708413E-06  0.355E-03    0.13       2.9  T
  23   -209.8049724  0.461540E-06  0.407E-03    0.13       2.5  T
  24   -209.8049734 -0.927382E-06  0.206E-03    0.13       4.9  T
  25   -209.8049734 -0.702366E-08  0.195E-03    0.13       5.2  T
  26   -209.8049735 -0.119105E-06  0.613E-04    0.13      16.6  T
  27   -209.8049735  0.979185E-08  0.715E-04    0.13      14.2  T
     SCC iter.                  ...        0 min,  1.227 sec
     gradient                   ...        0 min,  0.064 sec
 * total energy  :  -207.7154820 Eh     change        0.8897509E-02 Eh
   gradient norm :     0.1169403 Eh/α   predicted    -0.9098367E-02 (-202.26%)
   displ. norm   :     0.4534109 α      lambda       -0.3619716E-01
   maximum displ.:     0.2474193 α      in ANC's #31, #23, #47, ...

........................................................................
.............................. CYCLE  176 ..............................
........................................................................

 iter      E             dE          RMSdq      gap      omega  full diag
   1   -209.7783550 -0.209778E+03  0.879E-01    0.15       0.0  T
   2   -209.3061009  0.472254E+00  0.281E+00    0.02       1.0  T
   3   -209.7471084 -0.441008E+00  0.992E-01    0.35       1.0  T
   4   -209.6941746  0.529338E-01  0.171E+00    0.12       1.0  T
   5   -209.7793130 -0.851384E-01  0.566E-01    0.31       1.0  T
   6   -209.7782016  0.111142E-02  0.547E-01    0.34       1.0  T
   7   -209.7834867 -0.528513E-02  0.482E-01    0.30       1.0  T
   8   -209.7895337 -0.604701E-02  0.382E-01    0.26       1.0  T
   9   -209.7944848 -0.495103E-02  0.256E-01    0.20       1.0  T
  10   -209.7956388 -0.115403E-02  0.233E-01    0.11       1.0  T
  11   -209.7987811 -0.314235E-02  0.671E-02    0.14       1.0  T
  12   -209.7984841  0.297002E-03  0.883E-02    0.16       1.0  T
  13   -209.7988697 -0.385601E-03  0.450E-02    0.14       1.0  T
  14   -209.7988927 -0.229993E-04  0.352E-02    0.15       1.0  T
  15   -209.7989330 -0.402651E-04  0.189E-02    0.14       1.0  T
  16   -209.7989311  0.193593E-05  0.153E-02    0.14       1.0  T
  17   -209.7989359 -0.482117E-05  0.137E-02    0.14       1.0  T
  18   -209.7989395 -0.356547E-05  0.119E-02    0.14       1.0  T
  19   -209.7989425 -0.302073E-05  0.734E-03    0.14       1.4  T
  20   -209.7989434 -0.966398E-06  0.430E-03    0.14       2.4  T
  21   -209.7989441 -0.617362E-06  0.263E-03    0.14       3.9  T
  22   -209.7989445 -0.417336E-06  0.131E-03    0.14       7.8  T
  23   -209.7989445 -0.485324E-07  0.539E-04    0.14      18.8  T
  24   -209.7989445  0.780225E-07  0.112E-03    0.14       9.1  T
  25   -209.7989445 -0.782316E-07  0.437E-04    0.14      23.3  T
     SCC iter.                  ...        0 min,  1.596 sec
     gradient                   ...        0 min,  0.069 sec
 * total energy  :  -207.7280511 Eh     change       -0.1256913E-01 Eh
   gradient norm :     0.0640412 Eh/α   predicted    -0.2181932E-01 (  73.59%)
   displ. norm   :     0.6667455 α      lambda       -0.1621667E-01
   maximum displ.:     0.1833477 α      in ANC's #27, #2, #59, ...

........................................................................
.............................. CYCLE  177 ..............................
........................................................................

 iter      E             dE          RMSdq      gap      omega  full diag
   1   -209.7620706 -0.209762E+03  0.790E-01    0.18       0.0  T
   2   -209.0628169  0.699254E+00  0.338E+00    0.03       1.0  T
   3   -209.7452528 -0.682436E+00  0.672E-01    0.37       1.0  T
   4   -209.4292066  0.316046E+00  0.298E+00    0.16       1.0  T
   5   -209.7561434 -0.326937E+00  0.560E-01    0.34       1.0  T
   6   -209.7593686 -0.322525E-02  0.461E-01    0.33       1.0  T
   7   -209.7645327 -0.516409E-02  0.390E-01    0.28       1.0  T
   8   -209.7638986  0.634091E-03  0.360E-01    0.29       1.0  T
   9   -209.7694123 -0.551361E-02  0.235E-01    0.22       1.0  T
  10   -209.7718686 -0.245635E-02  0.130E-01    0.17       1.0  T
  11   -209.7723769 -0.508252E-03  0.969E-02    0.14       1.0  T
  12   -209.7726139 -0.237023E-03  0.641E-02    0.14       1.0  T
  13   -209.7728026 -0.188744E-03  0.161E-02    0.15       1.0  T
  14   -209.7727996  0.305362E-05  0.152E-02    0.15       1.0  T
  15   -209.7728095 -0.997988E-05  0.978E-03    0.15       1.0  T
  16   -209.7728061  0.346424E-05  0.131E-02    0.15       1.0  T
  17   -209.7728090 -0.289961E-05  0.104E-02    0.15       1.0  T
  18   -209.7728120 -0.305565E-05  0.345E-03    0.15       2.9  T
  19   -209.7728122 -0.196773E-06  0.116E-03    0.15       8.8  T
  20   -209.7728122  0.137493E-07  0.124E-03    0.15       8.2  T
  21   -209.7728123 -0.326785E-07  0.107E-03    0.15       9.4  T
  22   -209.7728123 -0.105895E-07  0.820E-04    0.15      12.4  T
  23   -209.7728123 -0.198502E-07  0.332E-04    0.15      30.6  T
     SCC iter.                  ...        0 min,  1.512 sec
     gradient                   ...        0 min,  0.068 sec
 * total energy  :  -207.7171532 Eh     change        0.1089785E-01 Eh
   gradient norm :     0.1337211 Eh/α   predicted    -0.1171290E-01 (-207.48%)
   displ. norm   :     0.3416594 α      lambda       -0.2635113E-01
   maximum displ.:     0.0904329 α      in ANC's #97, #94, #71, ...

........................................................................
.............................. CYCLE  178 ..............................
........................................................................

 iter      E             dE          RMSdq      gap      omega  full diag
   1   -209.7763129 -0.209776E+03  0.615E-01    0.08       0.0  T
   2   -209.7515231  0.247898E-01  0.821E-01    0.19       1.0  T
   3   -209.7822892 -0.307661E-01  0.590E-01    0.16       1.0  T
   4   -209.7817189  0.570278E-03  0.443E-01    0.32       1.0  T
   5   -209.7814718  0.247075E-03  0.601E-01    0.14       1.0  T
   6   -209.7917366 -0.102648E-01  0.206E-01    0.15       1.0  T
   7   -209.7867968  0.493978E-02  0.372E-01    0.10       1.0  T
   8   -209.7902350 -0.343813E-02  0.240E-01    0.22       1.0  T
   9   -209.7937713 -0.353629E-02  0.850E-02    0.16       1.0  T
  10   -209.7940666 -0.295324E-03  0.472E-02    0.16       1.0  T
  11   -209.7942000 -0.133384E-03  0.274E-02    0.15       1.0  T
  12   -209.7942070 -0.705622E-05  0.194E-02    0.15       1.0  T
  13   -209.7942101 -0.307547E-05  0.152E-02    0.15       1.0  T
  14   -209.7942257 -0.155644E-04  0.341E-03    0.15       3.0  T
  15   -209.7942243  0.138577E-05  0.530E-03    0.15       1.9  T
  16   -209.7942254 -0.116920E-05  0.312E-03    0.15       3.3  T
  17   -209.7942259 -0.427574E-06  0.164E-03    0.15       6.2  T
  18   -209.7942256  0.303736E-06  0.260E-03    0.15       3.9  T
  19   -209.7942259 -0.331925E-06  0.132E-03    0.15       7.7  T
  20   -209.7942260 -0.103132E-06  0.369E-04    0.15      27.5  T
  21   -209.7942260 -0.359557E-08  0.181E-04    0.15      56.0  T
     SCC iter.                  ...        0 min,  0.965 sec
     gradient                   ...        0 min,  0.068 sec
 * total energy  :  -207.7320687 Eh     change       -0.1491544E-01 Eh
   gradient norm :     0.0272719 Eh/α   predicted    -0.1471355E-01 (  -1.35%)
   displ. norm   :     0.4124897 α      lambda       -0.4657201E-02
   maximum displ.:     0.1343605 α      in ANC's #12, #17, #11, ...

........................................................................
.............................. CYCLE  179 ..............................
........................................................................

 iter      E             dE          RMSdq      gap      omega  full diag
   1   -209.7897189 -0.209790E+03  0.473E-01    0.12       0.0  T
   2   -209.5789936  0.210725E+00  0.244E+00    0.11       1.0  T
   3   -209.7803831 -0.201390E+00  0.427E-01    0.38       1.0  T
   4   -209.2237836  0.556600E+00  0.299E+00    0.02       1.0  T
   5   -209.7868840 -0.563100E+00  0.354E-01    0.25       1.0  T
   6   -209.7859103  0.973661E-03  0.328E-01    0.28       1.0  T
   7   -209.7876551 -0.174475E-02  0.292E-01    0.26       1.0  T
   8   -209.7889690 -0.131391E-02  0.248E-01    0.23       1.0  T
   9   -209.7908925 -0.192352E-02  0.194E-01    0.20       1.0  T
  10   -209.7915944 -0.701946E-03  0.165E-01    0.19       1.0  T
  11   -209.7927394 -0.114496E-02  0.108E-01    0.17       1.0  T
  12   -209.7933503 -0.610940E-03  0.519E-02    0.16       1.0  T
  13   -209.7934841 -0.133746E-03  0.238E-02    0.15       1.0  T
  14   -209.7935098 -0.257246E-04  0.879E-03    0.15       1.2  T
  15   -209.7935120 -0.222265E-05  0.632E-03    0.15       1.6  T
  16   -209.7935135 -0.143214E-05  0.446E-03    0.15       2.3  T
  17   -209.7935146 -0.117905E-05  0.198E-03    0.15       5.1  T
  18   -209.7935139  0.695071E-06  0.377E-03    0.15       2.7  T
  19   -209.7935147 -0.727393E-06  0.158E-03    0.15       6.4  T
  20   -209.7935148 -0.147967E-06  0.309E-04    0.15      32.9  T
  21   -209.7935148  0.249210E-08  0.352E-04    0.15      28.8  T
     SCC iter.                  ...        0 min,  0.893 sec
     gradient                   ...        0 min,  0.063 sec
 * total energy  :  -207.7331825 Eh     change       -0.1113813E-02 Eh
   gradient norm :     0.0525945 Eh/α   predicted    -0.2724802E-02 ( 144.64%)
   displ. norm   :     0.3612263 α      lambda       -0.4390722E-02
   maximum displ.:     0.1431160 α      in ANC's #17, #2, #6, ...

........................................................................
.............................. CYCLE  180 ..............................
........................................................................

 iter      E             dE          RMSdq      gap      omega  full diag
   1   -209.7965055 -0.209797E+03  0.255E-01    0.16       0.0  T
   2   -209.5053957  0.291110E+00  0.206E+00    0.01       1.0  T
   3   -209.7909595 -0.285564E+00  0.380E-01    0.20       1.0  T
   4   -209.7936121 -0.265262E-02  0.252E-01    0.21       1.0  T
   5   -209.7949361 -0.132402E-02  0.200E-01    0.20       1.0  T
   6   -209.7949891 -0.529429E-04  0.188E-01    0.20       1.0  T
   7   -209.7962000 -0.121087E-02  0.140E-01    0.18       1.0  T
   8   -209.7967569 -0.556914E-03  0.106E-01    0.17       1.0  T
   9   -209.7970655 -0.308581E-03  0.809E-02    0.17       1.0  T
  10   -209.7974547 -0.389255E-03  0.300E-02    0.15       1.0  T
  11   -209.7975152 -0.605210E-04  0.695E-03    0.15       1.5  T
  12   -209.7975065  0.869723E-05  0.119E-02    0.14       1.0  T
  13   -209.7975113 -0.479107E-05  0.865E-03    0.15       1.2  T
  14   -209.7975142 -0.287853E-05  0.581E-03    0.15       1.7  T
  15   -209.7975163 -0.212052E-05  0.202E-03    0.15       5.0  T
  16   -209.7975164 -0.114814E-06  0.136E-03    0.15       7.5  T
  17   -209.7975164 -0.266380E-08  0.114E-03    0.15       8.9  T
  18   -209.7975165 -0.479644E-07  0.681E-04    0.15      14.9  T
  19   -209.7975165 -0.223736E-07  0.389E-04    0.15      26.1  T
     SCC iter.                  ...        0 min,  0.770 sec
     gradient                   ...        0 min,  0.067 sec
 * total energy  :  -207.7358431 Eh     change       -0.2660624E-02 Eh
   gradient norm :     0.0259534 Eh/α   predicted    -0.2481823E-02 (  -6.72%)
   displ. norm   :     0.4513772 α      lambda       -0.3230629E-02
   maximum displ.:     0.1613759 α      in ANC's #11, #9, #5, ...

........................................................................
.............................. CYCLE  181 ..............................
........................................................................

 iter      E             dE          RMSdq      gap      omega  full diag
   1   -209.8085950 -0.209809E+03  0.336E-01    0.20       0.0  T
   2   -209.1186596  0.689935E+00  0.327E+00    0.02       1.0  T
   3   -209.8052795 -0.686620E+00  0.354E-01    0.21       1.0  T
   4   -209.8056922 -0.412684E-03  0.304E-01    0.26       1.0  T
   5   -209.8081513 -0.245910E-02  0.226E-01    0.23       1.0  T
   6   -209.8081074  0.438080E-04  0.214E-01    0.22       1.0  T
   7   -209.8095552 -0.144774E-02  0.167E-01    0.20       1.0  T
   8   -209.8106826 -0.112743E-02  0.106E-01    0.18       1.0  T
   9   -209.8112013 -0.518719E-03  0.627E-02    0.16       1.0  T
  10   -209.8114640 -0.262639E-03  0.132E-02    0.15       1.0  T
  11   -209.8114717 -0.773981E-05  0.789E-03    0.15       1.3  T
  12   -209.8114683  0.336449E-05  0.975E-03    0.15       1.0  T
  13   -209.8114738 -0.542972E-05  0.341E-03    0.15       3.0  T
  14   -209.8114743 -0.547912E-06  0.169E-03    0.15       6.0  T
  15   -209.8114744 -0.450413E-07  0.109E-03    0.15       9.3  T
  16   -209.8114744 -0.203353E-07  0.792E-04    0.15      12.8  T
  17   -209.8114744  0.130035E-07  0.738E-04    0.15      13.8  T
     SCC iter.                  ...        0 min,  0.859 sec
     gradient                   ...        0 min,  0.065 sec
 * total energy  :  -207.7376909 Eh     change       -0.1847813E-02 Eh
   gradient norm :     0.0246648 Eh/α   predicted    -0.1944424E-02 (   5.23%)
   displ. norm   :     0.6242544 α      lambda       -0.2822361E-02
   maximum displ.:     0.2449392 α      in ANC's #17, #12, #2, ...

........................................................................
.............................. CYCLE  182 ..............................
........................................................................

 iter      E             dE          RMSdq      gap      omega  full diag
   1   -209.8026921 -0.209803E+03  0.329E-01    0.20       0.0  T
   2   -209.1079494  0.694743E+00  0.326E+00    0.02       1.0  T
   3   -209.8006497 -0.692700E+00  0.286E-01    0.26       1.0  T
   4   -209.8016959 -0.104618E-02  0.242E-01    0.23       1.0  T
   5   -209.8025252 -0.829279E-03  0.201E-01    0.23       1.0  T
   6   -209.8031316 -0.606390E-03  0.176E-01    0.21       1.0  T
   7   -209.8040662 -0.934647E-03  0.131E-01    0.19       1.0  T
   8   -209.8047943 -0.728041E-03  0.818E-02    0.17       1.0  T
   9   -209.8051403 -0.345998E-03  0.427E-02    0.16       1.0  T
  10   -209.8052626 -0.122362E-03  0.816E-03    0.15       1.2  T
  11   -209.8052233  0.393273E-04  0.240E-02    0.15       1.0  T
  12   -209.8052473 -0.240091E-04  0.155E-02    0.15       1.0  T
  13   -209.8052626 -0.153136E-04  0.562E-03    0.15       1.8  T
  14   -209.8052646 -0.193819E-05  0.158E-03    0.15       6.4  T
  15   -209.8052647 -0.123080E-06  0.827E-04    0.15      12.3  T
  16   -209.8052646  0.701035E-07  0.119E-03    0.15       8.5  T
  17   -209.8052647 -0.769175E-07  0.374E-04    0.15      27.2  T
     SCC iter.                  ...        0 min,  0.848 sec
     gradient                   ...        0 min,  0.065 sec
 * total energy  :  -207.7397160 Eh     change       -0.2025047E-02 Eh
   gradient norm :     0.0220836 Eh/α   predicted    -0.1961117E-02 (  -3.16%)
   displ. norm   :     0.6410501 α      lambda       -0.3116451E-02
   maximum displ.:     0.2660079 α      in ANC's #11, #5, #17, ...

........................................................................
.............................. CYCLE  183 ..............................
........................................................................

 iter      E             dE          RMSdq      gap      omega  full diag
   1   -209.8232519 -0.209823E+03  0.367E-01    0.15       0.0  T
   2   -209.8138725  0.937940E-02  0.386E-01    0.10       1.0  T
   3   -209.8130162  0.856364E-03  0.389E-01    0.48       1.0  T
   4   -209.8206742 -0.765805E-02  0.252E-01    0.23       1.0  T
   5   -209.8220346 -0.136035E-02  0.176E-01    0.20       1.0  T
   6   -209.8236274 -0.159281E-02  0.791E-02    0.14       1.0  T
   7   -209.8239693 -0.341935E-03  0.373E-02    0.16       1.0  T
   8   -209.8237356  0.233755E-03  0.639E-02    0.14       1.0  T
   9   -209.8239896 -0.254076E-03  0.203E-02    0.15       1.0  T
  10   -209.8240075 -0.179006E-04  0.123E-02    0.15       1.0  T
  11   -209.8240025  0.499934E-05  0.141E-02    0.15       1.0  T
  12   -209.8240115 -0.899930E-05  0.706E-03    0.15       1.4  T
  13   -209.8240142 -0.264243E-05  0.278E-03    0.15       3.7  T
  14   -209.8240142 -0.415883E-07  0.231E-03    0.15       4.4  T
  15   -209.8240137  0.565382E-06  0.330E-03    0.15       3.1  T
  16   -209.8240142 -0.579906E-06  0.168E-03    0.15       6.0  T
  17   -209.8240144 -0.164810E-06  0.595E-04    0.15      17.1  T
  18   -209.8240144 -0.130041E-07  0.403E-04    0.15      25.2  T
     SCC iter.                  ...        0 min,  0.859 sec
     gradient                   ...        0 min,  0.061 sec
 * total energy  :  -207.7413355 Eh     change       -0.1619494E-02 Eh
   gradient norm :     0.0346529 Eh/α   predicted    -0.2198572E-02 (  35.76%)
   displ. norm   :     0.6735890 α      lambda       -0.2737909E-02
   maximum displ.:     0.2777057 α      in ANC's #12, #11, #2, ...
 * RMSD in coord.:     1.4327998 α      energy gain  -0.4891441E-01 Eh

generating ANC from exact Hessian ...
Using Lindh-Hessian (1995)
 Shifting diagonal of input Hessian by   1.044991676423274E-002
 Lowest  eigenvalues of input Hessian
    0.010000    0.010195    0.010217    0.000000    0.000000    0.000000
    0.000000    0.000000    0.000000    0.010521    0.010677    0.010720
    0.010784    0.010903    0.010945    0.011181    0.011276    0.011606
 Highest eigenvalues
    2.118594    2.139352    2.191667    2.370368    2.515102    3.338570
 

........................................................................
.............................. CYCLE  184 ..............................
........................................................................

 iter      E             dE          RMSdq      gap      omega  full diag
   1   -209.8113325 -0.209811E+03  0.286E-01    0.15       0.0  T
   2   -209.8113346 -0.210657E-05  0.110E-01    0.15       1.0  T
   3   -209.8100658  0.126880E-02  0.147E-01    0.13       1.0  T
   4   -209.8079542  0.211154E-02  0.218E-01    0.25       1.0  T
   5   -209.8115330 -0.357873E-02  0.411E-02    0.15       1.0  T
   6   -209.8115515 -0.185419E-04  0.315E-02    0.16       1.0  T
   7   -209.8115970 -0.454559E-04  0.188E-02    0.15       1.0  T
   8   -209.8116046 -0.759471E-05  0.132E-02    0.15       1.0  T
   9   -209.8116117 -0.711784E-05  0.749E-03    0.15       1.4  T
  10   -209.8116091  0.262279E-05  0.862E-03    0.15       1.2  T
  11   -209.8116133 -0.428849E-05  0.338E-03    0.15       3.0  T
  12   -209.8116129  0.445598E-06  0.353E-03    0.15       2.9  T
  13   -209.8116136 -0.740105E-06  0.139E-03    0.15       7.3  T
  14   -209.8116136  0.624289E-07  0.135E-03    0.15       7.5  T
  15   -209.8116137 -0.805772E-07  0.642E-04    0.15      15.8  T
  16   -209.8116137 -0.627116E-08  0.475E-04    0.15      21.4  T
     SCC iter.                  ...        0 min,  0.709 sec
     gradient                   ...        0 min,  0.069 sec
 * total energy  :  -207.7431801 Eh     change       -0.1844580E-02 Eh
   gradient norm :     0.0319973 Eh/α   predicted     0.0000000E+00 (-100.00%)
   displ. norm   :     0.2776820 α      lambda       -0.2750146E-02
   maximum displ.:     0.1094345 α      in ANC's #11, #36, #16, ...

........................................................................
.............................. CYCLE  185 ..............................
........................................................................

 iter      E             dE          RMSdq      gap      omega  full diag
   1   -209.8175098 -0.209818E+03  0.276E-01    0.21       0.0  T
   2   -209.1301529  0.687357E+00  0.320E+00    0.02       1.0  T
   3   -209.8161091 -0.685956E+00  0.220E-01    0.25       1.0  T
   4   -209.8167816 -0.672558E-03  0.186E-01    0.22       1.0  T
   5   -209.8174209 -0.639252E-03  0.152E-01    0.21       1.0  T
   6   -209.8177716 -0.350681E-03  0.131E-01    0.20       1.0  T
   7   -209.8182899 -0.518301E-03  0.983E-02    0.19       1.0  T
   8   -209.8186052 -0.315315E-03  0.743E-02    0.18       1.0  T
   9   -209.8187742 -0.169024E-03  0.563E-02    0.17       1.0  T
  10   -209.8188999 -0.125646E-03  0.380E-02    0.17       1.0  T
  11   -209.8189958 -0.959686E-04  0.116E-02    0.16       1.0  T
  12   -209.8190046 -0.876000E-05  0.301E-03    0.16       3.4  T
  13   -209.8190047 -0.796952E-07  0.281E-03    0.16       3.6  T
  14   -209.8190052 -0.486404E-06  0.852E-04    0.16      11.9  T
  15   -209.8190052 -0.395468E-08  0.719E-04    0.16      14.1  T
     SCC iter.                  ...        0 min,  0.745 sec
     gradient                   ...        0 min,  0.065 sec
 * total energy  :  -207.7450847 Eh     change       -0.1904636E-02 Eh
   gradient norm :     0.0162408 Eh/α   predicted    -0.1481320E-02 ( -22.23%)
   displ. norm   :     0.4778663 α      lambda       -0.2765111E-02
   maximum displ.:     0.2269153 α      in ANC's #11, #16, #8, ...

........................................................................
.............................. CYCLE  186 ..............................
........................................................................

 iter      E             dE          RMSdq      gap      omega  full diag
   1   -209.8245328 -0.209825E+03  0.342E-01    0.23       0.0  T
   2   -209.0737121  0.750821E+00  0.337E+00    0.02       1.0  T
   3   -209.8236616 -0.749950E+00  0.207E-01    0.27       1.0  T
   4   -209.8245448 -0.883193E-03  0.170E-01    0.23       1.0  T
   5   -209.8248104 -0.265601E-03  0.146E-01    0.23       1.0  T
   6   -209.8249630 -0.152544E-03  0.133E-01    0.23       1.0  T
   7   -209.8253381 -0.375125E-03  0.111E-01    0.21       1.0  T
   8   -209.8256172 -0.279079E-03  0.923E-02    0.20       1.0  T
   9   -209.8257732 -0.155987E-03  0.788E-02    0.20       1.0  T
  10   -209.8259625 -0.189326E-03  0.598E-02    0.19       1.0  T
  11   -209.8261338 -0.171366E-03  0.350E-02    0.18       1.0  T
  12   -209.8262194 -0.855278E-04  0.463E-03    0.17       2.2  T
  13   -209.8262199 -0.484246E-06  0.296E-03    0.17       3.4  T
  14   -209.8262199 -0.225219E-07  0.248E-03    0.17       4.1  T
  15   -209.8262199 -0.330280E-08  0.248E-03    0.17       4.1  T
  16   -209.8262202 -0.303158E-06  0.131E-03    0.17       7.7  T
  17   -209.8262203 -0.111207E-06  0.407E-04    0.17      24.9  T
  18   -209.8262203 -0.540044E-08  0.285E-04    0.17      35.6  T
     SCC iter.                  ...        0 min,  0.782 sec
     gradient                   ...        0 min,  0.064 sec
 * total energy  :  -207.7471902 Eh     change       -0.2105470E-02 Eh
   gradient norm :     0.0232696 Eh/α   predicted    -0.1698275E-02 ( -19.34%)
   displ. norm   :     0.6930474 α      lambda       -0.3546241E-02
   maximum displ.:     0.3315044 α      in ANC's #11, #16, #8, ...

........................................................................
.............................. CYCLE  187 ..............................
........................................................................

 iter      E             dE          RMSdq      gap      omega  full diag
   1   -209.8263821 -0.209826E+03  0.415E-01    0.22       0.0  T
   2   -209.6024913  0.223891E+00  0.176E+00    0.01       1.0  T
   3   -209.8239181 -0.221427E+00  0.249E-01    0.36       1.0  T
   4   -209.8252651 -0.134700E-02  0.193E-01    0.26       1.0  T
   5   -209.8252485  0.165695E-04  0.181E-01    0.31       1.0  T
   6   -209.8256676 -0.419021E-03  0.160E-01    0.28       1.0  T
   7   -209.8259418 -0.274195E-03  0.143E-01    0.27       1.0  T
   8   -209.8263793 -0.437569E-03  0.119E-01    0.25       1.0  T
   9   -209.8266170 -0.237659E-03  0.103E-01    0.24       1.0  T
  10   -209.8267900 -0.173049E-03  0.898E-02    0.23       1.0  T
  11   -209.8270583 -0.268220E-03  0.655E-02    0.21       1.0  T
  12   -209.8273590 -0.300694E-03  0.817E-03    0.19       1.2  T
  13   -209.8273590 -0.210219E-07  0.614E-03    0.19       1.7  T
  14   -209.8273593 -0.374136E-06  0.504E-03    0.18       2.0  T
  15   -209.8273606 -0.129466E-05  0.399E-03    0.18       2.5  T
  16   -209.8273614 -0.767689E-06  0.227E-03    0.18       4.5  T
  17   -209.8273617 -0.292097E-06  0.118E-03    0.18       8.6  T
  18   -209.8273616  0.960323E-07  0.154E-03    0.18       6.6  T
  19   -209.8273618 -0.163508E-06  0.453E-04    0.19      22.4  T
  20   -209.8273618 -0.105859E-07  0.213E-04    0.19      47.8  T
     SCC iter.                  ...        0 min,  0.866 sec
     gradient                   ...        0 min,  0.062 sec
 * total energy  :  -207.7502136 Eh     change       -0.3023449E-02 Eh
   gradient norm :     0.0317171 Eh/α   predicted    -0.2624884E-02 ( -13.18%)
   displ. norm   :     0.7820993 α      lambda       -0.4427426E-02
   maximum displ.:     0.3703817 α      in ANC's #11, #16, #8, ...

........................................................................
.............................. CYCLE  188 ..............................
........................................................................

 iter      E             dE          RMSdq      gap      omega  full diag
   1   -209.8241323 -0.209824E+03  0.431E-01    0.20       0.0  T
   2   -209.8226969  0.143533E-02  0.225E-01    0.15       1.0  T
   3   -209.8175520  0.514494E-02  0.319E-01    0.53       1.0  T
   4   -209.8247116 -0.715959E-02  0.121E-01    0.22       1.0  T
   5   -209.8249285 -0.216907E-03  0.643E-02    0.21       1.0  T
   6   -209.8247667  0.161762E-03  0.670E-02    0.17       1.0  T
   7   -209.8248173 -0.505469E-04  0.625E-02    0.23       1.0  T
   8   -209.8251002 -0.282979E-03  0.185E-02    0.20       1.0  T
   9   -209.8251169 -0.166943E-04  0.106E-02    0.19       1.0  T
  10   -209.8251192 -0.223372E-05  0.799E-03    0.20       1.3  T
  11   -209.8251204 -0.126130E-05  0.479E-03    0.20       2.1  T
  12   -209.8251207 -0.284962E-06  0.316E-03    0.20       3.2  T
  13   -209.8251205  0.234825E-06  0.312E-03    0.20       3.3  T
  14   -209.8251208 -0.344782E-06  0.216E-03    0.20       4.7  T
  15   -209.8251211 -0.290857E-06  0.908E-04    0.20      11.2  T
  16   -209.8251211  0.201160E-08  0.735E-04    0.20      13.8  T
     SCC iter.                  ...        0 min,  0.675 sec
     gradient                   ...        0 min,  0.069 sec
 * total energy  :  -207.7540217 Eh     change       -0.3808059E-02 Eh
   gradient norm :     0.0292775 Eh/α   predicted    -0.3567824E-02 (  -6.31%)
   displ. norm   :     0.6849966 α      lambda       -0.4815160E-02
   maximum displ.:     0.3051929 α      in ANC's #11, #17, #16, ...

........................................................................
.............................. CYCLE  189 ..............................
........................................................................

 iter      E             dE          RMSdq      gap      omega  full diag
   1   -209.8242965 -0.209824E+03  0.414E-01    0.19       0.0  T
   2   -209.8223453  0.195125E-02  0.209E-01    0.15       1.0  T
   3   -209.8138606  0.848467E-02  0.374E-01    0.58       1.0  T
   4   -209.8239271 -0.100665E-01  0.142E-01    0.28       1.0  T
   5   -209.8248349 -0.907826E-03  0.104E-01    0.16       1.0  T
   6   -209.8248750 -0.400721E-04  0.962E-02    0.24       1.0  T
   7   -209.8254134 -0.538347E-03  0.336E-02    0.20       1.0  T
   8   -209.8254620 -0.485930E-04  0.157E-02    0.19       1.0  T
   9   -209.8254701 -0.809980E-05  0.105E-02    0.19       1.0  T
  10   -209.8254738 -0.378217E-05  0.583E-03    0.19       1.7  T
  11   -209.8254743 -0.472435E-06  0.421E-03    0.19       2.4  T
  12   -209.8254738  0.527481E-06  0.427E-03    0.19       2.4  T
  13   -209.8254742 -0.432952E-06  0.303E-03    0.19       3.4  T
  14   -209.8254747 -0.469316E-06  0.165E-03    0.19       6.2  T
  15   -209.8254744  0.323587E-06  0.249E-03    0.19       4.1  T
  16   -209.8254746 -0.281574E-06  0.150E-03    0.19       6.8  T
  17   -209.8254747 -0.787700E-07  0.848E-04    0.19      12.0  T
  18   -209.8254748 -0.478846E-07  0.367E-04    0.19      27.7  T
     SCC iter.                  ...        0 min,  0.742 sec
     gradient                   ...        0 min,  0.058 sec
 * total energy  :  -207.7570979 Eh     change       -0.3076263E-02 Eh
   gradient norm :     0.0305833 Eh/α   predicted    -0.3537265E-02 (  14.99%)
   displ. norm   :     0.5556387 α      lambda       -0.3540243E-02
   maximum displ.:     0.2785230 α      in ANC's #11, #17, #8, ...

........................................................................
.............................. CYCLE  190 ..............................
........................................................................

 iter      E             dE          RMSdq      gap      omega  full diag
   1   -209.8263773 -0.209826E+03  0.297E-01    0.23       0.0  T
   2   -209.6806629  0.145714E+00  0.131E+00    0.04       1.0  T
   3   -209.8256072 -0.144944E+00  0.166E-01    0.30       1.0  T
   4   -209.8256164 -0.917952E-05  0.128E-01    0.29       1.0  T
   5   -209.8263922 -0.775768E-03  0.102E-01    0.25       1.0  T
   6   -209.8263002  0.919426E-04  0.911E-02    0.26       1.0  T
   7   -209.8265371 -0.236928E-03  0.714E-02    0.24       1.0  T
   8   -209.8266680 -0.130859E-03  0.568E-02    0.23       1.0  T
   9   -209.8267633 -0.953425E-04  0.457E-02    0.22       1.0  T
  10   -209.8268383 -0.749322E-04  0.328E-02    0.22       1.0  T
  11   -209.8268983 -0.600311E-04  0.169E-02    0.21       1.0  T
  12   -209.8269171 -0.187428E-04  0.533E-03    0.20       1.9  T
  13   -209.8269189 -0.182267E-05  0.242E-03    0.20       4.2  T
  14   -209.8269184  0.439373E-06  0.318E-03    0.20       3.2  T
  15   -209.8269186 -0.213929E-06  0.254E-03    0.20       4.0  T
  16   -209.8269189 -0.267526E-06  0.176E-03    0.20       5.8  T
  17   -209.8269191 -0.140552E-06  0.110E-03    0.20       9.2  T
  18   -209.8269191 -0.703045E-07  0.470E-04    0.20      21.6  T
  19   -209.8269191 -0.110377E-07  0.214E-04    0.20      47.5  T
     SCC iter.                  ...        0 min,  1.043 sec
     gradient                   ...        0 min,  0.067 sec
 * total energy  :  -207.7597847 Eh     change       -0.2686764E-02 Eh
   gradient norm :     0.0262682 Eh/α   predicted    -0.2316627E-02 ( -13.78%)
   displ. norm   :     0.6111378 α      lambda       -0.4065167E-02
   maximum displ.:     0.3125733 α      in ANC's #11, #17, #8, ...

........................................................................
.............................. CYCLE  191 ..............................
........................................................................

 iter      E             dE          RMSdq      gap      omega  full diag
   1   -209.8305811 -0.209831E+03  0.344E-01    0.15       0.0  T
   2   -209.8249927  0.558841E-02  0.358E-01    0.58       1.0  T
   3   -209.8187339  0.625886E-02  0.384E-01    0.11       1.0  T
   4   -209.8282465 -0.951263E-02  0.242E-01    0.45       1.0  T
   5   -209.8301118 -0.186533E-02  0.183E-01    0.34       1.0  T
   6   -209.8307954 -0.683563E-03  0.155E-01    0.30       1.0  T
   7   -209.8322010 -0.140556E-02  0.768E-02    0.22       1.0  T
   8   -209.8325767 -0.375732E-03  0.231E-02    0.18       1.0  T
   9   -209.8325772 -0.537053E-06  0.190E-02    0.18       1.0  T
  10   -209.8325945 -0.172410E-04  0.112E-02    0.19       1.0  T
  11   -209.8325941  0.374220E-06  0.846E-03    0.19       1.2  T
  12   -209.8325975 -0.346204E-05  0.482E-03    0.19       2.1  T
  13   -209.8325978 -0.283688E-06  0.374E-03    0.19       2.7  T
  14   -209.8325969  0.885678E-06  0.497E-03    0.19       2.0  T
  15   -209.8325982 -0.126365E-05  0.208E-03    0.19       4.9  T
  16   -209.8325984 -0.152572E-06  0.131E-03    0.19       7.8  T
  17   -209.8325984 -0.214359E-07  0.755E-04    0.19      13.5  T
  18   -209.8325984 -0.788251E-08  0.578E-04    0.19      17.6  T
     SCC iter.                  ...        0 min,  0.903 sec
     gradient                   ...        0 min,  0.068 sec
 * total energy  :  -207.7623120 Eh     change       -0.2527306E-02 Eh
   gradient norm :     0.0250746 Eh/α   predicted    -0.2791732E-02 (  10.46%)
   displ. norm   :     0.6919594 α      lambda       -0.2998557E-02
   maximum displ.:     0.3617218 α      in ANC's #11, #8, #16, ...

........................................................................
.............................. CYCLE  192 ..............................
........................................................................

 iter      E             dE          RMSdq      gap      omega  full diag
   1   -209.8345293 -0.209835E+03  0.347E-01    0.21       0.0  T
   2   -209.7711490  0.633803E-01  0.861E-01    0.06       1.0  T
   3   -209.8301758 -0.590268E-01  0.268E-01    0.44       1.0  T
   4   -209.8327132 -0.253746E-02  0.185E-01    0.33       1.0  T
   5   -209.8325916  0.121579E-03  0.166E-01    0.32       1.0  T
   6   -209.8334549 -0.863208E-03  0.143E-01    0.28       1.0  T
   7   -209.8339945 -0.539664E-03  0.106E-01    0.25       1.0  T
   8   -209.8346710 -0.676506E-03  0.530E-02    0.21       1.0  T
   9   -209.8348384 -0.167346E-03  0.264E-02    0.20       1.0  T
  10   -209.8348864 -0.480723E-04  0.744E-03    0.19       1.4  T
  11   -209.8348797  0.674571E-05  0.108E-02    0.18       1.0  T
  12   -209.8348854 -0.566076E-05  0.644E-03    0.18       1.6  T
  13   -209.8348883 -0.294813E-05  0.233E-03    0.19       4.4  T
  14   -209.8348884 -0.489612E-07  0.171E-03    0.19       5.9  T
  15   -209.8348884 -0.571497E-07  0.110E-03    0.19       9.3  T
  16   -209.8348884 -0.218000E-07  0.714E-04    0.19      14.2  T
  17   -209.8348884 -0.706558E-08  0.455E-04    0.19      22.3  T
     SCC iter.                  ...        0 min,  0.870 sec
     gradient                   ...        0 min,  0.080 sec
 * total energy  :  -207.7644325 Eh     change       -0.2120456E-02 Eh
   gradient norm :     0.0254224 Eh/α   predicted    -0.2217149E-02 (   4.56%)
   displ. norm   :     0.5725799 α      lambda       -0.2707942E-02
   maximum displ.:     0.2923166 α      in ANC's #11, #8, #6, ...

........................................................................
.............................. CYCLE  193 ..............................
........................................................................

 iter      E             dE          RMSdq      gap      omega  full diag
   1   -209.8476811 -0.209848E+03  0.327E-01    0.15       0.0  T
   2   -209.8428172  0.486389E-02  0.290E-01    0.45       1.0  T
   3   -209.4264393  0.416378E+00  0.224E+00    0.02       1.0  T
   4   -209.8467985 -0.420359E+00  0.193E-01    0.29       1.0  T
   5   -209.8455844  0.121405E-02  0.192E-01    0.34       1.0  T
   6   -209.8465766 -0.992136E-03  0.176E-01    0.30       1.0  T
   7   -209.8468251 -0.248515E-03  0.160E-01    0.29       1.0  T
   8   -209.8470877 -0.262618E-03  0.147E-01    0.27       1.0  T
   9   -209.8473544 -0.266674E-03  0.135E-01    0.26       1.0  T
  10   -209.8476108 -0.256411E-03  0.122E-01    0.25       1.0  T
  11   -209.8479192 -0.308465E-03  0.104E-01    0.24       1.0  T
  12   -209.8482186 -0.299342E-03  0.838E-02    0.22       1.0  T
  13   -209.8485653 -0.346729E-03  0.507E-02    0.20       1.0  T
  14   -209.8487365 -0.171222E-03  0.224E-02    0.19       1.0  T
  15   -209.8487742 -0.376221E-04  0.324E-03    0.18       3.1  T
  16   -209.8487712  0.299630E-05  0.686E-03    0.18       1.5  T
  17   -209.8487741 -0.294304E-05  0.323E-03    0.18       3.1  T
  18   -209.8487749 -0.787929E-06  0.565E-04    0.18      18.0  T
  19   -209.8487749 -0.290245E-08  0.479E-04    0.18      21.2  T
     SCC iter.                  ...        0 min,  0.919 sec
     gradient                   ...        0 min,  0.067 sec
 * total energy  :  -207.7660478 Eh     change       -0.1615365E-02 Eh
   gradient norm :     0.0176109 Eh/α   predicted    -0.1797871E-02 (  11.30%)
   displ. norm   :     0.6071925 α      lambda       -0.2378932E-02
   maximum displ.:     0.3240721 α      in ANC's #11, #8, #16, ...

........................................................................
.............................. CYCLE  194 ..............................
........................................................................

 iter      E             dE          RMSdq      gap      omega  full diag
   1   -209.8225423 -0.209823E+03  0.624E-01    0.08       0.0  T
   2   -209.7913877  0.311546E-01  0.996E-01    0.52       1.0  T
   3   -209.8348613 -0.434736E-01  0.458E-01    0.64       1.0  T
   4   -209.8413706 -0.650922E-02  0.279E-01    0.41       1.0  T
   5   -209.8465809 -0.521034E-02  0.142E-01    0.18       1.0  T
   6   -209.8468087 -0.227782E-03  0.662E-02    0.18       1.0  T
   7   -209.8469491 -0.140400E-03  0.362E-02    0.16       1.0  T
   8   -209.8470018 -0.527281E-04  0.210E-02    0.17       1.0  T
   9   -209.8470101 -0.829632E-05  0.150E-02    0.17       1.0  T
  10   -209.8470181 -0.799291E-05  0.742E-03    0.17       1.4  T
  11   -209.8470150  0.305724E-05  0.929E-03    0.17       1.1  T
  12   -209.8470195 -0.448209E-05  0.446E-03    0.17       2.3  T
  13   -209.8470204 -0.893351E-06  0.239E-03    0.17       4.2  T
  14   -209.8470206 -0.186819E-06  0.153E-03    0.17       6.6  T
  15   -209.8470206 -0.272678E-07  0.133E-03    0.17       7.6  T
  16   -209.8470205  0.134753E-06  0.178E-03    0.17       5.7  T
  17   -209.8470206 -0.145247E-06  0.111E-03    0.17       9.1  T
  18   -209.8470206  0.547657E-07  0.135E-03    0.17       7.5  T
  19   -209.8470207 -0.116651E-06  0.599E-04    0.17      16.9  T
  20   -209.8470207 -0.160491E-07  0.421E-04    0.17      24.1  T
     SCC iter.                  ...        0 min,  0.938 sec
     gradient                   ...        0 min,  0.069 sec
 * total energy  :  -207.7678191 Eh     change       -0.1771291E-02 Eh
   gradient norm :     0.0133645 Eh/α   predicted    -0.1628005E-02 (  -8.09%)
   displ. norm   :     0.6238984 α      lambda       -0.2161395E-02
   maximum displ.:     0.3388606 α      in ANC's #11, #8, #6, ...

........................................................................
.............................. CYCLE  195 ..............................
........................................................................

 iter      E             dE          RMSdq      gap      omega  full diag
   1   -209.8490631 -0.209849E+03  0.369E-01    0.12       0.0  T
   2   -209.8341304  0.149327E-01  0.532E-01    0.74       1.0  T
   3   -209.8521550 -0.180246E-01  0.191E-01    0.21       1.0  T
   4   -209.8194704  0.326846E-01  0.625E-01    0.07       1.0  T
   5   -209.8485908 -0.291204E-01  0.239E-01    0.32       1.0  T
   6   -209.8510025 -0.241164E-02  0.180E-01    0.24       1.0  T
   7   -209.8521022 -0.109975E-02  0.129E-01    0.21       1.0  T
   8   -209.8527888 -0.686618E-03  0.849E-02    0.19       1.0  T
   9   -209.8531765 -0.387620E-03  0.478E-02    0.18       1.0  T
  10   -209.8533485 -0.171989E-03  0.960E-03    0.16       1.1  T
  11   -209.8533521 -0.366271E-05  0.568E-03    0.16       1.8  T
  12   -209.8533424  0.967331E-05  0.115E-02    0.16       1.0  T
  13   -209.8533535 -0.110132E-04  0.293E-03    0.16       3.5  T
  14   -209.8533537 -0.255042E-06  0.213E-03    0.16       4.8  T
  15   -209.8533538 -0.872095E-07  0.188E-03    0.16       5.4  T
  16   -209.8533538  0.242705E-07  0.188E-03    0.16       5.4  T
  17   -209.8533540 -0.231657E-06  0.822E-04    0.16      12.3  T
  18   -209.8533540 -0.376521E-07  0.442E-04    0.16      23.0  T
     SCC iter.                  ...        0 min,  0.799 sec
     gradient                   ...        0 min,  0.065 sec
 * total energy  :  -207.7694510 Eh     change       -0.1631905E-02 Eh
   gradient norm :     0.0160400 Eh/α   predicted    -0.1501361E-02 (  -8.00%)
   displ. norm   :     0.7122220 α      lambda       -0.2120137E-02
   maximum displ.:     0.3928249 α      in ANC's #11, #8, #6, ...

........................................................................
.............................. CYCLE  196 ..............................
........................................................................

 iter      E             dE          RMSdq      gap      omega  full diag
   1   -209.8351598 -0.209835E+03  0.587E-01    0.09       0.0  T
   2   -209.8005305  0.346293E-01  0.931E-01    0.62       1.0  T
   3   -209.8428669 -0.423364E-01  0.428E-01    0.58       1.0  T
   4   -209.8501773 -0.731039E-02  0.239E-01    0.25       1.0  T
   5   -209.8120241  0.381532E-01  0.659E-01    0.07       1.0  T
   6   -209.8475073 -0.354832E-01  0.288E-01    0.35       1.0  T
   7   -209.8500038 -0.249652E-02  0.222E-01    0.26       1.0  T
   8   -209.8519869 -0.198306E-02  0.154E-01    0.21       1.0  T
   9   -209.8531265 -0.113961E-02  0.101E-01    0.18       1.0  T
  10   -209.8538729 -0.746436E-03  0.325E-02    0.16       1.0  T
  11   -209.8538672  0.575433E-05  0.334E-02    0.15       1.0  T
  12   -209.8539283 -0.610947E-04  0.176E-02    0.15       1.0  T
  13   -209.8539502 -0.219129E-04  0.731E-03    0.16       1.4  T
  14   -209.8539538 -0.361489E-05  0.251E-03    0.16       4.0  T
  15   -209.8539537  0.890776E-07  0.241E-03    0.15       4.2  T
  16   -209.8539540 -0.332564E-06  0.993E-04    0.15      10.2  T
  17   -209.8539536  0.416935E-06  0.235E-03    0.15       4.3  T
  18   -209.8539537 -0.448337E-07  0.214E-03    0.15       4.7  T
  19   -209.8539540 -0.320932E-06  0.935E-04    0.15      10.9  T
     SCC iter.                  ...        0 min,  0.801 sec
     gradient                   ...        0 min,  0.066 sec
 * total energy  :  -207.7711496 Eh     change       -0.1698602E-02 Eh
   gradient norm :     0.0154506 Eh/α   predicted    -0.1597804E-02 (  -5.93%)
   displ. norm   :     0.7223544 α      lambda       -0.2276634E-02
   maximum displ.:     0.3717049 α      in ANC's #11, #8, #6, ...

........................................................................
.............................. CYCLE  197 ..............................
........................................................................

 iter      E             dE          RMSdq      gap      omega  full diag
   1   -209.8414893 -0.209841E+03  0.624E-01    0.08       0.0  T
   2   -209.8031504  0.383389E-01  0.984E-01    0.63       1.0  T
   3   -209.8493211 -0.461708E-01  0.464E-01    0.59       1.0  T
   4   -209.8576464 -0.832528E-02  0.262E-01    0.25       1.0  T
   5   -209.7740493  0.835971E-01  0.974E-01    0.05       1.0  T
   6   -209.8542195 -0.801702E-01  0.323E-01    0.36       1.0  T
   7   -209.8567752 -0.255574E-02  0.265E-01    0.28       1.0  T
   8   -209.8585969 -0.182163E-02  0.212E-01    0.23       1.0  T
   9   -209.8600355 -0.143865E-02  0.167E-01    0.20       1.0  T
  10   -209.8611666 -0.113112E-02  0.117E-01    0.18       1.0  T
  11   -209.8622948 -0.112816E-02  0.181E-02    0.15       1.0  T
  12   -209.8623021 -0.730487E-05  0.155E-02    0.15       1.0  T
  13   -209.8623194 -0.173038E-04  0.467E-03    0.15       2.2  T
  14   -209.8623178  0.161123E-05  0.618E-03    0.15       1.6  T
  15   -209.8623206 -0.281075E-05  0.197E-03    0.15       5.1  T
  16   -209.8623199  0.756673E-06  0.339E-03    0.15       3.0  T
  17   -209.8623207 -0.811573E-06  0.145E-03    0.15       7.0  T
  18   -209.8623208 -0.121597E-06  0.749E-04    0.15      13.6  T
  19   -209.8623208  0.619386E-08  0.775E-04    0.15      13.1  T
     SCC iter.                  ...        0 min,  0.698 sec
     gradient                   ...        0 min,  0.061 sec
 * total energy  :  -207.7730816 Eh     change       -0.1931967E-02 Eh
   gradient norm :     0.0166289 Eh/α   predicted    -0.1732282E-02 ( -10.34%)
   displ. norm   :     0.7599089 α      lambda       -0.2587181E-02
   maximum displ.:     0.3747467 α      in ANC's #11, #8, #6, ...

........................................................................
.............................. CYCLE  198 ..............................
........................................................................

 iter      E             dE          RMSdq      gap      omega  full diag
   1   -209.8575196 -0.209858E+03  0.518E-01    0.10       0.0  T
   2   -209.8290758  0.284438E-01  0.761E-01    0.78       1.0  T
   3   -209.8609453 -0.318695E-01  0.346E-01    0.28       1.0  T
   4   -209.7882541  0.726912E-01  0.958E-01    0.05       1.0  T
   5   -209.8561463 -0.678923E-01  0.359E-01    0.41       1.0  T
   6   -209.8597413 -0.359495E-02  0.316E-01    0.31       1.0  T
   7   -209.8613557 -0.161441E-02  0.271E-01    0.26       1.0  T
   8   -209.8632720 -0.191633E-02  0.220E-01    0.22       1.0  T
   9   -209.8646044 -0.133239E-02  0.178E-01    0.20       1.0  T
  10   -209.8666819 -0.207749E-02  0.737E-02    0.16       1.0  T
  11   -209.8671128 -0.430862E-03  0.130E-02    0.14       1.0  T
  12   -209.8670734  0.394075E-04  0.245E-02    0.14       1.0  T
  13   -209.8671187 -0.453406E-04  0.875E-03    0.15       1.2  T
  14   -209.8671191 -0.379929E-06  0.840E-03    0.14       1.2  T
  15   -209.8671202 -0.116323E-05  0.760E-03    0.15       1.3  T
  16   -209.8671232 -0.291280E-05  0.478E-03    0.15       2.1  T
  17   -209.8671250 -0.188046E-05  0.103E-03    0.15       9.8  T
  18   -209.8671247  0.304736E-06  0.215E-03    0.15       4.7  T
  19   -209.8671251 -0.376716E-06  0.260E-04    0.15      39.0  T
  20   -209.8671251  0.253542E-07  0.576E-04    0.15      17.6  T
     SCC iter.                  ...        0 min,  0.741 sec
     gradient                   ...        0 min,  0.063 sec
 * total energy  :  -207.7753692 Eh     change       -0.2287630E-02 Eh
   gradient norm :     0.0215862 Eh/α   predicted    -0.2040592E-02 ( -10.80%)
   displ. norm   :     0.7475200 α      lambda       -0.3367557E-02
   maximum displ.:     0.3140011 α      in ANC's #11, #8, #6, ...

........................................................................
.............................. CYCLE  199 ..............................
........................................................................

 iter      E             dE          RMSdq      gap      omega  full diag
   1   -209.8701502 -0.209870E+03  0.609E-01    0.09       0.0  T
   2   -209.8379914  0.321588E-01  0.844E-01    0.76       1.0  T
   3   -209.8754755 -0.374841E-01  0.379E-01    0.29       1.0  T
   4   -209.7007085  0.174767E+00  0.147E+00    0.02       1.0  T
   5   -209.8685034 -0.167795E+00  0.402E-01    0.47       1.0  T
   6   -209.8727024 -0.419902E-02  0.360E-01    0.36       1.0  T
   7   -209.8741704 -0.146802E-02  0.324E-01    0.31       1.0  T
   8   -209.8758599 -0.168951E-02  0.289E-01    0.27       1.0  T
   9   -209.8772143 -0.135435E-02  0.255E-01    0.24       1.0  T
  10   -209.8797450 -0.253069E-02  0.181E-01    0.20       1.0  T
  11   -209.8822938 -0.254878E-02  0.468E-02    0.15       1.0  T
  12   -209.8823818 -0.879951E-04  0.307E-02    0.14       1.0  T
  13   -209.8823914 -0.964039E-05  0.293E-02    0.14       1.0  T
  14   -209.8824354 -0.439646E-04  0.166E-02    0.14       1.0  T
  15   -209.8824565 -0.211464E-04  0.482E-03    0.15       2.1  T
  16   -209.8824581 -0.162147E-05  0.166E-03    0.14       6.1  T
  17   -209.8824575  0.591495E-06  0.296E-03    0.15       3.4  T
  18   -209.8824583 -0.723760E-06  0.485E-04    0.15      20.9  T
  19   -209.8824574  0.850526E-06  0.318E-03    0.14       3.2  T
  20   -209.8824581 -0.691281E-06  0.142E-03    0.14       7.2  T
  21   -209.8824582 -0.144801E-06  0.578E-04    0.14      17.6  T
     SCC iter.                  ...        0 min,  0.841 sec
     gradient                   ...        0 min,  0.064 sec
 * total energy  :  -207.7776594 Eh     change       -0.2290167E-02 Eh
   gradient norm :     0.0389303 Eh/α   predicted    -0.2624645E-02 (  14.60%)
   displ. norm   :     0.6834230 α      lambda       -0.3615489E-02
   maximum displ.:     0.2843411 α      in ANC's #11, #8, #6, ...

........................................................................
.............................. CYCLE  200 ..............................
........................................................................

 iter      E             dE          RMSdq      gap      omega  full diag
   1   -209.8522736 -0.209852E+03  0.650E-01    0.09       0.0  T
   2   -209.8155263  0.367473E-01  0.913E-01    0.73       1.0  T
   3   -209.8570814 -0.415551E-01  0.428E-01    0.33       1.0  T
   4   -209.6842924  0.172789E+00  0.148E+00    0.03       1.0  T
   5   -209.8502488 -0.165956E+00  0.438E-01    0.49       1.0  T
   6   -209.8556932 -0.544443E-02  0.382E-01    0.35       1.0  T
   7   -209.8576212 -0.192796E-02  0.334E-01    0.29       1.0  T
   8   -209.8592406 -0.161943E-02  0.300E-01    0.26       1.0  T
   9   -209.8608549 -0.161430E-02  0.262E-01    0.23       1.0  T
  10   -209.8637716 -0.291667E-02  0.177E-01    0.19       1.0  T
  11   -209.8663271 -0.255546E-02  0.118E-02    0.14       1.0  T
  12   -209.8662760  0.510550E-04  0.261E-02    0.14       1.0  T
  13   -209.8663276 -0.515708E-04  0.664E-03    0.15       1.5  T
  14   -209.8663257  0.186763E-05  0.828E-03    0.14       1.2  T
  15   -209.8663247  0.102769E-05  0.915E-03    0.15       1.1  T
  16   -209.8663293 -0.464670E-05  0.496E-03    0.15       2.0  T
  17   -209.8663300 -0.615509E-06  0.418E-03    0.15       2.4  T
  18   -209.8663306 -0.596151E-06  0.317E-03    0.14       3.2  T
  19   -209.8663314 -0.830846E-06  0.371E-04    0.14      27.4  T
  20   -209.8663309  0.447555E-06  0.230E-03    0.14       4.4  T
  21   -209.8663313 -0.401552E-06  0.783E-04    0.14      13.0  T
     SCC iter.                  ...        0 min,  0.685 sec
     gradient                   ...        0 min,  0.068 sec
 * total energy  :  -207.7799096 Eh     change       -0.2250195E-02 Eh
   gradient norm :     0.0360417 Eh/α   predicted    -0.2652085E-02 (  17.86%)
   displ. norm   :     0.5982236 α      lambda       -0.3143844E-02
   maximum displ.:     0.2434369 α      in ANC's #11, #8, #6, ...

........................................................................
.............................. CYCLE  201 ..............................
........................................................................

 iter      E             dE          RMSdq      gap      omega  full diag
   1   -209.8111530 -0.209811E+03  0.101E+00    0.06       0.0  T
   2   -209.7372750  0.738780E-01  0.156E+00    0.40       1.0  T
   3   -209.8366071 -0.993321E-01  0.757E-01    0.77       1.0  T
   4   -209.8545700 -0.179628E-01  0.473E-01    0.48       1.0  T
   5   -209.8708654 -0.162954E-01  0.166E-01    0.14       1.0  T
   6   -209.8646553  0.621013E-02  0.298E-01    0.22       1.0  T
   7   -209.8695239 -0.486861E-02  0.149E-01    0.12       1.0  T
   8   -209.8658329  0.369099E-02  0.260E-01    0.22       1.0  T
   9   -209.8712568 -0.542395E-02  0.381E-02    0.15       1.0  T
  10   -209.8710358  0.221003E-03  0.638E-02    0.15       1.0  T
  11   -209.8711489 -0.113075E-03  0.501E-02    0.15       1.0  T
  12   -209.8712940 -0.145082E-03  0.264E-02    0.15       1.0  T
  13   -209.8713448 -0.507753E-04  0.914E-03    0.14       1.1  T
  14   -209.8713416  0.319288E-05  0.107E-02    0.14       1.0  T
  15   -209.8713488 -0.727744E-05  0.431E-03    0.14       2.4  T
  16   -209.8713495 -0.670897E-06  0.299E-03    0.14       3.4  T
  17   -209.8713471  0.243004E-05  0.626E-03    0.14       1.6  T
  18   -209.8713500 -0.292929E-05  0.162E-03    0.14       6.3  T
  19   -209.8713501 -0.122539E-06  0.855E-04    0.14      11.9  T
  20   -209.8713502 -0.374891E-07  0.523E-04    0.14      19.4  T
     SCC iter.                  ...        0 min,  0.760 sec
     gradient                   ...        0 min,  0.065 sec
 * total energy  :  -207.7821401 Eh     change       -0.2230549E-02 Eh
   gradient norm :     0.0350288 Eh/α   predicted    -0.2134472E-02 (  -4.31%)
   displ. norm   :     0.5445173 α      lambda       -0.3781817E-02
   maximum displ.:     0.1630148 α      in ANC's #8, #11, #37, ...

........................................................................
.............................. CYCLE  202 ..............................
........................................................................

 iter      E             dE          RMSdq      gap      omega  full diag
   1   -209.4774694 -0.209477E+03  0.239E+00    0.01       0.0  T
   2   -206.6317362  0.284573E+01  0.772E+00    0.11       1.0  T
   3   -209.5586021 -0.292687E+01  0.265E+00    0.77       1.0  T
   4   -209.7865288 -0.227927E+00  0.146E+00    0.63       1.0  T
   5   -209.8145727 -0.280439E-01  0.105E+00    0.89       1.0  T
   6   -209.8399583 -0.253856E-01  0.828E-01    0.83       1.0  T
   7   -209.8557469 -0.157887E-01  0.594E-01    0.48       1.0  T
   8   -209.8651703 -0.942339E-02  0.403E-01    0.27       1.0  T
   9   -209.8745165 -0.934613E-02  0.211E-01    0.17       1.0  T
  10   -209.8762575 -0.174108E-02  0.979E-02    0.15       1.0  T
  11   -209.8357863  0.404713E-01  0.726E-01    0.07       1.0  T
  12   -209.8703160 -0.345297E-01  0.294E-01    0.21       1.0  T
  13   -209.8766318 -0.631583E-02  0.569E-02    0.13       1.0  T
  14   -209.8752817  0.135008E-02  0.146E-01    0.16       1.0  T
  15   -209.8765887 -0.130702E-02  0.626E-02    0.15       1.0  T
  16   -209.8768498 -0.261087E-03  0.238E-02    0.13       1.0  T
  17   -209.8767966  0.532281E-04  0.348E-02    0.13       1.0  T
  18   -209.8768333 -0.366832E-04  0.272E-02    0.13       1.0  T
  19   -209.8768886 -0.553068E-04  0.914E-03    0.13       1.1  T
  20   -209.8768695  0.191194E-04  0.179E-02    0.13       1.0  T
  21   -209.8768821 -0.126325E-04  0.127E-02    0.13       1.0  T
  22   -209.8768911 -0.904396E-05  0.695E-03    0.13       1.5  T
  23   -209.8768931 -0.196372E-05  0.486E-03    0.13       2.1  T
  24   -209.8768946 -0.148935E-05  0.207E-03    0.14       4.9  T
  25   -209.8768949 -0.286008E-06  0.691E-04    0.14      14.7  T
  26   -209.8768949 -0.232211E-07  0.318E-04    0.14      31.9  T
     SCC iter.                  ...        0 min,  1.325 sec
     gradient                   ...        0 min,  0.084 sec
 * total energy  :  -207.7846237 Eh     change       -0.2483577E-02 Eh
   gradient norm :     0.0182289 Eh/α   predicted    -0.2451562E-02 (  -1.29%)
   displ. norm   :     0.6404549 α      lambda       -0.2892310E-02
   maximum displ.:     0.1774542 α      in ANC's #8, #37, #13, ...

........................................................................
.............................. CYCLE  203 ..............................
........................................................................

 iter      E             dE          RMSdq      gap      omega  full diag
   1   -209.7553175 -0.209755E+03  0.147E+00    0.04       0.0  T
   2   -209.5479451  0.207372E+00  0.233E+00    0.08       1.0  T
   3   -209.8098078 -0.261863E+00  0.115E+00    1.05       1.0  T
   4   -209.8434097 -0.336019E-01  0.758E-01    0.71       1.0  T
   5   -209.8568924 -0.134827E-01  0.575E-01    0.37       1.0  T
   6   -209.8747676 -0.178752E-01  0.184E-01    0.12       1.0  T
   7   -209.8582921  0.164755E-01  0.522E-01    0.32       1.0  T
   8   -209.8749161 -0.166240E-01  0.162E-01    0.11       1.0  T
   9   -209.8743633  0.552787E-03  0.194E-01    0.16       1.0  T
  10   -209.8495616  0.248017E-01  0.593E-01    0.08       1.0  T
  11   -209.8756839 -0.261222E-01  0.127E-01    0.15       1.0  T
  12   -209.8764035 -0.719652E-03  0.858E-02    0.15       1.0  T
  13   -209.8763121  0.913863E-04  0.917E-02    0.15       1.0  T
  14   -209.8767528 -0.440642E-03  0.518E-02    0.14       1.0  T
  15   -209.8769610 -0.208242E-03  0.531E-03    0.13       1.9  T
  16   -209.8768515  0.109465E-03  0.381E-02    0.13       1.0  T
  17   -209.8768408  0.107635E-04  0.396E-02    0.13       1.0  T
  18   -209.8769267 -0.858987E-04  0.215E-02    0.13       1.0  T
  19   -209.8769586 -0.319051E-04  0.722E-03    0.13       1.4  T
  20   -209.8769622 -0.364340E-05  0.182E-03    0.13       5.6  T
  21   -209.8769625 -0.237118E-06  0.415E-04    0.13      24.5  T
  22   -209.8769624  0.995769E-07  0.116E-03    0.13       8.8  T
  23   -209.8769624 -0.418327E-07  0.891E-04    0.13      11.4  T
     SCC iter.                  ...        0 min,  0.773 sec
     gradient                   ...        0 min,  0.061 sec
 * total energy  :  -207.7868167 Eh     change       -0.2192986E-02 Eh
   gradient norm :     0.0173728 Eh/α   predicted    -0.2039342E-02 (  -7.01%)
   displ. norm   :     0.6054352 α      lambda       -0.2600628E-02
   maximum displ.:     0.1756356 α      in ANC's #8, #37, #26, ...

........................................................................
.............................. CYCLE  204 ..............................
........................................................................

 iter      E             dE          RMSdq      gap      omega  full diag
   1   -209.4957510 -0.209496E+03  0.242E+00    0.01       0.0  T
   2   -206.9384418  0.255731E+01  0.715E+00    0.06       1.0  T
   3   -209.5729504 -0.263451E+01  0.259E+00    0.83       1.0  T
   4   -209.7819433 -0.208993E+00  0.150E+00    0.72       1.0  T
   5   -209.8056114 -0.236681E-01  0.112E+00    0.94       1.0  T
   6   -209.8297302 -0.241188E-01  0.906E-01    0.81       1.0  T
   7   -209.8487637 -0.190336E-01  0.644E-01    0.36       1.0  T
   8   -209.8609485 -0.121848E-01  0.413E-01    0.21       1.0  T
   9   -209.8647303 -0.378185E-02  0.291E-01    0.10       1.0  T
  10   -209.8560460  0.868438E-02  0.485E-01    0.25       1.0  T
  11   -209.8664517 -0.104057E-01  0.276E-01    0.10       1.0  T
  12   -209.8689320 -0.248036E-02  0.219E-01    0.16       1.0  T
  13   -209.8720671 -0.313507E-02  0.425E-02    0.13       1.0  T
  14   -209.8708161  0.125099E-02  0.138E-01    0.15       1.0  T
  15   -209.8719373 -0.112117E-02  0.545E-02    0.12       1.0  T
  16   -209.8719121  0.252087E-04  0.571E-02    0.12       1.0  T
  17   -209.8721579 -0.245869E-03  0.893E-03    0.13       1.1  T
  18   -209.8721641 -0.618337E-05  0.307E-03    0.13       3.3  T
  19   -209.8721533  0.108371E-04  0.128E-02    0.13       1.0  T
  20   -209.8721065  0.467745E-04  0.283E-02    0.12       1.0  T
  21   -209.8721641 -0.575991E-04  0.334E-03    0.13       3.0  T
  22   -209.8721644 -0.324953E-06  0.257E-03    0.13       4.0  T
  23   -209.8721644  0.630864E-07  0.273E-03    0.13       3.7  T
  24   -209.8721648 -0.414638E-06  0.716E-04    0.13      14.2  T
  25   -209.8721648 -0.330001E-07  0.273E-04    0.13      37.2  T
     SCC iter.                  ...        0 min,  0.720 sec
     gradient                   ...        0 min,  0.057 sec
 * total energy  :  -207.7884984 Eh     change       -0.1681689E-02 Eh
   gradient norm :     0.0273081 Eh/α   predicted    -0.1776950E-02 (   5.66%)
   displ. norm   :     0.4430617 α      lambda       -0.2234356E-02
   maximum displ.:     0.1377027 α      in ANC's #9, #8, #37, ...

........................................................................
.............................. CYCLE  205 ..............................
........................................................................

 iter      E             dE          RMSdq      gap      omega  full diag
   1   -209.8784522 -0.209878E+03  0.504E-01    0.10       0.0  T
   2   -209.8333404  0.451118E-01  0.845E-01    0.84       1.0  T
   3   -209.8315063  0.183405E-02  0.816E-01    0.06       1.0  T
   4   -209.8569891 -0.254828E-01  0.640E-01    0.49       1.0  T
   5   -209.8625949 -0.560580E-02  0.559E-01    0.36       1.0  T
   6   -209.8715736 -0.897877E-02  0.440E-01    0.23       1.0  T
   7   -209.8831930 -0.116193E-01  0.168E-01    0.15       1.0  T
   8   -209.8826091  0.583835E-03  0.192E-01    0.11       1.0  T
   9   -209.8851054 -0.249623E-02  0.354E-02    0.12       1.0  T
  10   -209.8848853  0.220016E-03  0.664E-02    0.13       1.0  T
  11   -209.8849698 -0.844284E-04  0.577E-02    0.13       1.0  T
  12   -209.8851815 -0.211691E-03  0.144E-02    0.13       1.0  T
  13   -209.8849023  0.279166E-03  0.637E-02    0.12       1.0  T
  14   -209.8851890 -0.286680E-03  0.968E-03    0.12       1.0  T
  15   -209.8851955 -0.652447E-05  0.229E-03    0.13       4.4  T
  16   -209.8851949  0.633358E-06  0.365E-03    0.13       2.8  T
  17   -209.8851932  0.170903E-05  0.603E-03    0.12       1.7  T
  18   -209.8851957 -0.252795E-05  0.659E-04    0.13      15.4  T
  19   -209.8851953  0.402378E-06  0.237E-03    0.13       4.3  T
  20   -209.8851957 -0.417027E-06  0.316E-04    0.13      32.1  T
  21   -209.8851957  0.693419E-08  0.406E-04    0.13      25.0  T
     SCC iter.                  ...        0 min,  0.545 sec
     gradient                   ...        0 min,  0.057 sec
 * total energy  :  -207.7896127 Eh     change       -0.1114302E-02 Eh
   gradient norm :     0.0174913 Eh/α   predicted    -0.1336487E-02 (  19.94%)
   displ. norm   :     0.4274241 α      lambda       -0.1475371E-02
   maximum displ.:     0.1546736 α      in ANC's #8, #9, #23, ...

........................................................................
.............................. CYCLE  206 ..............................
........................................................................

 iter      E             dE          RMSdq      gap      omega  full diag
   1   -209.8382743 -0.209838E+03  0.782E-01    0.06       0.0  T
   2   -209.7527880  0.854863E-01  0.142E+00    0.60       1.0  T
   3   -209.8357781 -0.829901E-01  0.807E-01    0.75       1.0  T
   4   -209.8534780 -0.176999E-01  0.563E-01    0.34       1.0  T
   5   -209.8760031 -0.225251E-01  0.111E-01    0.13       1.0  T
   6   -209.8713124  0.469075E-02  0.261E-01    0.16       1.0  T
   7   -209.8471043  0.242081E-01  0.640E-01    0.07       1.0  T
   8   -209.8737924 -0.266881E-01  0.185E-01    0.15       1.0  T
   9   -209.8753695 -0.157714E-02  0.110E-01    0.11       1.0  T
  10   -209.8760228 -0.653286E-03  0.583E-02    0.13       1.0  T
  11   -209.8760551 -0.323089E-04  0.536E-02    0.13       1.0  T
  12   -209.8761647 -0.109610E-03  0.366E-02    0.13       1.0  T
  13   -209.8762582 -0.935340E-04  0.792E-03    0.12       1.3  T
  14   -209.8762620 -0.374514E-05  0.243E-03    0.12       4.2  T
  15   -209.8762607  0.125601E-05  0.472E-03    0.12       2.1  T
  16   -209.8762616 -0.835481E-06  0.331E-03    0.12       3.1  T
  17   -209.8762617 -0.126845E-06  0.299E-03    0.12       3.4  T
  18   -209.8762616  0.697134E-07  0.308E-03    0.12       3.3  T
  19   -209.8762621 -0.511530E-06  0.157E-03    0.12       6.4  T
  20   -209.8762623 -0.172149E-06  0.243E-04    0.12      41.8  T
  21   -209.8762622  0.109053E-06  0.125E-03    0.12       8.1  T
  22   -209.8762623 -0.886124E-07  0.571E-04    0.12      17.8  T
     SCC iter.                  ...        0 min,  0.591 sec
     gradient                   ...        0 min,  0.057 sec
 * total energy  :  -207.7904141 Eh     change       -0.8013718E-03 Eh
   gradient norm :     0.0146597 Eh/α   predicted    -0.8724598E-03 (   8.87%)
   displ. norm   :     0.4414834 α      lambda       -0.1761087E-02
   maximum displ.:     0.2317977 α      in ANC's #11, #9, #26, ...

........................................................................
.............................. CYCLE  207 ..............................
........................................................................

 iter      E             dE          RMSdq      gap      omega  full diag
   1   -209.8791814 -0.209879E+03  0.470E-01    0.18       0.0  T
   2   -206.9380484  0.294113E+01  0.657E+00    0.16       1.0  T
   3   -209.8732855 -0.293524E+01  0.420E-01    0.22       1.0  T
   4   -209.8696260  0.365959E-02  0.421E-01    0.26       1.0  T
   5   -209.8771754 -0.754948E-02  0.324E-01    0.19       1.0  T
   6   -209.8821940 -0.501854E-02  0.205E-01    0.16       1.0  T
   7   -209.8840901 -0.189608E-02  0.144E-01    0.15       1.0  T
   8   -209.8846707 -0.580606E-03  0.121E-01    0.14       1.0  T
   9   -209.8846505  0.201475E-04  0.125E-01    0.14       1.0  T
  10   -209.8857986 -0.114812E-02  0.313E-02    0.12       1.0  T
  11   -209.8857185  0.801197E-04  0.404E-02    0.13       1.0  T
  12   -209.8858167 -0.982289E-04  0.240E-02    0.12       1.0  T
  13   -209.8858125  0.424079E-05  0.164E-02    0.13       1.0  T
  14   -209.8858285 -0.159946E-04  0.736E-03    0.12       1.4  T
  15   -209.8858293 -0.795981E-06  0.436E-03    0.12       2.3  T
  16   -209.8858295 -0.226529E-06  0.269E-03    0.12       3.8  T
  17   -209.8858286  0.906597E-06  0.393E-03    0.12       2.6  T
  18   -209.8858297 -0.106572E-05  0.267E-03    0.12       3.8  T
  19   -209.8858294  0.311741E-06  0.256E-03    0.12       4.0  T
  20   -209.8858295 -0.125505E-06  0.205E-03    0.12       4.9  T
  21   -209.8858298 -0.334314E-06  0.610E-04    0.12      16.7  T
  22   -209.8858298 -0.130241E-07  0.189E-04    0.12      53.8  T
     SCC iter.                  ...        0 min,  0.585 sec
     gradient                   ...        0 min,  0.057 sec
 * total energy  :  -207.7909974 Eh     change       -0.5833250E-03 Eh
   gradient norm :     0.0274199 Eh/α   predicted    -0.1052170E-02 (  80.37%)
   displ. norm   :     0.3757835 α      lambda       -0.1721334E-02
   maximum displ.:     0.1434961 α      in ANC's #8, #3, #1, ...

........................................................................
.............................. CYCLE  208 ..............................
........................................................................

 iter      E             dE          RMSdq      gap      omega  full diag
   1   -209.8749815 -0.209875E+03  0.355E-01    0.19       0.0  T
   2   -206.8980857  0.297690E+01  0.661E+00    0.15       1.0  T
   3   -209.8783512 -0.298027E+01  0.232E-01    0.16       1.0  T
   4   -209.8717269  0.662436E-02  0.324E-01    0.22       1.0  T
   5   -209.8791615 -0.743467E-02  0.170E-01    0.16       1.0  T
   6   -209.8812369 -0.207539E-02  0.709E-02    0.14       1.0  T
   7   -209.8815730 -0.336069E-03  0.518E-02    0.13       1.0  T
   8   -209.8815661  0.690403E-05  0.541E-02    0.13       1.0  T
   9   -209.8815654  0.628085E-06  0.555E-02    0.13       1.0  T
  10   -209.8815845 -0.190672E-04  0.188E-02    0.13       1.0  T
  11   -209.8815847 -0.165426E-06  0.137E-02    0.13       1.0  T
  12   -209.8815948 -0.101180E-04  0.640E-03    0.13       1.6  T
  13   -209.8815915  0.334370E-05  0.866E-03    0.13       1.2  T
  14   -209.8815957 -0.427458E-05  0.339E-03    0.13       3.0  T
  15   -209.8815951  0.649877E-06  0.417E-03    0.13       2.4  T
  16   -209.8815959 -0.828200E-06  0.162E-03    0.13       6.3  T
  17   -209.8815960 -0.657654E-07  0.160E-03    0.13       6.3  T
  18   -209.8815960 -0.350580E-07  0.102E-03    0.13       9.9  T
  19   -209.8815960 -0.313247E-08  0.583E-04    0.13      17.4  T
  20   -209.8815960 -0.197678E-07  0.420E-04    0.13      24.2  T
     SCC iter.                  ...        0 min,  0.542 sec
     gradient                   ...        0 min,  0.056 sec
 * total energy  :  -207.7917417 Eh     change       -0.7442875E-03 Eh
   gradient norm :     0.0186746 Eh/α   predicted    -0.9822063E-03 (  31.97%)
   displ. norm   :     0.3784678 α      lambda       -0.1892123E-02
   maximum displ.:     0.1673262 α      in ANC's #11, #9, #23, ...

........................................................................
.............................. CYCLE  209 ..............................
........................................................................

 iter      E             dE          RMSdq      gap      omega  full diag
   1   -209.8878120 -0.209888E+03  0.354E-01    0.11       0.0  T
   2   -209.8623167  0.254953E-01  0.609E-01    0.54       1.0  T
   3   -209.3512769  0.511040E+00  0.278E+00    0.01       1.0  T
   4   -209.8806887 -0.529412E+00  0.390E-01    0.24       1.0  T
   5   -209.8751631  0.552567E-02  0.459E-01    0.30       1.0  T
   6   -209.8765810 -0.141798E-02  0.428E-01    0.28       1.0  T
   7   -209.8798202 -0.323918E-02  0.381E-01    0.24       1.0  T
   8   -209.8816854 -0.186518E-02  0.341E-01    0.21       1.0  T
   9   -209.8827298 -0.104445E-02  0.316E-01    0.20       1.0  T
  10   -209.8855092 -0.277932E-02  0.244E-01    0.18       1.0  T
  11   -209.8881814 -0.267227E-02  0.146E-01    0.16       1.0  T
  12   -209.8896758 -0.149434E-02  0.775E-03    0.13       1.3  T
  13   -209.8894888  0.187004E-03  0.510E-02    0.12       1.0  T
  14   -209.8896651 -0.176365E-03  0.135E-02    0.13       1.0  T
  15   -209.8896741 -0.897263E-05  0.658E-03    0.13       1.5  T
  16   -209.8896769 -0.277446E-05  0.167E-03    0.13       6.1  T
  17   -209.8896769 -0.101916E-07  0.136E-03    0.13       7.4  T
  18   -209.8896769 -0.370140E-07  0.955E-04    0.13      10.6  T
  19   -209.8896770 -0.265003E-07  0.535E-04    0.13      19.0  T
     SCC iter.                  ...        0 min,  0.520 sec
     gradient                   ...        0 min,  0.056 sec
 * total energy  :  -207.7923052 Eh     change       -0.5635088E-03 Eh
   gradient norm :     0.0270309 Eh/α   predicted    -0.1081574E-02 (  91.94%)
   displ. norm   :     0.3070686 α      lambda       -0.1529621E-02
   maximum displ.:     0.1141933 α      in ANC's #3, #9, #8, ...

........................................................................
.............................. CYCLE  210 ..............................
........................................................................

 iter      E             dE          RMSdq      gap      omega  full diag
   1   -209.8573628 -0.209857E+03  0.750E-01    0.07       0.0  T
   2   -209.7842797  0.730831E-01  0.133E+00    0.58       1.0  T
   3   -209.8585458 -0.742661E-01  0.730E-01    0.68       1.0  T
   4   -209.8735578 -0.150119E-01  0.491E-01    0.32       1.0  T
   5   -209.8897862 -0.162285E-01  0.974E-02    0.12       1.0  T
   6   -209.8861182  0.366799E-02  0.234E-01    0.17       1.0  T
   7   -209.8812133  0.490498E-02  0.355E-01    0.09       1.0  T
   8   -209.8880081 -0.679482E-02  0.170E-01    0.16       1.0  T
   9   -209.8899266 -0.191849E-02  0.417E-02    0.13       1.0  T
  10   -209.8900305 -0.103977E-03  0.107E-02    0.13       1.0  T
  11   -209.8897909  0.239639E-03  0.585E-02    0.14       1.0  T
  12   -209.8900287 -0.237824E-03  0.997E-03    0.13       1.0  T
  13   -209.8900220  0.668602E-05  0.134E-02    0.13       1.0  T
  14   -209.8900340 -0.119358E-04  0.397E-03    0.13       2.6  T
  15   -209.8900347 -0.718285E-06  0.225E-03    0.13       4.5  T
  16   -209.8900349 -0.250733E-06  0.124E-03    0.13       8.2  T
  17   -209.8900350 -0.611416E-07  0.632E-04    0.13      16.1  T
  18   -209.8900350 -0.750839E-08  0.446E-04    0.13      22.8  T
     SCC iter.                  ...        0 min,  0.498 sec
     gradient                   ...        0 min,  0.057 sec
 * total energy  :  -207.7932307 Eh     change       -0.9255162E-03 Eh
   gradient norm :     0.0147076 Eh/α   predicted    -0.8369305E-03 (  -9.57%)
   displ. norm   :     0.4846294 α      lambda       -0.1351768E-02
   maximum displ.:     0.1887718 α      in ANC's #3, #9, #1, ...

........................................................................
.............................. CYCLE  211 ..............................
........................................................................

 iter      E             dE          RMSdq      gap      omega  full diag
   1   -209.8746161 -0.209875E+03  0.413E-01    0.10       0.0  T
   2   -209.8378352  0.367809E-01  0.760E-01    0.78       1.0  T
   3   -209.8616946 -0.238594E-01  0.471E-01    0.08       1.0  T
   4   -209.8584918  0.320282E-02  0.551E-01    0.40       1.0  T
   5   -209.8630824 -0.459062E-02  0.481E-01    0.30       1.0  T
   6   -209.8666583 -0.357582E-02  0.426E-01    0.25       1.0  T
   7   -209.8773593 -0.107010E-01  0.163E-01    0.15       1.0  T
   8   -209.8766487  0.710572E-03  0.201E-01    0.11       1.0  T
   9   -209.8792426 -0.259390E-02  0.292E-02    0.13       1.0  T
  10   -209.8790514  0.191283E-03  0.585E-02    0.14       1.0  T
  11   -209.8791128 -0.614102E-04  0.488E-02    0.13       1.0  T
  12   -209.8791954 -0.825911E-04  0.320E-02    0.13       1.0  T
  13   -209.8791975 -0.212981E-05  0.325E-02    0.12       1.0  T
  14   -209.8792626 -0.650760E-04  0.928E-03    0.13       1.1  T
  15   -209.8792510  0.116020E-04  0.155E-02    0.13       1.0  T
  16   -209.8792601 -0.910111E-05  0.107E-02    0.13       1.0  T
  17   -209.8792635 -0.346856E-05  0.808E-03    0.13       1.3  T
  18   -209.8792679 -0.440220E-05  0.111E-03    0.13       9.2  T
  19   -209.8792676  0.316260E-06  0.233E-03    0.13       4.4  T
  20   -209.8792679 -0.321315E-06  0.904E-04    0.13      11.2  T
  21   -209.8792680 -0.462489E-07  0.394E-04    0.13      25.8  T
     SCC iter.                  ...        0 min,  0.580 sec
     gradient                   ...        0 min,  0.059 sec
 * total energy  :  -207.7941097 Eh     change       -0.8790343E-03 Eh
   gradient norm :     0.0183926 Eh/α   predicted    -0.8346233E-03 (  -5.05%)
   displ. norm   :     0.5423722 α      lambda       -0.1396667E-02
   maximum displ.:     0.2078893 α      in ANC's #3, #9, #11, ...

........................................................................
.............................. CYCLE  212 ..............................
........................................................................

 iter      E             dE          RMSdq      gap      omega  full diag
   1   -209.8866880 -0.209887E+03  0.380E-01    0.11       0.0  T
   2   -209.8600108  0.266772E-01  0.635E-01    0.58       1.0  T
   3   -209.3177099  0.542301E+00  0.289E+00    0.01       1.0  T
   4   -209.8774799 -0.559770E+00  0.439E-01    0.26       1.0  T
   5   -209.8728209  0.465903E-02  0.486E-01    0.32       1.0  T
   6   -209.8746341 -0.181322E-02  0.454E-01    0.29       1.0  T
   7   -209.8776824 -0.304826E-02  0.410E-01    0.25       1.0  T
   8   -209.8796620 -0.197964E-02  0.369E-01    0.22       1.0  T
   9   -209.8810982 -0.143622E-02  0.336E-01    0.21       1.0  T
  10   -209.8849122 -0.381399E-02  0.240E-01    0.18       1.0  T
  11   -209.8880016 -0.308939E-02  0.110E-01    0.15       1.0  T
  12   -209.8883513 -0.349670E-03  0.840E-02    0.12       1.0  T
  13   -209.8880598  0.291473E-03  0.104E-01    0.12       1.0  T
  14   -209.8887235 -0.663727E-03  0.407E-02    0.13       1.0  T
  15   -209.8887896 -0.660711E-04  0.261E-02    0.13       1.0  T
  16   -209.8888357 -0.460628E-04  0.331E-03    0.13       3.1  T
  17   -209.8888357 -0.704342E-07  0.265E-03    0.13       3.8  T
  18   -209.8888356  0.161394E-06  0.308E-03    0.13       3.3  T
  19   -209.8888358 -0.233885E-06  0.222E-03    0.13       4.6  T
  20   -209.8888360 -0.235569E-06  0.113E-03    0.13       9.0  T
  21   -209.8888361 -0.658304E-07  0.579E-04    0.13      17.5  T
  22   -209.8888361  0.156007E-08  0.601E-04    0.13      16.9  T
     SCC iter.                  ...        0 min,  0.658 sec
     gradient                   ...        0 min,  0.057 sec
 * total energy  :  -207.7950953 Eh     change       -0.9855523E-03 Eh
   gradient norm :     0.0217512 Eh/α   predicted    -0.9037664E-03 (  -8.30%)
   displ. norm   :     0.6414572 α      lambda       -0.1984158E-02
   maximum displ.:     0.2648106 α      in ANC's #3, #9, #1, ...

........................................................................
.............................. CYCLE  213 ..............................
........................................................................

 iter      E             dE          RMSdq      gap      omega  full diag
   1   -209.8808087 -0.209881E+03  0.437E-01    0.11       0.0  T
   2   -209.8506626  0.301461E-01  0.712E-01    0.70       1.0  T
   3   -209.5858521  0.264810E+00  0.206E+00    0.01       1.0  T
   4   -209.8704203 -0.284568E+00  0.480E-01    0.33       1.0  T
   5   -209.8673010  0.311932E-02  0.503E-01    0.36       1.0  T
   6   -209.8699638 -0.266279E-02  0.462E-01    0.31       1.0  T
   7   -209.8731767 -0.321287E-02  0.412E-01    0.26       1.0  T
   8   -209.8748144 -0.163769E-02  0.377E-01    0.23       1.0  T
   9   -209.8766591 -0.184473E-02  0.335E-01    0.21       1.0  T
  10   -209.8810545 -0.439543E-02  0.221E-01    0.17       1.0  T
  11   -209.8839858 -0.293131E-02  0.750E-02    0.14       1.0  T
  12   -209.8837612  0.224634E-03  0.939E-02    0.12       1.0  T
  13   -209.8843431 -0.581895E-03  0.149E-02    0.13       1.0  T
  14   -209.8843490 -0.594234E-05  0.134E-02    0.13       1.0  T
  15   -209.8843594 -0.103662E-04  0.388E-03    0.13       2.6  T
  16   -209.8843539  0.551926E-05  0.943E-03    0.13       1.1  T
  17   -209.8843574 -0.348068E-05  0.642E-03    0.13       1.6  T
  18   -209.8843579 -0.498425E-06  0.570E-03    0.13       1.8  T
  19   -209.8843600 -0.213222E-05  0.570E-04    0.13      17.8  T
  20   -209.8843600 -0.622754E-08  0.368E-04    0.13      27.6  T
  21   -209.8843600  0.105256E-07  0.456E-04    0.13      22.2  T
     SCC iter.                  ...        0 min,  0.589 sec
     gradient                   ...        0 min,  0.059 sec
 * total energy  :  -207.7966782 Eh     change       -0.1582951E-02 Eh
   gradient norm :     0.0200075 Eh/α   predicted    -0.1400285E-02 ( -11.54%)
   displ. norm   :     0.5820426 α      lambda       -0.2747679E-02
   maximum displ.:     0.2006448 α      in ANC's #3, #1, #9, ...

........................................................................
.............................. CYCLE  214 ..............................
........................................................................

 iter      E             dE          RMSdq      gap      omega  full diag
   1   -209.8890451 -0.209889E+03  0.373E-01    0.14       0.0  T
   2   -209.3773936  0.511651E+00  0.279E+00    0.01       1.0  T
   3   -209.8841078 -0.506714E+00  0.298E-01    0.19       1.0  T
   4   -209.8882469 -0.413909E-02  0.158E-01    0.16       1.0  T
   5   -209.8887153 -0.468382E-03  0.137E-01    0.15       1.0  T
   6   -209.8873784  0.133687E-02  0.181E-01    0.17       1.0  T
   7   -209.8894750 -0.209655E-02  0.675E-02    0.14       1.0  T
   8   -209.8896097 -0.134761E-03  0.464E-02    0.14       1.0  T
   9   -209.8896754 -0.656163E-04  0.319E-02    0.14       1.0  T
  10   -209.8897379 -0.625375E-04  0.819E-03    0.13       1.2  T
  11   -209.8897361  0.176414E-05  0.777E-03    0.13       1.3  T
  12   -209.8897356  0.552506E-06  0.854E-03    0.13       1.2  T
  13   -209.8897227  0.128487E-04  0.155E-02    0.13       1.0  T
  14   -209.8897348 -0.120436E-04  0.817E-03    0.13       1.2  T
  15   -209.8897388 -0.405171E-05  0.274E-03    0.13       3.7  T
  16   -209.8897393 -0.472035E-06  0.587E-04    0.13      17.3  T
  17   -209.8897393 -0.468782E-08  0.407E-04    0.13      24.9  T
     SCC iter.                  ...        0 min,  0.483 sec
     gradient                   ...        0 min,  0.059 sec
 * total energy  :  -207.7986210 Eh     change       -0.1942759E-02 Eh
   gradient norm :     0.0219143 Eh/α   predicted    -0.1839262E-02 (  -5.33%)
   displ. norm   :     0.5781386 α      lambda       -0.2707828E-02
   maximum displ.:     0.2098551 α      in ANC's #3, #9, #1, ...

........................................................................
.............................. CYCLE  215 ..............................
........................................................................

 iter      E             dE          RMSdq      gap      omega  full diag
   1   -209.8892331 -0.209889E+03  0.445E-01    0.20       0.0  T
   2   -207.0030878  0.288615E+01  0.674E+00    0.21       1.0  T
   3   -209.8862059 -0.288312E+01  0.358E-01    0.22       1.0  T
   4   -209.8853262  0.879664E-03  0.331E-01    0.26       1.0  T
   5   -209.8905648 -0.523858E-02  0.236E-01    0.19       1.0  T
   6   -209.8910917 -0.526933E-03  0.210E-01    0.18       1.0  T
   7   -209.8933203 -0.222860E-02  0.127E-01    0.16       1.0  T
   8   -209.8941592 -0.838859E-03  0.750E-02    0.15       1.0  T
   9   -209.8941883 -0.290875E-04  0.722E-02    0.15       1.0  T
  10   -209.8944764 -0.288073E-03  0.288E-02    0.14       1.0  T
  11   -209.8944216  0.547903E-04  0.323E-02    0.13       1.0  T
  12   -209.8944965 -0.749520E-04  0.110E-02    0.14       1.0  T
  13   -209.8944991 -0.253182E-05  0.759E-03    0.14       1.3  T
  14   -209.8945001 -0.103068E-05  0.596E-03    0.14       1.7  T
  15   -209.8944972  0.293094E-05  0.772E-03    0.14       1.3  T
  16   -209.8945012 -0.403158E-05  0.260E-03    0.14       3.9  T
  17   -209.8945006  0.582418E-06  0.347E-03    0.14       2.9  T
  18   -209.8945010 -0.410862E-06  0.270E-03    0.14       3.8  T
  19   -209.8945014 -0.438362E-06  0.899E-04    0.14      11.3  T
  20   -209.8945014  0.479500E-07  0.965E-04    0.14      10.5  T
     SCC iter.                  ...        0 min,  0.553 sec
     gradient                   ...        0 min,  0.058 sec
 * total energy  :  -207.8007214 Eh     change       -0.2100369E-02 Eh
   gradient norm :     0.0270857 Eh/α   predicted    -0.1806456E-02 ( -13.99%)
   displ. norm   :     0.5019524 α      lambda       -0.3421843E-02
   maximum displ.:     0.1356090 α      in ANC's #3, #42, #2, ...

........................................................................
.............................. CYCLE  216 ..............................
........................................................................

 iter      E             dE          RMSdq      gap      omega  full diag
   1   -209.8945156 -0.209895E+03  0.565E-01    0.23       0.0  T
   2   -206.8812309  0.301328E+01  0.686E+00    0.20       1.0  T
   3   -209.8833106 -0.300208E+01  0.497E-01    0.45       1.0  T
   4   -209.8899454 -0.663480E-02  0.403E-01    0.34       1.0  T
   5   -209.8905293 -0.583872E-03  0.389E-01    0.31       1.0  T
   6   -209.8911275 -0.598208E-03  0.367E-01    0.30       1.0  T
   7   -209.8937190 -0.259154E-02  0.316E-01    0.25       1.0  T
   8   -209.8979400 -0.422097E-02  0.215E-01    0.19       1.0  T
   9   -209.8985345 -0.594534E-03  0.195E-01    0.19       1.0  T
  10   -209.8990121 -0.477563E-03  0.180E-01    0.18       1.0  T
  11   -209.8994859 -0.473864E-03  0.162E-01    0.18       1.0  T
  12   -209.9011280 -0.164208E-02  0.789E-02    0.13       1.0  T
  13   -209.9014503 -0.322287E-03  0.285E-02    0.14       1.0  T
  14   -209.9014707 -0.203930E-04  0.230E-02    0.14       1.0  T
  15   -209.9015101 -0.393617E-04  0.960E-03    0.14       1.1  T
  16   -209.9015049  0.519374E-05  0.106E-02    0.14       1.0  T
  17   -209.9014884  0.164597E-04  0.169E-02    0.14       1.0  T
  18   -209.9015090 -0.206185E-04  0.572E-03    0.14       1.8  T
  19   -209.9015102 -0.115891E-05  0.420E-03    0.14       2.4  T
  20   -209.9015097  0.502397E-06  0.472E-03    0.14       2.2  T
  21   -209.9015091  0.577816E-06  0.538E-03    0.14       1.9  T
  22   -209.9015114 -0.229295E-05  0.734E-04    0.14      13.8  T
  23   -209.9015114  0.438860E-09  0.562E-04    0.14      18.1  T
  24   -209.9015114 -0.225325E-07  0.104E-04    0.14      97.7  T
     SCC iter.                  ...        0 min,  0.730 sec
     gradient                   ...        0 min,  0.057 sec
 * total energy  :  -207.8032056 Eh     change       -0.2484274E-02 Eh
   gradient norm :     0.0271102 Eh/α   predicted    -0.2142007E-02 ( -13.78%)
   displ. norm   :     0.4440597 α      lambda       -0.2815756E-02
   maximum displ.:     0.1473140 α      in ANC's #3, #42, #1, ...

........................................................................
.............................. CYCLE  217 ..............................
........................................................................

 iter      E             dE          RMSdq      gap      omega  full diag
   1   -209.9009316 -0.209901E+03  0.447E-01    0.18       0.0  T
   2   -208.1559153  0.174502E+01  0.527E+00    0.06       1.0  T
   3   -209.8891312 -0.173322E+01  0.447E-01    0.39       1.0  T
   4   -209.8967533 -0.762204E-02  0.356E-01    0.25       1.0  T
   5   -209.8946428  0.211053E-02  0.355E-01    0.28       1.0  T
   6   -209.8965301 -0.188735E-02  0.323E-01    0.25       1.0  T
   7   -209.8984318 -0.190169E-02  0.274E-01    0.22       1.0  T
   8   -209.9011672 -0.273542E-02  0.186E-01    0.19       1.0  T
   9   -209.9027492 -0.158193E-02  0.118E-01    0.16       1.0  T
  10   -209.9028356 -0.864191E-04  0.112E-01    0.16       1.0  T
  11   -209.9036568 -0.821246E-03  0.346E-02    0.15       1.0  T
  12   -209.9034820  0.174806E-03  0.569E-02    0.13       1.0  T
  13   -209.9036943 -0.212335E-03  0.212E-02    0.14       1.0  T
  14   -209.9037089 -0.145632E-04  0.143E-02    0.14       1.0  T
  15   -209.9037214 -0.124523E-04  0.521E-03    0.14       2.0  T
  16   -209.9037179  0.344279E-05  0.799E-03    0.14       1.3  T
  17   -209.9037159  0.206923E-05  0.963E-03    0.14       1.1  T
  18   -209.9037198 -0.391599E-05  0.608E-03    0.14       1.7  T
  19   -209.9037207 -0.942719E-06  0.487E-03    0.14       2.1  T
  20   -209.9037223 -0.159327E-05  0.117E-03    0.14       8.7  T
  21   -209.9037224 -0.754322E-07  0.374E-04    0.14      27.1  T
  22   -209.9037224  0.262840E-07  0.634E-04    0.14      16.0  T
     SCC iter.                  ...        0 min,  0.626 sec
     gradient                   ...        0 min,  0.056 sec
 * total energy  :  -207.8050766 Eh     change       -0.1870911E-02 Eh
   gradient norm :     0.0242792 Eh/α   predicted    -0.1685496E-02 (  -9.91%)
   displ. norm   :     0.3300501 α      lambda       -0.1858474E-02
   maximum displ.:     0.0869833 α      in ANC's #34, #3, #54, ...

........................................................................
.............................. CYCLE  218 ..............................
........................................................................

 iter      E             dE          RMSdq      gap      omega  full diag
   1   -209.9078856 -0.209908E+03  0.340E-01    0.16       0.0  T
   2   -209.2559548  0.651931E+00  0.316E+00    0.01       1.0  T
   3   -209.8951271 -0.639172E+00  0.437E-01    0.35       1.0  T
   4   -209.9025578 -0.743074E-02  0.319E-01    0.24       1.0  T
   5   -209.9019287  0.629048E-03  0.322E-01    0.24       1.0  T
   6   -209.9022140 -0.285214E-03  0.306E-01    0.23       1.0  T
   7   -209.9048238 -0.260987E-02  0.238E-01    0.20       1.0  T
   8   -209.9069562 -0.213241E-02  0.156E-01    0.17       1.0  T
   9   -209.9076182 -0.661982E-03  0.115E-01    0.16       1.0  T
  10   -209.9083139 -0.695684E-03  0.574E-02    0.15       1.0  T
  11   -209.9085276 -0.213663E-03  0.483E-03    0.14       2.1  T
  12   -209.9085241  0.343657E-05  0.858E-03    0.14       1.2  T
  13   -209.9085210  0.315157E-05  0.103E-02    0.14       1.0  T
  14   -209.9085273 -0.631504E-05  0.394E-03    0.14       2.6  T
  15   -209.9085280 -0.727856E-06  0.196E-03    0.14       5.2  T
  16   -209.9085277  0.312309E-06  0.293E-03    0.14       3.5  T
  17   -209.9085280 -0.234287E-06  0.225E-03    0.14       4.5  T
  18   -209.9085282 -0.293878E-06  0.702E-04    0.14      14.5  T
  19   -209.9085282 -0.221718E-09  0.572E-04    0.14      17.7  T
     SCC iter.                  ...        0 min,  0.541 sec
     gradient                   ...        0 min,  0.055 sec
 * total energy  :  -207.8061145 Eh     change       -0.1037902E-02 Eh
   gradient norm :     0.0258624 Eh/α   predicted    -0.1030463E-02 (  -0.72%)
   displ. norm   :     0.3607770 α      lambda       -0.1432618E-02
   maximum displ.:     0.1546967 α      in ANC's #3, #11, #2, ...

........................................................................
.............................. CYCLE  219 ..............................
........................................................................

 iter      E             dE          RMSdq      gap      omega  full diag
   1   -209.8881644 -0.209888E+03  0.559E-01    0.09       0.0  T
   2   -209.8414961  0.466683E-01  0.101E+00    0.75       1.0  T
   3   -209.8873191 -0.458230E-01  0.544E-01    0.44       1.0  T
   4   -209.8992293 -0.119102E-01  0.274E-01    0.20       1.0  T
   5   -209.8803754  0.188540E-01  0.552E-01    0.08       1.0  T
   6   -209.8955474 -0.151721E-01  0.341E-01    0.24       1.0  T
   7   -209.9023490 -0.680156E-02  0.136E-01    0.16       1.0  T
   8   -209.9035376 -0.118859E-02  0.234E-02    0.14       1.0  T
   9   -209.9034168  0.120766E-03  0.475E-02    0.15       1.0  T
  10   -209.9035577 -0.140860E-03  0.899E-03    0.14       1.1  T
  11   -209.9035588 -0.109998E-05  0.731E-03    0.14       1.4  T
  12   -209.9035515  0.721119E-05  0.122E-02    0.14       1.0  T
  13   -209.9035609 -0.934249E-05  0.402E-03    0.14       2.5  T
  14   -209.9035611 -0.245986E-06  0.341E-03    0.14       3.0  T
  15   -209.9035614 -0.234987E-06  0.274E-03    0.14       3.7  T
  16   -209.9035616 -0.267248E-06  0.178E-03    0.14       5.7  T
  17   -209.9035617 -0.107301E-06  0.112E-03    0.14       9.0  T
  18   -209.9035617  0.536701E-07  0.146E-03    0.14       7.0  T
  19   -209.9035617 -0.575777E-07  0.106E-03    0.14       9.6  T
  20   -209.9035618 -0.763374E-07  0.209E-04    0.14      48.5  T
  21   -209.9035618 -0.214416E-08  0.877E-05    0.14     115.8  T
     SCC iter.                  ...        0 min,  0.594 sec
     gradient                   ...        0 min,  0.057 sec
 * total energy  :  -207.8069626 Eh     change       -0.8480982E-03 Eh
   gradient norm :     0.0147320 Eh/α   predicted    -0.8095420E-03 (  -4.55%)
   displ. norm   :     0.2839936 α      lambda       -0.8792313E-03
   maximum displ.:     0.0816969 α      in ANC's #12, #16, #8, ...
 * RMSD in coord.:     1.2875768 α      energy gain  -0.6562707E-01 Eh

generating ANC from exact Hessian ...
Using Lindh-Hessian (1995)
 Shifting diagonal of input Hessian by   1.038999819950996E-002
 Lowest  eigenvalues of input Hessian
    0.010000    0.010117    0.010180    0.000000    0.000000    0.000000
    0.000000    0.000000    0.000000    0.010458    0.010575    0.010658
    0.010715    0.010805    0.010899    0.011253    0.011284    0.011577
 Highest eigenvalues
    2.112801    2.187089    2.193742    2.364922    2.511848    3.338721
 

........................................................................
.............................. CYCLE  220 ..............................
........................................................................

 iter      E             dE          RMSdq      gap      omega  full diag
   1   -209.9118482 -0.209912E+03  0.246E-01    0.16       0.0  T
   2   -209.0451889  0.866659E+00  0.366E+00    0.01       1.0  T
   3   -209.9063609 -0.861172E+00  0.319E-01    0.22       1.0  T
   4   -209.9078818 -0.152090E-02  0.263E-01    0.21       1.0  T
   5   -209.9107835 -0.290175E-02  0.188E-01    0.17       1.0  T
   6   -209.9103473  0.436163E-03  0.194E-01    0.18       1.0  T
   7   -209.9123787 -0.203137E-02  0.950E-02    0.15       1.0  T
   8   -209.9128996 -0.520905E-03  0.277E-02    0.14       1.0  T
   9   -209.9129437 -0.440942E-04  0.877E-03    0.14       1.2  T
  10   -209.9129370  0.674470E-05  0.127E-02    0.14       1.0  T
  11   -209.9129234  0.135193E-04  0.187E-02    0.14       1.0  T
  12   -209.9129424 -0.189753E-04  0.892E-03    0.14       1.1  T
  13   -209.9129463 -0.383604E-05  0.395E-03    0.14       2.6  T
  14   -209.9129471 -0.863739E-06  0.128E-03    0.14       8.0  T
  15   -209.9129471  0.319538E-07  0.139E-03    0.14       7.3  T
  16   -209.9129471 -0.200810E-07  0.111E-03    0.14       9.1  T
  17   -209.9129472 -0.764758E-07  0.358E-04    0.14      28.4  T
  18   -209.9129472 -0.366177E-08  0.251E-04    0.14      40.5  T
     SCC iter.                  ...        0 min,  0.545 sec
     gradient                   ...        0 min,  0.058 sec
 * total energy  :  -207.8074507 Eh     change       -0.4881957E-03 Eh
   gradient norm :     0.0139854 Eh/α   predicted     0.0000000E+00 (-100.00%)
   displ. norm   :     0.1427612 α      lambda       -0.6436114E-03
   maximum displ.:     0.0389984 α      in ANC's #20, #23, #36, ...

........................................................................
.............................. CYCLE  221 ..............................
........................................................................

 iter      E             dE          RMSdq      gap      omega  full diag
   1   -209.9083282 -0.209908E+03  0.214E-01    0.15       0.0  T
   2   -209.3573256  0.551003E+00  0.288E+00    0.01       1.0  T
   3   -209.8974318 -0.540106E+00  0.403E-01    0.29       1.0  T
   4   -209.9025710 -0.513918E-02  0.302E-01    0.22       1.0  T
   5   -209.9046002 -0.202926E-02  0.259E-01    0.19       1.0  T
   6   -209.9037362  0.864053E-03  0.270E-01    0.20       1.0  T
   7   -209.9060700 -0.233384E-02  0.200E-01    0.18       1.0  T
   8   -209.9076395 -0.156943E-02  0.130E-01    0.16       1.0  T
   9   -209.9079655 -0.326043E-03  0.106E-01    0.16       1.0  T
  10   -209.9084955 -0.530038E-03  0.582E-02    0.15       1.0  T
  11   -209.9087045 -0.208909E-03  0.149E-02    0.14       1.0  T
  12   -209.9087146 -0.101288E-04  0.797E-03    0.14       1.3  T
  13   -209.9087142  0.336347E-06  0.830E-03    0.14       1.2  T
  14   -209.9087188 -0.451014E-05  0.211E-03    0.14       4.8  T
  15   -209.9087187  0.943615E-07  0.229E-03    0.14       4.4  T
  16   -209.9087188 -0.100596E-06  0.197E-03    0.14       5.1  T
  17   -209.9087190 -0.205584E-06  0.101E-03    0.14      10.1  T
  18   -209.9087190 -0.529140E-07  0.420E-04    0.14      24.2  T
  19   -209.9087190 -0.967000E-08  0.135E-04    0.14      75.2  T
     SCC iter.                  ...        0 min,  0.586 sec
     gradient                   ...        0 min,  0.057 sec
 * total energy  :  -207.8077813 Eh     change       -0.3305689E-03 Eh
   gradient norm :     0.0074062 Eh/α   predicted    -0.3283686E-03 (  -0.67%)
   displ. norm   :     0.1882736 α      lambda       -0.5495927E-03
   maximum displ.:     0.0580287 α      in ANC's #1, #7, #23, ...

........................................................................
.............................. CYCLE  222 ..............................
........................................................................

 iter      E             dE          RMSdq      gap      omega  full diag
   1   -209.9031855 -0.209903E+03  0.174E-01    0.12       0.0  T
   2   -209.8852781  0.179074E-01  0.504E-01    0.42       1.0  T
   3   -209.9032509 -0.179728E-01  0.125E-01    0.16       1.0  T
   4   -209.8974577  0.579323E-02  0.305E-01    0.10       1.0  T
   5   -209.9033586 -0.590092E-02  0.101E-01    0.15       1.0  T
   6   -209.9039655 -0.606928E-03  0.297E-02    0.14       1.0  T
   7   -209.9037693  0.196244E-03  0.593E-02    0.13       1.0  T
   8   -209.9040223 -0.253066E-03  0.613E-03    0.14       1.7  T
   9   -209.9040198  0.256540E-05  0.776E-03    0.14       1.3  T
  10   -209.9040212 -0.147167E-05  0.646E-03    0.14       1.6  T
  11   -209.9040240 -0.274989E-05  0.165E-03    0.14       6.2  T
  12   -209.9040239  0.471087E-07  0.160E-03    0.14       6.3  T
  13   -209.9040241 -0.146763E-06  0.719E-04    0.14      14.1  T
  14   -209.9040241 -0.139471E-07  0.479E-04    0.14      21.2  T
     SCC iter.                  ...        0 min,  0.406 sec
     gradient                   ...        0 min,  0.056 sec
 * total energy  :  -207.8079712 Eh     change       -0.1898749E-03 Eh
   gradient norm :     0.0108837 Eh/α   predicted    -0.2845378E-03 (  49.86%)
   displ. norm   :     0.1194011 α      lambda       -0.3149232E-03
   maximum displ.:     0.0438323 α      in ANC's #7, #1, #3, ...

........................................................................
.............................. CYCLE  223 ..............................
........................................................................

 iter      E             dE          RMSdq      gap      omega  full diag
   1   -209.9057237 -0.209906E+03  0.896E-02    0.14       0.0  T
   2   -209.9056536  0.700974E-04  0.429E-02    0.13       1.0  T
   3   -209.8984625  0.719106E-02  0.309E-01    0.22       1.0  T
   4   -209.9057063 -0.724378E-02  0.236E-02    0.13       1.0  T
   5   -209.9057247 -0.183686E-04  0.142E-02    0.13       1.0  T
   6   -209.9057302 -0.551582E-05  0.113E-02    0.14       1.0  T
   7   -209.9057363 -0.611383E-05  0.453E-03    0.14       2.2  T
   8   -209.9057274  0.897195E-05  0.117E-02    0.13       1.0  T
   9   -209.9057373 -0.996508E-05  0.248E-03    0.14       4.1  T
  10   -209.9057358  0.152592E-05  0.511E-03    0.14       2.0  T
  11   -209.9057371 -0.130479E-05  0.257E-03    0.14       4.0  T
  12   -209.9057371  0.293434E-08  0.256E-03    0.14       4.0  T
  13   -209.9057375 -0.388748E-06  0.837E-04    0.14      12.1  T
  14   -209.9057375 -0.261983E-07  0.498E-04    0.14      20.4  T
     SCC iter.                  ...        0 min,  0.442 sec
     gradient                   ...        0 min,  0.056 sec
 * total energy  :  -207.8081911 Eh     change       -0.2199514E-03 Eh
   gradient norm :     0.0068383 Eh/α   predicted    -0.1597208E-03 ( -27.38%)
   displ. norm   :     0.2389885 α      lambda       -0.3339479E-03
   maximum displ.:     0.0993631 α      in ANC's #7, #1, #3, ...

........................................................................
.............................. CYCLE  224 ..............................
........................................................................

 iter      E             dE          RMSdq      gap      omega  full diag
   1   -209.9048519 -0.209905E+03  0.262E-01    0.11       0.0  T
   2   -209.8724929  0.323590E-01  0.724E-01    0.74       1.0  T
   3   -209.8977025 -0.252096E-01  0.421E-01    0.28       1.0  T
   4   -209.9062851 -0.858259E-02  0.212E-01    0.17       1.0  T
   5   -209.8902520  0.160331E-01  0.513E-01    0.08       1.0  T
   6   -209.9087098 -0.184578E-01  0.824E-02    0.15       1.0  T
   7   -209.9090593 -0.349495E-03  0.451E-02    0.13       1.0  T
   8   -209.9091841 -0.124810E-03  0.186E-02    0.14       1.0  T
   9   -209.9091764  0.774926E-05  0.208E-02    0.14       1.0  T
  10   -209.9092053 -0.289758E-04  0.451E-03    0.13       2.3  T
  11   -209.9091958  0.949196E-05  0.125E-02    0.13       1.0  T
  12   -209.9092058 -0.992280E-05  0.323E-03    0.13       3.1  T
  13   -209.9092064 -0.626020E-06  0.120E-03    0.13       8.5  T
  14   -209.9092063  0.101722E-06  0.166E-03    0.13       6.1  T
  15   -209.9092063 -0.272635E-08  0.159E-03    0.13       6.4  T
  16   -209.9092064 -0.943206E-07  0.935E-04    0.13      10.9  T
  17   -209.9092064 -0.348822E-07  0.607E-04    0.13      16.7  T
     SCC iter.                  ...        0 min,  0.517 sec
     gradient                   ...        0 min,  0.057 sec
 * total energy  :  -207.8083915 Eh     change       -0.2003370E-03 Eh
   gradient norm :     0.0058417 Eh/α   predicted    -0.1765111E-03 ( -11.89%)
   displ. norm   :     0.3377279 α      lambda       -0.3399081E-03
   maximum displ.:     0.1449698 α      in ANC's #7, #1, #3, ...

........................................................................
.............................. CYCLE  225 ..............................
........................................................................

 iter      E             dE          RMSdq      gap      omega  full diag
   1   -209.9098451 -0.209910E+03  0.213E-01    0.12       0.0  T
   2   -209.8889240  0.209211E-01  0.553E-01    0.44       1.0  T
   3   -209.9050619 -0.161379E-01  0.267E-01    0.10       1.0  T
   4   -209.9006937  0.436818E-02  0.371E-01    0.25       1.0  T
   5   -209.9056018 -0.490811E-02  0.272E-01    0.19       1.0  T
   6   -209.9069822 -0.138033E-02  0.231E-01    0.18       1.0  T
   7   -209.9089619 -0.197971E-02  0.165E-01    0.11       1.0  T
   8   -209.9101481 -0.118618E-02  0.100E-01    0.12       1.0  T
   9   -209.9108726 -0.724511E-03  0.683E-03    0.13       1.5  T
  10   -209.9108240  0.486191E-04  0.276E-02    0.14       1.0  T
  11   -209.9108741 -0.501738E-04  0.438E-03    0.13       2.3  T
  12   -209.9108683  0.584737E-05  0.102E-02    0.13       1.0  T
  13   -209.9108732 -0.486360E-05  0.502E-03    0.13       2.0  T
  14   -209.9108746 -0.147409E-05  0.231E-03    0.13       4.4  T
  15   -209.9108746  0.450553E-07  0.241E-03    0.13       4.2  T
  16   -209.9108749 -0.296265E-06  0.122E-03    0.13       8.3  T
  17   -209.9108749 -0.244830E-07  0.103E-03    0.13       9.8  T
  18   -209.9108750 -0.654550E-07  0.242E-04    0.13      41.9  T
  19   -209.9108749  0.171805E-07  0.556E-04    0.13      18.3  T
     SCC iter.                  ...        0 min,  0.575 sec
     gradient                   ...        0 min,  0.056 sec
 * total energy  :  -207.8085789 Eh     change       -0.1874185E-03 Eh
   gradient norm :     0.0083728 Eh/α   predicted    -0.1893404E-03 (   1.03%)
   displ. norm   :     0.2992424 α      lambda       -0.2652986E-03
   maximum displ.:     0.1323929 α      in ANC's #7, #1, #3, ...

........................................................................
.............................. CYCLE  226 ..............................
........................................................................

 iter      E             dE          RMSdq      gap      omega  full diag
   1   -209.9046041 -0.209905E+03  0.272E-01    0.10       0.0  T
   2   -209.8687221  0.358820E-01  0.758E-01    0.73       1.0  T
   3   -209.8959252 -0.272030E-01  0.450E-01    0.29       1.0  T
   4   -209.9057027 -0.977749E-02  0.234E-01    0.18       1.0  T
   5   -209.8710138  0.346889E-01  0.731E-01    0.07       1.0  T
   6   -209.9087554 -0.377416E-01  0.886E-02    0.15       1.0  T
   7   -209.9090541 -0.298734E-03  0.593E-02    0.12       1.0  T
   8   -209.9093158 -0.261748E-03  0.847E-03    0.13       1.2  T
   9   -209.9093174 -0.157342E-05  0.707E-03    0.13       1.4  T
  10   -209.9093191 -0.173216E-05  0.488E-03    0.13       2.1  T
  11   -209.9093108  0.835226E-05  0.117E-02    0.13       1.0  T
  12   -209.9093192 -0.840298E-05  0.429E-03    0.13       2.4  T
  13   -209.9093196 -0.375527E-06  0.359E-03    0.13       2.8  T
  14   -209.9093201 -0.579616E-06  0.198E-03    0.13       5.1  T
  15   -209.9093202 -0.864277E-07  0.155E-03    0.13       6.5  T
  16   -209.9093203 -0.344686E-07  0.134E-03    0.13       7.6  T
  17   -209.9093203 -0.422700E-07  0.108E-03    0.13       9.4  T
  18   -209.9093204 -0.804692E-07  0.143E-04    0.13      71.0  T
  19   -209.9093204  0.152821E-07  0.478E-04    0.13      21.3  T
     SCC iter.                  ...        0 min,  0.541 sec
     gradient                   ...        0 min,  0.056 sec
 * total energy  :  -207.8087858 Eh     change       -0.2069371E-03 Eh
   gradient norm :     0.0060386 Eh/α   predicted    -0.1445311E-03 ( -30.16%)
   displ. norm   :     0.4368221 α      lambda       -0.3925236E-03
   maximum displ.:     0.1973349 α      in ANC's #7, #1, #3, ...

........................................................................
.............................. CYCLE  227 ..............................
........................................................................

 iter      E             dE          RMSdq      gap      omega  full diag
   1   -209.9072287 -0.209907E+03  0.201E-01    0.12       0.0  T
   2   -209.8878357  0.193930E-01  0.521E-01    0.38       1.0  T
   3   -209.8944208 -0.658509E-02  0.418E-01    0.09       1.0  T
   4   -209.8990256 -0.460474E-02  0.358E-01    0.22       1.0  T
   5   -209.9020451 -0.301956E-02  0.288E-01    0.19       1.0  T
   6   -209.9047091 -0.266397E-02  0.211E-01    0.17       1.0  T
   7   -209.9077905 -0.308136E-02  0.402E-02    0.13       1.0  T
   8   -209.9073387  0.451726E-03  0.887E-02    0.12       1.0  T
   9   -209.9078753 -0.536572E-03  0.183E-02    0.13       1.0  T
  10   -209.9078953 -0.200005E-04  0.652E-03    0.13       1.6  T
  11   -209.9078842  0.111301E-04  0.132E-02    0.13       1.0  T
  12   -209.9078921 -0.788919E-05  0.826E-03    0.13       1.2  T
  13   -209.9078957 -0.360613E-05  0.413E-03    0.13       2.5  T
  14   -209.9078960 -0.290867E-06  0.343E-03    0.13       3.0  T
  15   -209.9078965 -0.539407E-06  0.198E-03    0.13       5.1  T
  16   -209.9078968 -0.256920E-06  0.489E-04    0.13      20.8  T
  17   -209.9078968 -0.274215E-08  0.381E-04    0.13      26.7  T
     SCC iter.                  ...        0 min,  0.506 sec
     gradient                   ...        0 min,  0.056 sec
 * total energy  :  -207.8090478 Eh     change       -0.2620056E-03 Eh
   gradient norm :     0.0063321 Eh/α   predicted    -0.2337168E-03 ( -10.80%)
   displ. norm   :     0.4652261 α      lambda       -0.3701625E-03
   maximum displ.:     0.2141033 α      in ANC's #7, #1, #3, ...

........................................................................
.............................. CYCLE  228 ..............................
........................................................................

 iter      E             dE          RMSdq      gap      omega  full diag
   1   -209.8883546 -0.209888E+03  0.544E-01    0.08       0.0  T
   2   -209.8260047  0.623499E-01  0.114E+00    0.68       1.0  T
   3   -209.8806438 -0.546392E-01  0.656E-01    0.55       1.0  T
   4   -209.8936779 -0.130340E-01  0.451E-01    0.28       1.0  T
   5   -209.9054424 -0.117645E-01  0.206E-01    0.16       1.0  T
   6   -209.8999129  0.552950E-02  0.344E-01    0.09       1.0  T
   7   -209.9072598 -0.734694E-02  0.749E-02    0.14       1.0  T
   8   -209.9073136 -0.538092E-04  0.679E-02    0.12       1.0  T
   9   -209.9076362 -0.322552E-03  0.142E-02    0.13       1.0  T
  10   -209.9074848  0.151342E-03  0.480E-02    0.14       1.0  T
  11   -209.9076343 -0.149464E-03  0.134E-02    0.13       1.0  T
  12   -209.9076232  0.111398E-04  0.185E-02    0.13       1.0  T
  13   -209.9076455 -0.223696E-04  0.339E-03    0.13       3.0  T
  14   -209.9076454  0.109394E-06  0.364E-03    0.13       2.8  T
  15   -209.9076461 -0.709436E-06  0.133E-03    0.13       7.7  T
  16   -209.9076447  0.139180E-05  0.472E-03    0.13       2.1  T
  17   -209.9076456 -0.883084E-06  0.295E-03    0.13       3.4  T
  18   -209.9076462 -0.589311E-06  0.408E-04    0.13      24.9  T
  19   -209.9076462 -0.135392E-08  0.372E-04    0.13      27.3  T
     SCC iter.                  ...        0 min,  0.540 sec
     gradient                   ...        0 min,  0.056 sec
 * total energy  :  -207.8092706 Eh     change       -0.2227663E-03 Eh
   gradient norm :     0.0079152 Eh/α   predicted    -0.2251425E-03 (   1.07%)
   displ. norm   :     0.4540850 α      lambda       -0.3355738E-03
   maximum displ.:     0.2131707 α      in ANC's #7, #3, #1, ...

........................................................................
.............................. CYCLE  229 ..............................
........................................................................

 iter      E             dE          RMSdq      gap      omega  full diag
   1   -209.9036196 -0.209904E+03  0.263E-01    0.11       0.0  T
   2   -209.8735834  0.300362E-01  0.656E-01    0.58       1.0  T
   3   -209.9052162 -0.316328E-01  0.999E-02    0.12       1.0  T
   4   -209.9019883  0.322786E-02  0.234E-01    0.17       1.0  T
   5   -209.9046288 -0.264054E-02  0.130E-01    0.15       1.0  T
   6   -209.9056634 -0.103455E-02  0.374E-02    0.13       1.0  T
   7   -209.9055601  0.103253E-03  0.515E-02    0.12       1.0  T
   8   -209.9057233 -0.163201E-03  0.186E-02    0.13       1.0  T
   9   -209.9056821  0.412507E-04  0.300E-02    0.12       1.0  T
  10   -209.9057279 -0.458241E-04  0.174E-02    0.13       1.0  T
  11   -209.9057488 -0.209014E-04  0.278E-03    0.13       3.7  T
  12   -209.9057489 -0.115327E-06  0.174E-03    0.13       5.8  T
  13   -209.9057481  0.837741E-06  0.368E-03    0.13       2.8  T
  14   -209.9057485 -0.426609E-06  0.273E-03    0.13       3.7  T
  15   -209.9057489 -0.386727E-06  0.127E-03    0.13       8.0  T
  16   -209.9057490 -0.810053E-07  0.692E-04    0.13      14.7  T
  17   -209.9057490 -0.278102E-07  0.191E-04    0.13      53.1  T
     SCC iter.                  ...        0 min,  0.479 sec
     gradient                   ...        0 min,  0.057 sec
 * total energy  :  -207.8095435 Eh     change       -0.2729137E-03 Eh
   gradient norm :     0.0079196 Eh/α   predicted    -0.2023837E-03 ( -25.84%)
   displ. norm   :     0.5222050 α      lambda       -0.4601622E-03
   maximum displ.:     0.2518622 α      in ANC's #7, #3, #1, ...

........................................................................
.............................. CYCLE  230 ..............................
........................................................................

 iter      E             dE          RMSdq      gap      omega  full diag
   1   -209.9072100 -0.209907E+03  0.218E-01    0.13       0.0  T
   2   -209.8754502  0.317599E-01  0.663E-01    0.07       1.0  T
   3   -209.8929689 -0.175187E-01  0.438E-01    0.26       1.0  T
   4   -209.9046264 -0.116575E-01  0.204E-01    0.16       1.0  T
   5   -209.9040919  0.534483E-03  0.217E-01    0.17       1.0  T
   6   -209.9052707 -0.117877E-02  0.171E-01    0.16       1.0  T
   7   -209.9073632 -0.209249E-02  0.157E-02    0.13       1.0  T
   8   -209.9071052  0.257964E-03  0.608E-02    0.12       1.0  T
   9   -209.9073607 -0.255438E-03  0.161E-02    0.13       1.0  T
  10   -209.9073764 -0.157085E-04  0.359E-03    0.13       2.8  T
  11   -209.9073669  0.942419E-05  0.116E-02    0.13       1.0  T
  12   -209.9073764 -0.941694E-05  0.249E-03    0.13       4.1  T
  13   -209.9073762  0.196141E-06  0.279E-03    0.13       3.6  T
  14   -209.9073762 -0.492421E-07  0.258E-03    0.13       3.9  T
  15   -209.9073766 -0.353853E-06  0.134E-03    0.13       7.6  T
  16   -209.9073767 -0.117647E-06  0.367E-04    0.13      27.6  T
  17   -209.9073767  0.114093E-08  0.334E-04    0.13      30.4  T
     SCC iter.                  ...        0 min,  0.490 sec
     gradient                   ...        0 min,  0.055 sec
 * total energy  :  -207.8098864 Eh     change       -0.3428547E-03 Eh
   gradient norm :     0.0069205 Eh/α   predicted    -0.2928263E-03 ( -14.59%)
   displ. norm   :     0.6153445 α      lambda       -0.4066654E-03
   maximum displ.:     0.2983953 α      in ANC's #7, #3, #1, ...

........................................................................
.............................. CYCLE  231 ..............................
........................................................................

 iter      E             dE          RMSdq      gap      omega  full diag
   1   -209.9003320 -0.209900E+03  0.408E-01    0.09       0.0  T
   2   -209.8519059  0.484261E-01  0.896E-01    0.67       1.0  T
   3   -209.8926178 -0.407120E-01  0.503E-01    0.28       1.0  T
   4   -209.9064655 -0.138476E-01  0.150E-01    0.11       1.0  T
   5   -209.9010580  0.540746E-02  0.322E-01    0.19       1.0  T
   6   -209.9078957 -0.683768E-02  0.557E-02    0.13       1.0  T
   7   -209.9076094  0.286261E-03  0.828E-02    0.12       1.0  T
   8   -209.9080353 -0.425899E-03  0.232E-02    0.13       1.0  T
   9   -209.9076793  0.355998E-03  0.735E-02    0.12       1.0  T
  10   -209.9080506 -0.371327E-03  0.196E-02    0.13       1.0  T
  11   -209.9080629 -0.122288E-04  0.141E-02    0.13       1.0  T
  12   -209.9080712 -0.837238E-05  0.819E-03    0.13       1.2  T
  13   -209.9080636  0.762430E-05  0.134E-02    0.13       1.0  T
  14   -209.9080698 -0.614971E-05  0.939E-03    0.13       1.1  T
  15   -209.9080757 -0.594337E-05  0.222E-03    0.13       4.6  T
  16   -209.9080756  0.860831E-07  0.250E-03    0.13       4.1  T
  17   -209.9080760 -0.419951E-06  0.405E-04    0.13      25.0  T
  18   -209.9080760  0.305017E-07  0.742E-04    0.13      13.7  T
     SCC iter.                  ...        0 min,  0.568 sec
     gradient                   ...        0 min,  0.056 sec
 * total energy  :  -207.8102004 Eh     change       -0.3140578E-03 Eh
   gradient norm :     0.0068939 Eh/α   predicted    -0.2803272E-03 ( -10.74%)
   displ. norm   :     0.6532187 α      lambda       -0.4459861E-03
   maximum displ.:     0.3205705 α      in ANC's #7, #3, #1, ...

........................................................................
.............................. CYCLE  232 ..............................
........................................................................

 iter      E             dE          RMSdq      gap      omega  full diag
   1   -209.8963054 -0.209896E+03  0.489E-01    0.09       0.0  T
   2   -209.8375371  0.587684E-01  0.101E+00    0.64       1.0  T
   3   -209.8876673 -0.501302E-01  0.579E-01    0.34       1.0  T
   4   -209.9080782 -0.204109E-01  0.104E-01    0.13       1.0  T
   5   -209.9076248  0.453398E-03  0.101E-01    0.12       1.0  T
   6   -209.9042471  0.337778E-02  0.237E-01    0.16       1.0  T
   7   -209.9040439  0.203120E-03  0.248E-01    0.10       1.0  T
   8   -209.9075463 -0.350241E-02  0.104E-01    0.11       1.0  T
   9   -209.9081616 -0.615300E-03  0.468E-02    0.12       1.0  T
  10   -209.9083066 -0.145005E-03  0.144E-02    0.12       1.0  T
  11   -209.9082747  0.319759E-04  0.257E-02    0.13       1.0  T
  12   -209.9083201 -0.454038E-04  0.320E-03    0.13       3.2  T
  13   -209.9083107  0.939276E-05  0.119E-02    0.12       1.0  T
  14   -209.9083202 -0.951865E-05  0.169E-03    0.13       6.0  T
  15   -209.9083193  0.871478E-06  0.386E-03    0.12       2.6  T
  16   -209.9083203 -0.919670E-06  0.148E-03    0.13       6.9  T
  17   -209.9083203 -0.562857E-07  0.985E-04    0.13      10.3  T
  18   -209.9083203 -0.313134E-07  0.750E-04    0.13      13.5  T
     SCC iter.                  ...        0 min,  0.544 sec
     gradient                   ...        0 min,  0.055 sec
 * total energy  :  -207.8105883 Eh     change       -0.3878496E-03 Eh
   gradient norm :     0.0082894 Eh/α   predicted    -0.3181446E-03 ( -17.97%)
   displ. norm   :     0.6926277 α      lambda       -0.6381180E-03
   maximum displ.:     0.3431962 α      in ANC's #7, #3, #2, ...

........................................................................
.............................. CYCLE  233 ..............................
........................................................................

 iter      E             dE          RMSdq      gap      omega  full diag
   1   -209.8922460 -0.209892E+03  0.593E-01    0.08       0.0  T
   2   -209.8184572  0.737887E-01  0.119E+00    0.60       1.0  T
   3   -209.8820682 -0.636110E-01  0.698E-01    0.47       1.0  T
   4   -209.9004165 -0.183483E-01  0.428E-01    0.22       1.0  T
   5   -209.8737011  0.267154E-01  0.712E-01    0.06       1.0  T
   6   -209.9000628 -0.263617E-01  0.420E-01    0.21       1.0  T
   7   -209.9108850 -0.108222E-01  0.144E-01    0.14       1.0  T
   8   -209.9112092 -0.324194E-03  0.126E-01    0.11       1.0  T
   9   -209.9122704 -0.106118E-02  0.301E-02    0.12       1.0  T
  10   -209.9123339 -0.635203E-04  0.701E-03    0.12       1.4  T
  11   -209.9123272  0.672741E-05  0.108E-02    0.12       1.0  T
  12   -209.9123327 -0.553488E-05  0.605E-03    0.12       1.7  T
  13   -209.9123318  0.908601E-06  0.666E-03    0.12       1.5  T
  14   -209.9123330 -0.116006E-05  0.517E-03    0.12       2.0  T
  15   -209.9123348 -0.185176E-05  0.123E-03    0.12       8.2  T
  16   -209.9123348  0.761452E-08  0.119E-03    0.12       8.5  T
  17   -209.9123347  0.153096E-06  0.178E-03    0.12       5.7  T
  18   -209.9123349 -0.204987E-06  0.498E-04    0.12      20.4  T
  19   -209.9123348  0.754438E-07  0.115E-03    0.12       8.8  T
  20   -209.9123349 -0.702057E-07  0.567E-04    0.12      17.9  T
     SCC iter.                  ...        0 min,  0.555 sec
     gradient                   ...        0 min,  0.057 sec
 * total energy  :  -207.8111667 Eh     change       -0.5784246E-03 Eh
   gradient norm :     0.0096082 Eh/α   predicted    -0.4721233E-03 ( -18.38%)
   displ. norm   :     0.7953942 α      lambda       -0.9272277E-03
   maximum displ.:     0.3903787 α      in ANC's #7, #3, #2, ...

........................................................................
.............................. CYCLE  234 ..............................
........................................................................

 iter      E             dE          RMSdq      gap      omega  full diag
   1   -209.8303648 -0.209830E+03  0.114E+00    0.04       0.0  T
   2   -209.6904409  0.139924E+00  0.200E+00    0.43       1.0  T
   3   -209.8428549 -0.152414E+00  0.109E+00    0.63       1.0  T
   4   -209.8745697 -0.317148E-01  0.771E-01    0.51       1.0  T
   5   -209.8948942 -0.203245E-01  0.568E-01    0.25       1.0  T
   6   -209.9131434 -0.182492E-01  0.161E-01    0.13       1.0  T
   7   -209.9136048 -0.461335E-03  0.851E-02    0.11       1.0  T
   8   -209.9132291  0.375680E-03  0.121E-01    0.10       1.0  T
   9   -209.9123709  0.858180E-03  0.165E-01    0.14       1.0  T
  10   -209.9118841  0.486829E-03  0.184E-01    0.10       1.0  T
  11   -209.9138157 -0.193164E-02  0.804E-02    0.13       1.0  T
  12   -209.9142551 -0.439361E-03  0.954E-03    0.12       1.1  T
  13   -209.9142496  0.550772E-05  0.123E-02    0.12       1.0  T
  14   -209.9142170  0.325585E-04  0.239E-02    0.11       1.0  T
  15   -209.9142543 -0.372901E-04  0.827E-03    0.12       1.2  T
  16   -209.9142562 -0.192082E-05  0.611E-03    0.12       1.7  T
  17   -209.9142549  0.129939E-05  0.761E-03    0.12       1.3  T
  18   -209.9142583 -0.336757E-05  0.244E-03    0.12       4.2  T
  19   -209.9142565  0.180401E-05  0.569E-03    0.12       1.8  T
  20   -209.9142578 -0.128018E-05  0.367E-03    0.12       2.8  T
  21   -209.9142587 -0.895197E-06  0.868E-04    0.12      11.7  T
  22   -209.9142587  0.829121E-08  0.943E-04    0.12      10.8  T
     SCC iter.                  ...        0 min,  0.643 sec
     gradient                   ...        0 min,  0.056 sec
 * total energy  :  -207.8121621 Eh     change       -0.9953869E-03 Eh
   gradient norm :     0.0130748 Eh/α   predicted    -0.7569250E-03 ( -23.96%)
   displ. norm   :     0.7800610 α      lambda       -0.1232133E-02
   maximum displ.:     0.3803833 α      in ANC's #7, #3, #2, ...

........................................................................
.............................. CYCLE  235 ..............................
........................................................................

 iter      E             dE          RMSdq      gap      omega  full diag
   1   -209.7621526 -0.209762E+03  0.153E+00    0.02       0.0  T
   2   -209.5423096  0.219843E+00  0.263E+00    0.31       1.0  T
   3   -209.8067314 -0.264422E+00  0.138E+00    0.72       1.0  T
   4   -209.8527573 -0.460259E-01  0.981E-01    0.47       1.0  T
   5   -209.8739841 -0.212268E-01  0.796E-01    0.47       1.0  T
   6   -209.8932259 -0.192418E-01  0.586E-01    0.23       1.0  T
   7   -209.9054728 -0.122469E-01  0.385E-01    0.16       1.0  T
   8   -209.7255686  0.179904E+00  0.170E+00    0.01       1.0  T
   9   -209.9075844 -0.182016E+00  0.325E-01    0.15       1.0  T
  10   -209.9116409 -0.405649E-02  0.214E-01    0.09       1.0  T
  11   -209.9138244 -0.218358E-02  0.119E-01    0.12       1.0  T
  12   -209.9146258 -0.801331E-03  0.514E-02    0.11       1.0  T
  13   -209.9144775  0.148248E-03  0.683E-02    0.10       1.0  T
  14   -209.9147146 -0.237044E-03  0.341E-02    0.11       1.0  T
  15   -209.9147794 -0.648213E-04  0.147E-02    0.11       1.0  T
  16   -209.9147923 -0.128985E-04  0.628E-03    0.11       1.6  T
  17   -209.9147906  0.167069E-05  0.806E-03    0.11       1.3  T
  18   -209.9147949 -0.425061E-05  0.891E-04    0.11      11.4  T
  19   -209.9147946  0.209286E-06  0.184E-03    0.11       5.5  T
  20   -209.9147943  0.360722E-06  0.285E-03    0.11       3.6  T
  21   -209.9147949 -0.589037E-06  0.214E-04    0.11      47.3  T
  22   -209.9147944  0.524339E-06  0.277E-03    0.11       3.7  T
  23   -209.9147948 -0.412291E-06  0.129E-03    0.11       7.8  T
  24   -209.9147947  0.659067E-07  0.161E-03    0.11       6.3  T
  25   -209.9147949 -0.159468E-06  0.530E-04    0.11      19.1  T
     SCC iter.                  ...        0 min,  0.737 sec
     gradient                   ...        0 min,  0.056 sec
 * total energy  :  -207.8135098 Eh     change       -0.1347678E-02 Eh
   gradient norm :     0.0181906 Eh/α   predicted    -0.9909451E-03 ( -26.47%)
   displ. norm   :     0.6751866 α      lambda       -0.1442771E-02
   maximum displ.:     0.3245302 α      in ANC's #7, #3, #2, ...

........................................................................
.............................. CYCLE  236 ..............................
........................................................................

 iter      E             dE          RMSdq      gap      omega  full diag
   1   -209.7798605 -0.209780E+03  0.144E+00    0.02       0.0  T
   2   -209.5717251  0.208135E+00  0.250E+00    0.34       1.0  T
   3   -209.8095039 -0.237779E+00  0.135E+00    0.68       1.0  T
   4   -209.8532267 -0.437228E-01  0.974E-01    0.48       1.0  T
   5   -209.8745956 -0.213689E-01  0.797E-01    0.40       1.0  T
   6   -209.8966678 -0.220723E-01  0.546E-01    0.19       1.0  T
   7   -209.9154091 -0.187413E-01  0.842E-02    0.11       1.0  T
   8   -209.9117738  0.363530E-02  0.244E-01    0.09       1.0  T
   9   -209.9154891 -0.371533E-02  0.651E-02    0.11       1.0  T
  10   -209.9157240 -0.234847E-03  0.214E-02    0.10       1.0  T
  11   -209.9155057  0.218270E-03  0.592E-02    0.10       1.0  T
  12   -209.9157246 -0.218858E-03  0.188E-02    0.10       1.0  T
  13   -209.9157258 -0.122710E-05  0.164E-02    0.10       1.0  T
  14   -209.9156309  0.948869E-04  0.409E-02    0.11       1.0  T
  15   -209.9154423  0.188638E-03  0.668E-02    0.10       1.0  T
  16   -209.9157414 -0.299151E-03  0.704E-03    0.10       1.4  T
  17   -209.9157425 -0.109875E-05  0.557E-03    0.11       1.8  T
  18   -209.9157395  0.305291E-05  0.860E-03    0.10       1.2  T
  19   -209.9157420 -0.255626E-05  0.620E-03    0.11       1.6  T
  20   -209.9157437 -0.164959E-05  0.382E-03    0.11       2.7  T
  21   -209.9157442 -0.518571E-06  0.265E-03    0.11       3.8  T
  22   -209.9157440  0.180454E-06  0.306E-03    0.11       3.3  T
  23   -209.9157445 -0.453739E-06  0.166E-03    0.10       6.1  T
  24   -209.9157446 -0.911162E-07  0.118E-03    0.10       8.6  T
  25   -209.9157446 -0.702640E-07  0.623E-04    0.10      16.3  T
  26   -209.9157447 -0.264539E-07  0.728E-05    0.10     139.5  T
     SCC iter.                  ...        0 min,  0.743 sec
     gradient                   ...        0 min,  0.057 sec
 * total energy  :  -207.8146861 Eh     change       -0.1176376E-02 Eh
   gradient norm :     0.0200506 Eh/α   predicted    -0.1050254E-02 ( -10.72%)
   displ. norm   :     0.5775129 α      lambda       -0.3570203E-02
   maximum displ.:     0.2103319 α      in ANC's #18, #25, #55, ...

........................................................................
.............................. CYCLE  237 ..............................
........................................................................

 iter      E             dE          RMSdq      gap      omega  full diag
   1   -209.5224614 -0.209522E+03  0.270E+00    0.00       0.0  T
   2   -207.8020007  0.172046E+01  0.509E+00    0.12       1.0  T
   3   -209.6981702 -0.189617E+01  0.245E+00    1.37       1.0  T
   4   -209.8336513 -0.135481E+00  0.160E+00    0.55       1.0  T
   5   -209.8693307 -0.356794E-01  0.130E+00    0.59       1.0  T
   6   -209.8929389 -0.236081E-01  0.108E+00    0.41       1.0  T
   7   -209.9117171 -0.187782E-01  0.901E-01    0.32       1.0  T
   8   -209.9404368 -0.287197E-01  0.545E-01    0.16       1.0  T
   9   -209.3423103  0.598127E+00  0.314E+00    0.00       1.0  T
  10   -209.9370846 -0.594774E+00  0.581E-01    0.17       1.0  T
  11   -209.7546545  0.182430E+00  0.179E+00    0.01       1.0  T
  12   -209.9326984 -0.178044E+00  0.649E-01    0.05       1.0  T
  13   -209.9594624 -0.267641E-01  0.123E-01    0.09       1.0  T
  14   -209.9599604 -0.497957E-03  0.861E-02    0.09       1.0  T
  15   -209.9433742  0.165862E-01  0.503E-01    0.06       1.0  T
  16   -209.9604054 -0.170312E-01  0.927E-03    0.09       1.1  T
  17   -209.9599752  0.430167E-03  0.827E-02    0.10       1.0  T
  18   -209.9592652  0.710060E-03  0.130E-01    0.11       1.0  T
  19   -209.9603447 -0.107955E-02  0.306E-02    0.09       1.0  T
  20   -209.9604054 -0.606699E-04  0.563E-03    0.10       1.8  T
  21   -209.9602533  0.152063E-03  0.483E-02    0.09       1.0  T
  22   -209.9602586 -0.529007E-05  0.470E-02    0.09       1.0  T
  23   -209.9603891 -0.130539E-03  0.166E-02    0.09       1.0  T
  24   -209.9604067 -0.175370E-04  0.417E-03    0.09       2.4  T
  25   -209.9604063  0.420219E-06  0.472E-03    0.09       2.2  T
  26   -209.9604065 -0.270561E-06  0.433E-03    0.09       2.3  T
  27   -209.9604069 -0.358384E-06  0.370E-03    0.09       2.7  T
  28   -209.9604075 -0.651097E-06  0.202E-03    0.09       5.0  T
  29   -209.9604077 -0.193200E-06  0.110E-03    0.09       9.2  T
  30   -209.9604078 -0.829059E-07  0.140E-04    0.09      72.5  T
  31   -209.9604078 -0.123129E-08  0.229E-05    0.09     443.5  T
     SCC iter.                  ...        0 min,  0.913 sec
     gradient                   ...        0 min,  0.056 sec
 * total energy  :  -207.8122241 Eh     change        0.2462062E-02 Eh
   gradient norm :     0.0501279 Eh/α   predicted    -0.2380473E-02 (-196.69%)
   displ. norm   :     0.2888228 α      lambda       -0.9342553E-02
   maximum displ.:     0.0869205 α      in ANC's #108, #55, #76, ...

........................................................................
.............................. CYCLE  238 ..............................
........................................................................

 iter      E             dE          RMSdq      gap      omega  full diag
   1   -209.8954056 -0.209895E+03  0.765E-01    0.22       0.0  T
   2   -205.4571121  0.443829E+01  0.861E+00    0.15       1.0  T
   3   -209.8775160 -0.442040E+01  0.760E-01    0.25       1.0  T
   4   -209.8708640  0.665199E-02  0.675E-01    0.43       1.0  T
   5   -209.8858491 -0.149851E-01  0.605E-01    0.23       1.0  T
   6   -209.8888696 -0.302045E-02  0.540E-01    0.25       1.0  T
   7   -209.8992370 -0.103675E-01  0.457E-01    0.19       1.0  T
   8   -209.9157300 -0.164929E-01  0.286E-01    0.14       1.0  T
   9   -209.9155586  0.171314E-03  0.286E-01    0.14       1.0  T
  10   -209.9224563 -0.689768E-02  0.181E-01    0.12       1.0  T
  11   -209.9215631  0.893257E-03  0.206E-01    0.12       1.0  T
  12   -209.9250729 -0.350983E-02  0.103E-01    0.10       1.0  T
  13   -209.9250029  0.700281E-04  0.525E-02    0.11       1.0  T
  14   -209.9252386 -0.235746E-03  0.226E-02    0.10       1.0  T
  15   -209.9252603 -0.216605E-04  0.238E-02    0.10       1.0  T
  16   -209.9252798 -0.195873E-04  0.101E-02    0.10       1.0  T
  17   -209.9252295  0.503446E-04  0.354E-02    0.10       1.0  T
  18   -209.9252734 -0.438918E-04  0.148E-02    0.10       1.0  T
  19   -209.9252890 -0.156128E-04  0.310E-03    0.10       3.3  T
  20   -209.9252861  0.286255E-05  0.763E-03    0.10       1.3  T
  21   -209.9252885 -0.233982E-05  0.459E-03    0.10       2.2  T
  22   -209.9252894 -0.944381E-06  0.216E-03    0.10       4.7  T
  23   -209.9252896 -0.190395E-06  0.131E-03    0.10       7.8  T
  24   -209.9252897 -0.732571E-07  0.331E-04    0.10      30.7  T
  25   -209.9252897 -0.128742E-08  0.352E-04    0.10      28.8  T
     SCC iter.                  ...        0 min,  0.697 sec
     gradient                   ...        0 min,  0.058 sec
 * total energy  :  -207.8160712 Eh     change       -0.3847108E-02 Eh
   gradient norm :     0.0125979 Eh/α   predicted    -0.5060949E-02 (  31.55%)
   displ. norm   :     0.5486590 α      lambda       -0.1071466E-02
   maximum displ.:     0.2569917 α      in ANC's #7, #1, #3, ...

........................................................................
.............................. CYCLE  239 ..............................
........................................................................

 iter      E             dE          RMSdq      gap      omega  full diag
   1   -209.9032721 -0.209903E+03  0.299E-01    0.09       0.0  T
   2   -209.8424716  0.608005E-01  0.903E-01    0.53       1.0  T
   3   -209.8990683 -0.565967E-01  0.356E-01    0.14       1.0  T
   4   -209.8966562  0.241208E-02  0.387E-01    0.07       1.0  T
   5   -209.9022553 -0.559910E-02  0.240E-01    0.13       1.0  T
   6   -209.9011586  0.109674E-02  0.275E-01    0.08       1.0  T
   7   -209.9062202 -0.506163E-02  0.445E-02    0.10       1.0  T
   8   -209.9063181 -0.979184E-04  0.135E-02    0.10       1.0  T
   9   -209.9060473  0.270806E-03  0.634E-02    0.11       1.0  T
  10   -209.9063160 -0.268728E-03  0.137E-02    0.10       1.0  T
  11   -209.9063190 -0.297879E-05  0.128E-02    0.10       1.0  T
  12   -209.9062923  0.267332E-04  0.232E-02    0.10       1.0  T
  13   -209.9063241 -0.318611E-04  0.903E-03    0.10       1.1  T
  14   -209.9063297 -0.556941E-05  0.107E-03    0.10       9.5  T
  15   -209.9063297 -0.426953E-07  0.765E-04    0.10      13.3  T
  16   -209.9063298 -0.172786E-07  0.403E-04    0.10      25.2  T
     SCC iter.                  ...        0 min,  0.477 sec
     gradient                   ...        0 min,  0.058 sec
 * total energy  :  -207.8164175 Eh     change       -0.3463331E-03 Eh
   gradient norm :     0.0135609 Eh/α   predicted    -0.6970122E-03 ( 101.25%)
   displ. norm   :     0.2898559 α      lambda       -0.6541803E-03
   maximum displ.:     0.1230806 α      in ANC's #7, #13, #18, ...

........................................................................
.............................. CYCLE  240 ..............................
........................................................................

 iter      E             dE          RMSdq      gap      omega  full diag
   1   -209.9184744 -0.209918E+03  0.236E-01    0.12       0.0  T
   2   -207.4745063  0.244397E+01  0.610E+00    0.16       1.0  T
   3   -209.9189481 -0.244444E+01  0.164E-01    0.12       1.0  T
   4   -209.9193888 -0.440680E-03  0.131E-01    0.11       1.0  T
   5   -209.9205894 -0.120056E-02  0.782E-02    0.10       1.0  T
   6   -209.9205544  0.349313E-04  0.792E-02    0.09       1.0  T
   7   -209.9201490  0.405416E-03  0.104E-01    0.09       1.0  T
   8   -209.9208343 -0.685283E-03  0.422E-02    0.10       1.0  T
   9   -209.9208761 -0.417389E-04  0.200E-02    0.10       1.0  T
  10   -209.9208827 -0.664620E-05  0.943E-03    0.10       1.1  T
  11   -209.9208790  0.373230E-05  0.107E-02    0.10       1.0  T
  12   -209.9208864 -0.739141E-05  0.354E-03    0.10       2.9  T
  13   -209.9208863  0.312764E-07  0.316E-03    0.10       3.2  T
  14   -209.9208858  0.475190E-06  0.432E-03    0.10       2.3  T
  15   -209.9208870 -0.113130E-05  0.661E-04    0.10      15.4  T
  16   -209.9208870 -0.123900E-07  0.476E-04    0.10      21.3  T
  17   -209.9208870  0.225805E-08  0.415E-04    0.10      24.5  T
     SCC iter.                  ...        0 min,  0.476 sec
     gradient                   ...        0 min,  0.056 sec
 * total energy  :  -207.8166787 Eh     change       -0.2611524E-03 Eh
   gradient norm :     0.0086915 Eh/α   predicted    -0.3545728E-03 (  35.77%)
   displ. norm   :     0.4000809 α      lambda       -0.7129249E-03
   maximum displ.:     0.1437152 α      in ANC's #7, #2, #3, ...

........................................................................
.............................. CYCLE  241 ..............................
........................................................................

 iter      E             dE          RMSdq      gap      omega  full diag
   1   -209.9092799 -0.209909E+03  0.448E-01    0.07       0.0  T
   2   -209.8197741  0.895058E-01  0.115E+00    0.66       1.0  T
   3   -209.8792769 -0.595027E-01  0.802E-01    0.31       1.0  T
   4   -209.9055561 -0.262792E-01  0.475E-01    0.16       1.0  T
   5   -209.5333867  0.372169E+00  0.240E+00    0.00       1.0  T
   6   -209.9208997 -0.387513E+00  0.991E-02    0.11       1.0  T
   7   -209.9213717 -0.471945E-03  0.391E-02    0.10       1.0  T
   8   -209.9214544 -0.827640E-04  0.158E-02    0.10       1.0  T
   9   -209.9207497  0.704730E-03  0.101E-01    0.09       1.0  T
  10   -209.9210941 -0.344425E-03  0.728E-02    0.09       1.0  T
  11   -209.9214621 -0.367909E-03  0.958E-03    0.10       1.1  T
  12   -209.9214569  0.514709E-05  0.123E-02    0.10       1.0  T
  13   -209.9214398  0.171492E-04  0.195E-02    0.10       1.0  T
  14   -209.9214546 -0.148349E-04  0.130E-02    0.10       1.0  T
  15   -209.9214660 -0.113620E-04  0.317E-03    0.10       3.2  T
  16   -209.9214659  0.332261E-08  0.322E-03    0.10       3.2  T
  17   -209.9214663 -0.386529E-06  0.214E-03    0.10       4.7  T
  18   -209.9214663  0.481697E-07  0.220E-03    0.10       4.6  T
  19   -209.9214666 -0.348153E-06  0.248E-04    0.10      41.0  T
  20   -209.9214665  0.185359E-06  0.162E-03    0.10       6.3  T
  21   -209.9214666 -0.185883E-06  0.197E-04    0.10      51.5  T
     SCC iter.                  ...        0 min,  0.580 sec
     gradient                   ...        0 min,  0.055 sec
 * total energy  :  -207.8169609 Eh     change       -0.2821789E-03 Eh
   gradient norm :     0.0099721 Eh/α   predicted    -0.4135206E-03 (  46.55%)
   displ. norm   :     0.1823441 α      lambda       -0.3259343E-03
   maximum displ.:     0.0743044 α      in ANC's #7, #2, #1, ...

........................................................................
.............................. CYCLE  242 ..............................
........................................................................

 iter      E             dE          RMSdq      gap      omega  full diag
   1   -209.9204993 -0.209920E+03  0.146E-01    0.11       0.0  T
   2   -209.2264112  0.694088E+00  0.320E+00    0.00       1.0  T
   3   -209.9039731 -0.677562E+00  0.482E-01    0.16       1.0  T
   4   -209.9152070 -0.112340E-01  0.284E-01    0.13       1.0  T
   5   -209.9190396 -0.383257E-02  0.171E-01    0.11       1.0  T
   6   -209.9194102 -0.370562E-03  0.151E-01    0.11       1.0  T
   7   -209.9210519 -0.164174E-02  0.169E-02    0.10       1.0  T
   8   -209.9209174  0.134517E-03  0.463E-02    0.09       1.0  T
   9   -209.9209724 -0.550468E-04  0.370E-02    0.10       1.0  T
  10   -209.9210670 -0.945859E-04  0.778E-03    0.10       1.3  T
  11   -209.9210711 -0.405402E-05  0.269E-03    0.10       3.8  T
  12   -209.9210714 -0.322490E-06  0.151E-03    0.10       6.7  T
  13   -209.9210700  0.138131E-05  0.457E-03    0.10       2.2  T
  14   -209.9210714 -0.140447E-05  0.113E-03    0.10       9.0  T
  15   -209.9210714  0.276447E-08  0.108E-03    0.10       9.4  T
  16   -209.9210715 -0.788806E-07  0.277E-04    0.10      36.7  T
  17   -209.9210715 -0.109620E-08  0.223E-04    0.10      45.5  T
     SCC iter.                  ...        0 min,  0.490 sec
     gradient                   ...        0 min,  0.057 sec
 * total energy  :  -207.8171947 Eh     change       -0.2338386E-03 Eh
   gradient norm :     0.0059587 Eh/α   predicted    -0.1683887E-03 ( -27.99%)
   displ. norm   :     0.4396385 α      lambda       -0.3903547E-03
   maximum displ.:     0.1923598 α      in ANC's #7, #2, #1, ...

........................................................................
.............................. CYCLE  243 ..............................
........................................................................

 iter      E             dE          RMSdq      gap      omega  full diag
   1   -209.9131435 -0.209913E+03  0.352E-01    0.13       0.0  T
   2   -207.2498034  0.266334E+01  0.624E+00    0.16       1.0  T
   3   -209.8783539 -0.262855E+01  0.704E-01    0.27       1.0  T
   4   -209.8855532 -0.719922E-02  0.627E-01    0.23       1.0  T
   5   -209.8965777 -0.110245E-01  0.497E-01    0.17       1.0  T
   6   -209.9063246 -0.974695E-02  0.359E-01    0.15       1.0  T
   7   -209.9141630 -0.783835E-02  0.202E-01    0.12       1.0  T
   8   -209.9139182  0.244802E-03  0.207E-01    0.12       1.0  T
   9   -209.9158714 -0.195319E-02  0.143E-01    0.11       1.0  T
  10   -209.9160085 -0.137144E-03  0.133E-01    0.11       1.0  T
  11   -209.9173848 -0.137630E-02  0.581E-02    0.10       1.0  T
  12   -209.9173708  0.140486E-04  0.440E-02    0.10       1.0  T
  13   -209.9174483 -0.775432E-04  0.273E-02    0.10       1.0  T
  14   -209.9175096 -0.613165E-04  0.943E-03    0.10       1.1  T
  15   -209.9175106 -0.918238E-06  0.448E-03    0.10       2.3  T
  16   -209.9175114 -0.820736E-06  0.301E-03    0.10       3.4  T
  17   -209.9175118 -0.427144E-06  0.190E-03    0.10       5.3  T
  18   -209.9175121 -0.268474E-06  0.113E-03    0.10       9.0  T
  19   -209.9175120  0.194198E-07  0.126E-03    0.10       8.1  T
  20   -209.9175120  0.137771E-07  0.845E-04    0.10      12.0  T
  21   -209.9175121 -0.594206E-07  0.255E-04    0.10      39.8  T
     SCC iter.                  ...        0 min,  0.599 sec
     gradient                   ...        0 min,  0.056 sec
 * total energy  :  -207.8174662 Eh     change       -0.2715205E-03 Eh
   gradient norm :     0.0066000 Eh/α   predicted    -0.2329052E-03 ( -14.22%)
   displ. norm   :     0.4779387 α      lambda       -0.3062076E-03
   maximum displ.:     0.1968399 α      in ANC's #7, #2, #1, ...

........................................................................
.............................. CYCLE  244 ..............................
........................................................................

 iter      E             dE          RMSdq      gap      omega  full diag
   1   -209.9151622 -0.209915E+03  0.305E-01    0.12       0.0  T
   2   -207.6749106  0.224025E+01  0.577E+00    0.12       1.0  T
   3   -209.8812848 -0.220637E+01  0.682E-01    0.25       1.0  T
   4   -209.8911956 -0.991076E-02  0.578E-01    0.20       1.0  T
   5   -209.8980407 -0.684508E-02  0.489E-01    0.17       1.0  T
   6   -209.9041978 -0.615711E-02  0.399E-01    0.15       1.0  T
   7   -209.9129309 -0.873311E-02  0.234E-01    0.13       1.0  T
   8   -209.9134756 -0.544662E-03  0.218E-01    0.12       1.0  T
   9   -209.9149460 -0.147044E-02  0.172E-01    0.12       1.0  T
  10   -209.9155325 -0.586547E-03  0.146E-01    0.11       1.0  T
  11   -209.9172358 -0.170326E-02  0.324E-02    0.10       1.0  T
  12   -209.9171420  0.938386E-04  0.390E-02    0.10       1.0  T
  13   -209.9171440 -0.200732E-05  0.372E-02    0.10       1.0  T
  14   -209.9172418 -0.978353E-04  0.141E-02    0.10       1.0  T
  15   -209.9172536 -0.118261E-04  0.473E-03    0.10       2.1  T
  16   -209.9172546 -0.949452E-06  0.270E-03    0.10       3.8  T
  17   -209.9172550 -0.418546E-06  0.129E-03    0.10       7.9  T
  18   -209.9172551 -0.914982E-07  0.973E-04    0.10      10.4  T
  19   -209.9172551 -0.258362E-07  0.920E-04    0.10      11.0  T
     SCC iter.                  ...        0 min,  0.547 sec
     gradient                   ...        0 min,  0.058 sec
 * total energy  :  -207.8177023 Eh     change       -0.2360938E-03 Eh
   gradient norm :     0.0076869 Eh/α   predicted    -0.1880796E-03 ( -20.34%)
   displ. norm   :     0.5376456 α      lambda       -0.3313159E-03
   maximum displ.:     0.2172663 α      in ANC's #7, #2, #1, ...

........................................................................
.............................. CYCLE  245 ..............................
........................................................................

 iter      E             dE          RMSdq      gap      omega  full diag
   1   -209.9133387 -0.209913E+03  0.380E-01    0.13       0.0  T
   2   -207.2269137  0.268642E+01  0.624E+00    0.16       1.0  T
   3   -209.8809711 -0.265406E+01  0.679E-01    0.27       1.0  T
   4   -209.8896317 -0.866061E-02  0.585E-01    0.22       1.0  T
   5   -209.8996604 -0.100287E-01  0.461E-01    0.17       1.0  T
   6   -209.9085247 -0.886433E-02  0.327E-01    0.14       1.0  T
   7   -209.9160608 -0.753603E-02  0.156E-01    0.12       1.0  T
   8   -209.9158007  0.260079E-03  0.163E-01    0.12       1.0  T
   9   -209.9166627 -0.862007E-03  0.129E-01    0.11       1.0  T
  10   -209.9166430  0.196780E-04  0.126E-01    0.11       1.0  T
  11   -209.9177204 -0.107734E-02  0.739E-02    0.10       1.0  T
  12   -209.9179128 -0.192487E-03  0.337E-02    0.10       1.0  T
  13   -209.9179053  0.750038E-05  0.328E-02    0.10       1.0  T
  14   -209.9179941 -0.887563E-04  0.106E-02    0.10       1.0  T
  15   -209.9179965 -0.237226E-05  0.416E-03    0.10       2.4  T
  16   -209.9179950  0.144436E-05  0.481E-03    0.10       2.1  T
  17   -209.9179970 -0.195261E-05  0.170E-03    0.10       6.0  T
  18   -209.9179969  0.116260E-06  0.148E-03    0.10       6.9  T
  19   -209.9179970 -0.141892E-06  0.391E-04    0.10      26.0  T
  20   -209.9179969  0.812747E-07  0.107E-03    0.10       9.5  T
  21   -209.9179970 -0.807930E-07  0.571E-04    0.10      17.8  T
     SCC iter.                  ...        0 min,  0.584 sec
     gradient                   ...        0 min,  0.058 sec
 * total energy  :  -207.8179427 Eh     change       -0.2403849E-03 Eh
   gradient norm :     0.0079329 Eh/α   predicted    -0.2135446E-03 ( -11.17%)
   displ. norm   :     0.5310228 α      lambda       -0.2917225E-03
   maximum displ.:     0.2255942 α      in ANC's #7, #2, #3, ...

........................................................................
.............................. CYCLE  246 ..............................
........................................................................

 iter      E             dE          RMSdq      gap      omega  full diag
   1   -209.9170012 -0.209917E+03  0.223E-01    0.10       0.0  T
   2   -209.8346216  0.823796E-01  0.107E+00    0.04       1.0  T
   3   -209.8799880 -0.453664E-01  0.687E-01    0.27       1.0  T
   4   -209.9125430 -0.325550E-01  0.275E-01    0.13       1.0  T
   5   -209.9086887  0.385427E-02  0.344E-01    0.14       1.0  T
   6   -209.9127800 -0.409129E-02  0.245E-01    0.13       1.0  T
   7   -209.9171006 -0.432057E-02  0.161E-02    0.10       1.0  T
   8   -209.9165574  0.543151E-03  0.897E-02    0.09       1.0  T
   9   -209.9168861 -0.328643E-03  0.564E-02    0.10       1.0  T
  10   -209.9171077 -0.221601E-03  0.117E-02    0.10       1.0  T
  11   -209.9171121 -0.446109E-05  0.809E-03    0.10       1.3  T
  12   -209.9171135 -0.136159E-05  0.672E-03    0.10       1.5  T
  13   -209.9171164 -0.288130E-05  0.199E-03    0.10       5.1  T
  14   -209.9171164  0.278316E-07  0.184E-03    0.10       5.5  T
  15   -209.9171162  0.183890E-06  0.244E-03    0.10       4.2  T
  16   -209.9171164 -0.193502E-06  0.172E-03    0.10       5.9  T
  17   -209.9171166 -0.227304E-06  0.227E-04    0.10      44.7  T
  18   -209.9171166  0.690946E-08  0.358E-04    0.10      28.4  T
     SCC iter.                  ...        0 min,  0.513 sec
     gradient                   ...        0 min,  0.056 sec
 * total energy  :  -207.8181480 Eh     change       -0.2053459E-03 Eh
   gradient norm :     0.0075308 Eh/α   predicted    -0.1869928E-03 (  -8.94%)
   displ. norm   :     0.4905889 α      lambda       -0.2517575E-03
   maximum displ.:     0.2079885 α      in ANC's #7, #2, #3, ...

........................................................................
.............................. CYCLE  247 ..............................
........................................................................

 iter      E             dE          RMSdq      gap      omega  full diag
   1   -209.9139226 -0.209914E+03  0.250E-01    0.09       0.0  T
   2   -209.8545899  0.593327E-01  0.870E-01    0.62       1.0  T
   3   -209.9123758 -0.577859E-01  0.273E-01    0.13       1.0  T
   4   -209.9107812  0.159462E-02  0.288E-01    0.08       1.0  T
   5   -209.9134284 -0.264720E-02  0.216E-01    0.12       1.0  T
   6   -209.9166168 -0.318836E-02  0.276E-02    0.10       1.0  T
   7   -209.9162103  0.406445E-03  0.820E-02    0.09       1.0  T
   8   -209.9165187 -0.308333E-03  0.461E-02    0.10       1.0  T
   9   -209.9166596 -0.140947E-03  0.106E-02    0.10       1.0  T
  10   -209.9166565  0.305115E-05  0.124E-02    0.10       1.0  T
  11   -209.9166570 -0.423471E-06  0.113E-02    0.10       1.0  T
  12   -209.9166574 -0.422024E-06  0.111E-02    0.10       1.0  T
  13   -209.9166651 -0.775031E-05  0.398E-03    0.10       2.6  T
  14   -209.9166663 -0.112256E-05  0.848E-04    0.10      12.0  T
  15   -209.9166641  0.216523E-05  0.549E-03    0.10       1.9  T
  16   -209.9166663 -0.219174E-05  0.400E-04    0.10      25.4  T
  17   -209.9166663 -0.704182E-08  0.201E-04    0.10      50.6  T
  18   -209.9166663  0.209076E-08  0.268E-04    0.10      37.9  T
     SCC iter.                  ...        0 min,  0.515 sec
     gradient                   ...        0 min,  0.059 sec
 * total energy  :  -207.8183415 Eh     change       -0.1934901E-03 Eh
   gradient norm :     0.0069344 Eh/α   predicted    -0.1561788E-03 ( -19.28%)
   displ. norm   :     0.5380542 α      lambda       -0.3095239E-03
   maximum displ.:     0.2316069 α      in ANC's #7, #2, #3, ...

........................................................................
.............................. CYCLE  248 ..............................
........................................................................

 iter      E             dE          RMSdq      gap      omega  full diag
   1   -209.9183994 -0.209918E+03  0.227E-01    0.09       0.0  T
   2   -209.8639257  0.544738E-01  0.825E-01    0.52       1.0  T
   3   -209.9194052 -0.554795E-01  0.105E-01    0.09       1.0  T
   4   -209.9124385  0.696672E-02  0.327E-01    0.14       1.0  T
   5   -209.9136199 -0.118141E-02  0.301E-01    0.13       1.0  T
   6   -209.9166283 -0.300844E-02  0.218E-01    0.08       1.0  T
   7   -209.9201246 -0.349627E-02  0.178E-02    0.10       1.0  T
   8   -209.9192736  0.851006E-03  0.110E-01    0.09       1.0  T
   9   -209.9200998 -0.826237E-03  0.235E-02    0.10       1.0  T
  10   -209.9200278  0.720419E-04  0.397E-02    0.10       1.0  T
  11   -209.9201392 -0.111376E-03  0.428E-03    0.10       2.4  T
  12   -209.9201168  0.223257E-04  0.178E-02    0.10       1.0  T
  13   -209.9201369 -0.200243E-04  0.670E-03    0.10       1.5  T
  14   -209.9201388 -0.189906E-05  0.422E-03    0.10       2.4  T
  15   -209.9201392 -0.404478E-06  0.332E-03    0.10       3.1  T
  16   -209.9201390  0.185178E-06  0.368E-03    0.10       2.8  T
  17   -209.9201400 -0.983606E-06  0.229E-04    0.10      44.4  T
  18   -209.9201397  0.313250E-06  0.209E-03    0.10       4.8  T
  19   -209.9201400 -0.295998E-06  0.515E-04    0.10      19.7  T
     SCC iter.                  ...        0 min,  0.605 sec
     gradient                   ...        0 min,  0.056 sec
 * total energy  :  -207.8185636 Eh     change       -0.2220348E-03 Eh
   gradient norm :     0.0084157 Eh/α   predicted    -0.1995687E-03 ( -10.12%)
   displ. norm   :     0.5694049 α      lambda       -0.3107009E-03
   maximum displ.:     0.2432685 α      in ANC's #7, #2, #3, ...

........................................................................
.............................. CYCLE  249 ..............................
........................................................................

 iter      E             dE          RMSdq      gap      omega  full diag
   1   -209.9076952 -0.209908E+03  0.380E-01    0.07       0.0  T
   2   -209.8257104  0.819848E-01  0.108E+00    0.80       1.0  T
   3   -209.8791057 -0.533953E-01  0.744E-01    0.28       1.0  T
   4   -209.9039787 -0.248730E-01  0.430E-01    0.15       1.0  T
   5   -209.6568703  0.247108E+00  0.192E+00    0.01       1.0  T
   6   -209.9166659 -0.259796E+00  0.759E-02    0.11       1.0  T
   7   -209.9168025 -0.136654E-03  0.542E-02    0.09       1.0  T
   8   -209.9166438  0.158770E-03  0.699E-02    0.09       1.0  T
   9   -209.9169987 -0.354910E-03  0.965E-03    0.10       1.1  T
  10   -209.9170027 -0.403538E-05  0.559E-03    0.10       1.8  T
  11   -209.9170014  0.133742E-05  0.625E-03    0.10       1.6  T
  12   -209.9170033 -0.191480E-05  0.310E-03    0.10       3.3  T
  13   -209.9169880  0.152446E-04  0.148E-02    0.10       1.0  T
  14   -209.9170031 -0.150976E-04  0.260E-03    0.10       3.9  T
  15   -209.9170032 -0.509730E-07  0.243E-03    0.10       4.2  T
  16   -209.9170036 -0.352864E-06  0.924E-04    0.10      11.0  T
  17   -209.9170032  0.362811E-06  0.241E-03    0.10       4.2  T
  18   -209.9170032 -0.198622E-07  0.232E-03    0.10       4.4  T
  19   -209.9170036 -0.387953E-06  0.270E-04    0.10      37.6  T
     SCC iter.                  ...        0 min,  0.549 sec
     gradient                   ...        0 min,  0.057 sec
 * total energy  :  -207.8187798 Eh     change       -0.2162302E-03 Eh
   gradient norm :     0.0092389 Eh/α   predicted    -0.2057206E-03 (  -4.86%)
   displ. norm   :     0.5331506 α      lambda       -0.3411893E-03
   maximum displ.:     0.2304872 α      in ANC's #7, #2, #3, ...

........................................................................
.............................. CYCLE  250 ..............................
........................................................................

 iter      E             dE          RMSdq      gap      omega  full diag
   1   -209.8895574 -0.209890E+03  0.651E-01    0.06       0.0  T
   2   -209.7733562  0.116201E+00  0.144E+00    0.76       1.0  T
   3   -209.8603941 -0.870378E-01  0.939E-01    0.59       1.0  T
   4   -209.8793514 -0.189573E-01  0.738E-01    0.28       1.0  T
   5   -209.9020395 -0.226881E-01  0.502E-01    0.16       1.0  T
   6   -209.7871789  0.114861E+00  0.139E+00    0.02       1.0  T
   7   -209.9195664 -0.132388E+00  0.571E-02    0.09       1.0  T
   8   -209.9161550  0.341147E-02  0.226E-01    0.12       1.0  T
   9   -209.9186329 -0.247791E-02  0.129E-01    0.11       1.0  T
  10   -209.9197383 -0.110545E-02  0.325E-02    0.10       1.0  T
  11   -209.9197948 -0.565158E-04  0.150E-02    0.10       1.0  T
  12   -209.9197414  0.534838E-04  0.311E-02    0.10       1.0  T
  13   -209.9198018 -0.603863E-04  0.111E-02    0.10       1.0  T
  14   -209.9198057 -0.393612E-05  0.785E-03    0.10       1.3  T
  15   -209.9198101 -0.437845E-05  0.104E-03    0.10       9.8  T
  16   -209.9198100  0.165040E-07  0.107E-03    0.10       9.5  T
  17   -209.9198091  0.974322E-06  0.377E-03    0.10       2.7  T
  18   -209.9198101 -0.102488E-05  0.375E-04    0.10      27.1  T
  19   -209.9198093  0.798668E-06  0.334E-03    0.10       3.0  T
  20   -209.9198101 -0.768097E-06  0.703E-04    0.10      14.4  T
  21   -209.9198100  0.621783E-07  0.116E-03    0.10       8.7  T
  22   -209.9198101 -0.848509E-07  0.417E-04    0.10      24.3  T
     SCC iter.                  ...        0 min,  0.601 sec
     gradient                   ...        0 min,  0.057 sec
 * total energy  :  -207.8190067 Eh     change       -0.2269264E-03 Eh
   gradient norm :     0.0104676 Eh/α   predicted    -0.2190884E-03 (  -3.45%)
   displ. norm   :     0.5052809 α      lambda       -0.3572553E-03
   maximum displ.:     0.2226622 α      in ANC's #2, #7, #3, ...

........................................................................
.............................. CYCLE  251 ..............................
........................................................................

 iter      E             dE          RMSdq      gap      omega  full diag
   1   -209.9191637 -0.209919E+03  0.221E-01    0.08       0.0  T
   2   -209.8585199  0.606438E-01  0.872E-01    0.58       1.0  T
   3   -209.9092985 -0.507786E-01  0.420E-01    0.15       1.0  T
   4   -209.9213830 -0.120844E-01  0.519E-02    0.10       1.0  T
   5   -209.9131316  0.825139E-02  0.335E-01    0.07       1.0  T
   6   -209.9212023 -0.807067E-02  0.580E-02    0.10       1.0  T
   7   -209.9213049 -0.102667E-03  0.431E-02    0.10       1.0  T
   8   -209.9214125 -0.107532E-03  0.214E-02    0.10       1.0  T
   9   -209.9214184 -0.587717E-05  0.187E-02    0.10       1.0  T
  10   -209.9214391 -0.207153E-04  0.803E-03    0.10       1.3  T
  11   -209.9214304  0.862055E-05  0.132E-02    0.10       1.0  T
  12   -209.9214423 -0.118931E-04  0.375E-03    0.10       2.7  T
  13   -209.9214405  0.183989E-05  0.618E-03    0.10       1.6  T
  14   -209.9214433 -0.277803E-05  0.631E-04    0.10      16.1  T
  15   -209.9214433  0.151178E-07  0.703E-04    0.10      14.4  T
  16   -209.9214432  0.800502E-07  0.128E-03    0.10       8.0  T
  17   -209.9214433 -0.113799E-06  0.150E-04    0.10      67.8  T
     SCC iter.                  ...        0 min,  0.468 sec
     gradient                   ...        0 min,  0.054 sec
 * total energy  :  -207.8192837 Eh     change       -0.2769369E-03 Eh
   gradient norm :     0.0083535 Eh/α   predicted    -0.2242335E-03 ( -19.03%)
   displ. norm   :     0.5956481 α      lambda       -0.4261122E-03
   maximum displ.:     0.2614195 α      in ANC's #2, #7, #3, ...

........................................................................
.............................. CYCLE  252 ..............................
........................................................................

 iter      E             dE          RMSdq      gap      omega  full diag
   1   -209.9204792 -0.209920E+03  0.229E-01    0.10       0.0  T
   2   -209.2855004  0.634979E+00  0.301E+00    0.00       1.0  T
   3   -209.8877679 -0.602268E+00  0.649E-01    0.22       1.0  T
   4   -209.9184617 -0.306937E-01  0.212E-01    0.12       1.0  T
   5   -209.9105433  0.791834E-02  0.373E-01    0.14       1.0  T
   6   -209.9161860 -0.564269E-02  0.257E-01    0.12       1.0  T
   7   -209.9205633 -0.437727E-02  0.734E-02    0.10       1.0  T
   8   -209.9208897 -0.326451E-03  0.304E-02    0.09       1.0  T
   9   -209.9207371  0.152652E-03  0.535E-02    0.09       1.0  T
  10   -209.9209450 -0.207932E-03  0.105E-02    0.10       1.0  T
  11   -209.9209500 -0.504149E-05  0.692E-03    0.10       1.5  T
  12   -209.9209530 -0.292272E-05  0.263E-03    0.10       3.9  T
  13   -209.9209520  0.993528E-06  0.427E-03    0.10       2.4  T
  14   -209.9209520 -0.526108E-07  0.421E-03    0.10       2.4  T
  15   -209.9209533 -0.122529E-05  0.116E-03    0.10       8.8  T
  16   -209.9209533 -0.626727E-07  0.649E-04    0.10      15.6  T
  17   -209.9209533 -0.141243E-07  0.436E-04    0.10      23.3  T
     SCC iter.                  ...        0 min,  0.489 sec
     gradient                   ...        0 min,  0.056 sec
 * total energy  :  -207.8195839 Eh     change       -0.3001952E-03 Eh
   gradient norm :     0.0075203 Eh/α   predicted    -0.2886484E-03 (  -3.85%)
   displ. norm   :     0.6174733 α      lambda       -0.3817005E-03
   maximum displ.:     0.2743020 α      in ANC's #2, #7, #3, ...

........................................................................
.............................. CYCLE  253 ..............................
........................................................................

 iter      E             dE          RMSdq      gap      omega  full diag
   1   -209.9167998 -0.209917E+03  0.290E-01    0.08       0.0  T
   2   -209.8475077  0.692921E-01  0.938E-01    0.69       1.0  T
   3   -209.9063931 -0.588854E-01  0.468E-01    0.15       1.0  T
   4   -209.9188039 -0.124108E-01  0.169E-01    0.08       1.0  T
   5   -209.9196839 -0.879988E-03  0.134E-01    0.11       1.0  T
   6   -209.9205458 -0.861856E-03  0.611E-02    0.10       1.0  T
   7   -209.9193302  0.121552E-02  0.145E-01    0.09       1.0  T
   8   -209.9208316 -0.150132E-02  0.880E-03    0.10       1.2  T
   9   -209.9208327 -0.119686E-05  0.719E-03    0.10       1.4  T
  10   -209.9207648  0.679886E-04  0.314E-02    0.10       1.0  T
  11   -209.9208356 -0.708195E-04  0.312E-03    0.10       3.3  T
  12   -209.9208021  0.334736E-04  0.214E-02    0.09       1.0  T
  13   -209.9208290 -0.268561E-04  0.988E-03    0.10       1.0  T
  14   -209.9208360 -0.702190E-05  0.948E-04    0.10      10.7  T
  15   -209.9208346  0.140654E-05  0.445E-03    0.10       2.3  T
  16   -209.9208358 -0.123826E-05  0.175E-03    0.10       5.8  T
  17   -209.9208359 -0.743229E-07  0.145E-03    0.10       7.0  T
  18   -209.9208360 -0.137411E-06  0.475E-04    0.10      21.4  T
  19   -209.9208360  0.155646E-07  0.657E-04    0.10      15.5  T
     SCC iter.                  ...        0 min,  0.527 sec
     gradient                   ...        0 min,  0.056 sec
 * total energy  :  -207.8198699 Eh     change       -0.2860886E-03 Eh
   gradient norm :     0.0072665 Eh/α   predicted    -0.2636217E-03 (  -7.85%)
   displ. norm   :     0.6571687 α      lambda       -0.3643232E-03
   maximum displ.:     0.2960062 α      in ANC's #2, #7, #3, ...

........................................................................
.............................. CYCLE  254 ..............................
........................................................................

 iter      E             dE          RMSdq      gap      omega  full diag
   1   -209.9177957 -0.209918E+03  0.302E-01    0.08       0.0  T
   2   -209.8471445  0.706512E-01  0.947E-01    0.68       1.0  T
   3   -209.9101663 -0.630218E-01  0.431E-01    0.14       1.0  T
   4   -209.9160353 -0.586899E-02  0.287E-01    0.08       1.0  T
   5   -209.9163928 -0.357499E-03  0.283E-01    0.12       1.0  T
   6   -209.9219948 -0.560206E-02  0.237E-02    0.09       1.0  T
   7   -209.9208922  0.110265E-02  0.125E-01    0.09       1.0  T
   8   -209.9220242 -0.113204E-02  0.742E-03    0.10       1.4  T
   9   -209.9219869  0.372691E-04  0.228E-02    0.09       1.0  T
  10   -209.9219263  0.606048E-04  0.368E-02    0.10       1.0  T
  11   -209.9220245 -0.981890E-04  0.450E-03    0.10       2.3  T
  12   -209.9219989  0.256675E-04  0.191E-02    0.09       1.0  T
  13   -209.9220210 -0.221314E-04  0.802E-03    0.10       1.3  T
  14   -209.9220255 -0.450454E-05  0.175E-03    0.10       5.8  T
  15   -209.9220248  0.705123E-06  0.355E-03    0.10       2.9  T
  16   -209.9220255 -0.679669E-06  0.184E-03    0.10       5.5  T
  17   -209.9220256 -0.136520E-06  0.130E-03    0.10       7.8  T
  18   -209.9220257 -0.120574E-06  0.154E-04    0.10      65.7  T
  19   -209.9220257  0.581164E-07  0.896E-04    0.10      11.3  T
     SCC iter.                  ...        0 min,  0.556 sec
     gradient                   ...        0 min,  0.056 sec
 * total energy  :  -207.8201749 Eh     change       -0.3049403E-03 Eh
   gradient norm :     0.0060818 Eh/α   predicted    -0.2608348E-03 ( -14.46%)
   displ. norm   :     0.7385614 α      lambda       -0.4144501E-03
   maximum displ.:     0.3244453 α      in ANC's #2, #7, #3, ...

........................................................................
.............................. CYCLE  255 ..............................
........................................................................

 iter      E             dE          RMSdq      gap      omega  full diag
   1   -209.9192944 -0.209919E+03  0.239E-01    0.09       0.0  T
   2   -209.8665062  0.527882E-01  0.803E-01    0.41       1.0  T
   3   -209.8697891 -0.328295E-02  0.813E-01    0.04       1.0  T
   4   -209.9023614 -0.325723E-01  0.523E-01    0.16       1.0  T
   5   -209.8979856  0.437585E-02  0.548E-01    0.17       1.0  T
   6   -209.9111919 -0.132063E-01  0.358E-01    0.14       1.0  T
   7   -209.9202284 -0.903650E-02  0.375E-02    0.09       1.0  T
   8   -209.9186831  0.154532E-02  0.150E-01    0.08       1.0  T
   9   -209.9201889 -0.150589E-02  0.409E-02    0.09       1.0  T
  10   -209.9201398  0.491545E-04  0.494E-02    0.10       1.0  T
  11   -209.9203160 -0.176168E-03  0.659E-03    0.10       1.5  T
  12   -209.9203066  0.937899E-05  0.131E-02    0.09       1.0  T
  13   -209.9203062  0.397831E-06  0.129E-02    0.09       1.0  T
  14   -209.9203179 -0.116950E-04  0.292E-03    0.10       3.5  T
  15   -209.9203185 -0.597829E-06  0.990E-04    0.10      10.3  T
  16   -209.9203182  0.285380E-06  0.212E-03    0.10       4.8  T
  17   -209.9203185 -0.329059E-06  0.444E-04    0.10      22.8  T
     SCC iter.                  ...        0 min,  0.483 sec
     gradient                   ...        0 min,  0.056 sec
 * total energy  :  -207.8204941 Eh     change       -0.3192564E-03 Eh
   gradient norm :     0.0067358 Eh/α   predicted    -0.3202629E-03 (   0.32%)
   displ. norm   :     0.5265068 α      lambda       -0.4764713E-03
   maximum displ.:     0.2160403 α      in ANC's #4, #2, #3, ...

........................................................................
.............................. CYCLE  256 ..............................
........................................................................

 iter      E             dE          RMSdq      gap      omega  full diag
   1   -209.9430468 -0.209943E+03  0.199E-01    0.10       0.0  T
   2   -209.4966270  0.446420E+00  0.252E+00    0.01       1.0  T
   3   -209.9078731 -0.411246E+00  0.691E-01    0.05       1.0  T
   4   -209.9422986 -0.344255E-01  0.115E-01    0.11       1.0  T
   5   -209.9432368 -0.938234E-03  0.410E-02    0.09       1.0  T
   6   -209.9433171 -0.802524E-04  0.259E-02    0.10       1.0  T
   7   -209.9428803  0.436764E-03  0.784E-02    0.10       1.0  T
   8   -209.9433002 -0.419904E-03  0.290E-02    0.10       1.0  T
   9   -209.9432404  0.598266E-04  0.393E-02    0.10       1.0  T
  10   -209.9433396 -0.992529E-04  0.142E-02    0.10       1.0  T
  11   -209.9433524 -0.127282E-04  0.432E-03    0.10       2.4  T
  12   -209.9433522  0.172508E-06  0.408E-03    0.10       2.5  T
  13   -209.9433532 -0.951916E-06  0.230E-03    0.10       4.4  T
  14   -209.9433530  0.171798E-06  0.267E-03    0.10       3.8  T
  15   -209.9433533 -0.328075E-06  0.156E-03    0.10       6.5  T
  16   -209.9433535 -0.154985E-06  0.494E-04    0.10      20.6  T
  17   -209.9433535 -0.115893E-07  0.208E-04    0.10      48.9  T
     SCC iter.                  ...        0 min,  0.487 sec
     gradient                   ...        0 min,  0.059 sec
 * total energy  :  -207.8204033 Eh     change        0.9085358E-04 Eh
   gradient norm :     0.0155397 Eh/α   predicted    -0.3042806E-03 (-434.91%)
   displ. norm   :     0.4334066 α      lambda       -0.8518879E-03
   maximum displ.:     0.2091863 α      in ANC's #7, #3, #2, ...

........................................................................
.............................. CYCLE  257 ..............................
........................................................................

 iter      E             dE          RMSdq      gap      omega  full diag
   1   -209.9201598 -0.209920E+03  0.184E-01    0.09       0.0  T
   2   -209.8709199  0.492400E-01  0.777E-01    0.36       1.0  T
   3   -209.9190690 -0.481491E-01  0.172E-01    0.11       1.0  T
   4   -209.9178908  0.117817E-02  0.215E-01    0.08       1.0  T
   5   -209.9200566 -0.216573E-02  0.106E-01    0.09       1.0  T
   6   -209.9196311  0.425514E-03  0.130E-01    0.11       1.0  T
   7   -209.9207421 -0.111108E-02  0.446E-02    0.10       1.0  T
   8   -209.9208823 -0.140211E-03  0.114E-02    0.10       1.0  T
   9   -209.9208859 -0.355234E-05  0.947E-03    0.10       1.1  T
  10   -209.9208912 -0.528531E-05  0.281E-03    0.10       3.6  T
  11   -209.9208748  0.163546E-04  0.147E-02    0.09       1.0  T
  12   -209.9208899 -0.150928E-04  0.440E-03    0.10       2.3  T
  13   -209.9208891  0.850612E-06  0.551E-03    0.10       1.8  T
  14   -209.9208908 -0.169880E-05  0.282E-03    0.10       3.6  T
  15   -209.9208913 -0.532415E-06  0.793E-04    0.10      12.8  T
  16   -209.9208912  0.127491E-06  0.150E-03    0.10       6.7  T
  17   -209.9208913 -0.158747E-06  0.157E-04    0.10      64.7  T
     SCC iter.                  ...        0 min,  0.481 sec
     gradient                   ...        0 min,  0.056 sec
 * total energy  :  -207.8208459 Eh     change       -0.4426499E-03 Eh
   gradient norm :     0.0090471 Eh/α   predicted    -0.5059579E-03 (  14.30%)
   displ. norm   :     0.4735233 α      lambda       -0.4092056E-03
   maximum displ.:     0.2043089 α      in ANC's #2, #3, #4, ...

........................................................................
.............................. CYCLE  258 ..............................
........................................................................

 iter      E             dE          RMSdq      gap      omega  full diag
   1   -209.9196518 -0.209920E+03  0.161E-01    0.09       0.0  T
   2   -209.8695113  0.501405E-01  0.782E-01    0.38       1.0  T
   3   -209.9193784 -0.498671E-01  0.137E-01    0.11       1.0  T
   4   -209.9203408 -0.962393E-03  0.440E-02    0.10       1.0  T
   5   -209.9163398  0.400096E-02  0.236E-01    0.08       1.0  T
   6   -209.9199026 -0.356276E-02  0.856E-02    0.09       1.0  T
   7   -209.9202184 -0.315779E-03  0.542E-02    0.10       1.0  T
   8   -209.9204355 -0.217146E-03  0.105E-02    0.10       1.0  T
   9   -209.9203947  0.407879E-04  0.254E-02    0.10       1.0  T
  10   -209.9204283 -0.335675E-04  0.134E-02    0.10       1.0  T
  11   -209.9204367 -0.833726E-05  0.811E-03    0.10       1.3  T
  12   -209.9204382 -0.157795E-05  0.650E-03    0.10       1.6  T
  13   -209.9204370  0.126547E-05  0.780E-03    0.10       1.3  T
  14   -209.9204415 -0.455666E-05  0.643E-04    0.10      15.8  T
  15   -209.9204415  0.198851E-07  0.716E-04    0.10      14.2  T
  16   -209.9204415 -0.210192E-07  0.412E-04    0.10      24.6  T
     SCC iter.                  ...        0 min,  0.455 sec
     gradient                   ...        0 min,  0.056 sec
 * total energy  :  -207.8210283 Eh     change       -0.1823151E-03 Eh
   gradient norm :     0.0087871 Eh/α   predicted    -0.2504836E-03 (  37.39%)
   displ. norm   :     0.6307276 α      lambda       -0.3440280E-03
   maximum displ.:     0.2855651 α      in ANC's #2, #3, #7, ...
 * RMSD in coord.:     1.4005474 α      energy gain  -0.1406570E-01 Eh

generating ANC from exact Hessian ...
Using Lindh-Hessian (1995)
 Shifting diagonal of input Hessian by   1.041581302872281E-002
 Lowest  eigenvalues of input Hessian
    0.010000    0.010122    0.010220    0.000000    0.000000    0.000000
    0.000000    0.000000    0.000000    0.010481    0.010577    0.010633
    0.010711    0.010930    0.010971    0.011282    0.011390    0.011549
 Highest eigenvalues
    2.108183    2.184897    2.197057    2.386276    2.518402    3.323549
 

........................................................................
.............................. CYCLE  259 ..............................
........................................................................

 iter      E             dE          RMSdq      gap      omega  full diag
   1   -209.9201388 -0.209920E+03  0.175E-01    0.09       0.0  T
   2   -209.9047794  0.153594E-01  0.447E-01    0.15       1.0  T
   3   -209.6842061  0.220573E+00  0.180E+00    0.01       1.0  T
   4   -209.9194137 -0.235208E+00  0.115E-01    0.11       1.0  T
   5   -209.9154261  0.398762E-02  0.249E-01    0.12       1.0  T
   6   -209.9189984 -0.357229E-02  0.129E-01    0.11       1.0  T
   7   -209.9198303 -0.831914E-03  0.700E-02    0.10       1.0  T
   8   -209.9201850 -0.354686E-03  0.114E-02    0.10       1.0  T
   9   -209.9201795  0.547781E-05  0.138E-02    0.09       1.0  T
  10   -209.9201884 -0.893142E-05  0.891E-03    0.10       1.1  T
  11   -209.9201933 -0.485767E-05  0.356E-03    0.10       2.9  T
  12   -209.9201930  0.270140E-06  0.366E-03    0.10       2.8  T
  13   -209.9201939 -0.902414E-06  0.104E-03    0.10       9.8  T
  14   -209.9201932  0.759656E-06  0.321E-03    0.10       3.2  T
  15   -209.9201939 -0.740953E-06  0.884E-04    0.10      11.5  T
  16   -209.9201939 -0.479941E-07  0.288E-04    0.10      35.2  T
     SCC iter.                  ...        0 min,  0.514 sec
     gradient                   ...        0 min,  0.058 sec
 * total energy  :  -207.8213042 Eh     change       -0.2759419E-03 Eh
   gradient norm :     0.0064810 Eh/α   predicted     0.0000000E+00 (-100.00%)
   displ. norm   :     0.0834452 α      lambda       -0.1789056E-03
   maximum displ.:     0.0334657 α      in ANC's #4, #15, #9, ...

........................................................................
.............................. CYCLE  260 ..............................
........................................................................

 iter      E             dE          RMSdq      gap      omega  full diag
   1   -209.9233013 -0.209923E+03  0.956E-02    0.10       0.0  T
   2   -209.2107163  0.712585E+00  0.317E+00    0.00       1.0  T
   3   -209.9239184 -0.713202E+00  0.224E-02    0.10       1.0  T
   4   -209.9233319  0.586535E-03  0.852E-02    0.10       1.0  T
   5   -209.9239249 -0.593053E-03  0.111E-02    0.10       1.0  T
   6   -209.9239325 -0.755135E-05  0.332E-03    0.10       3.1  T
   7   -209.9239121  0.203641E-04  0.163E-02    0.09       1.0  T
   8   -209.9239238 -0.117113E-04  0.107E-02    0.10       1.0  T
   9   -209.9239328 -0.896058E-05  0.964E-04    0.10      10.5  T
  10   -209.9239320  0.802035E-06  0.331E-03    0.10       3.1  T
  11   -209.9239323 -0.269394E-06  0.270E-03    0.10       3.8  T
  12   -209.9239327 -0.444839E-06  0.118E-03    0.10       8.6  T
  13   -209.9239328 -0.102233E-06  0.404E-04    0.10      25.1  T
  14   -209.9239328  0.441921E-08  0.435E-04    0.10      23.3  T
     SCC iter.                  ...        0 min,  0.415 sec
     gradient                   ...        0 min,  0.059 sec
 * total energy  :  -207.8214400 Eh     change       -0.1357669E-03 Eh
   gradient norm :     0.0036135 Eh/α   predicted    -0.9007749E-04 ( -33.65%)
   displ. norm   :     0.2351135 α      lambda       -0.3103310E-03
   maximum displ.:     0.1023250 α      in ANC's #4, #15, #9, ...

........................................................................
.............................. CYCLE  261 ..............................
........................................................................

 iter      E             dE          RMSdq      gap      omega  full diag
   1   -209.9273591 -0.209927E+03  0.204E-01    0.11       0.0  T
   2   -207.4624060  0.246495E+01  0.591E+00    0.15       1.0  T
   3   -209.9297658 -0.246736E+01  0.560E-02    0.09       1.0  T
   4   -209.9280992  0.166663E-02  0.144E-01    0.11       1.0  T
   5   -209.9298643 -0.176513E-02  0.230E-02    0.10       1.0  T
   6   -209.9297050  0.159328E-03  0.495E-02    0.09       1.0  T
   7   -209.9293716  0.333404E-03  0.793E-02    0.09       1.0  T
   8   -209.9293964 -0.248311E-04  0.753E-02    0.09       1.0  T
   9   -209.9298421 -0.445644E-03  0.296E-02    0.10       1.0  T
  10   -209.9298556 -0.135562E-04  0.200E-02    0.10       1.0  T
  11   -209.9298673 -0.116568E-04  0.104E-02    0.10       1.0  T
  12   -209.9298733 -0.605762E-05  0.242E-03    0.10       4.2  T
  13   -209.9298706  0.271728E-05  0.651E-03    0.10       1.6  T
  14   -209.9298730 -0.237805E-05  0.276E-03    0.10       3.7  T
  15   -209.9298736 -0.556010E-06  0.105E-03    0.10       9.7  T
  16   -209.9298736 -0.299496E-07  0.453E-04    0.10      22.4  T
  17   -209.9298736  0.293474E-07  0.714E-04    0.10      14.2  T
     SCC iter.                  ...        0 min,  0.477 sec
     gradient                   ...        0 min,  0.056 sec
 * total energy  :  -207.8215679 Eh     change       -0.1279266E-03 Eh
   gradient norm :     0.0061101 Eh/α   predicted    -0.1637615E-03 (  28.01%)
   displ. norm   :     0.1939934 α      lambda       -0.2451076E-03
   maximum displ.:     0.0893390 α      in ANC's #4, #9, #8, ...

........................................................................
.............................. CYCLE  262 ..............................
........................................................................

 iter      E             dE          RMSdq      gap      omega  full diag
   1   -209.9296783 -0.209930E+03  0.147E-01    0.11       0.0  T
   2   -208.9841419  0.945536E+00  0.362E+00    0.01       1.0  T
   3   -209.9272291 -0.943087E+00  0.213E-01    0.12       1.0  T
   4   -209.9268710  0.358145E-03  0.211E-01    0.12       1.0  T
   5   -209.9305280 -0.365702E-02  0.330E-02    0.10       1.0  T
   6   -209.9305901 -0.620590E-04  0.164E-02    0.10       1.0  T
   7   -209.9305511  0.389543E-04  0.272E-02    0.10       1.0  T
   8   -209.9302510  0.300154E-03  0.652E-02    0.09       1.0  T
   9   -209.9305756 -0.324691E-03  0.158E-02    0.10       1.0  T
  10   -209.9305953 -0.196881E-04  0.543E-03    0.10       1.9  T
  11   -209.9305959 -0.538722E-06  0.259E-03    0.10       3.9  T
  12   -209.9305951  0.728418E-06  0.396E-03    0.10       2.6  T
  13   -209.9305957 -0.557460E-06  0.287E-03    0.10       3.5  T
  14   -209.9305962 -0.512922E-06  0.104E-03    0.10       9.8  T
  15   -209.9305963 -0.400692E-07  0.626E-04    0.10      16.2  T
  16   -209.9305963 -0.949302E-08  0.467E-04    0.10      21.7  T
     SCC iter.                  ...        0 min,  0.458 sec
     gradient                   ...        0 min,  0.056 sec
 * total energy  :  -207.8217032 Eh     change       -0.1353455E-03 Eh
   gradient norm :     0.0060254 Eh/α   predicted    -0.1271806E-03 (  -6.03%)
   displ. norm   :     0.1837265 α      lambda       -0.1834245E-03
   maximum displ.:     0.0894284 α      in ANC's #4, #9, #8, ...

........................................................................
.............................. CYCLE  263 ..............................
........................................................................

 iter      E             dE          RMSdq      gap      omega  full diag
   1   -209.9284752 -0.209928E+03  0.748E-02    0.10       0.0  T
   2   -209.8146230  0.113852E+00  0.124E+00    0.03       1.0  T
   3   -209.9285254 -0.113902E+00  0.261E-02    0.10       1.0  T
   4   -209.9285157  0.970166E-05  0.194E-02    0.10       1.0  T
   5   -209.9284385  0.772360E-04  0.358E-02    0.10       1.0  T
   6   -209.9285288 -0.902966E-04  0.113E-02    0.10       1.0  T
   7   -209.9285110  0.177570E-04  0.183E-02    0.10       1.0  T
   8   -209.9285362 -0.251768E-04  0.510E-03    0.10       2.0  T
   9   -209.9285362 -0.374458E-07  0.525E-03    0.10       1.9  T
  10   -209.9285370 -0.812999E-06  0.409E-03    0.10       2.5  T
  11   -209.9285380 -0.998083E-06  0.167E-03    0.10       6.1  T
  12   -209.9285381 -0.857594E-07  0.114E-03    0.10       8.9  T
  13   -209.9285382 -0.414972E-07  0.818E-04    0.10      12.4  T
  14   -209.9285382 -0.452163E-07  0.244E-04    0.10      41.7  T
     SCC iter.                  ...        0 min,  0.392 sec
     gradient                   ...        0 min,  0.057 sec
 * total energy  :  -207.8218299 Eh     change       -0.1266505E-03 Eh
   gradient norm :     0.0048238 Eh/α   predicted    -0.9481273E-04 ( -25.14%)
   displ. norm   :     0.3788240 α      lambda       -0.3426241E-03
   maximum displ.:     0.1830571 α      in ANC's #4, #9, #8, ...

........................................................................
.............................. CYCLE  264 ..............................
........................................................................

 iter      E             dE          RMSdq      gap      omega  full diag
   1   -209.9188525 -0.209919E+03  0.252E-01    0.12       0.0  T
   2   -207.2770430  0.264181E+01  0.609E+00    0.16       1.0  T
   3   -209.9228625 -0.264582E+01  0.668E-02    0.10       1.0  T
   4   -209.9217278  0.113476E-02  0.119E-01    0.11       1.0  T
   5   -209.9220428 -0.314998E-03  0.121E-01    0.09       1.0  T
   6   -209.9207146  0.132812E-02  0.176E-01    0.08       1.0  T
   7   -209.9205562  0.158465E-03  0.187E-01    0.08       1.0  T
   8   -209.9227587 -0.220256E-02  0.776E-02    0.10       1.0  T
   9   -209.9228794 -0.120622E-03  0.522E-02    0.10       1.0  T
  10   -209.9230333 -0.153971E-03  0.102E-02    0.10       1.0  T
  11   -209.9230369 -0.352873E-05  0.401E-03    0.10       2.5  T
  12   -209.9230329  0.391646E-05  0.853E-03    0.10       1.2  T
  13   -209.9230348 -0.184577E-05  0.600E-03    0.10       1.7  T
  14   -209.9230376 -0.281065E-05  0.158E-03    0.10       6.4  T
  15   -209.9230376  0.189847E-07  0.107E-03    0.10       9.5  T
  16   -209.9230376 -0.249570E-07  0.731E-04    0.10      13.9  T
  17   -209.9230376 -0.152917E-08  0.612E-04    0.10      16.6  T
     SCC iter.                  ...        0 min,  0.471 sec
     gradient                   ...        0 min,  0.057 sec
 * total energy  :  -207.8220269 Eh     change       -0.1970576E-03 Eh
   gradient norm :     0.0060114 Eh/α   predicted    -0.1958970E-03 (  -0.59%)
   displ. norm   :     0.3552934 α      lambda       -0.2509400E-03
   maximum displ.:     0.1737185 α      in ANC's #4, #9, #8, ...

........................................................................
.............................. CYCLE  265 ..............................
........................................................................

 iter      E             dE          RMSdq      gap      omega  full diag
   1   -209.9163425 -0.209916E+03  0.269E-01    0.08       0.0  T
   2   -209.8465959  0.697466E-01  0.941E-01    0.72       1.0  T
   3   -209.9031353 -0.565395E-01  0.511E-01    0.17       1.0  T
   4   -209.9196437 -0.165084E-01  0.152E-01    0.11       1.0  T
   5   -209.9209027 -0.125896E-02  0.456E-02    0.10       1.0  T
   6   -209.9202361  0.666564E-03  0.103E-01    0.11       1.0  T
   7   -209.9191906  0.104546E-02  0.159E-01    0.09       1.0  T
   8   -209.9210090 -0.181835E-02  0.229E-02    0.10       1.0  T
   9   -209.9210441 -0.351539E-04  0.980E-03    0.10       1.0  T
  10   -209.9209920  0.521569E-04  0.278E-02    0.10       1.0  T
  11   -209.9210469 -0.549495E-04  0.645E-03    0.10       1.6  T
  12   -209.9210472 -0.277715E-06  0.591E-03    0.10       1.7  T
  13   -209.9210495 -0.229533E-05  0.207E-03    0.10       4.9  T
  14   -209.9210498 -0.297345E-06  0.706E-04    0.10      14.4  T
  15   -209.9210498  0.138320E-08  0.624E-04    0.10      16.3  T
     SCC iter.                  ...        0 min,  0.418 sec
     gradient                   ...        0 min,  0.059 sec
 * total energy  :  -207.8221824 Eh     change       -0.1554214E-03 Eh
   gradient norm :     0.0066210 Eh/α   predicted    -0.1413088E-03 (  -9.08%)
   displ. norm   :     0.3822827 α      lambda       -0.2613186E-03
   maximum displ.:     0.1895822 α      in ANC's #4, #9, #8, ...

........................................................................
.............................. CYCLE  266 ..............................
........................................................................

 iter      E             dE          RMSdq      gap      omega  full diag
   1   -209.9191916 -0.209919E+03  0.202E-01    0.12       0.0  T
   2   -207.3624944  0.255670E+01  0.602E+00    0.16       1.0  T
   3   -209.8804379 -0.251794E+01  0.753E-01    0.05       1.0  T
   4   -209.8662019  0.142359E-01  0.859E-01    0.04       1.0  T
   5   -209.8483586  0.178433E-01  0.967E-01    0.04       1.0  T
   6   -209.8919970 -0.436384E-01  0.596E-01    0.06       1.0  T
   7   -209.9218755 -0.298785E-01  0.128E-01    0.10       1.0  T
   8   -209.9219868 -0.111271E-03  0.908E-02    0.10       1.0  T
   9   -209.9217820  0.204809E-03  0.971E-02    0.11       1.0  T
  10   -209.9216979  0.840329E-04  0.918E-02    0.11       1.0  T
  11   -209.9218282 -0.130289E-03  0.711E-02    0.11       1.0  T
  12   -209.9219951 -0.166912E-03  0.474E-02    0.10       1.0  T
  13   -209.9221647 -0.169563E-03  0.965E-03    0.10       1.1  T
  14   -209.9221506  0.141208E-04  0.192E-02    0.10       1.0  T
  15   -209.9221401  0.105217E-04  0.206E-02    0.10       1.0  T
  16   -209.9221554 -0.152963E-04  0.115E-02    0.10       1.0  T
  17   -209.9221628 -0.744879E-05  0.519E-03    0.10       2.0  T
  18   -209.9221646 -0.182451E-05  0.228E-03    0.10       4.5  T
  19   -209.9221650 -0.354059E-06  0.123E-03    0.10       8.2  T
  20   -209.9221650 -0.179045E-07  0.791E-04    0.10      12.8  T
  21   -209.9221651 -0.528406E-07  0.493E-04    0.10      20.6  T
     SCC iter.                  ...        0 min,  0.603 sec
     gradient                   ...        0 min,  0.058 sec
 * total energy  :  -207.8223822 Eh     change       -0.1998213E-03 Eh
   gradient norm :     0.0052342 Eh/α   predicted    -0.1497541E-03 ( -25.06%)
   displ. norm   :     0.4912977 α      lambda       -0.3598238E-03
   maximum displ.:     0.2467579 α      in ANC's #4, #9, #2, ...

........................................................................
.............................. CYCLE  267 ..............................
........................................................................

 iter      E             dE          RMSdq      gap      omega  full diag
   1   -209.9222840 -0.209922E+03  0.235E-01    0.12       0.0  T
   2   -207.3204951  0.260179E+01  0.606E+00    0.16       1.0  T
   3   -209.9236172 -0.260312E+01  0.165E-01    0.11       1.0  T
   4   -209.9227471  0.870092E-03  0.178E-01    0.12       1.0  T
   5   -209.9256104 -0.286334E-02  0.585E-02    0.10       1.0  T
   6   -209.9250181  0.592324E-03  0.108E-01    0.09       1.0  T
   7   -209.9250868 -0.686948E-04  0.107E-01    0.09       1.0  T
   8   -209.9256404 -0.553570E-03  0.339E-02    0.10       1.0  T
   9   -209.9255932  0.471648E-04  0.380E-02    0.10       1.0  T
  10   -209.9257032 -0.109933E-03  0.606E-03    0.10       1.7  T
  11   -209.9257040 -0.819067E-06  0.449E-03    0.10       2.3  T
  12   -209.9256999  0.407613E-05  0.866E-03    0.10       1.2  T
  13   -209.9257040 -0.409225E-05  0.350E-03    0.10       2.9  T
  14   -209.9257039  0.947574E-07  0.423E-03    0.10       2.4  T
  15   -209.9257048 -0.906165E-06  0.150E-03    0.10       6.8  T
  16   -209.9257049 -0.697326E-07  0.507E-04    0.10      20.0  T
  17   -209.9257048  0.471723E-07  0.997E-04    0.10      10.2  T
     SCC iter.                  ...        0 min,  0.522 sec
     gradient                   ...        0 min,  0.057 sec
 * total energy  :  -207.8226614 Eh     change       -0.2792435E-03 Eh
   gradient norm :     0.0046891 Eh/α   predicted    -0.2233424E-03 ( -20.02%)
   displ. norm   :     0.6147245 α      lambda       -0.3522944E-03
   maximum displ.:     0.3068157 α      in ANC's #4, #9, #2, ...

........................................................................
.............................. CYCLE  268 ..............................
........................................................................

 iter      E             dE          RMSdq      gap      omega  full diag
   1   -209.9256518 -0.209926E+03  0.134E-01    0.10       0.0  T
   2   -209.4013485  0.524303E+00  0.272E+00    0.01       1.0  T
   3   -209.9112255 -0.509877E+00  0.439E-01    0.07       1.0  T
   4   -209.9241284 -0.129028E-01  0.147E-01    0.11       1.0  T
   5   -209.9257687 -0.164032E-02  0.450E-02    0.10       1.0  T
   6   -209.9256140  0.154728E-03  0.625E-02    0.11       1.0  T
   7   -209.9258262 -0.212216E-03  0.369E-02    0.10       1.0  T
   8   -209.9259282 -0.102064E-03  0.855E-03    0.10       1.2  T
   9   -209.9259298 -0.155634E-05  0.633E-03    0.10       1.6  T
  10   -209.9259317 -0.192354E-05  0.250E-03    0.10       4.1  T
  11   -209.9259308  0.923598E-06  0.415E-03    0.10       2.4  T
  12   -209.9259301  0.691789E-06  0.506E-03    0.10       2.0  T
  13   -209.9259309 -0.811788E-06  0.375E-03    0.10       2.7  T
  14   -209.9259319 -0.101646E-05  0.547E-04    0.10      18.6  T
  15   -209.9259319  0.145170E-07  0.675E-04    0.10      15.0  T
  16   -209.9259318  0.687193E-07  0.117E-03    0.10       8.6  T
  17   -209.9259319 -0.230224E-07  0.101E-03    0.10      10.1  T
  18   -209.9259319 -0.552519E-07  0.500E-04    0.10      20.3  T
     SCC iter.                  ...        0 min,  0.508 sec
     gradient                   ...        0 min,  0.056 sec
 * total energy  :  -207.8229668 Eh     change       -0.3053425E-03 Eh
   gradient norm :     0.0058634 Eh/α   predicted    -0.2427118E-03 ( -20.51%)
   displ. norm   :     0.7024845 α      lambda       -0.4134890E-03
   maximum displ.:     0.3481627 α      in ANC's #4, #9, #2, ...

........................................................................
.............................. CYCLE  269 ..............................
........................................................................

 iter      E             dE          RMSdq      gap      omega  full diag
   1   -209.9245075 -0.209925E+03  0.151E-01    0.10       0.0  T
   2   -209.4999617  0.424546E+00  0.244E+00    0.01       1.0  T
   3   -209.9187797 -0.418818E+00  0.282E-01    0.08       1.0  T
   4   -209.9233212 -0.454155E-02  0.130E-01    0.11       1.0  T
   5   -209.9244016 -0.108039E-02  0.613E-02    0.09       1.0  T
   6   -209.9246400 -0.238410E-03  0.300E-02    0.10       1.0  T
   7   -209.9246406 -0.567369E-06  0.307E-02    0.10       1.0  T
   8   -209.9247129 -0.723568E-04  0.484E-03    0.10       2.1  T
   9   -209.9247126  0.323367E-06  0.458E-03    0.10       2.2  T
  10   -209.9247132 -0.635933E-06  0.260E-03    0.10       3.9  T
  11   -209.9247113  0.190663E-05  0.551E-03    0.10       1.8  T
  12   -209.9247128 -0.143232E-05  0.339E-03    0.10       3.0  T
  13   -209.9247130 -0.283728E-06  0.263E-03    0.10       3.9  T
  14   -209.9247135 -0.475144E-06  0.434E-04    0.10      23.4  T
  15   -209.9247135  0.210605E-09  0.360E-04    0.10      28.2  T
     SCC iter.                  ...        0 min,  0.421 sec
     gradient                   ...        0 min,  0.057 sec
 * total energy  :  -207.8233316 Eh     change       -0.3648593E-03 Eh
   gradient norm :     0.0064282 Eh/α   predicted    -0.3087740E-03 ( -15.37%)
   displ. norm   :     0.7362070 α      lambda       -0.5035643E-03
   maximum displ.:     0.3593644 α      in ANC's #4, #2, #9, ...

........................................................................
.............................. CYCLE  270 ..............................
........................................................................

 iter      E             dE          RMSdq      gap      omega  full diag
   1   -209.9239150 -0.209924E+03  0.179E-01    0.09       0.0  T
   2   -209.8813392  0.425758E-01  0.721E-01    0.32       1.0  T
   3   -209.8558096  0.255296E-01  0.954E-01    0.04       1.0  T
   4   -209.9158246 -0.600150E-01  0.361E-01    0.14       1.0  T
   5   -209.9100396  0.578500E-02  0.439E-01    0.16       1.0  T
   6   -209.9189196 -0.888004E-02  0.274E-01    0.13       1.0  T
   7   -209.9243935 -0.547394E-02  0.185E-02    0.10       1.0  T
   8   -209.9241706  0.222894E-03  0.573E-02    0.09       1.0  T
   9   -209.9244010 -0.230331E-03  0.135E-02    0.10       1.0  T
  10   -209.9243184  0.825288E-04  0.357E-02    0.10       1.0  T
  11   -209.9243870 -0.685649E-04  0.197E-02    0.10       1.0  T
  12   -209.9244145 -0.274865E-04  0.255E-03    0.10       4.0  T
  13   -209.9244132  0.125186E-05  0.476E-03    0.10       2.1  T
  14   -209.9244138 -0.516508E-06  0.368E-03    0.10       2.8  T
  15   -209.9244142 -0.488165E-06  0.270E-03    0.10       3.8  T
  16   -209.9244147 -0.448271E-06  0.120E-03    0.10       8.5  T
  17   -209.9244148 -0.688022E-07  0.775E-04    0.10      13.1  T
  18   -209.9244148  0.866294E-09  0.765E-04    0.10      13.3  T
     SCC iter.                  ...        0 min,  0.497 sec
     gradient                   ...        0 min,  0.057 sec
 * total energy  :  -207.8237512 Eh     change       -0.4195509E-03 Eh
   gradient norm :     0.0065776 Eh/α   predicted    -0.3882509E-03 (  -7.46%)
   displ. norm   :     0.7272602 α      lambda       -0.4994493E-03
   maximum displ.:     0.3515400 α      in ANC's #4, #2, #9, ...

........................................................................
.............................. CYCLE  271 ..............................
........................................................................

 iter      E             dE          RMSdq      gap      omega  full diag
   1   -209.9214007 -0.209921E+03  0.237E-01    0.09       0.0  T
   2   -209.8636361  0.577646E-01  0.845E-01    0.57       1.0  T
   3   -209.9194657 -0.558296E-01  0.219E-01    0.08       1.0  T
   4   -209.8981199  0.213457E-01  0.574E-01    0.20       1.0  T
   5   -209.9036201 -0.550012E-02  0.509E-01    0.18       1.0  T
   6   -209.9235792 -0.199591E-01  0.362E-02    0.10       1.0  T
   7   -209.9210508  0.252844E-02  0.186E-01    0.08       1.0  T
   8   -209.9235394 -0.248862E-02  0.362E-02    0.10       1.0  T
   9   -209.9231333  0.406112E-03  0.814E-02    0.11       1.0  T
  10   -209.9234908 -0.357474E-03  0.421E-02    0.10       1.0  T
  11   -209.9235464 -0.556692E-04  0.308E-02    0.10       1.0  T
  12   -209.9236136 -0.671500E-04  0.742E-03    0.10       1.4  T
  13   -209.9236109  0.266927E-05  0.917E-03    0.10       1.1  T
  14   -209.9236099  0.104275E-05  0.101E-02    0.10       1.0  T
  15   -209.9236171 -0.722785E-05  0.917E-04    0.10      11.1  T
  16   -209.9236171  0.204852E-08  0.767E-04    0.10      13.2  T
  17   -209.9236164  0.686251E-06  0.311E-03    0.10       3.3  T
  18   -209.9236164 -0.525304E-07  0.303E-03    0.10       3.4  T
  19   -209.9236169 -0.448218E-06  0.173E-03    0.10       5.9  T
  20   -209.9236171 -0.201909E-06  0.466E-04    0.10      21.8  T
     SCC iter.                  ...        0 min,  0.572 sec
     gradient                   ...        0 min,  0.060 sec
 * total energy  :  -207.8241672 Eh     change       -0.4160262E-03 Eh
   gradient norm :     0.0068806 Eh/α   predicted    -0.3818080E-03 (  -8.23%)
   displ. norm   :     0.7298217 α      lambda       -0.4857359E-03
   maximum displ.:     0.3513738 α      in ANC's #4, #2, #9, ...

........................................................................
.............................. CYCLE  272 ..............................
........................................................................

 iter      E             dE          RMSdq      gap      omega  full diag
   1   -209.9211544 -0.209921E+03  0.173E-01    0.09       0.0  T
   2   -209.8782581  0.428963E-01  0.720E-01    0.32       1.0  T
   3   -209.8534265  0.248316E-01  0.952E-01    0.04       1.0  T
   4   -209.9164600 -0.630335E-01  0.293E-01    0.13       1.0  T
   5   -209.9070182  0.944176E-02  0.443E-01    0.16       1.0  T
   6   -209.9157495 -0.873131E-02  0.286E-01    0.13       1.0  T
   7   -209.9214366 -0.568704E-02  0.544E-02    0.10       1.0  T
   8   -209.9213401  0.964832E-04  0.650E-02    0.09       1.0  T
   9   -209.9216383 -0.298209E-03  0.143E-02    0.10       1.0  T
  10   -209.9215644  0.738672E-04  0.345E-02    0.10       1.0  T
  11   -209.9216494 -0.849708E-04  0.784E-03    0.10       1.3  T
  12   -209.9216493  0.145851E-06  0.723E-03    0.10       1.4  T
  13   -209.9216520 -0.270009E-05  0.416E-03    0.10       2.4  T
  14   -209.9216499  0.202516E-05  0.652E-03    0.10       1.6  T
  15   -209.9216530 -0.309810E-05  0.161E-03    0.10       6.3  T
  16   -209.9216526  0.451098E-06  0.287E-03    0.10       3.5  T
  17   -209.9216532 -0.625017E-06  0.402E-04    0.10      25.3  T
  18   -209.9216532  0.217793E-07  0.649E-04    0.10      15.6  T
     SCC iter.                  ...        0 min,  0.530 sec
     gradient                   ...        0 min,  0.060 sec
 * total energy  :  -207.8245849 Eh     change       -0.4177023E-03 Eh
   gradient norm :     0.0073825 Eh/α   predicted    -0.3722311E-03 ( -10.89%)
   displ. norm   :     0.6610856 α      lambda       -0.5361746E-03
   maximum displ.:     0.3017406 α      in ANC's #4, #2, #3, ...

........................................................................
.............................. CYCLE  273 ..............................
........................................................................

 iter      E             dE          RMSdq      gap      omega  full diag
   1   -209.9273010 -0.209927E+03  0.158E-01    0.09       0.0  T
   2   -209.8871299  0.401711E-01  0.700E-01    0.29       1.0  T
   3   -209.8968439 -0.971401E-02  0.633E-01    0.06       1.0  T
   4   -209.9213576 -0.245137E-01  0.305E-01    0.13       1.0  T
   5   -209.9184039  0.295374E-02  0.351E-01    0.14       1.0  T
   6   -209.9242136 -0.580970E-02  0.216E-01    0.12       1.0  T
   7   -209.9276483 -0.343470E-02  0.284E-02    0.10       1.0  T
   8   -209.9267161  0.932171E-03  0.115E-01    0.09       1.0  T
   9   -209.9276275 -0.911409E-03  0.318E-02    0.10       1.0  T
  10   -209.9276178  0.973529E-05  0.335E-02    0.10       1.0  T
  11   -209.9276633 -0.454747E-04  0.218E-02    0.10       1.0  T
  12   -209.9276990 -0.357290E-04  0.352E-03    0.10       2.9  T
  13   -209.9276941  0.484691E-05  0.849E-03    0.10       1.2  T
  14   -209.9276995 -0.532975E-05  0.185E-03    0.10       5.5  T
  15   -209.9276995 -0.312763E-07  0.177E-03    0.10       5.7  T
  16   -209.9276995  0.360895E-07  0.183E-03    0.10       5.5  T
  17   -209.9276995 -0.188328E-07  0.175E-03    0.10       5.8  T
  18   -209.9276997 -0.224706E-06  0.378E-04    0.10      26.8  T
  19   -209.9276997 -0.813029E-08  0.129E-04    0.10      78.7  T
     SCC iter.                  ...        0 min,  0.594 sec
     gradient                   ...        0 min,  0.074 sec
 * total energy  :  -207.8249807 Eh     change       -0.3958212E-03 Eh
   gradient norm :     0.0076407 Eh/α   predicted    -0.3852522E-03 (  -2.67%)
   displ. norm   :     0.7854153 α      lambda       -0.5585894E-03
   maximum displ.:     0.3767139 α      in ANC's #4, #2, #9, ...

........................................................................
.............................. CYCLE  274 ..............................
........................................................................

 iter      E             dE          RMSdq      gap      omega  full diag
   1   -209.9198836 -0.209920E+03  0.162E-01    0.11       0.0  T
   2   -209.2997630  0.620121E+00  0.296E+00    0.00       1.0  T
   3   -209.9199381 -0.620175E+00  0.854E-02    0.09       1.0  T
   4   -209.9167949  0.314317E-02  0.207E-01    0.12       1.0  T
   5   -209.9202295 -0.343463E-02  0.307E-02    0.10       1.0  T
   6   -209.9202511 -0.215831E-04  0.231E-02    0.10       1.0  T
   7   -209.9202536 -0.250494E-05  0.207E-02    0.10       1.0  T
   8   -209.9202743 -0.207512E-04  0.120E-02    0.10       1.0  T
   9   -209.9202825 -0.817065E-05  0.738E-03    0.10       1.4  T
  10   -209.9202722  0.103092E-04  0.134E-02    0.10       1.0  T
  11   -209.9202850 -0.127497E-04  0.328E-03    0.10       3.1  T
  12   -209.9202855 -0.561949E-06  0.133E-03    0.10       7.6  T
  13   -209.9202853  0.211803E-06  0.193E-03    0.10       5.3  T
  14   -209.9202855 -0.173995E-06  0.123E-03    0.10       8.3  T
  15   -209.9202855 -0.525682E-07  0.792E-04    0.10      12.8  T
  16   -209.9202856 -0.284617E-07  0.366E-04    0.10      27.7  T
     SCC iter.                  ...        0 min,  0.520 sec
     gradient                   ...        0 min,  0.064 sec
 * total energy  :  -207.8254195 Eh     change       -0.4387808E-03 Eh
   gradient norm :     0.0083742 Eh/α   predicted    -0.4515872E-03 (   2.92%)
   displ. norm   :     0.6399569 α      lambda       -0.5172940E-03
   maximum displ.:     0.2923757 α      in ANC's #4, #2, #3, ...

........................................................................
.............................. CYCLE  275 ..............................
........................................................................

 iter      E             dE          RMSdq      gap      omega  full diag
   1   -209.9212545 -0.209921E+03  0.141E-01    0.10       0.0  T
   2   -209.9165457  0.470881E-02  0.248E-01    0.13       1.0  T
   3   -209.4277135  0.488832E+00  0.264E+00    0.00       1.0  T
   4   -209.9204955 -0.492782E+00  0.106E-01    0.11       1.0  T
   5   -209.9200602  0.435290E-03  0.127E-01    0.11       1.0  T
   6   -209.9208510 -0.790822E-03  0.763E-02    0.11       1.0  T
   7   -209.9211779 -0.326926E-03  0.374E-02    0.10       1.0  T
   8   -209.9212697 -0.917926E-04  0.134E-02    0.10       1.0  T
   9   -209.9212824 -0.127026E-04  0.510E-03    0.10       2.0  T
  10   -209.9212730  0.941396E-05  0.120E-02    0.10       1.0  T
  11   -209.9212740 -0.103041E-05  0.113E-02    0.10       1.0  T
  12   -209.9212827 -0.865919E-05  0.353E-03    0.10       2.9  T
  13   -209.9212833 -0.591147E-06  0.183E-03    0.10       5.6  T
  14   -209.9212835 -0.211481E-06  0.640E-04    0.10      15.9  T
  15   -209.9212832  0.296632E-06  0.203E-03    0.10       5.0  T
  16   -209.9212834 -0.227828E-06  0.113E-03    0.10       9.0  T
  17   -209.9212834  0.652259E-07  0.141E-03    0.10       7.2  T
  18   -209.9212835 -0.140624E-06  0.372E-04    0.10      27.3  T
     SCC iter.                  ...        0 min,  0.529 sec
     gradient                   ...        0 min,  0.060 sec
 * total energy  :  -207.8258593 Eh     change       -0.4397436E-03 Eh
   gradient norm :     0.0084323 Eh/α   predicted    -0.3645757E-03 ( -17.09%)
   displ. norm   :     0.7066016 α      lambda       -0.5801494E-03
   maximum displ.:     0.3239829 α      in ANC's #2, #4, #3, ...

........................................................................
.............................. CYCLE  276 ..............................
........................................................................

 iter      E             dE          RMSdq      gap      omega  full diag
   1   -209.9221597 -0.209922E+03  0.233E-01    0.12       0.0  T
   2   -207.3413707  0.258079E+01  0.605E+00    0.16       1.0  T
   3   -209.9250196 -0.258365E+01  0.683E-02    0.10       1.0  T
   4   -209.9250313 -0.117728E-04  0.513E-02    0.10       1.0  T
   5   -209.9213808  0.365049E-02  0.219E-01    0.08       1.0  T
   6   -209.9210409  0.339979E-03  0.228E-01    0.08       1.0  T
   7   -209.9244822 -0.344129E-02  0.816E-02    0.09       1.0  T
   8   -209.9246856 -0.203416E-03  0.975E-02    0.11       1.0  T
   9   -209.9250571 -0.371552E-03  0.445E-02    0.10       1.0  T
  10   -209.9251095 -0.523512E-04  0.221E-02    0.10       1.0  T
  11   -209.9251249 -0.154227E-04  0.103E-02    0.10       1.0  T
  12   -209.9251292 -0.427215E-05  0.529E-03    0.10       1.9  T
  13   -209.9251125  0.167131E-04  0.162E-02    0.10       1.0  T
  14   -209.9251285 -0.160116E-04  0.489E-03    0.10       2.1  T
  15   -209.9251302 -0.171459E-05  0.116E-03    0.10       8.8  T
  16   -209.9251302 -0.194401E-07  0.879E-04    0.10      11.5  T
  17   -209.9251302 -0.124877E-07  0.608E-04    0.10      16.7  T
     SCC iter.                  ...        0 min,  0.567 sec
     gradient                   ...        0 min,  0.059 sec
 * total energy  :  -207.8263642 Eh     change       -0.5049090E-03 Eh
   gradient norm :     0.0074616 Eh/α   predicted    -0.4349108E-03 ( -13.86%)
   displ. norm   :     0.8212686 α      lambda       -0.5888952E-03
   maximum displ.:     0.3795272 α      in ANC's #2, #4, #3, ...

........................................................................
.............................. CYCLE  277 ..............................
........................................................................

 iter      E             dE          RMSdq      gap      omega  full diag
   1   -209.9262466 -0.209926E+03  0.159E-01    0.11       0.0  T
   2   -209.4374199  0.488827E+00  0.262E+00    0.00       1.0  T
   3   -209.9204099 -0.482990E+00  0.282E-01    0.08       1.0  T
   4   -209.9224183 -0.200831E-02  0.220E-01    0.13       1.0  T
   5   -209.9263989 -0.398067E-02  0.393E-02    0.10       1.0  T
   6   -209.9264854 -0.864623E-04  0.193E-02    0.10       1.0  T
   7   -209.9264840  0.141159E-05  0.181E-02    0.10       1.0  T
   8   -209.9265006 -0.166493E-04  0.965E-03    0.10       1.1  T
   9   -209.9265013 -0.665821E-06  0.962E-03    0.10       1.1  T
  10   -209.9264907  0.105422E-04  0.147E-02    0.10       1.0  T
  11   -209.9265051 -0.143721E-04  0.537E-03    0.10       1.9  T
  12   -209.9265059 -0.798421E-06  0.405E-03    0.10       2.5  T
  13   -209.9265065 -0.560012E-06  0.259E-03    0.10       3.9  T
  14   -209.9265069 -0.377078E-06  0.103E-03    0.10       9.9  T
  15   -209.9265069 -0.180619E-07  0.956E-04    0.10      10.6  T
  16   -209.9265067  0.203434E-06  0.189E-03    0.10       5.4  T
  17   -209.9265067 -0.520369E-07  0.168E-03    0.10       6.0  T
  18   -209.9265069 -0.183138E-06  0.567E-04    0.10      17.9  T
     SCC iter.                  ...        0 min,  0.547 sec
     gradient                   ...        0 min,  0.059 sec
 * total energy  :  -207.8269209 Eh     change       -0.5567640E-03 Eh
   gradient norm :     0.0064023 Eh/α   predicted    -0.4930517E-03 ( -11.44%)
   displ. norm   :     0.8075418 α      lambda       -0.6412706E-03
   maximum displ.:     0.3849039 α      in ANC's #2, #4, #3, ...

........................................................................
.............................. CYCLE  278 ..............................
........................................................................

 iter      E             dE          RMSdq      gap      omega  full diag
   1   -209.9297701 -0.209930E+03  0.181E-01    0.11       0.0  T
   2   -208.8711845  0.105859E+01  0.385E+00    0.02       1.0  T
   3   -209.9267879 -0.105560E+01  0.228E-01    0.08       1.0  T
   4   -209.9302356 -0.344773E-02  0.831E-02    0.11       1.0  T
   5   -209.9301518  0.837485E-04  0.834E-02    0.09       1.0  T
   6   -209.9304442 -0.292324E-03  0.619E-02    0.11       1.0  T
   7   -209.9303467  0.974742E-04  0.699E-02    0.11       1.0  T
   8   -209.9304811 -0.134412E-03  0.542E-02    0.11       1.0  T
   9   -209.9307210 -0.239892E-03  0.103E-02    0.10       1.0  T
  10   -209.9307146  0.639179E-05  0.143E-02    0.10       1.0  T
  11   -209.9307057  0.892710E-05  0.165E-02    0.10       1.0  T
  12   -209.9307105 -0.479193E-05  0.141E-02    0.10       1.0  T
  13   -209.9307223 -0.117945E-04  0.714E-03    0.10       1.4  T
  14   -209.9307252 -0.297025E-05  0.403E-03    0.10       2.5  T
  15   -209.9307244  0.852636E-06  0.469E-03    0.10       2.2  T
  16   -209.9307260 -0.161943E-05  0.150E-03    0.10       6.8  T
  17   -209.9307260 -0.170625E-07  0.133E-03    0.10       7.7  T
  18   -209.9307261 -0.873064E-07  0.627E-04    0.10      16.2  T
  19   -209.9307261 -0.218182E-07  0.262E-04    0.10      38.7  T
     SCC iter.                  ...        0 min,  0.590 sec
     gradient                   ...        0 min,  0.060 sec
 * total energy  :  -207.8275063 Eh     change       -0.5853948E-03 Eh
   gradient norm :     0.0052940 Eh/α   predicted    -0.5297315E-03 (  -9.51%)
   displ. norm   :     0.8962095 α      lambda       -0.6636159E-03
   maximum displ.:     0.4220487 α      in ANC's #2, #4, #3, ...

........................................................................
.............................. CYCLE  279 ..............................
........................................................................

 iter      E             dE          RMSdq      gap      omega  full diag
   1   -209.9273615 -0.209927E+03  0.173E-01    0.11       0.0  T
   2   -209.4664370  0.460924E+00  0.254E+00    0.00       1.0  T
   3   -209.9275843 -0.461147E+00  0.615E-02    0.10       1.0  T
   4   -209.9233435  0.424083E-02  0.228E-01    0.13       1.0  T
   5   -209.9274764 -0.413291E-02  0.403E-02    0.10       1.0  T
   6   -209.9275056 -0.292427E-04  0.367E-02    0.10       1.0  T
   7   -209.9275569 -0.512311E-04  0.249E-02    0.10       1.0  T
   8   -209.9275956 -0.387852E-04  0.915E-03    0.10       1.1  T
   9   -209.9275913  0.430634E-05  0.111E-02    0.10       1.0  T
  10   -209.9275783  0.130318E-04  0.168E-02    0.10       1.0  T
  11   -209.9275922 -0.138783E-04  0.102E-02    0.10       1.0  T
  12   -209.9275968 -0.464543E-05  0.616E-03    0.10       1.6  T
  13   -209.9275980 -0.113799E-05  0.439E-03    0.10       2.3  T
  14   -209.9275993 -0.136437E-05  0.630E-04    0.10      16.1  T
  15   -209.9275993  0.443916E-07  0.102E-03    0.10      10.0  T
  16   -209.9275989  0.381346E-06  0.244E-03    0.10       4.2  T
  17   -209.9275991 -0.237911E-06  0.165E-03    0.10       6.1  T
  18   -209.9275993 -0.150738E-06  0.799E-04    0.10      12.7  T
  19   -209.9275993 -0.417104E-07  0.283E-04    0.10      35.9  T
     SCC iter.                  ...        0 min,  0.791 sec
     gradient                   ...        0 min,  0.063 sec
 * total energy  :  -207.8281268 Eh     change       -0.6204854E-03 Eh
   gradient norm :     0.0065870 Eh/α   predicted    -0.5983166E-03 (  -3.57%)
   displ. norm   :     0.8322567 α      lambda       -0.6539235E-03
   maximum displ.:     0.4048886 α      in ANC's #2, #3, #5, ...

........................................................................
.............................. CYCLE  280 ..............................
........................................................................

 iter      E             dE          RMSdq      gap      omega  full diag
   1   -209.9276455 -0.209928E+03  0.163E-01    0.10       0.0  T
   2   -209.9030002  0.246453E-01  0.557E-01    0.20       1.0  T
   3   -209.7881892  0.114811E+00  0.137E+00    0.02       1.0  T
   4   -209.9238931 -0.135704E+00  0.235E-01    0.13       1.0  T
   5   -209.9219676  0.192547E-02  0.280E-01    0.13       1.0  T
   6   -209.9229926 -0.102497E-02  0.247E-01    0.13       1.0  T
   7   -209.9275854 -0.459276E-02  0.502E-02    0.11       1.0  T
   8   -209.9277169 -0.131514E-03  0.234E-02    0.10       1.0  T
   9   -209.9277238 -0.689347E-05  0.219E-02    0.10       1.0  T
  10   -209.9277420 -0.182207E-04  0.146E-02    0.10       1.0  T
  11   -209.9277571 -0.150731E-04  0.331E-03    0.10       3.1  T
  12   -209.9277538  0.329991E-05  0.678E-03    0.10       1.5  T
  13   -209.9277562 -0.245014E-05  0.400E-03    0.10       2.5  T
  14   -209.9277568 -0.575938E-06  0.296E-03    0.10       3.4  T
  15   -209.9277574 -0.652889E-06  0.557E-04    0.10      18.2  T
  16   -209.9277574  0.316398E-07  0.799E-04    0.10      12.7  T
     SCC iter.                  ...        0 min,  0.595 sec
     gradient                   ...        0 min,  0.063 sec
 * total energy  :  -207.8287494 Eh     change       -0.6225574E-03 Eh
   gradient norm :     0.0074014 Eh/α   predicted    -0.5534402E-03 ( -11.10%)
   displ. norm   :     0.8588133 α      lambda       -0.7236916E-03
   maximum displ.:     0.4246830 α      in ANC's #2, #3, #5, ...

........................................................................
.............................. CYCLE  281 ..............................
........................................................................

 iter      E             dE          RMSdq      gap      omega  full diag
   1   -209.9303794 -0.209930E+03  0.172E-01    0.10       0.0  T
   2   -209.9299180  0.461402E-03  0.936E-02    0.09       1.0  T
   3   -209.8883761  0.415419E-01  0.704E-01    0.31       1.0  T
   4   -209.9290762 -0.407000E-01  0.135E-01    0.11       1.0  T
   5   -209.9303029 -0.122672E-02  0.389E-02    0.10       1.0  T
   6   -209.9293826  0.920304E-03  0.118E-01    0.09       1.0  T
   7   -209.9298678 -0.485262E-03  0.828E-02    0.09       1.0  T
   8   -209.9301676 -0.299815E-03  0.563E-02    0.11       1.0  T
   9   -209.9303383 -0.170638E-03  0.296E-02    0.10       1.0  T
  10   -209.9303924 -0.541189E-04  0.122E-02    0.10       1.0  T
  11   -209.9304009 -0.848839E-05  0.592E-03    0.10       1.7  T
  12   -209.9304017 -0.833043E-06  0.422E-03    0.10       2.4  T
  13   -209.9304021 -0.327517E-06  0.365E-03    0.10       2.8  T
  14   -209.9304019  0.174699E-06  0.370E-03    0.10       2.7  T
  15   -209.9304018  0.678129E-07  0.381E-03    0.10       2.7  T
  16   -209.9304029 -0.110887E-05  0.439E-04    0.10      23.1  T
  17   -209.9304029  0.577683E-07  0.963E-04    0.10      10.5  T
  18   -209.9304029 -0.631538E-07  0.203E-04    0.10      49.9  T
     SCC iter.                  ...        0 min,  0.574 sec
     gradient                   ...        0 min,  0.059 sec
 * total energy  :  -207.8294334 Eh     change       -0.6840820E-03 Eh
   gradient norm :     0.0075123 Eh/α   predicted    -0.6287326E-03 (  -8.09%)
   displ. norm   :     0.8895521 α      lambda       -0.7803456E-03
   maximum displ.:     0.4408222 α      in ANC's #2, #3, #5, ...

........................................................................
.............................. CYCLE  282 ..............................
........................................................................

 iter      E             dE          RMSdq      gap      omega  full diag
   1   -209.9295327 -0.209930E+03  0.183E-01    0.10       0.0  T
   2   -209.9226724  0.686030E-02  0.304E-01    0.13       1.0  T
   3   -209.3985650  0.524107E+00  0.272E+00    0.00       1.0  T
   4   -209.9282786 -0.529714E+00  0.135E-01    0.11       1.0  T
   5   -209.9277327  0.545963E-03  0.154E-01    0.11       1.0  T
   6   -209.9290478 -0.131511E-02  0.832E-02    0.11       1.0  T
   7   -209.9295566 -0.508777E-03  0.139E-02    0.10       1.0  T
   8   -209.9295452  0.113095E-04  0.179E-02    0.10       1.0  T
   9   -209.9295684 -0.231777E-04  0.528E-03    0.10       1.9  T
  10   -209.9295490  0.194022E-04  0.163E-02    0.10       1.0  T
  11   -209.9295678 -0.187961E-04  0.461E-03    0.10       2.2  T
  12   -209.9295690 -0.117991E-05  0.143E-03    0.10       7.1  T
  13   -209.9295689  0.949493E-07  0.156E-03    0.10       6.5  T
  14   -209.9295690 -0.835058E-07  0.113E-03    0.10       9.0  T
  15   -209.9295690 -0.523958E-07  0.685E-04    0.10      14.8  T
  16   -209.9295691 -0.156172E-07  0.431E-04    0.10      23.6  T
     SCC iter.                  ...        0 min,  0.568 sec
     gradient                   ...        0 min,  0.060 sec
 * total energy  :  -207.8301566 Eh     change       -0.7231496E-03 Eh
   gradient norm :     0.0068393 Eh/α   predicted    -0.6989252E-03 (  -3.35%)
   displ. norm   :     0.8596540 α      lambda       -0.8243803E-03
   maximum displ.:     0.4365481 α      in ANC's #2, #3, #5, ...

........................................................................
.............................. CYCLE  283 ..............................
........................................................................

 iter      E             dE          RMSdq      gap      omega  full diag
   1   -209.9336339 -0.209934E+03  0.199E-01    0.09       0.0  T
   2   -209.8904005  0.432334E-01  0.722E-01    0.32       1.0  T
   3   -209.8838506  0.654988E-02  0.804E-01    0.05       1.0  T
   4   -209.9246679 -0.408173E-01  0.374E-01    0.14       1.0  T
   5   -209.9205607  0.410726E-02  0.422E-01    0.15       1.0  T
   6   -209.9313156 -0.107549E-01  0.196E-01    0.12       1.0  T
   7   -209.9340811 -0.276550E-02  0.271E-02    0.10       1.0  T
   8   -209.9330367  0.104436E-02  0.120E-01    0.09       1.0  T
   9   -209.9341236 -0.108688E-02  0.889E-03    0.10       1.1  T
  10   -209.9340834  0.401568E-04  0.248E-02    0.10       1.0  T
  11   -209.9340953 -0.118359E-04  0.211E-02    0.10       1.0  T
  12   -209.9341242 -0.289290E-04  0.779E-03    0.10       1.3  T
  13   -209.9341253 -0.107526E-05  0.656E-03    0.10       1.5  T
  14   -209.9341283 -0.306358E-05  0.142E-03    0.10       7.2  T
  15   -209.9341261  0.223884E-05  0.550E-03    0.10       1.8  T
  16   -209.9341285 -0.236449E-05  0.477E-04    0.10      21.3  T
  17   -209.9341284  0.122349E-07  0.560E-04    0.10      18.1  T
  18   -209.9341284  0.306183E-07  0.859E-04    0.10      11.8  T
     SCC iter.                  ...        0 min,  0.735 sec
     gradient                   ...        0 min,  0.069 sec
 * total energy  :  -207.8308946 Eh     change       -0.7380364E-03 Eh
   gradient norm :     0.0068085 Eh/α   predicted    -0.7168041E-03 (  -2.88%)
   displ. norm   :     0.8944361 α      lambda       -0.8238491E-03
   maximum displ.:     0.4513401 α      in ANC's #2, #3, #5, ...

........................................................................
.............................. CYCLE  284 ..............................
........................................................................

 iter      E             dE          RMSdq      gap      omega  full diag
   1   -209.9324488 -0.209932E+03  0.199E-01    0.10       0.0  T
   2   -209.5017133  0.430735E+00  0.243E+00    0.01       1.0  T
   3   -209.9243532 -0.422640E+00  0.332E-01    0.14       1.0  T
   4   -209.9299731 -0.561988E-02  0.190E-01    0.12       1.0  T
   5   -209.9312818 -0.130870E-02  0.138E-01    0.11       1.0  T
   6   -209.9309685  0.313331E-03  0.146E-01    0.11       1.0  T
   7   -209.9326442 -0.167568E-02  0.187E-02    0.10       1.0  T
   8   -209.9326382  0.593995E-05  0.190E-02    0.10       1.0  T
   9   -209.9326548 -0.165919E-04  0.128E-02    0.10       1.0  T
  10   -209.9326494  0.544719E-05  0.150E-02    0.10       1.0  T
  11   -209.9326577 -0.837112E-05  0.103E-02    0.10       1.0  T
  12   -209.9326655 -0.776684E-05  0.172E-03    0.10       5.9  T
  13   -209.9326641  0.138200E-05  0.434E-03    0.10       2.3  T
  14   -209.9326653 -0.118058E-05  0.197E-03    0.10       5.2  T
  15   -209.9326654 -0.124525E-06  0.157E-03    0.10       6.5  T
  16   -209.9326655 -0.573320E-07  0.131E-03    0.10       7.8  T
  17   -209.9326655 -0.227219E-07  0.114E-03    0.10       8.9  T
  18   -209.9326656 -0.803884E-07  0.461E-04    0.10      22.0  T
  19   -209.9326656 -0.121832E-07  0.205E-04    0.10      49.5  T
     SCC iter.                  ...        0 min,  0.665 sec
     gradient                   ...        0 min,  0.060 sec
 * total energy  :  -207.8316589 Eh     change       -0.7642962E-03 Eh
   gradient norm :     0.0086242 Eh/α   predicted    -0.7414800E-03 (  -2.99%)
   displ. norm   :     0.8594336 α      lambda       -0.8871746E-03
   maximum displ.:     0.4390009 α      in ANC's #2, #3, #5, ...

........................................................................
.............................. CYCLE  285 ..............................
........................................................................

 iter      E             dE          RMSdq      gap      omega  full diag
   1   -209.9320812 -0.209932E+03  0.209E-01    0.11       0.0  T
   2   -209.2345474  0.697534E+00  0.310E+00    0.00       1.0  T
   3   -209.9325416 -0.697994E+00  0.698E-02    0.10       1.0  T
   4   -209.9302357  0.230582E-02  0.171E-01    0.12       1.0  T
   5   -209.9325723 -0.233659E-02  0.269E-02    0.10       1.0  T
   6   -209.9325354  0.369624E-04  0.330E-02    0.10       1.0  T
   7   -209.9326134 -0.780736E-04  0.898E-03    0.10       1.1  T
   8   -209.9325489  0.644947E-04  0.296E-02    0.10       1.0  T
   9   -209.9325573 -0.840812E-05  0.277E-02    0.10       1.0  T
  10   -209.9326013 -0.439244E-04  0.141E-02    0.10       1.0  T
  11   -209.9326157 -0.143890E-04  0.309E-03    0.10       3.3  T
  12   -209.9325946  0.210205E-04  0.163E-02    0.10       1.0  T
  13   -209.9326118 -0.171851E-04  0.735E-03    0.10       1.4  T
  14   -209.9326160 -0.419957E-05  0.782E-04    0.10      13.0  T
  15   -209.9326160 -0.532992E-09  0.587E-04    0.10      17.3  T
  16   -209.9326159  0.151818E-06  0.143E-03    0.10       7.1  T
  17   -209.9326160 -0.100335E-06  0.880E-04    0.10      11.5  T
     SCC iter.                  ...        0 min,  0.510 sec
     gradient                   ...        0 min,  0.057 sec
 * total energy  :  -207.8324888 Eh     change       -0.8298328E-03 Eh
   gradient norm :     0.0085930 Eh/α   predicted    -0.7712404E-03 (  -7.06%)
   displ. norm   :     0.8474315 α      lambda       -0.9634902E-03
   maximum displ.:     0.4414057 α      in ANC's #2, #3, #5, ...

........................................................................
.............................. CYCLE  286 ..............................
........................................................................

 iter      E             dE          RMSdq      gap      omega  full diag
   1   -209.9363233 -0.209936E+03  0.206E-01    0.10       0.0  T
   2   -209.8400193  0.963040E-01  0.113E+00    0.03       1.0  T
   3   -209.9313122 -0.912929E-01  0.264E-01    0.13       1.0  T
   4   -209.9313601 -0.478370E-04  0.249E-01    0.13       1.0  T
   5   -209.9359068 -0.454675E-02  0.893E-02    0.11       1.0  T
   6   -209.9353448  0.561983E-03  0.119E-01    0.11       1.0  T
   7   -209.9361323 -0.787471E-03  0.616E-02    0.10       1.0  T
   8   -209.9364054 -0.273116E-03  0.163E-02    0.10       1.0  T
   9   -209.9364092 -0.378084E-05  0.151E-02    0.10       1.0  T
  10   -209.9364151 -0.593121E-05  0.122E-02    0.10       1.0  T
  11   -209.9364129  0.220068E-05  0.127E-02    0.10       1.0  T
  12   -209.9364250 -0.121007E-04  0.193E-03    0.10       5.3  T
  13   -209.9364247  0.287949E-06  0.259E-03    0.10       3.9  T
  14   -209.9364242  0.573803E-06  0.355E-03    0.10       2.9  T
  15   -209.9364252 -0.101918E-05  0.567E-04    0.10      17.9  T
  16   -209.9364251  0.349839E-07  0.862E-04    0.10      11.8  T
  17   -209.9364251  0.212185E-08  0.839E-04    0.10      12.1  T
     SCC iter.                  ...        0 min,  0.508 sec
     gradient                   ...        0 min,  0.061 sec
 * total energy  :  -207.8333084 Eh     change       -0.8196432E-03 Eh
   gradient norm :     0.0091935 Eh/α   predicted    -0.8277128E-03 (   0.98%)
   displ. norm   :     0.8945058 α      lambda       -0.9642596E-03
   maximum displ.:     0.4568811 α      in ANC's #2, #5, #3, ...

........................................................................
.............................. CYCLE  287 ..............................
........................................................................

 iter      E             dE          RMSdq      gap      omega  full diag
   1   -209.9296777 -0.209930E+03  0.193E-01    0.10       0.0  T
   2   -209.7529911  0.176687E+00  0.153E+00    0.02       1.0  T
   3   -209.9230063 -0.170015E+00  0.302E-01    0.13       1.0  T
   4   -209.9253029 -0.229669E-02  0.236E-01    0.12       1.0  T
   5   -209.9289366 -0.363369E-02  0.111E-01    0.11       1.0  T
   6   -209.9286467  0.289944E-03  0.123E-01    0.11       1.0  T
   7   -209.9295404 -0.893749E-03  0.583E-02    0.10       1.0  T
   8   -209.9297583 -0.217858E-03  0.246E-02    0.10       1.0  T
   9   -209.9297789 -0.205976E-04  0.193E-02    0.10       1.0  T
  10   -209.9297874 -0.850062E-05  0.159E-02    0.10       1.0  T
  11   -209.9297929 -0.548005E-05  0.129E-02    0.10       1.0  T
  12   -209.9298050 -0.121115E-04  0.271E-03    0.10       3.8  T
  13   -209.9298049  0.462701E-07  0.285E-03    0.10       3.6  T
  14   -209.9298050 -0.243111E-07  0.259E-03    0.10       3.9  T
  15   -209.9298054 -0.429616E-06  0.137E-03    0.10       7.4  T
  16   -209.9298054 -0.145506E-07  0.127E-03    0.10       8.0  T
  17   -209.9298054  0.612286E-08  0.126E-03    0.10       8.1  T
  18   -209.9298055 -0.983009E-07  0.530E-04    0.10      19.2  T
  19   -209.9298055 -0.110082E-07  0.351E-04    0.10      29.0  T
     SCC iter.                  ...        0 min,  0.607 sec
     gradient                   ...        0 min,  0.059 sec
 * total energy  :  -207.8341474 Eh     change       -0.8389779E-03 Eh
   gradient norm :     0.0098258 Eh/α   predicted    -0.8679042E-03 (   3.45%)
   displ. norm   :     0.8222271 α      lambda       -0.9546035E-03
   maximum displ.:     0.4209141 α      in ANC's #2, #5, #3, ...

........................................................................
.............................. CYCLE  288 ..............................
........................................................................

 iter      E             dE          RMSdq      gap      omega  full diag
   1   -209.9306073 -0.209931E+03  0.248E-01    0.12       0.0  T
   2   -207.5068278  0.242378E+01  0.579E+00    0.14       1.0  T
   3   -209.9293727 -0.242254E+01  0.213E-01    0.12       1.0  T
   4   -209.9251385  0.423425E-02  0.288E-01    0.13       1.0  T
   5   -209.9312268 -0.608831E-02  0.134E-01    0.11       1.0  T
   6   -209.9327623 -0.153556E-02  0.483E-02    0.10       1.0  T
   7   -209.9327518  0.105412E-04  0.494E-02    0.10       1.0  T
   8   -209.9327251  0.266709E-04  0.462E-02    0.10       1.0  T
   9   -209.9326680  0.571401E-04  0.402E-02    0.10       1.0  T
  10   -209.9327606 -0.925739E-04  0.173E-02    0.10       1.0  T
  11   -209.9327751 -0.145154E-04  0.736E-03    0.10       1.4  T
  12   -209.9327455  0.295701E-04  0.208E-02    0.10       1.0  T
  13   -209.9327652 -0.197405E-04  0.117E-02    0.10       1.0  T
  14   -209.9327738 -0.850292E-05  0.983E-03    0.10       1.0  T
  15   -209.9327769 -0.319261E-05  0.270E-03    0.10       3.8  T
  16   -209.9327767  0.226803E-06  0.262E-03    0.10       3.9  T
  17   -209.9327770 -0.273834E-06  0.175E-03    0.10       5.8  T
  18   -209.9327772 -0.207884E-06  0.700E-04    0.10      14.5  T
  19   -209.9327772 -0.135145E-09  0.553E-04    0.10      18.4  T
     SCC iter.                  ...        0 min,  0.558 sec
     gradient                   ...        0 min,  0.059 sec
 * total energy  :  -207.8350130 Eh     change       -0.8655731E-03 Eh
   gradient norm :     0.0109251 Eh/α   predicted    -0.7999876E-03 (  -7.58%)
   displ. norm   :     0.8183141 α      lambda       -0.1104094E-02
   maximum displ.:     0.4164216 α      in ANC's #2, #3, #5, ...

........................................................................
.............................. CYCLE  289 ..............................
........................................................................

 iter      E             dE          RMSdq      gap      omega  full diag
   1   -209.9274019 -0.209927E+03  0.324E-01    0.13       0.0  T
   2   -207.1990767  0.272833E+01  0.607E+00    0.15       1.0  T
   3   -209.9127866 -0.271371E+01  0.482E-01    0.17       1.0  T
   4   -209.9127215  0.650693E-04  0.452E-01    0.17       1.0  T
   5   -209.9308772 -0.181556E-01  0.137E-01    0.11       1.0  T
   6   -209.9321523 -0.127510E-02  0.765E-02    0.10       1.0  T
   7   -209.9322536 -0.101283E-03  0.699E-02    0.10       1.0  T
   8   -209.9322531  0.457092E-06  0.505E-02    0.10       1.0  T
   9   -209.9320206  0.232509E-03  0.556E-02    0.10       1.0  T
  10   -209.9322293 -0.208672E-03  0.214E-02    0.10       1.0  T
  11   -209.9322208  0.843730E-05  0.271E-02    0.10       1.0  T
  12   -209.9322370 -0.161741E-04  0.199E-02    0.10       1.0  T
  13   -209.9322619 -0.249086E-04  0.885E-03    0.10       1.1  T
  14   -209.9322667 -0.479658E-05  0.771E-03    0.10       1.3  T
  15   -209.9322676 -0.892603E-06  0.290E-03    0.10       3.5  T
  16   -209.9322679 -0.290729E-06  0.311E-03    0.10       3.3  T
  17   -209.9322681 -0.194278E-06  0.138E-03    0.10       7.4  T
  18   -209.9322681  0.191750E-08  0.617E-04    0.10      16.5  T
  19   -209.9322680  0.110914E-06  0.134E-03    0.10       7.6  T
  20   -209.9322680 -0.282522E-07  0.134E-03    0.10       7.6  T
  21   -209.9322681 -0.102664E-06  0.243E-04    0.10      41.9  T
     SCC iter.                  ...        0 min,  0.621 sec
     gradient                   ...        0 min,  0.059 sec
 * total energy  :  -207.8359854 Eh     change       -0.9724649E-03 Eh
   gradient norm :     0.0076873 Eh/α   predicted    -0.9217267E-03 (  -5.22%)
   displ. norm   :     0.8713645 α      lambda       -0.1073221E-02
   maximum displ.:     0.4499806 α      in ANC's #3, #5, #2, ...

........................................................................
.............................. CYCLE  290 ..............................
........................................................................

 iter      E             dE          RMSdq      gap      omega  full diag
   1   -209.9383687 -0.209938E+03  0.261E-01    0.11       0.0  T
   2   -208.2469294  0.169144E+01  0.480E+00    0.06       1.0  T
   3   -209.9224935 -0.167556E+01  0.465E-01    0.17       1.0  T
   4   -209.9249969 -0.250340E-02  0.413E-01    0.16       1.0  T
   5   -209.9364280 -0.114311E-01  0.205E-01    0.12       1.0  T
   6   -209.9352483  0.117972E-02  0.226E-01    0.13       1.0  T
   7   -209.9387476 -0.349930E-02  0.109E-01    0.11       1.0  T
   8   -209.9394850 -0.737430E-03  0.587E-02    0.10       1.0  T
   9   -209.9395621 -0.770920E-04  0.466E-02    0.10       1.0  T
  10   -209.9397046 -0.142469E-03  0.149E-02    0.10       1.0  T
  11   -209.9397117 -0.716970E-05  0.932E-03    0.10       1.1  T
  12   -209.9396666  0.451084E-04  0.240E-02    0.10       1.0  T
  13   -209.9396994 -0.328205E-04  0.132E-02    0.10       1.0  T
  14   -209.9397107 -0.113049E-04  0.599E-03    0.10       1.7  T
  15   -209.9397106  0.109442E-06  0.630E-03    0.10       1.6  T
  16   -209.9397127 -0.207113E-05  0.406E-03    0.10       2.5  T
  17   -209.9397126  0.122757E-06  0.348E-03    0.10       2.9  T
  18   -209.9397135 -0.917722E-06  0.613E-04    0.10      16.6  T
  19   -209.9397135 -0.113442E-07  0.387E-04    0.10      26.2  T
     SCC iter.                  ...        0 min,  0.564 sec
     gradient                   ...        0 min,  0.063 sec
 * total energy  :  -207.8369207 Eh     change       -0.9352627E-03 Eh
   gradient norm :     0.0121609 Eh/α   predicted    -0.9440519E-03 (   0.94%)
   displ. norm   :     0.8984112 α      lambda       -0.1101244E-02
   maximum displ.:     0.4543646 α      in ANC's #3, #2, #5, ...

........................................................................
.............................. CYCLE  291 ..............................
........................................................................

 iter      E             dE          RMSdq      gap      omega  full diag
   1   -209.9328866 -0.209933E+03  0.271E-01    0.12       0.0  T
   2   -207.5036810  0.242921E+01  0.575E+00    0.14       1.0  T
   3   -209.9239065 -0.242023E+01  0.373E-01    0.15       1.0  T
   4   -209.9232912  0.615313E-03  0.361E-01    0.15       1.0  T
   5   -209.9344593 -0.111681E-01  0.104E-01    0.11       1.0  T
   6   -209.9340819  0.377416E-03  0.109E-01    0.11       1.0  T
   7   -209.9349403 -0.858442E-03  0.565E-02    0.10       1.0  T
   8   -209.9350309 -0.905347E-04  0.392E-02    0.10       1.0  T
   9   -209.9350319 -0.104732E-05  0.232E-02    0.10       1.0  T
  10   -209.9350635 -0.316152E-04  0.200E-02    0.10       1.0  T
  11   -209.9350790 -0.155149E-04  0.681E-03    0.10       1.5  T
  12   -209.9350762  0.288411E-05  0.930E-03    0.10       1.1  T
  13   -209.9350596  0.165331E-04  0.163E-02    0.10       1.0  T
  14   -209.9350795 -0.198560E-04  0.549E-03    0.10       1.8  T
  15   -209.9350801 -0.657952E-06  0.497E-03    0.10       2.0  T
  16   -209.9350804 -0.296727E-06  0.164E-03    0.10       6.2  T
  17   -209.9350806 -0.149733E-06  0.149E-03    0.10       6.8  T
  18   -209.9350805  0.953853E-07  0.156E-03    0.10       6.5  T
  19   -209.9350806 -0.109989E-06  0.669E-04    0.10      15.2  T
  20   -209.9350806 -0.229615E-07  0.399E-04    0.10      25.4  T
     SCC iter.                  ...        0 min,  0.615 sec
     gradient                   ...        0 min,  0.061 sec
 * total energy  :  -207.8379166 Eh     change       -0.9959106E-03 Eh
   gradient norm :     0.0103912 Eh/α   predicted    -0.9950564E-03 (  -0.09%)
   displ. norm   :     0.8155722 α      lambda       -0.1176928E-02
   maximum displ.:     0.4277792 α      in ANC's #3, #5, #2, ...

........................................................................
.............................. CYCLE  292 ..............................
........................................................................

 iter      E             dE          RMSdq      gap      omega  full diag
   1   -209.9335666 -0.209934E+03  0.387E-01    0.14       0.0  T
   2   -206.8719894  0.306158E+01  0.637E+00    0.13       1.0  T
   3   -209.9293827 -0.305739E+01  0.397E-01    0.15       1.0  T
   4   -209.9163477  0.130350E-01  0.498E-01    0.21       1.0  T
   5   -209.9342434 -0.178957E-01  0.283E-01    0.14       1.0  T
   6   -209.9403490 -0.610559E-02  0.233E-01    0.09       1.0  T
   7   -209.9404388 -0.898379E-04  0.233E-01    0.09       1.0  T
   8   -209.9402899  0.148945E-03  0.240E-01    0.09       1.0  T
   9   -209.9415075 -0.121759E-02  0.161E-01    0.09       1.0  T
  10   -209.9425463 -0.103884E-02  0.363E-02    0.10       1.0  T
  11   -209.9425675 -0.211468E-04  0.175E-02    0.10       1.0  T
  12   -209.9425585  0.897719E-05  0.170E-02    0.10       1.0  T
  13   -209.9425580  0.543271E-06  0.150E-02    0.10       1.0  T
  14   -209.9425759 -0.179840E-04  0.565E-03    0.10       1.8  T
  15   -209.9425736  0.231827E-05  0.762E-03    0.10       1.3  T
  16   -209.9425763 -0.268070E-05  0.243E-03    0.10       4.2  T
  17   -209.9425746  0.174955E-05  0.569E-03    0.10       1.8  T
  18   -209.9425764 -0.181478E-05  0.185E-03    0.10       5.5  T
  19   -209.9425767 -0.308928E-06  0.795E-04    0.10      12.8  T
  20   -209.9425766  0.328778E-07  0.982E-04    0.10      10.3  T
     SCC iter.                  ...        0 min,  0.586 sec
     gradient                   ...        0 min,  0.060 sec
 * total energy  :  -207.8387787 Eh     change       -0.8621324E-03 Eh
   gradient norm :     0.0149315 Eh/α   predicted    -0.9798897E-03 (  13.66%)
   displ. norm   :     0.8580998 α      lambda       -0.1239691E-02
   maximum displ.:     0.4295363 α      in ANC's #2, #3, #5, ...

........................................................................
.............................. CYCLE  293 ..............................
........................................................................

 iter      E             dE          RMSdq      gap      omega  full diag
   1   -209.9327015 -0.209933E+03  0.215E-01    0.11       0.0  T
   2   -209.1335177  0.799184E+00  0.326E+00    0.00       1.0  T
   3   -209.9319325 -0.798415E+00  0.147E-01    0.11       1.0  T
   4   -209.9307537  0.117885E-02  0.175E-01    0.12       1.0  T
   5   -209.9328360 -0.208237E-02  0.823E-02    0.11       1.0  T
   6   -209.9333551 -0.519041E-03  0.170E-02    0.10       1.0  T
   7   -209.9332288  0.126310E-03  0.423E-02    0.10       1.0  T
   8   -209.9331895  0.392968E-04  0.476E-02    0.10       1.0  T
   9   -209.9331107  0.787538E-04  0.552E-02    0.10       1.0  T
  10   -209.9333508 -0.240059E-03  0.134E-02    0.10       1.0  T
  11   -209.9333637 -0.129464E-04  0.423E-03    0.10       2.4  T
  12   -209.9333501  0.135868E-04  0.127E-02    0.10       1.0  T
  13   -209.9333638 -0.137212E-04  0.253E-03    0.10       4.0  T
  14   -209.9333633  0.553583E-06  0.298E-03    0.10       3.4  T
  15   -209.9333635 -0.195574E-06  0.254E-03    0.10       4.0  T
  16   -209.9333639 -0.455939E-06  0.909E-04    0.10      11.2  T
  17   -209.9333640 -0.300176E-07  0.538E-04    0.10      18.9  T
     SCC iter.                  ...        0 min,  0.503 sec
     gradient                   ...        0 min,  0.058 sec
 * total energy  :  -207.8398133 Eh     change       -0.1034601E-02 Eh
   gradient norm :     0.0089845 Eh/α   predicted    -0.1076251E-02 (   4.03%)
   displ. norm   :     0.8219065 α      lambda       -0.1114305E-02
   maximum displ.:     0.4416391 α      in ANC's #3, #5, #2, ...

........................................................................
.............................. CYCLE  294 ..............................
........................................................................

 iter      E             dE          RMSdq      gap      omega  full diag
   1   -209.9359453 -0.209936E+03  0.194E-01    0.10       0.0  T
   2   -209.9359212  0.241622E-04  0.665E-02    0.10       1.0  T
   3   -209.9162344  0.196868E-01  0.475E-01    0.18       1.0  T
   4   -209.9356796 -0.194453E-01  0.616E-02    0.11       1.0  T
   5   -209.9358545 -0.174896E-03  0.400E-02    0.10       1.0  T
   6   -209.9359071 -0.526319E-04  0.345E-02    0.10       1.0  T
   7   -209.9359899 -0.827388E-04  0.104E-02    0.10       1.0  T
   8   -209.9359908 -0.953908E-06  0.788E-03    0.10       1.3  T
   9   -209.9359819  0.893237E-05  0.121E-02    0.10       1.0  T
  10   -209.9359626  0.192692E-04  0.199E-02    0.10       1.0  T
  11   -209.9359669 -0.423009E-05  0.178E-02    0.10       1.0  T
  12   -209.9359805 -0.136401E-04  0.124E-02    0.10       1.0  T
  13   -209.9359829 -0.235802E-05  0.112E-02    0.10       1.0  T
  14   -209.9359920 -0.913967E-05  0.262E-03    0.10       3.9  T
  15   -209.9359897  0.225124E-05  0.589E-03    0.10       1.7  T
  16   -209.9359923 -0.253042E-05  0.164E-03    0.10       6.2  T
  17   -209.9359925 -0.221439E-06  0.431E-04    0.10      23.5  T
  18   -209.9359925  0.201541E-08  0.400E-04    0.10      25.4  T
     SCC iter.                  ...        0 min,  0.525 sec
     gradient                   ...        0 min,  0.060 sec
 * total energy  :  -207.8407425 Eh     change       -0.9292022E-03 Eh
   gradient norm :     0.0114143 Eh/α   predicted    -0.9335284E-03 (   0.47%)
   displ. norm   :     0.8597934 α      lambda       -0.1123480E-02
   maximum displ.:     0.4668625 α      in ANC's #3, #5, #2, ...

........................................................................
.............................. CYCLE  295 ..............................
........................................................................

 iter      E             dE          RMSdq      gap      omega  full diag
   1   -209.9349976 -0.209935E+03  0.231E-01    0.11       0.0  T
   2   -208.2562961  0.167870E+01  0.476E+00    0.05       1.0  T
   3   -209.9362202 -0.167992E+01  0.737E-02    0.10       1.0  T
   4   -209.9332435  0.297665E-02  0.185E-01    0.12       1.0  T
   5   -209.9362196 -0.297607E-02  0.438E-02    0.10       1.0  T
   6   -209.9362653 -0.457726E-04  0.294E-02    0.10       1.0  T
   7   -209.9362498  0.155895E-04  0.341E-02    0.10       1.0  T
   8   -209.9361188  0.130956E-03  0.515E-02    0.10       1.0  T
   9   -209.9360707  0.480554E-04  0.540E-02    0.10       1.0  T
  10   -209.9362949 -0.224137E-03  0.196E-02    0.10       1.0  T
  11   -209.9363195 -0.246396E-04  0.921E-03    0.10       1.1  T
  12   -209.9363178  0.177056E-05  0.766E-03    0.10       1.3  T
  13   -209.9363103  0.747413E-05  0.118E-02    0.10       1.0  T
  14   -209.9363208 -0.105649E-04  0.349E-03    0.10       2.9  T
  15   -209.9363210 -0.149225E-06  0.237E-03    0.10       4.3  T
  16   -209.9363210 -0.413388E-07  0.225E-03    0.10       4.5  T
  17   -209.9363213 -0.278606E-06  0.960E-04    0.10      10.6  T
  18   -209.9363213  0.142511E-07  0.104E-03    0.10       9.8  T
  19   -209.9363213 -0.859248E-08  0.606E-04    0.10      16.8  T
     SCC iter.                  ...        0 min,  0.553 sec
     gradient                   ...        0 min,  0.059 sec
 * total energy  :  -207.8417200 Eh     change       -0.9774413E-03 Eh
   gradient norm :     0.0119919 Eh/α   predicted    -0.9770098E-03 (  -0.04%)
   displ. norm   :     0.8036236 α      lambda       -0.1206641E-02
   maximum displ.:     0.4464752 α      in ANC's #3, #5, #2, ...

........................................................................
.............................. CYCLE  296 ..............................
........................................................................

 iter      E             dE          RMSdq      gap      omega  full diag
   1   -209.9420244 -0.209942E+03  0.254E-01    0.12       0.0  T
   2   -207.3888880  0.255314E+01  0.588E+00    0.16       1.0  T
   3   -209.9446116 -0.255572E+01  0.692E-02    0.10       1.0  T
   4   -209.9442860  0.325620E-03  0.692E-02    0.11       1.0  T
   5   -209.9419817  0.230425E-02  0.181E-01    0.09       1.0  T
   6   -209.9413501  0.631678E-03  0.198E-01    0.08       1.0  T
   7   -209.9430257 -0.167561E-02  0.130E-01    0.09       1.0  T
   8   -209.9445729 -0.154721E-02  0.593E-02    0.11       1.0  T
   9   -209.9445866 -0.137164E-04  0.491E-02    0.11       1.0  T
  10   -209.9446655 -0.788989E-04  0.239E-02    0.10       1.0  T
  11   -209.9446869 -0.213769E-04  0.655E-03    0.10       1.5  T
  12   -209.9446768  0.100867E-04  0.135E-02    0.10       1.0  T
  13   -209.9446796 -0.277676E-05  0.108E-02    0.10       1.0  T
  14   -209.9446873 -0.777146E-05  0.365E-03    0.10       2.8  T
  15   -209.9446880 -0.706855E-06  0.185E-03    0.10       5.5  T
  16   -209.9446882 -0.155867E-06  0.101E-03    0.10      10.0  T
  17   -209.9446882 -0.475154E-08  0.894E-04    0.10      11.4  T
  18   -209.9446881  0.737169E-07  0.156E-03    0.10       6.5  T
  19   -209.9446882 -0.101599E-06  0.579E-04    0.10      17.5  T
     SCC iter.                  ...        0 min,  0.557 sec
     gradient                   ...        0 min,  0.059 sec
 * total energy  :  -207.8426773 Eh     change       -0.9572841E-03 Eh
   gradient norm :     0.0100852 Eh/α   predicted    -0.9929552E-03 (   3.73%)
   displ. norm   :     0.8475449 α      lambda       -0.1125150E-02
   maximum displ.:     0.4730280 α      in ANC's #3, #5, #2, ...

........................................................................
.............................. CYCLE  297 ..............................
........................................................................

 iter      E             dE          RMSdq      gap      omega  full diag
   1   -209.9392486 -0.209939E+03  0.271E-01    0.12       0.0  T
   2   -207.3228778  0.261637E+01  0.594E+00    0.16       1.0  T
   3   -209.9418696 -0.261899E+01  0.105E-01    0.09       1.0  T
   4   -209.9405286  0.134105E-02  0.156E-01    0.09       1.0  T
   5   -209.9306255  0.990307E-02  0.369E-01    0.07       1.0  T
   6   -209.9314936 -0.868110E-03  0.353E-01    0.07       1.0  T
   7   -209.9420617 -0.105681E-01  0.991E-02    0.11       1.0  T
   8   -209.9416993  0.362391E-03  0.110E-01    0.11       1.0  T
   9   -209.9422191 -0.519731E-03  0.493E-02    0.10       1.0  T
  10   -209.9422701 -0.510330E-04  0.269E-02    0.10       1.0  T
  11   -209.9423069 -0.367675E-04  0.118E-02    0.10       1.0  T
  12   -209.9422958  0.110572E-04  0.204E-02    0.10       1.0  T
  13   -209.9423008 -0.495108E-05  0.157E-02    0.10       1.0  T
  14   -209.9423087 -0.793207E-05  0.911E-03    0.10       1.1  T
  15   -209.9423155 -0.680614E-05  0.402E-03    0.10       2.5  T
  16   -209.9423156 -0.120852E-06  0.263E-03    0.10       3.9  T
  17   -209.9423156  0.597239E-07  0.134E-03    0.10       7.6  T
  18   -209.9423152  0.346982E-06  0.326E-03    0.10       3.1  T
  19   -209.9423157 -0.457759E-06  0.117E-03    0.10       8.7  T
  20   -209.9423157 -0.583572E-08  0.752E-04    0.10      13.5  T
  21   -209.9423157 -0.866720E-09  0.322E-04    0.10      31.5  T
     SCC iter.                  ...        0 min,  0.561 sec
     gradient                   ...        0 min,  0.058 sec
 * total energy  :  -207.8435833 Eh     change       -0.9059973E-03 Eh
   gradient norm :     0.0110778 Eh/α   predicted    -0.9666980E-03 (   6.70%)
   displ. norm   :     0.8796642 α      lambda       -0.1058533E-02
   maximum displ.:     0.4862863 α      in ANC's #3, #5, #2, ...

........................................................................
.............................. CYCLE  298 ..............................
........................................................................

 iter      E             dE          RMSdq      gap      omega  full diag
   1   -209.9363890 -0.209936E+03  0.202E-01    0.10       0.0  T
   2   -209.8358627  0.100526E+00  0.113E+00    0.03       1.0  T
   3   -209.9208832 -0.850206E-01  0.433E-01    0.17       1.0  T
   4   -209.9351948 -0.143116E-01  0.136E-01    0.12       1.0  T
   5   -209.9332561  0.193877E-02  0.201E-01    0.12       1.0  T
   6   -209.9346661 -0.140998E-02  0.148E-01    0.12       1.0  T
   7   -209.9364773 -0.181120E-02  0.119E-02    0.10       1.0  T
   8   -209.9364229  0.543214E-04  0.284E-02    0.10       1.0  T
   9   -209.9364049  0.180709E-04  0.314E-02    0.10       1.0  T
  10   -209.9364810 -0.760937E-04  0.670E-03    0.10       1.5  T
  11   -209.9364821 -0.114159E-05  0.475E-03    0.10       2.1  T
  12   -209.9364800  0.210886E-05  0.663E-03    0.10       1.5  T
  13   -209.9364823 -0.231211E-05  0.392E-03    0.10       2.6  T
  14   -209.9364835 -0.123579E-05  0.865E-04    0.10      11.7  T
  15   -209.9364833  0.218756E-06  0.176E-03    0.10       5.8  T
  16   -209.9364836 -0.232561E-06  0.421E-04    0.10      24.1  T
  17   -209.9364835  0.168154E-07  0.580E-04    0.10      17.5  T
     SCC iter.                  ...        0 min,  0.462 sec
     gradient                   ...        0 min,  0.057 sec
 * total energy  :  -207.8444625 Eh     change       -0.8792308E-03 Eh
   gradient norm :     0.0084537 Eh/α   predicted    -0.9388215E-03 (   6.78%)
   displ. norm   :     0.7453999 α      lambda       -0.1103871E-02
   maximum displ.:     0.4417648 α      in ANC's #3, #5, #2, ...
 * RMSD in coord.:     2.1119229 α      energy gain  -0.2343423E-01 Eh

generating ANC from exact Hessian ...
Using Lindh-Hessian (1995)
 Shifting diagonal of input Hessian by   1.039731350057722E-002
 Lowest  eigenvalues of input Hessian
    0.010000    0.010093    0.010214    0.000000    0.000000    0.000000
    0.000000    0.000000    0.000000    0.010497    0.010555    0.010587
    0.010647    0.011040    0.011122    0.011294    0.011419    0.011781
 Highest eigenvalues
    2.122265    2.193285    2.196096    2.405228    2.513382    3.301075
 

........................................................................
.............................. CYCLE  299 ..............................
........................................................................

 iter      E             dE          RMSdq      gap      omega  full diag
   1   -209.9635292 -0.209964E+03  0.375E-01    0.08       0.0  T
   2   -209.8989252  0.646039E-01  0.893E-01    0.72       1.0  T
   3   -209.9549360 -0.560108E-01  0.394E-01    0.07       1.0  T
   4   -209.9330221  0.219139E-01  0.677E-01    0.29       1.0  T
   5   -209.9430015 -0.997944E-02  0.572E-01    0.21       1.0  T
   6   -209.9600729 -0.170713E-01  0.342E-01    0.14       1.0  T
   7   -209.9439098  0.161631E-01  0.574E-01    0.06       1.0  T
   8   -209.9687659 -0.248561E-01  0.450E-02    0.10       1.0  T
   9   -209.9676968  0.106905E-02  0.122E-01    0.09       1.0  T
  10   -209.9675518  0.145022E-03  0.133E-01    0.11       1.0  T
  11   -209.9679792 -0.427407E-03  0.107E-01    0.11       1.0  T
  12   -209.9688733 -0.894068E-03  0.853E-03    0.10       1.2  T
  13   -209.9688463  0.269939E-04  0.201E-02    0.10       1.0  T
  14   -209.9688742 -0.279555E-04  0.715E-03    0.10       1.4  T
  15   -209.9688520  0.222598E-04  0.185E-02    0.10       1.0  T
  16   -209.9688779 -0.259199E-04  0.167E-03    0.10       6.1  T
  17   -209.9688775  0.366623E-06  0.266E-03    0.10       3.8  T
  18   -209.9688765  0.103163E-05  0.448E-03    0.10       2.3  T
  19   -209.9688768 -0.339663E-06  0.394E-03    0.10       2.6  T
  20   -209.9688779 -0.109832E-05  0.116E-03    0.10       8.7  T
  21   -209.9688780 -0.417538E-07  0.906E-04    0.10      11.2  T
  22   -209.9688780 -0.460521E-07  0.475E-04    0.10      21.4  T
     SCC iter.                  ...        0 min,  0.610 sec
     gradient                   ...        0 min,  0.057 sec
 * total energy  :  -207.8441853 Eh     change        0.2772209E-03 Eh
   gradient norm :     0.0364776 Eh/α   predicted     0.0000000E+00 (-100.00%)
   displ. norm   :     0.1959786 α      lambda       -0.2073904E-02
   maximum displ.:     0.1221565 α      in ANC's #4, #46, #3, ...

........................................................................
.............................. CYCLE  300 ..............................
........................................................................

 iter      E             dE          RMSdq      gap      omega  full diag
   1   -209.9529140 -0.209953E+03  0.149E-01    0.11       0.0  T
   2   -209.4002001  0.552714E+00  0.272E+00    0.01       1.0  T
   3   -209.9425272 -0.542327E+00  0.359E-01    0.15       1.0  T
   4   -209.9531568 -0.106296E-01  0.534E-02    0.10       1.0  T
   5   -209.9502163  0.294047E-02  0.192E-01    0.12       1.0  T
   6   -209.9524742 -0.225789E-02  0.986E-02    0.11       1.0  T
   7   -209.9532360 -0.761819E-03  0.107E-02    0.10       1.0  T
   8   -209.9532401 -0.409082E-05  0.775E-03    0.10       1.3  T
   9   -209.9532293  0.107741E-04  0.137E-02    0.10       1.0  T
  10   -209.9532388 -0.949873E-05  0.848E-03    0.10       1.2  T
  11   -209.9532441 -0.529400E-05  0.192E-03    0.10       5.3  T
  12   -209.9532434  0.681523E-06  0.297E-03    0.10       3.4  T
  13   -209.9532442 -0.739541E-06  0.661E-04    0.10      15.4  T
  14   -209.9532442  0.167523E-07  0.685E-04    0.10      14.8  T
     SCC iter.                  ...        0 min,  0.389 sec
     gradient                   ...        0 min,  0.058 sec
 * total energy  :  -207.8454554 Eh     change       -0.1270098E-02 Eh
   gradient norm :     0.0106506 Eh/α   predicted    -0.1077054E-02 ( -15.20%)
   displ. norm   :     0.2815023 α      lambda       -0.1036707E-02
   maximum displ.:     0.2074758 α      in ANC's #4, #3, #5, ...

........................................................................
.............................. CYCLE  301 ..............................
........................................................................

 iter      E             dE          RMSdq      gap      omega  full diag
   1   -209.9435802 -0.209944E+03  0.175E-01    0.11       0.0  T
   2   -209.3744018  0.569178E+00  0.275E+00    0.01       1.0  T
   3   -209.9437466 -0.569345E+00  0.671E-02    0.11       1.0  T
   4   -209.9438697 -0.123082E-03  0.350E-02    0.10       1.0  T
   5   -209.9438187  0.510170E-04  0.382E-02    0.10       1.0  T
   6   -209.9435917  0.226954E-03  0.636E-02    0.11       1.0  T
   7   -209.9439414 -0.349607E-03  0.664E-03    0.10       1.5  T
   8   -209.9439409  0.482440E-06  0.571E-03    0.10       1.8  T
   9   -209.9439387  0.219013E-05  0.754E-03    0.10       1.3  T
  10   -209.9439427 -0.401502E-05  0.264E-03    0.10       3.8  T
  11   -209.9439428 -0.115593E-06  0.206E-03    0.10       4.9  T
  12   -209.9439431 -0.243442E-06  0.103E-03    0.10       9.9  T
  13   -209.9439430  0.739143E-07  0.136E-03    0.10       7.5  T
  14   -209.9439431 -0.138190E-06  0.343E-04    0.10      29.6  T
  15   -209.9439431  0.398671E-09  0.273E-04    0.10      37.2  T
     SCC iter.                  ...        0 min,  0.400 sec
     gradient                   ...        0 min,  0.058 sec
 * total energy  :  -207.8459322 Eh     change       -0.4768412E-03 Eh
   gradient norm :     0.0144254 Eh/α   predicted    -0.5594345E-03 (  17.32%)
   displ. norm   :     0.2962442 α      lambda       -0.9025387E-03
   maximum displ.:     0.2182792 α      in ANC's #4, #3, #5, ...

........................................................................
.............................. CYCLE  302 ..............................
........................................................................

 iter      E             dE          RMSdq      gap      omega  full diag
   1   -209.9412041 -0.209941E+03  0.134E-01    0.10       0.0  T
   2   -209.8441564  0.970478E-01  0.111E+00    0.03       1.0  T
   3   -209.9369309 -0.927745E-01  0.234E-01    0.13       1.0  T
   4   -209.9407500 -0.381908E-02  0.883E-02    0.11       1.0  T
   5   -209.9398814  0.868549E-03  0.132E-01    0.11       1.0  T
   6   -209.9407916 -0.910113E-03  0.803E-02    0.11       1.0  T
   7   -209.9413099 -0.518369E-03  0.897E-03    0.10       1.1  T
   8   -209.9412935  0.164416E-04  0.156E-02    0.10       1.0  T
   9   -209.9413126 -0.191321E-04  0.295E-03    0.10       3.4  T
  10   -209.9413120  0.652551E-06  0.393E-03    0.10       2.6  T
  11   -209.9413129 -0.957266E-06  0.176E-03    0.10       5.8  T
  12   -209.9413131 -0.199997E-06  0.735E-04    0.10      13.8  T
  13   -209.9413131 -0.556525E-08  0.670E-04    0.10      15.1  T
     SCC iter.                  ...        0 min,  0.346 sec
     gradient                   ...        0 min,  0.058 sec
 * total energy  :  -207.8465434 Eh     change       -0.6111822E-03 Eh
   gradient norm :     0.0149020 Eh/α   predicted    -0.4909015E-03 ( -19.68%)
   displ. norm   :     0.3905446 α      lambda       -0.1028490E-02
   maximum displ.:     0.2785161 α      in ANC's #4, #3, #5, ...

........................................................................
.............................. CYCLE  303 ..............................
........................................................................

 iter      E             dE          RMSdq      gap      omega  full diag
   1   -209.9443743 -0.209944E+03  0.155E-01    0.10       0.0  T
   2   -209.9202806  0.240937E-01  0.533E-01    0.20       1.0  T
   3   -209.8861680  0.341126E-01  0.850E-01    0.04       1.0  T
   4   -209.9426773 -0.565093E-01  0.163E-01    0.12       1.0  T
   5   -209.9407728  0.190447E-02  0.216E-01    0.13       1.0  T
   6   -209.9436810 -0.290819E-02  0.103E-01    0.11       1.0  T
   7   -209.9445060 -0.824994E-03  0.816E-03    0.10       1.2  T
   8   -209.9443681  0.137916E-03  0.418E-02    0.10       1.0  T
   9   -209.9444937 -0.125674E-03  0.139E-02    0.10       1.0  T
  10   -209.9445085 -0.147256E-04  0.203E-03    0.10       5.0  T
  11   -209.9445064  0.207956E-05  0.536E-03    0.10       1.9  T
  12   -209.9445086 -0.221175E-05  0.107E-03    0.10       9.5  T
  13   -209.9445086 -0.485492E-07  0.616E-04    0.10      16.5  T
  14   -209.9445085  0.154319E-06  0.145E-03    0.10       7.0  T
  15   -209.9445086 -0.152189E-06  0.534E-04    0.10      19.0  T
     SCC iter.                  ...        0 min,  0.417 sec
     gradient                   ...        0 min,  0.060 sec
 * total energy  :  -207.8473390 Eh     change       -0.7956558E-03 Eh
   gradient norm :     0.0110208 Eh/α   predicted    -0.5926835E-03 ( -25.51%)
   displ. norm   :     0.5457691 α      lambda       -0.1312583E-02
   maximum displ.:     0.3808016 α      in ANC's #4, #3, #5, ...

........................................................................
.............................. CYCLE  304 ..............................
........................................................................

 iter      E             dE          RMSdq      gap      omega  full diag
   1   -209.9504046 -0.209950E+03  0.161E-01    0.11       0.0  T
   2   -209.6197434  0.330661E+00  0.207E+00    0.01       1.0  T
   3   -209.9503785 -0.330635E+00  0.741E-02    0.10       1.0  T
   4   -209.9505236 -0.145103E-03  0.408E-02    0.10       1.0  T
   5   -209.9490369  0.148671E-02  0.134E-01    0.12       1.0  T
   6   -209.9505699 -0.153302E-02  0.198E-02    0.10       1.0  T
   7   -209.9505797 -0.979088E-05  0.145E-02    0.10       1.0  T
   8   -209.9505042  0.754783E-04  0.325E-02    0.10       1.0  T
   9   -209.9505849 -0.807160E-04  0.963E-03    0.10       1.1  T
  10   -209.9505892 -0.432280E-05  0.545E-03    0.10       1.9  T
  11   -209.9505909 -0.168430E-05  0.252E-03    0.10       4.0  T
  12   -209.9505909  0.291843E-07  0.251E-03    0.10       4.0  T
  13   -209.9505909  0.536849E-08  0.252E-03    0.10       4.0  T
  14   -209.9505911 -0.236726E-06  0.172E-03    0.10       5.9  T
  15   -209.9505913 -0.136038E-06  0.105E-03    0.10       9.7  T
  16   -209.9505914 -0.878657E-07  0.167E-04    0.10      60.8  T
  17   -209.9505913  0.115345E-07  0.415E-04    0.10      24.4  T
     SCC iter.                  ...        0 min,  0.574 sec
     gradient                   ...        0 min,  0.059 sec
 * total energy  :  -207.8484174 Eh     change       -0.1078399E-02 Eh
   gradient norm :     0.0129492 Eh/α   predicted    -0.8517861E-03 ( -21.01%)
   displ. norm   :     0.6717423 α      lambda       -0.1502838E-02
   maximum displ.:     0.4628924 α      in ANC's #4, #3, #5, ...

........................................................................
.............................. CYCLE  305 ..............................
........................................................................

 iter      E             dE          RMSdq      gap      omega  full diag
   1   -209.9503264 -0.209950E+03  0.268E-01    0.13       0.0  T
   2   -207.2938289  0.265650E+01  0.592E+00    0.16       1.0  T
   3   -209.9535889 -0.265976E+01  0.102E-01    0.11       1.0  T
   4   -209.9480186  0.557022E-02  0.252E-01    0.14       1.0  T
   5   -209.9537236 -0.570498E-02  0.640E-02    0.11       1.0  T
   6   -209.9538767 -0.153133E-03  0.571E-02    0.10       1.0  T
   7   -209.9535806  0.296102E-03  0.822E-02    0.09       1.0  T
   8   -209.9534663  0.114377E-03  0.960E-02    0.09       1.0  T
   9   -209.9539325 -0.466248E-03  0.345E-02    0.10       1.0  T
  10   -209.9538723  0.602666E-04  0.460E-02    0.11       1.0  T
  11   -209.9540034 -0.131144E-03  0.161E-02    0.10       1.0  T
  12   -209.9540236 -0.202100E-04  0.621E-03    0.10       1.6  T
  13   -209.9540249 -0.130569E-05  0.449E-03    0.10       2.3  T
  14   -209.9540251 -0.224507E-06  0.113E-03    0.10       9.0  T
  15   -209.9540252 -0.178874E-07  0.106E-03    0.10       9.6  T
  16   -209.9540252 -0.183084E-08  0.957E-04    0.10      10.6  T
  17   -209.9540250  0.113611E-06  0.122E-03    0.10       8.3  T
  18   -209.9540252 -0.117442E-06  0.490E-04    0.10      20.7  T
     SCC iter.                  ...        0 min,  0.589 sec
     gradient                   ...        0 min,  0.058 sec
 * total energy  :  -207.8497355 Eh     change       -0.1318091E-02 Eh
   gradient norm :     0.0145811 Eh/α   predicted    -0.1090498E-02 ( -17.27%)
   displ. norm   :     0.7454509 α      lambda       -0.1718616E-02
   maximum displ.:     0.5059881 α      in ANC's #4, #3, #5, ...

........................................................................
.............................. CYCLE  306 ..............................
........................................................................

 iter      E             dE          RMSdq      gap      omega  full diag
   1   -209.9466291 -0.209947E+03  0.351E-01    0.08       0.0  T
   2   -209.8763349  0.702943E-01  0.952E-01    0.73       1.0  T
   3   -209.9275839 -0.512491E-01  0.593E-01    0.22       1.0  T
   4   -209.9525837 -0.249998E-01  0.124E-01    0.09       1.0  T
   5   -209.9474696  0.511412E-02  0.288E-01    0.14       1.0  T
   6   -209.9535733 -0.610374E-02  0.468E-02    0.10       1.0  T
   7   -209.9536921 -0.118782E-03  0.231E-02    0.10       1.0  T
   8   -209.9529383  0.753827E-03  0.976E-02    0.09       1.0  T
   9   -209.9535720 -0.633723E-03  0.432E-02    0.11       1.0  T
  10   -209.9536587 -0.867744E-04  0.285E-02    0.10       1.0  T
  11   -209.9536003  0.584400E-04  0.386E-02    0.11       1.0  T
  12   -209.9537203 -0.119979E-03  0.245E-03    0.10       4.1  T
  13   -209.9537165  0.378089E-05  0.710E-03    0.10       1.4  T
  14   -209.9537194 -0.284733E-05  0.380E-03    0.10       2.7  T
  15   -209.9537202 -0.858750E-06  0.198E-03    0.10       5.1  T
  16   -209.9537187  0.147443E-05  0.464E-03    0.10       2.2  T
  17   -209.9537205 -0.172243E-05  0.743E-04    0.10      13.7  T
  18   -209.9537205 -0.291316E-07  0.388E-04    0.10      26.2  T
  19   -209.9537204  0.110403E-06  0.126E-03    0.10       8.1  T
  20   -209.9537204 -0.229864E-07  0.110E-03    0.10       9.2  T
  21   -209.9537205 -0.942285E-07  0.253E-04    0.10      40.2  T
     SCC iter.                  ...        0 min,  0.619 sec
     gradient                   ...        0 min,  0.059 sec
 * total energy  :  -207.8512699 Eh     change       -0.1534364E-02 Eh
   gradient norm :     0.0139145 Eh/α   predicted    -0.1336832E-02 ( -12.87%)
   displ. norm   :     0.7905012 α      lambda       -0.1897625E-02
   maximum displ.:     0.5394346 α      in ANC's #4, #3, #5, ...

........................................................................
.............................. CYCLE  307 ..............................
........................................................................

 iter      E             dE          RMSdq      gap      omega  full diag
   1   -209.9503110 -0.209950E+03  0.242E-01    0.12       0.0  T
   2   -207.9124287  0.203788E+01  0.518E+00    0.09       1.0  T
   3   -209.9476131 -0.203518E+01  0.238E-01    0.08       1.0  T
   4   -209.9517178 -0.410462E-02  0.670E-02    0.10       1.0  T
   5   -209.9502400  0.147775E-02  0.131E-01    0.09       1.0  T
   6   -209.9512593 -0.101932E-02  0.922E-02    0.11       1.0  T
   7   -209.9512145  0.448510E-04  0.928E-02    0.11       1.0  T
   8   -209.9511098  0.104648E-03  0.932E-02    0.11       1.0  T
   9   -209.9516815 -0.571619E-03  0.485E-02    0.11       1.0  T
  10   -209.9518934 -0.211993E-03  0.153E-02    0.10       1.0  T
  11   -209.9518946 -0.116747E-05  0.102E-02    0.10       1.0  T
  12   -209.9518984 -0.381339E-05  0.438E-03    0.10       2.3  T
  13   -209.9518966  0.187064E-05  0.521E-03    0.10       1.9  T
  14   -209.9518955  0.105467E-05  0.613E-03    0.10       1.7  T
  15   -209.9518986 -0.311054E-05  0.284E-03    0.10       3.6  T
  16   -209.9518987 -0.625288E-07  0.124E-03    0.10       8.2  T
  17   -209.9518986  0.716074E-07  0.152E-03    0.10       6.7  T
  18   -209.9518987 -0.856379E-07  0.475E-04    0.10      21.4  T
  19   -209.9518987  0.234927E-07  0.632E-04    0.10      16.1  T
     SCC iter.                  ...        0 min,  0.531 sec
     gradient                   ...        0 min,  0.060 sec
 * total energy  :  -207.8530340 Eh     change       -0.1764066E-02 Eh
   gradient norm :     0.0130954 Eh/α   predicted    -0.1541738E-02 ( -12.60%)
   displ. norm   :     0.8237499 α      lambda       -0.2034484E-02
   maximum displ.:     0.5621787 α      in ANC's #4, #3, #5, ...

........................................................................
.............................. CYCLE  308 ..............................
........................................................................

 iter      E             dE          RMSdq      gap      omega  full diag
   1   -209.9519017 -0.209952E+03  0.189E-01    0.10       0.0  T
   2   -209.9507460  0.115569E-02  0.139E-01    0.11       1.0  T
   3   -209.1166844  0.834062E+00  0.326E+00    0.00       1.0  T
   4   -209.9495214 -0.832837E+00  0.172E-01    0.12       1.0  T
   5   -209.9503248 -0.803431E-03  0.138E-01    0.12       1.0  T
   6   -209.9515355 -0.121068E-02  0.719E-02    0.11       1.0  T
   7   -209.9519631 -0.427613E-03  0.143E-02    0.10       1.0  T
   8   -209.9519696 -0.650242E-05  0.954E-03    0.10       1.1  T
   9   -209.9517539  0.215691E-03  0.502E-02    0.10       1.0  T
  10   -209.9519006 -0.146651E-03  0.288E-02    0.10       1.0  T
  11   -209.9519688 -0.682299E-04  0.700E-03    0.10       1.4  T
  12   -209.9519718 -0.299168E-05  0.392E-03    0.10       2.6  T
  13   -209.9519717  0.152760E-06  0.360E-03    0.10       2.8  T
  14   -209.9519721 -0.494100E-06  0.243E-03    0.10       4.2  T
  15   -209.9519723 -0.157513E-06  0.188E-03    0.10       5.4  T
  16   -209.9519726 -0.243471E-06  0.761E-04    0.10      13.3  T
  17   -209.9519726 -0.175771E-07  0.501E-04    0.10      20.3  T
     SCC iter.                  ...        0 min,  0.623 sec
     gradient                   ...        0 min,  0.060 sec
 * total energy  :  -207.8549568 Eh     change       -0.1922848E-02 Eh
   gradient norm :     0.0117522 Eh/α   predicted    -0.1707518E-02 ( -11.20%)
   displ. norm   :     0.8636049 α      lambda       -0.2154084E-02
   maximum displ.:     0.5895457 α      in ANC's #4, #3, #5, ...

........................................................................
.............................. CYCLE  309 ..............................
........................................................................

 iter      E             dE          RMSdq      gap      omega  full diag
   1   -209.9523882 -0.209952E+03  0.230E-01    0.09       0.0  T
   2   -209.9097857  0.426025E-01  0.688E-01    0.36       1.0  T
   3   -209.7713411  0.138445E+00  0.149E+00    0.02       1.0  T
   4   -209.9433071 -0.171966E+00  0.380E-01    0.15       1.0  T
   5   -209.9326170  0.106902E-01  0.497E-01    0.18       1.0  T
   6   -209.9402943 -0.767739E-02  0.398E-01    0.16       1.0  T
   7   -209.9509874 -0.106930E-01  0.166E-01    0.12       1.0  T
   8   -209.9529047 -0.191732E-02  0.552E-02    0.11       1.0  T
   9   -209.9530279 -0.123233E-03  0.370E-02    0.10       1.0  T
  10   -209.9531457 -0.117743E-03  0.732E-03    0.10       1.4  T
  11   -209.9531453  0.330864E-06  0.691E-03    0.10       1.5  T
  12   -209.9531477 -0.239352E-05  0.348E-03    0.10       2.9  T
  13   -209.9531437  0.399889E-05  0.747E-03    0.10       1.4  T
  14   -209.9531482 -0.442316E-05  0.163E-03    0.10       6.2  T
  15   -209.9531482 -0.250514E-07  0.896E-04    0.10      11.3  T
  16   -209.9531482  0.246348E-08  0.693E-04    0.10      14.7  T
     SCC iter.                  ...        0 min,  0.515 sec
     gradient                   ...        0 min,  0.068 sec
 * total energy  :  -207.8569929 Eh     change       -0.2036116E-02 Eh
   gradient norm :     0.0126729 Eh/α   predicted    -0.1880334E-02 (  -7.65%)
   displ. norm   :     0.8856668 α      lambda       -0.2215941E-02
   maximum displ.:     0.6063100 α      in ANC's #4, #3, #5, ...

........................................................................
.............................. CYCLE  310 ..............................
........................................................................

 iter      E             dE          RMSdq      gap      omega  full diag
   1   -209.9538923 -0.209954E+03  0.249E-01    0.09       0.0  T
   2   -209.9044458  0.494465E-01  0.745E-01    0.48       1.0  T
   3   -209.9054256 -0.979786E-03  0.761E-01    0.05       1.0  T
   4   -209.9321052 -0.266795E-01  0.553E-01    0.20       1.0  T
   5   -209.9324181 -0.312899E-03  0.523E-01    0.19       1.0  T
   6   -209.9454818 -0.130638E-01  0.352E-01    0.15       1.0  T
   7   -209.9553498 -0.986792E-02  0.226E-02    0.10       1.0  T
   8   -209.9550190  0.330750E-03  0.666E-02    0.09       1.0  T
   9   -209.9551795 -0.160526E-03  0.475E-02    0.10       1.0  T
  10   -209.9552555 -0.759891E-04  0.393E-02    0.10       1.0  T
  11   -209.9553381 -0.825246E-04  0.229E-02    0.10       1.0  T
  12   -209.9553796 -0.415369E-04  0.371E-03    0.10       2.7  T
  13   -209.9553783  0.128730E-05  0.521E-03    0.10       1.9  T
  14   -209.9553793 -0.991568E-06  0.332E-03    0.10       3.1  T
  15   -209.9553797 -0.436688E-06  0.251E-03    0.10       4.1  T
  16   -209.9553785  0.121185E-05  0.438E-03    0.10       2.3  T
  17   -209.9553800 -0.148619E-05  0.142E-03    0.10       7.1  T
  18   -209.9553801 -0.826257E-07  0.977E-04    0.10      10.4  T
  19   -209.9553800  0.102649E-06  0.147E-03    0.10       6.9  T
  20   -209.9553801 -0.128497E-06  0.761E-04    0.10      13.3  T
     SCC iter.                  ...        0 min,  0.636 sec
     gradient                   ...        0 min,  0.058 sec
 * total energy  :  -207.8590827 Eh     change       -0.2089822E-02 Eh
   gradient norm :     0.0127382 Eh/α   predicted    -0.1977079E-02 (  -5.39%)
   displ. norm   :     0.8852673 α      lambda       -0.2262544E-02
   maximum displ.:     0.6082726 α      in ANC's #4, #3, #5, ...

........................................................................
.............................. CYCLE  311 ..............................
........................................................................

 iter      E             dE          RMSdq      gap      omega  full diag
   1   -209.9571004 -0.209957E+03  0.291E-01    0.08       0.0  T
   2   -209.9000620  0.570384E-01  0.806E-01    0.58       1.0  T
   3   -209.9453918 -0.453298E-01  0.400E-01    0.07       1.0  T
   4   -209.9295422  0.158497E-01  0.619E-01    0.23       1.0  T
   5   -209.9377790 -0.823680E-02  0.514E-01    0.19       1.0  T
   6   -209.9531862 -0.154073E-01  0.291E-01    0.13       1.0  T
   7   -209.9511813  0.200496E-02  0.324E-01    0.07       1.0  T
   8   -209.9597617 -0.858038E-02  0.223E-02    0.10       1.0  T
   9   -209.9596901  0.715218E-04  0.327E-02    0.10       1.0  T
  10   -209.9594008  0.289319E-03  0.687E-02    0.11       1.0  T
  11   -209.9595484 -0.147617E-03  0.533E-02    0.10       1.0  T
  12   -209.9597803 -0.231886E-03  0.898E-03    0.10       1.1  T
  13   -209.9597264  0.539418E-04  0.267E-02    0.10       1.0  T
  14   -209.9597719 -0.455580E-04  0.135E-02    0.10       1.0  T
  15   -209.9597844 -0.124994E-04  0.505E-03    0.10       2.0  T
  16   -209.9597863 -0.183748E-05  0.118E-03    0.10       8.6  T
  17   -209.9597860  0.228103E-06  0.191E-03    0.10       5.3  T
  18   -209.9597863 -0.236444E-06  0.827E-04    0.10      12.3  T
  19   -209.9597860  0.273792E-06  0.203E-03    0.10       5.0  T
  20   -209.9597861 -0.131590E-06  0.156E-03    0.10       6.5  T
  21   -209.9597863 -0.197658E-06  0.122E-04    0.10      83.0  T
     SCC iter.                  ...        0 min,  0.597 sec
     gradient                   ...        0 min,  0.061 sec
 * total energy  :  -207.8611722 Eh     change       -0.2089484E-02 Eh
   gradient norm :     0.0113872 Eh/α   predicted    -0.2017863E-02 (  -3.43%)
   displ. norm   :     0.8743017 α      lambda       -0.2177302E-02
   maximum displ.:     0.5956337 α      in ANC's #4, #5, #2, ...

........................................................................
.............................. CYCLE  312 ..............................
........................................................................

 iter      E             dE          RMSdq      gap      omega  full diag
   1   -209.9620673 -0.209962E+03  0.246E-01    0.09       0.0  T
   2   -209.9259961  0.360712E-01  0.628E-01    0.27       1.0  T
   3   -209.4536463  0.472350E+00  0.252E+00    0.01       1.0  T
   4   -209.9605003 -0.506854E+00  0.202E-01    0.12       1.0  T
   5   -209.9447056  0.157948E-01  0.455E-01    0.17       1.0  T
   6   -209.9537537 -0.904813E-02  0.329E-01    0.14       1.0  T
   7   -209.9597446 -0.599093E-02  0.182E-01    0.12       1.0  T
   8   -209.9623514 -0.260681E-02  0.403E-02    0.10       1.0  T
   9   -209.9623942 -0.427552E-04  0.308E-02    0.10       1.0  T
  10   -209.9623300  0.642199E-04  0.409E-02    0.10       1.0  T
  11   -209.9624661 -0.136091E-03  0.102E-02    0.10       1.0  T
  12   -209.9624705 -0.440217E-05  0.655E-03    0.10       1.6  T
  13   -209.9624719 -0.148749E-05  0.412E-03    0.10       2.5  T
  14   -209.9624732 -0.121036E-05  0.174E-03    0.10       5.8  T
  15   -209.9624720  0.111722E-05  0.371E-03    0.10       2.7  T
  16   -209.9624731 -0.108919E-05  0.119E-03    0.10       8.6  T
  17   -209.9624731  0.131128E-07  0.113E-03    0.10       9.0  T
  18   -209.9624732 -0.915309E-07  0.342E-04    0.10      29.7  T
  19   -209.9624732 -0.264825E-08  0.227E-04    0.10      44.7  T
     SCC iter.                  ...        0 min,  0.586 sec
     gradient                   ...        0 min,  0.058 sec
 * total energy  :  -207.8631236 Eh     change       -0.1951385E-02 Eh
   gradient norm :     0.0100983 Eh/α   predicted    -0.1920833E-02 (  -1.57%)
   displ. norm   :     0.8495023 α      lambda       -0.1957498E-02
   maximum displ.:     0.5690620 α      in ANC's #4, #2, #5, ...

........................................................................
.............................. CYCLE  313 ..............................
........................................................................

 iter      E             dE          RMSdq      gap      omega  full diag
   1   -209.9642441 -0.209964E+03  0.275E-01    0.09       0.0  T
   2   -209.9236819  0.405622E-01  0.667E-01    0.32       1.0  T
   3   -209.4282556  0.495426E+00  0.258E+00    0.01       1.0  T
   4   -209.9570424 -0.528787E+00  0.348E-01    0.14       1.0  T
   5   -209.9413962  0.156462E-01  0.520E-01    0.19       1.0  T
   6   -209.9519896 -0.105934E-01  0.398E-01    0.15       1.0  T
   7   -209.9598345 -0.784495E-02  0.245E-01    0.13       1.0  T
   8   -209.9643948 -0.456022E-02  0.747E-02    0.11       1.0  T
   9   -209.9648359 -0.441119E-03  0.111E-02    0.10       1.0  T
  10   -209.9647521  0.837928E-04  0.318E-02    0.10       1.0  T
  11   -209.9648291 -0.769996E-04  0.117E-02    0.10       1.0  T
  12   -209.9648333 -0.416892E-05  0.900E-03    0.10       1.1  T
  13   -209.9648377 -0.447230E-05  0.464E-03    0.10       2.2  T
  14   -209.9648393 -0.153484E-05  0.197E-03    0.10       5.1  T
  15   -209.9648385  0.774777E-06  0.328E-03    0.10       3.1  T
  16   -209.9648391 -0.598260E-06  0.206E-03    0.10       4.9  T
  17   -209.9648390  0.119607E-06  0.234E-03    0.10       4.3  T
  18   -209.9648394 -0.408823E-06  0.648E-04    0.10      15.7  T
  19   -209.9648394 -0.241822E-07  0.243E-04    0.10      41.7  T
     SCC iter.                  ...        0 min,  0.537 sec
     gradient                   ...        0 min,  0.059 sec
 * total energy  :  -207.8647981 Eh     change       -0.1674463E-02 Eh
   gradient norm :     0.0104513 Eh/α   predicted    -0.1685092E-02 (   0.63%)
   displ. norm   :     0.8112017 α      lambda       -0.1627564E-02
   maximum displ.:     0.5327008 α      in ANC's #4, #2, #5, ...

........................................................................
.............................. CYCLE  314 ..............................
........................................................................

 iter      E             dE          RMSdq      gap      omega  full diag
   1   -209.9658565 -0.209966E+03  0.255E-01    0.11       0.0  T
   2   -209.1906241  0.775232E+00  0.312E+00    0.00       1.0  T
   3   -209.9592104 -0.768586E+00  0.287E-01    0.13       1.0  T
   4   -209.9542477  0.496270E-02  0.362E-01    0.07       1.0  T
   5   -209.9659952 -0.117475E-01  0.818E-02    0.11       1.0  T
   6   -209.9664437 -0.448508E-03  0.378E-02    0.10       1.0  T
   7   -209.9665227 -0.789352E-04  0.177E-02    0.10       1.0  T
   8   -209.9664784  0.442780E-04  0.286E-02    0.10       1.0  T
   9   -209.9663361  0.142312E-03  0.491E-02    0.09       1.0  T
  10   -209.9664061 -0.700607E-04  0.395E-02    0.09       1.0  T
  11   -209.9665413 -0.135186E-03  0.538E-03    0.10       1.9  T
  12   -209.9665346  0.677815E-05  0.105E-02    0.10       1.0  T
  13   -209.9665146  0.200018E-04  0.180E-02    0.10       1.0  T
  14   -209.9665339 -0.193330E-04  0.102E-02    0.10       1.0  T
  15   -209.9665425 -0.858632E-05  0.264E-03    0.10       3.8  T
  16   -209.9665428 -0.361119E-06  0.166E-03    0.10       6.1  T
  17   -209.9665422  0.622059E-06  0.305E-03    0.10       3.3  T
  18   -209.9665424 -0.155166E-06  0.265E-03    0.10       3.8  T
  19   -209.9665428 -0.447692E-06  0.142E-03    0.10       7.2  T
  20   -209.9665430 -0.180859E-06  0.168E-04    0.10      60.3  T
  21   -209.9665430  0.723674E-09  0.153E-04    0.10      66.5  T
     SCC iter.                  ...        0 min,  0.593 sec
     gradient                   ...        0 min,  0.061 sec
 * total energy  :  -207.8661373 Eh     change       -0.1339201E-02 Eh
   gradient norm :     0.0107254 Eh/α   predicted    -0.1349306E-02 (   0.75%)
   displ. norm   :     0.7455132 α      lambda       -0.1289423E-02
   maximum displ.:     0.4716604 α      in ANC's #4, #2, #8, ...

........................................................................
.............................. CYCLE  315 ..............................
........................................................................

 iter      E             dE          RMSdq      gap      omega  full diag
   1   -209.9676457 -0.209968E+03  0.263E-01    0.11       0.0  T
   2   -209.2783492  0.689296E+00  0.292E+00    0.01       1.0  T
   3   -209.9540080 -0.675659E+00  0.406E-01    0.16       1.0  T
   4   -209.9654859 -0.114778E-01  0.188E-01    0.12       1.0  T
   5   -209.9620770  0.340883E-02  0.262E-01    0.13       1.0  T
   6   -209.9670231 -0.494609E-02  0.120E-01    0.11       1.0  T
   7   -209.9680234 -0.100024E-02  0.486E-02    0.10       1.0  T
   8   -209.9681618 -0.138455E-03  0.272E-02    0.10       1.0  T
   9   -209.9678355  0.326370E-03  0.662E-02    0.09       1.0  T
  10   -209.9681348 -0.299325E-03  0.312E-02    0.10       1.0  T
  11   -209.9682169 -0.821684E-04  0.450E-03    0.10       2.3  T
  12   -209.9682177 -0.703217E-06  0.315E-03    0.10       3.2  T
  13   -209.9682105  0.718085E-05  0.914E-03    0.10       1.1  T
  14   -209.9682180 -0.748856E-05  0.152E-03    0.10       6.7  T
  15   -209.9682179  0.108046E-06  0.166E-03    0.10       6.1  T
  16   -209.9682181 -0.201680E-06  0.560E-04    0.10      18.1  T
  17   -209.9682180  0.295358E-07  0.732E-04    0.10      13.9  T
     SCC iter.                  ...        0 min,  0.510 sec
     gradient                   ...        0 min,  0.060 sec
 * total energy  :  -207.8671760 Eh     change       -0.1038710E-02 Eh
   gradient norm :     0.0096873 Eh/α   predicted    -0.1003057E-02 (  -3.43%)
   displ. norm   :     0.6700056 α      lambda       -0.9892463E-03
   maximum displ.:     0.3976783 α      in ANC's #4, #8, #2, ...

........................................................................
.............................. CYCLE  316 ..............................
........................................................................

 iter      E             dE          RMSdq      gap      omega  full diag
   1   -209.9706788 -0.209971E+03  0.243E-01    0.10       0.0  T
   2   -209.6765056  0.294173E+00  0.190E+00    0.01       1.0  T
   3   -209.9486747 -0.272169E+00  0.493E-01    0.19       1.0  T
   4   -209.9700463 -0.213716E-01  0.959E-02    0.09       1.0  T
   5   -209.9640171  0.602913E-02  0.281E-01    0.14       1.0  T
   6   -209.9688357 -0.481856E-02  0.159E-01    0.12       1.0  T
   7   -209.9707040 -0.186828E-02  0.528E-02    0.10       1.0  T
   8   -209.9709160 -0.212002E-03  0.139E-02    0.10       1.0  T
   9   -209.9708492  0.667320E-04  0.308E-02    0.10       1.0  T
  10   -209.9708921 -0.428774E-04  0.210E-02    0.10       1.0  T
  11   -209.9709288 -0.366789E-04  0.309E-03    0.10       3.3  T
  12   -209.9709288  0.179463E-07  0.245E-03    0.10       4.1  T
  13   -209.9709280  0.747190E-06  0.371E-03    0.10       2.7  T
  14   -209.9709292 -0.112873E-05  0.881E-04    0.10      11.5  T
  15   -209.9709289  0.259108E-06  0.181E-03    0.10       5.6  T
  16   -209.9709291 -0.219315E-06  0.903E-04    0.10      11.2  T
  17   -209.9709291 -0.212725E-07  0.701E-04    0.10      14.5  T
     SCC iter.                  ...        0 min,  0.477 sec
     gradient                   ...        0 min,  0.060 sec
 * total energy  :  -207.8679458 Eh     change       -0.7697846E-03 Eh
   gradient norm :     0.0094767 Eh/α   predicted    -0.7166764E-03 (  -6.90%)
   displ. norm   :     0.5630519 α      lambda       -0.7001544E-03
   maximum displ.:     0.3005238 α      in ANC's #4, #9, #1, ...

........................................................................
.............................. CYCLE  317 ..............................
........................................................................

 iter      E             dE          RMSdq      gap      omega  full diag
   1   -209.9695256 -0.209970E+03  0.242E-01    0.11       0.0  T
   2   -208.5974873  0.137204E+01  0.411E+00    0.03       1.0  T
   3   -209.9555201 -0.135803E+01  0.411E-01    0.16       1.0  T
   4   -209.9657087 -0.101886E-01  0.246E-01    0.13       1.0  T
   5   -209.9602266  0.548209E-02  0.328E-01    0.15       1.0  T
   6   -209.9689773 -0.875068E-02  0.137E-01    0.12       1.0  T
   7   -209.9697705 -0.793169E-03  0.100E-01    0.11       1.0  T
   8   -209.9702142 -0.443727E-03  0.727E-02    0.11       1.0  T
   9   -209.9706376 -0.423407E-03  0.211E-02    0.10       1.0  T
  10   -209.9706286  0.903046E-05  0.160E-02    0.10       1.0  T
  11   -209.9706301 -0.154737E-05  0.154E-02    0.10       1.0  T
  12   -209.9706375 -0.734787E-05  0.122E-02    0.10       1.0  T
  13   -209.9706459 -0.843401E-05  0.732E-03    0.10       1.4  T
  14   -209.9706499 -0.396555E-05  0.293E-03    0.10       3.5  T
  15   -209.9706499 -0.844622E-07  0.259E-03    0.10       3.9  T
  16   -209.9706500 -0.107418E-06  0.198E-03    0.10       5.1  T
  17   -209.9706503 -0.275293E-06  0.107E-03    0.10       9.5  T
  18   -209.9706504 -0.407810E-07  0.497E-04    0.10      20.4  T
  19   -209.9706503  0.208981E-07  0.669E-04    0.10      15.2  T
     SCC iter.                  ...        0 min,  0.532 sec
     gradient                   ...        0 min,  0.059 sec
 * total energy  :  -207.8684449 Eh     change       -0.4991223E-03 Eh
   gradient norm :     0.0073348 Eh/α   predicted    -0.4610667E-03 (  -7.62%)
   displ. norm   :     0.4576279 α      lambda       -0.4953600E-03
   maximum displ.:     0.1985595 α      in ANC's #9, #1, #4, ...

........................................................................
.............................. CYCLE  318 ..............................
........................................................................

 iter      E             dE          RMSdq      gap      omega  full diag
   1   -209.9793676 -0.209979E+03  0.184E-01    0.10       0.0  T
   2   -209.9769565  0.241104E-02  0.173E-01    0.09       1.0  T
   3   -209.9376588  0.392977E-01  0.668E-01    0.36       1.0  T
   4   -209.9755047 -0.378459E-01  0.223E-01    0.13       1.0  T
   5   -209.9781221 -0.261734E-02  0.121E-01    0.11       1.0  T
   6   -209.9743807  0.374138E-02  0.240E-01    0.08       1.0  T
   7   -209.9786598 -0.427909E-02  0.939E-02    0.09       1.0  T
   8   -209.9793883 -0.728467E-03  0.218E-02    0.10       1.0  T
   9   -209.9794159 -0.276174E-04  0.113E-02    0.10       1.0  T
  10   -209.9794098  0.602896E-05  0.139E-02    0.10       1.0  T
  11   -209.9794246 -0.147094E-04  0.479E-03    0.10       2.1  T
  12   -209.9794162  0.839061E-05  0.107E-02    0.10       1.0  T
  13   -209.9794259 -0.970639E-05  0.179E-03    0.10       5.7  T
  14   -209.9794258  0.393353E-07  0.186E-03    0.10       5.5  T
  15   -209.9794261 -0.226083E-06  0.812E-04    0.10      12.5  T
  16   -209.9794261 -0.108764E-07  0.721E-04    0.10      14.1  T
     SCC iter.                  ...        0 min,  0.496 sec
     gradient                   ...        0 min,  0.061 sec
 * total energy  :  -207.8687127 Eh     change       -0.2678331E-03 Eh
   gradient norm :     0.0135077 Eh/α   predicted    -0.2995517E-03 (  11.84%)
   displ. norm   :     0.4391888 α      lambda       -0.6232598E-03
   maximum displ.:     0.1925356 α      in ANC's #4, #9, #8, ...

........................................................................
.............................. CYCLE  319 ..............................
........................................................................

 iter      E             dE          RMSdq      gap      omega  full diag
   1   -209.9648420 -0.209965E+03  0.201E-01    0.09       0.0  T
   2   -209.9157307  0.491114E-01  0.740E-01    0.50       1.0  T
   3   -209.9637377 -0.480070E-01  0.199E-01    0.12       1.0  T
   4   -209.9486594  0.150783E-01  0.465E-01    0.06       1.0  T
   5   -209.9646644 -0.160051E-01  0.146E-01    0.12       1.0  T
   6   -209.9663719 -0.170741E-02  0.337E-02    0.10       1.0  T
   7   -209.9663297  0.421417E-04  0.412E-02    0.10       1.0  T
   8   -209.9664318 -0.102104E-03  0.196E-02    0.10       1.0  T
   9   -209.9664291  0.269408E-05  0.203E-02    0.10       1.0  T
  10   -209.9664646 -0.355170E-04  0.333E-03    0.10       3.0  T
  11   -209.9664632  0.143075E-05  0.489E-03    0.10       2.1  T
  12   -209.9664631  0.153087E-06  0.484E-03    0.10       2.1  T
  13   -209.9664648 -0.176000E-05  0.131E-03    0.10       7.8  T
  14   -209.9664648 -0.212194E-07  0.112E-03    0.10       9.1  T
  15   -209.9664649 -0.656582E-07  0.607E-04    0.10      16.7  T
  16   -209.9664649  0.235780E-07  0.736E-04    0.10      13.8  T
     SCC iter.                  ...        0 min,  0.472 sec
     gradient                   ...        0 min,  0.064 sec
 * total energy  :  -207.8688749 Eh     change       -0.1621243E-03 Eh
   gradient norm :     0.0153053 Eh/α   predicted    -0.3717439E-03 ( 129.30%)
   displ. norm   :     0.2454693 α      lambda       -0.6344192E-03
   maximum displ.:     0.1132353 α      in ANC's #3, #1, #9, ...

........................................................................
.............................. CYCLE  320 ..............................
........................................................................

 iter      E             dE          RMSdq      gap      omega  full diag
   1   -209.9734504 -0.209973E+03  0.104E-01    0.11       0.0  T
   2   -209.6049616  0.368489E+00  0.211E+00    0.01       1.0  T
   3   -209.9638664 -0.358905E+00  0.327E-01    0.15       1.0  T
   4   -209.9735640 -0.969755E-02  0.335E-02    0.10       1.0  T
   5   -209.9722857  0.127827E-02  0.124E-01    0.11       1.0  T
   6   -209.9731413 -0.855636E-03  0.759E-02    0.11       1.0  T
   7   -209.9735803 -0.438939E-03  0.248E-02    0.10       1.0  T
   8   -209.9736197 -0.394049E-04  0.102E-02    0.10       1.0  T
   9   -209.9736284 -0.871304E-05  0.230E-03    0.10       4.4  T
  10   -209.9736283  0.939988E-07  0.233E-03    0.10       4.4  T
  11   -209.9736286 -0.278351E-06  0.136E-03    0.10       7.4  T
  12   -209.9736287 -0.865412E-07  0.748E-04    0.10      13.6  T
  13   -209.9736287 -0.272350E-07  0.408E-04    0.10      24.9  T
     SCC iter.                  ...        0 min,  0.377 sec
     gradient                   ...        0 min,  0.058 sec
 * total energy  :  -207.8692199 Eh     change       -0.3450949E-03 Eh
   gradient norm :     0.0101837 Eh/α   predicted    -0.3363245E-03 (  -2.54%)
   displ. norm   :     0.2539273 α      lambda       -0.4475096E-03
   maximum displ.:     0.1200379 α      in ANC's #9, #3, #1, ...

........................................................................
.............................. CYCLE  321 ..............................
........................................................................

 iter      E             dE          RMSdq      gap      omega  full diag
   1   -209.9765424 -0.209977E+03  0.982E-02    0.10       0.0  T
   2   -209.9762630  0.279407E-03  0.676E-02    0.11       1.0  T
   3   -209.5655906  0.410672E+00  0.222E+00    0.01       1.0  T
   4   -209.9764783 -0.410888E+00  0.331E-02    0.10       1.0  T
   5   -209.9765123 -0.339640E-04  0.225E-02    0.10       1.0  T
   6   -209.9765612 -0.489201E-04  0.861E-03    0.10       1.2  T
   7   -209.9765576  0.352154E-05  0.914E-03    0.10       1.1  T
   8   -209.9765627 -0.501675E-05  0.485E-03    0.10       2.1  T
   9   -209.9765633 -0.673003E-06  0.389E-03    0.10       2.6  T
  10   -209.9765634 -0.839926E-07  0.333E-03    0.10       3.0  T
  11   -209.9765642 -0.759162E-06  0.118E-03    0.10       8.6  T
  12   -209.9765638  0.425115E-06  0.239E-03    0.10       4.3  T
  13   -209.9765643 -0.497156E-06  0.492E-04    0.10      20.6  T
  14   -209.9765642  0.747718E-08  0.511E-04    0.10      19.9  T
     SCC iter.                  ...        0 min,  0.384 sec
     gradient                   ...        0 min,  0.055 sec
 * total energy  :  -207.8695448 Eh     change       -0.3248157E-03 Eh
   gradient norm :     0.0091782 Eh/α   predicted    -0.2381874E-03 ( -26.67%)
   displ. norm   :     0.4798223 α      lambda       -0.6221028E-03
   maximum displ.:     0.2138536 α      in ANC's #9, #3, #1, ...

........................................................................
.............................. CYCLE  322 ..............................
........................................................................

 iter      E             dE          RMSdq      gap      omega  full diag
   1   -209.9687797 -0.209969E+03  0.348E-01    0.07       0.0  T
   2   -209.8950763  0.737034E-01  0.983E-01    0.74       1.0  T
   3   -209.9413664 -0.462901E-01  0.671E-01    0.30       1.0  T
   4   -209.9648905 -0.235241E-01  0.396E-01    0.16       1.0  T
   5   -209.6926506  0.272240E+00  0.184E+00    0.01       1.0  T
   6   -209.9758248 -0.283174E+00  0.156E-01    0.12       1.0  T
   7   -209.9774041 -0.157935E-02  0.749E-02    0.09       1.0  T
   8   -209.9774345 -0.303488E-04  0.722E-02    0.09       1.0  T
   9   -209.9778832 -0.448683E-03  0.145E-02    0.10       1.0  T
  10   -209.9778915 -0.836435E-05  0.111E-02    0.10       1.0  T
  11   -209.9778908  0.679344E-06  0.111E-02    0.10       1.0  T
  12   -209.9778978 -0.696924E-05  0.634E-03    0.10       1.6  T
  13   -209.9778940  0.381271E-05  0.894E-03    0.10       1.1  T
  14   -209.9779006 -0.657278E-05  0.168E-03    0.10       6.1  T
  15   -209.9778997  0.924202E-06  0.359E-03    0.10       2.8  T
  16   -209.9778999 -0.200544E-06  0.316E-03    0.10       3.2  T
  17   -209.9779006 -0.789855E-06  0.102E-03    0.10       9.9  T
  18   -209.9779003  0.390499E-06  0.231E-03    0.10       4.4  T
  19   -209.9779007 -0.430629E-06  0.677E-04    0.10      15.0  T
  20   -209.9779007 -0.121022E-07  0.559E-04    0.10      18.2  T
     SCC iter.                  ...        0 min,  0.544 sec
     gradient                   ...        0 min,  0.059 sec
 * total energy  :  -207.8700147 Eh     change       -0.4699304E-03 Eh
   gradient norm :     0.0098677 Eh/α   predicted    -0.3826684E-03 ( -18.57%)
   displ. norm   :     0.6434979 α      lambda       -0.6769996E-03
   maximum displ.:     0.2950025 α      in ANC's #9, #8, #1, ...

........................................................................
.............................. CYCLE  323 ..............................
........................................................................

 iter      E             dE          RMSdq      gap      omega  full diag
   1   -209.9618072 -0.209962E+03  0.379E-01    0.07       0.0  T
   2   -209.8849712  0.768361E-01  0.101E+00    0.77       1.0  T
   3   -209.9331106 -0.481395E-01  0.686E-01    0.32       1.0  T
   4   -209.9629300 -0.298194E-01  0.327E-01    0.14       1.0  T
   5   -209.6201975  0.342732E+00  0.204E+00    0.01       1.0  T
   6   -209.9643038 -0.344106E+00  0.294E-01    0.14       1.0  T
   7   -209.9717248 -0.742099E-02  0.204E-02    0.10       1.0  T
   8   -209.9716650  0.598304E-04  0.306E-02    0.10       1.0  T
   9   -209.9717430 -0.780662E-04  0.791E-03    0.10       1.3  T
  10   -209.9716610  0.820492E-04  0.312E-02    0.10       1.0  T
  11   -209.9717260 -0.650605E-04  0.157E-02    0.10       1.0  T
  12   -209.9717438 -0.177254E-04  0.616E-03    0.10       1.6  T
  13   -209.9717398  0.398282E-05  0.898E-03    0.10       1.1  T
  14   -209.9717456 -0.586867E-05  0.352E-03    0.10       2.9  T
  15   -209.9717416  0.405080E-05  0.760E-03    0.10       1.3  T
  16   -209.9717443 -0.270886E-05  0.510E-03    0.10       2.0  T
  17   -209.9717466 -0.226475E-05  0.504E-04    0.10      20.2  T
  18   -209.9717463  0.238943E-06  0.169E-03    0.10       6.0  T
  19   -209.9717465 -0.209304E-06  0.700E-04    0.10      14.5  T
  20   -209.9717466 -0.380057E-07  0.253E-04    0.10      40.1  T
     SCC iter.                  ...        0 min,  0.543 sec
     gradient                   ...        0 min,  0.062 sec
 * total energy  :  -207.8705481 Eh     change       -0.5334344E-03 Eh
   gradient norm :     0.0107464 Eh/α   predicted    -0.4786796E-03 ( -10.26%)
   displ. norm   :     0.6461955 α      lambda       -0.6819682E-03
   maximum displ.:     0.2777174 α      in ANC's #8, #9, #1, ...

........................................................................
.............................. CYCLE  324 ..............................
........................................................................

 iter      E             dE          RMSdq      gap      omega  full diag
   1   -209.9643298 -0.209964E+03  0.273E-01    0.08       0.0  T
   2   -209.9056905  0.586393E-01  0.819E-01    0.62       1.0  T
   3   -209.9611514 -0.554610E-01  0.297E-01    0.13       1.0  T
   4   -209.9019871  0.591643E-01  0.877E-01    0.04       1.0  T
   5   -209.9565859 -0.545988E-01  0.354E-01    0.15       1.0  T
   6   -209.9668546 -0.102686E-01  0.940E-02    0.11       1.0  T
   7   -209.9675282 -0.673670E-03  0.133E-02    0.10       1.0  T
   8   -209.9675163  0.119521E-04  0.164E-02    0.10       1.0  T
   9   -209.9675296 -0.132901E-04  0.103E-02    0.10       1.0  T
  10   -209.9675222  0.732661E-05  0.135E-02    0.10       1.0  T
  11   -209.9675366 -0.143968E-04  0.336E-03    0.10       3.0  T
  12   -209.9675278  0.887742E-05  0.104E-02    0.10       1.0  T
  13   -209.9675363 -0.858268E-05  0.334E-03    0.10       3.0  T
  14   -209.9675353  0.108971E-05  0.472E-03    0.10       2.2  T
  15   -209.9675371 -0.188179E-05  0.102E-03    0.10       9.9  T
  16   -209.9675371  0.279805E-07  0.107E-03    0.10       9.5  T
  17   -209.9675372 -0.733452E-07  0.532E-04    0.10      19.1  T
  18   -209.9675369  0.286280E-06  0.186E-03    0.10       5.4  T
  19   -209.9675372 -0.303459E-06  0.208E-04    0.10      48.8  T
     SCC iter.                  ...        0 min,  0.546 sec
     gradient                   ...        0 min,  0.059 sec
 * total energy  :  -207.8710944 Eh     change       -0.5463166E-03 Eh
   gradient norm :     0.0104207 Eh/α   predicted    -0.4833740E-03 ( -11.52%)
   displ. norm   :     0.6198846 α      lambda       -0.7405498E-03
   maximum displ.:     0.2740532 α      in ANC's #8, #3, #9, ...

........................................................................
.............................. CYCLE  325 ..............................
........................................................................

 iter      E             dE          RMSdq      gap      omega  full diag
   1   -209.9609145 -0.209961E+03  0.338E-01    0.08       0.0  T
   2   -209.8907292  0.701853E-01  0.935E-01    0.72       1.0  T
   3   -209.9391766 -0.484474E-01  0.595E-01    0.22       1.0  T
   4   -209.9660803 -0.269036E-01  0.146E-01    0.09       1.0  T
   5   -209.9626147  0.346559E-02  0.249E-01    0.13       1.0  T
   6   -209.9671134 -0.449868E-02  0.865E-02    0.09       1.0  T
   7   -209.9676050 -0.491652E-03  0.447E-02    0.10       1.0  T
   8   -209.9660414  0.156358E-02  0.141E-01    0.09       1.0  T
   9   -209.9677217 -0.168021E-02  0.276E-02    0.10       1.0  T
  10   -209.9677713 -0.496311E-04  0.147E-02    0.10       1.0  T
  11   -209.9676424  0.128851E-03  0.406E-02    0.10       1.0  T
  12   -209.9677861 -0.143699E-03  0.414E-03    0.10       2.5  T
  13   -209.9677771  0.906184E-05  0.109E-02    0.10       1.0  T
  14   -209.9677847 -0.765297E-05  0.540E-03    0.10       1.9  T
  15   -209.9677873 -0.257782E-05  0.100E-03    0.10      10.1  T
  16   -209.9677869  0.389648E-06  0.223E-03    0.10       4.6  T
  17   -209.9677868  0.119251E-06  0.249E-03    0.10       4.1  T
  18   -209.9677873 -0.532295E-06  0.454E-04    0.10      22.4  T
  19   -209.9677873 -0.166074E-07  0.140E-04    0.10      72.4  T
     SCC iter.                  ...        0 min,  0.554 sec
     gradient                   ...        0 min,  0.061 sec
 * total energy  :  -207.8716609 Eh     change       -0.5664154E-03 Eh
   gradient norm :     0.0104337 Eh/α   predicted    -0.5125584E-03 (  -9.51%)
   displ. norm   :     0.6668163 α      lambda       -0.7342553E-03
   maximum displ.:     0.2990278 α      in ANC's #8, #9, #1, ...

........................................................................
.............................. CYCLE  326 ..............................
........................................................................

 iter      E             dE          RMSdq      gap      omega  full diag
   1   -209.9640542 -0.209964E+03  0.259E-01    0.09       0.0  T
   2   -209.9110363  0.530179E-01  0.763E-01    0.54       1.0  T
   3   -209.9512412 -0.402049E-01  0.398E-01    0.07       1.0  T
   4   -209.9378641  0.133772E-01  0.580E-01    0.22       1.0  T
   5   -209.9465520 -0.868793E-02  0.468E-01    0.18       1.0  T
   6   -209.9630245 -0.164725E-01  0.193E-01    0.12       1.0  T
   7   -209.9636638 -0.639293E-03  0.166E-01    0.09       1.0  T
   8   -209.9652036 -0.153988E-02  0.984E-02    0.09       1.0  T
   9   -209.9660162 -0.812582E-03  0.214E-02    0.10       1.0  T
  10   -209.9660465 -0.303100E-04  0.668E-03    0.10       1.5  T
  11   -209.9659551  0.914794E-04  0.326E-02    0.10       1.0  T
  12   -209.9660015 -0.464275E-04  0.235E-02    0.10       1.0  T
  13   -209.9660398 -0.382964E-04  0.101E-02    0.10       1.0  T
  14   -209.9660487 -0.886655E-05  0.141E-03    0.10       7.2  T
  15   -209.9660480  0.692628E-06  0.310E-03    0.10       3.3  T
  16   -209.9660486 -0.672746E-06  0.106E-03    0.10       9.6  T
  17   -209.9660487 -0.542950E-07  0.626E-04    0.10      16.2  T
  18   -209.9660487 -0.232311E-07  0.333E-04    0.10      30.5  T
     SCC iter.                  ...        0 min,  0.574 sec
     gradient                   ...        0 min,  0.063 sec
 * total energy  :  -207.8722565 Eh     change       -0.5956771E-03 Eh
   gradient norm :     0.0111897 Eh/α   predicted    -0.5303734E-03 ( -10.96%)
   displ. norm   :     0.5754466 α      lambda       -0.8745845E-03
   maximum displ.:     0.2820570 α      in ANC's #3, #8, #9, ...

........................................................................
.............................. CYCLE  327 ..............................
........................................................................

 iter      E             dE          RMSdq      gap      omega  full diag
   1   -209.9757840 -0.209976E+03  0.223E-01    0.11       0.0  T
   2   -208.7870396  0.118874E+01  0.377E+00    0.02       1.0  T
   3   -209.9595288 -0.117249E+01  0.430E-01    0.17       1.0  T
   4   -209.9737727 -0.142439E-01  0.194E-01    0.12       1.0  T
   5   -209.9681542  0.561855E-02  0.296E-01    0.14       1.0  T
   6   -209.9752288 -0.707460E-02  0.127E-01    0.11       1.0  T
   7   -209.9767168 -0.148802E-02  0.338E-02    0.10       1.0  T
   8   -209.9767268 -0.100002E-04  0.311E-02    0.10       1.0  T
   9   -209.9765969  0.129868E-03  0.417E-02    0.10       1.0  T
  10   -209.9767325 -0.135573E-03  0.162E-02    0.10       1.0  T
  11   -209.9767103  0.221674E-04  0.178E-02    0.10       1.0  T
  12   -209.9767155 -0.512223E-05  0.162E-02    0.10       1.0  T
  13   -209.9767375 -0.219965E-04  0.519E-03    0.10       2.0  T
  14   -209.9767384 -0.961922E-06  0.325E-03    0.10       3.1  T
  15   -209.9767379  0.471293E-06  0.305E-03    0.10       3.3  T
  16   -209.9767383 -0.348365E-06  0.221E-03    0.10       4.6  T
  17   -209.9767386 -0.287180E-06  0.110E-03    0.10       9.2  T
  18   -209.9767386 -0.848732E-08  0.578E-04    0.10      17.6  T
  19   -209.9767385  0.108132E-06  0.117E-03    0.10       8.7  T
  20   -209.9767386 -0.117511E-06  0.319E-04    0.10      31.9  T
     SCC iter.                  ...        0 min,  0.562 sec
     gradient                   ...        0 min,  0.059 sec
 * total energy  :  -207.8727237 Eh     change       -0.4671747E-03 Eh
   gradient norm :     0.0151342 Eh/α   predicted    -0.5820984E-03 (  24.60%)
   displ. norm   :     0.6411396 α      lambda       -0.9202657E-03
   maximum displ.:     0.2834194 α      in ANC's #9, #8, #3, ...

........................................................................
.............................. CYCLE  328 ..............................
........................................................................

 iter      E             dE          RMSdq      gap      omega  full diag
   1   -209.9665071 -0.209967E+03  0.235E-01    0.09       0.0  T
   2   -209.9177330  0.487741E-01  0.729E-01    0.48       1.0  T
   3   -209.9408359 -0.231029E-01  0.543E-01    0.06       1.0  T
   4   -209.9432201 -0.238422E-02  0.546E-01    0.20       1.0  T
   5   -209.9486548 -0.543470E-02  0.463E-01    0.18       1.0  T
   6   -209.9649032 -0.162484E-01  0.194E-01    0.12       1.0  T
   7   -209.9659933 -0.109013E-02  0.152E-01    0.09       1.0  T
   8   -209.9672811 -0.128777E-02  0.892E-02    0.09       1.0  T
   9   -209.9679677 -0.686602E-03  0.114E-02    0.10       1.0  T
  10   -209.9679630  0.469972E-05  0.123E-02    0.10       1.0  T
  11   -209.9679077  0.553525E-04  0.277E-02    0.10       1.0  T
  12   -209.9679644 -0.567850E-04  0.116E-02    0.10       1.0  T
  13   -209.9679629  0.154986E-05  0.121E-02    0.10       1.0  T
  14   -209.9679746 -0.117193E-04  0.356E-03    0.10       2.9  T
  15   -209.9679751 -0.526816E-06  0.273E-03    0.10       3.7  T
  16   -209.9679757 -0.585586E-06  0.561E-04    0.10      18.1  T
  17   -209.9679757 -0.226461E-08  0.503E-04    0.10      20.2  T
     SCC iter.                  ...        0 min,  0.492 sec
     gradient                   ...        0 min,  0.060 sec
 * total energy  :  -207.8733416 Eh     change       -0.6179194E-03 Eh
   gradient norm :     0.0112596 Eh/α   predicted    -0.6492809E-03 (   5.08%)
   displ. norm   :     0.5673384 α      lambda       -0.5913351E-03
   maximum displ.:     0.2697813 α      in ANC's #3, #8, #9, ...

........................................................................
.............................. CYCLE  329 ..............................
........................................................................

 iter      E             dE          RMSdq      gap      omega  full diag
   1   -209.9206557 -0.209921E+03  0.730E-01    0.05       0.0  T
   2   -209.7994608  0.121195E+00  0.154E+00    0.74       1.0  T
   3   -209.8988413 -0.993805E-01  0.924E-01    0.62       1.0  T
   4   -209.9208613 -0.220200E-01  0.721E-01    0.39       1.0  T
   5   -209.9483025 -0.274412E-01  0.467E-01    0.17       1.0  T
   6   -209.8014092  0.146893E+00  0.140E+00    0.02       1.0  T
   7   -209.9621588 -0.160750E+00  0.215E-01    0.12       1.0  T
   8   -209.9652635 -0.310470E-02  0.102E-01    0.11       1.0  T
   9   -209.9660827 -0.819183E-03  0.299E-02    0.10       1.0  T
  10   -209.9660854 -0.276866E-05  0.267E-02    0.10       1.0  T
  11   -209.9661433 -0.578616E-04  0.105E-02    0.10       1.0  T
  12   -209.9661479 -0.459698E-05  0.618E-03    0.10       1.6  T
  13   -209.9661466  0.126245E-05  0.732E-03    0.10       1.4  T
  14   -209.9661421  0.449836E-05  0.101E-02    0.10       1.0  T
  15   -209.9661509 -0.874429E-05  0.114E-03    0.10       8.9  T
  16   -209.9661506  0.300597E-06  0.210E-03    0.10       4.8  T
  17   -209.9661507 -0.132225E-06  0.165E-03    0.10       6.2  T
  18   -209.9661506  0.128150E-06  0.203E-03    0.10       5.0  T
  19   -209.9661508 -0.226356E-06  0.119E-03    0.10       8.6  T
  20   -209.9661509 -0.969576E-07  0.507E-04    0.10      20.0  T
  21   -209.9661509 -0.217818E-07  0.714E-05    0.10     142.2  T
     SCC iter.                  ...        0 min,  0.574 sec
     gradient                   ...        0 min,  0.057 sec
 * total energy  :  -207.8738163 Eh     change       -0.4746706E-03 Eh
   gradient norm :     0.0118518 Eh/α   predicted    -0.3908350E-03 ( -17.66%)
   displ. norm   :     0.5415113 α      lambda       -0.7339196E-03
   maximum displ.:     0.3069347 α      in ANC's #3, #8, #6, ...

........................................................................
.............................. CYCLE  330 ..............................
........................................................................

 iter      E             dE          RMSdq      gap      omega  full diag
   1   -209.9687654 -0.209969E+03  0.274E-01    0.08       0.0  T
   2   -209.9025953  0.661700E-01  0.883E-01    0.68       1.0  T
   3   -209.9479666 -0.453713E-01  0.556E-01    0.20       1.0  T
   4   -209.9731336 -0.251670E-01  0.105E-01    0.11       1.0  T
   5   -209.9614588  0.116748E-01  0.368E-01    0.07       1.0  T
   6   -209.9706939 -0.923509E-02  0.190E-01    0.12       1.0  T
   7   -209.9737489 -0.305494E-02  0.391E-02    0.10       1.0  T
   8   -209.9736083  0.140558E-03  0.561E-02    0.09       1.0  T
   9   -209.9738784 -0.270081E-03  0.610E-03    0.10       1.7  T
  10   -209.9738679  0.105089E-04  0.124E-02    0.10       1.0  T
  11   -209.9738625  0.539300E-05  0.141E-02    0.10       1.0  T
  12   -209.9738774 -0.149382E-04  0.576E-03    0.10       1.8  T
  13   -209.9738586  0.188368E-04  0.156E-02    0.10       1.0  T
  14   -209.9738784 -0.198342E-04  0.435E-03    0.10       2.3  T
  15   -209.9738778  0.599095E-06  0.512E-03    0.10       2.0  T
  16   -209.9738790 -0.120391E-05  0.349E-03    0.10       2.9  T
  17   -209.9738801 -0.106698E-05  0.606E-04    0.10      16.8  T
  18   -209.9738800  0.572508E-07  0.973E-04    0.10      10.4  T
  19   -209.9738801 -0.800993E-07  0.958E-05    0.10     106.0  T
     SCC iter.                  ...        0 min,  0.523 sec
     gradient                   ...        0 min,  0.059 sec
 * total energy  :  -207.8743522 Eh     change       -0.5358742E-03 Eh
   gradient norm :     0.0086006 Eh/α   predicted    -0.4745707E-03 ( -11.44%)
   displ. norm   :     0.7047514 α      lambda       -0.6754041E-03
   maximum displ.:     0.3474864 α      in ANC's #3, #8, #9, ...

........................................................................
.............................. CYCLE  331 ..............................
........................................................................

 iter      E             dE          RMSdq      gap      omega  full diag
   1   -209.9614560 -0.209961E+03  0.286E-01    0.08       0.0  T
   2   -209.8967805  0.646755E-01  0.866E-01    0.66       1.0  T
   3   -209.9473156 -0.505352E-01  0.477E-01    0.17       1.0  T
   4   -209.9537596 -0.644395E-02  0.377E-01    0.07       1.0  T
   5   -209.9616557 -0.789607E-02  0.227E-01    0.12       1.0  T
   6   -209.9655804 -0.392475E-02  0.599E-02    0.10       1.0  T
   7   -209.9655316  0.488477E-04  0.642E-02    0.09       1.0  T
   8   -209.9657715 -0.239894E-03  0.366E-02    0.10       1.0  T
   9   -209.9658360 -0.644992E-04  0.223E-02    0.10       1.0  T
  10   -209.9657957  0.403115E-04  0.306E-02    0.10       1.0  T
  11   -209.9658759 -0.802463E-04  0.561E-03    0.10       1.8  T
  12   -209.9658605  0.154061E-04  0.139E-02    0.10       1.0  T
  13   -209.9658714 -0.108883E-04  0.843E-03    0.10       1.2  T
  14   -209.9658770 -0.558014E-05  0.263E-03    0.10       3.9  T
  15   -209.9658769  0.731077E-07  0.272E-03    0.10       3.7  T
  16   -209.9658774 -0.541232E-06  0.101E-03    0.10      10.0  T
  17   -209.9658774  0.303109E-07  0.115E-03    0.10       8.8  T
  18   -209.9658774  0.405755E-07  0.135E-03    0.10       7.5  T
  19   -209.9658775 -0.157579E-06  0.169E-04    0.10      60.2  T
  20   -209.9658775  0.487925E-07  0.755E-04    0.10      13.4  T
     SCC iter.                  ...        0 min,  0.547 sec
     gradient                   ...        0 min,  0.061 sec
 * total energy  :  -207.8747557 Eh     change       -0.4035537E-03 Eh
   gradient norm :     0.0138176 Eh/α   predicted    -0.5054356E-03 (  25.25%)
   displ. norm   :     0.4742692 α      lambda       -0.6393308E-03
   maximum displ.:     0.2949928 α      in ANC's #3, #8, #1, ...

........................................................................
.............................. CYCLE  332 ..............................
........................................................................

 iter      E             dE          RMSdq      gap      omega  full diag
   1   -209.9687236 -0.209969E+03  0.280E-01    0.08       0.0  T
   2   -209.9003238  0.683998E-01  0.896E-01    0.69       1.0  T
   3   -209.9474444 -0.471207E-01  0.563E-01    0.20       1.0  T
   4   -209.9738412 -0.263968E-01  0.727E-02    0.09       1.0  T
   5   -209.9726534  0.118777E-02  0.122E-01    0.09       1.0  T
   6   -209.9700474  0.260600E-02  0.213E-01    0.12       1.0  T
   7   -209.9736005 -0.355306E-02  0.771E-02    0.09       1.0  T
   8   -209.9737032 -0.102730E-03  0.687E-02    0.09       1.0  T
   9   -209.9741100 -0.406743E-03  0.596E-03    0.10       1.7  T
  10   -209.9740832  0.267965E-04  0.186E-02    0.10       1.0  T
  11   -209.9740591  0.241146E-04  0.243E-02    0.10       1.0  T
  12   -209.9741069 -0.478915E-04  0.782E-03    0.10       1.3  T
  13   -209.9740865  0.204241E-04  0.171E-02    0.10       1.0  T
  14   -209.9741100 -0.234672E-04  0.481E-03    0.10       2.1  T
  15   -209.9741117 -0.167176E-05  0.212E-03    0.10       4.8  T
  16   -209.9741118 -0.105228E-06  0.170E-03    0.10       6.0  T
  17   -209.9741120 -0.188871E-06  0.930E-04    0.10      10.9  T
  18   -209.9741119  0.580431E-07  0.121E-03    0.10       8.4  T
  19   -209.9741120 -0.122970E-06  0.150E-04    0.10      67.8  T
     SCC iter.                  ...        0 min,  0.539 sec
     gradient                   ...        0 min,  0.061 sec
 * total energy  :  -207.8752381 Eh     change       -0.4823333E-03 Eh
   gradient norm :     0.0106792 Eh/α   predicted    -0.3915734E-03 ( -18.82%)
   displ. norm   :     0.6041590 α      lambda       -0.6336896E-03
   maximum displ.:     0.3574103 α      in ANC's #3, #8, #1, ...

........................................................................
.............................. CYCLE  333 ..............................
........................................................................

 iter      E             dE          RMSdq      gap      omega  full diag
   1   -209.9706101 -0.209971E+03  0.281E-01    0.08       0.0  T
   2   -209.9056812  0.649289E-01  0.864E-01    0.66       1.0  T
   3   -209.9596969 -0.540157E-01  0.437E-01    0.16       1.0  T
   4   -209.9576823  0.201461E-02  0.450E-01    0.06       1.0  T
   5   -209.9663197 -0.863744E-02  0.317E-01    0.14       1.0  T
   6   -209.9745701 -0.825039E-02  0.714E-02    0.11       1.0  T
   7   -209.9747671 -0.196980E-03  0.468E-02    0.09       1.0  T
   8   -209.9749458 -0.178652E-03  0.120E-02    0.10       1.0  T
   9   -209.9748092  0.136589E-03  0.410E-02    0.09       1.0  T
  10   -209.9749121 -0.102894E-03  0.230E-02    0.10       1.0  T
  11   -209.9749435 -0.314452E-04  0.135E-02    0.10       1.0  T
  12   -209.9749541 -0.105480E-04  0.751E-03    0.10       1.4  T
  13   -209.9749583 -0.423701E-05  0.270E-03    0.10       3.8  T
  14   -209.9749543  0.401365E-05  0.729E-03    0.10       1.4  T
  15   -209.9749585 -0.423456E-05  0.224E-03    0.10       4.5  T
  16   -209.9749582  0.271578E-06  0.276E-03    0.10       3.7  T
  17   -209.9749588 -0.595574E-06  0.101E-03    0.10      10.0  T
  18   -209.9749589 -0.690742E-07  0.482E-04    0.10      21.1  T
  19   -209.9749589  0.461453E-07  0.867E-04    0.10      11.7  T
     SCC iter.                  ...        0 min,  0.554 sec
     gradient                   ...        0 min,  0.058 sec
 * total energy  :  -207.8756763 Eh     change       -0.4382664E-03 Eh
   gradient norm :     0.0123691 Eh/α   predicted    -0.4324953E-03 (  -1.32%)
   displ. norm   :     0.5727027 α      lambda       -0.6302736E-03
   maximum displ.:     0.3752583 α      in ANC's #3, #8, #6, ...

........................................................................
.............................. CYCLE  334 ..............................
........................................................................

 iter      E             dE          RMSdq      gap      omega  full diag
   1   -209.9719412 -0.209972E+03  0.218E-01    0.08       0.0  T
   2   -209.9141137  0.578275E-01  0.797E-01    0.58       1.0  T
   3   -209.9685563 -0.544425E-01  0.275E-01    0.13       1.0  T
   4   -209.9620728  0.648341E-02  0.385E-01    0.07       1.0  T
   5   -209.9729700 -0.108972E-01  0.132E-01    0.11       1.0  T
   6   -209.9743113 -0.134134E-02  0.317E-02    0.10       1.0  T
   7   -209.9739743  0.337008E-03  0.693E-02    0.09       1.0  T
   8   -209.9743848 -0.410478E-03  0.817E-03    0.10       1.2  T
   9   -209.9743476  0.372449E-04  0.214E-02    0.10       1.0  T
  10   -209.9743245  0.230994E-04  0.263E-02    0.10       1.0  T
  11   -209.9743849 -0.604139E-04  0.477E-03    0.10       2.1  T
  12   -209.9743866 -0.169148E-05  0.175E-03    0.10       5.8  T
  13   -209.9743866  0.211644E-07  0.168E-03    0.10       6.1  T
  14   -209.9743840  0.250797E-05  0.551E-03    0.10       1.8  T
  15   -209.9743867 -0.262050E-05  0.918E-04    0.10      11.1  T
  16   -209.9743862  0.437967E-06  0.234E-03    0.10       4.3  T
  17   -209.9743867 -0.493827E-06  0.250E-04    0.10      40.7  T
  18   -209.9743867  0.969902E-08  0.415E-04    0.10      24.5  T
     SCC iter.                  ...        0 min,  0.487 sec
     gradient                   ...        0 min,  0.059 sec
 * total energy  :  -207.8761475 Eh     change       -0.4711726E-03 Eh
   gradient norm :     0.0086323 Eh/α   predicted    -0.4184964E-03 ( -11.18%)
   displ. norm   :     0.6508838 α      lambda       -0.6270849E-03
   maximum displ.:     0.4091061 α      in ANC's #3, #8, #6, ...

........................................................................
.............................. CYCLE  335 ..............................
........................................................................

 iter      E             dE          RMSdq      gap      omega  full diag
   1   -209.9636148 -0.209964E+03  0.372E-01    0.07       0.0  T
   2   -209.8802896  0.833253E-01  0.104E+00    0.78       1.0  T
   3   -209.9307222 -0.504326E-01  0.718E-01    0.33       1.0  T
   4   -209.9623623 -0.316401E-01  0.364E-01    0.15       1.0  T
   5   -209.7406705  0.221692E+00  0.165E+00    0.01       1.0  T
   6   -209.9703133 -0.229643E+00  0.216E-01    0.12       1.0  T
   7   -209.9741937 -0.388042E-02  0.287E-02    0.10       1.0  T
   8   -209.9742098 -0.160614E-04  0.208E-02    0.10       1.0  T
   9   -209.9737715  0.438249E-03  0.733E-02    0.09       1.0  T
  10   -209.9740621 -0.290608E-03  0.462E-02    0.09       1.0  T
  11   -209.9742205 -0.158397E-03  0.176E-02    0.10       1.0  T
  12   -209.9741924  0.280898E-04  0.248E-02    0.10       1.0  T
  13   -209.9742460 -0.535398E-04  0.454E-03    0.10       2.2  T
  14   -209.9742448  0.121206E-05  0.566E-03    0.10       1.8  T
  15   -209.9742470 -0.228072E-05  0.244E-03    0.10       4.2  T
  16   -209.9742474 -0.343108E-06  0.150E-03    0.10       6.8  T
  17   -209.9742468  0.562103E-06  0.296E-03    0.10       3.4  T
  18   -209.9742470 -0.145755E-06  0.256E-03    0.10       4.0  T
  19   -209.9742475 -0.571856E-06  0.232E-04    0.10      43.8  T
  20   -209.9742475  0.773031E-07  0.949E-04    0.10      10.7  T
     SCC iter.                  ...        0 min,  0.561 sec
     gradient                   ...        0 min,  0.061 sec
 * total energy  :  -207.8766264 Eh     change       -0.4789326E-03 Eh
   gradient norm :     0.0108666 Eh/α   predicted    -0.4463781E-03 (  -6.80%)
   displ. norm   :     0.5676293 α      lambda       -0.7243522E-03
   maximum displ.:     0.3555464 α      in ANC's #3, #6, #8, ...

........................................................................
.............................. CYCLE  336 ..............................
........................................................................

 iter      E             dE          RMSdq      gap      omega  full diag
   1   -209.9674875 -0.209967E+03  0.274E-01    0.08       0.0  T
   2   -209.8960310  0.714565E-01  0.912E-01    0.68       1.0  T
   3   -209.9414096 -0.453786E-01  0.607E-01    0.22       1.0  T
   4   -209.9710262 -0.296166E-01  0.149E-01    0.11       1.0  T
   5   -209.9143169  0.567093E-01  0.812E-01    0.04       1.0  T
   6   -209.9708383 -0.565214E-01  0.149E-01    0.11       1.0  T
   7   -209.9716445 -0.806231E-03  0.114E-01    0.09       1.0  T
   8   -209.9727509 -0.110639E-02  0.285E-02    0.10       1.0  T
   9   -209.9728188 -0.679074E-04  0.751E-03    0.10       1.4  T
  10   -209.9728056  0.131937E-04  0.146E-02    0.10       1.0  T
  11   -209.9727849  0.206971E-04  0.206E-02    0.10       1.0  T
  12   -209.9728218 -0.369192E-04  0.245E-03    0.10       4.1  T
  13   -209.9728119  0.996403E-05  0.108E-02    0.10       1.0  T
  14   -209.9728219 -0.100476E-04  0.172E-03    0.10       5.9  T
  15   -209.9728192  0.269949E-05  0.577E-03    0.10       1.8  T
  16   -209.9728205 -0.133800E-05  0.421E-03    0.10       2.4  T
  17   -209.9728221 -0.155847E-05  0.381E-04    0.10      26.7  T
  18   -209.9728217  0.394214E-06  0.210E-03    0.10       4.8  T
  19   -209.9728221 -0.400264E-06  0.164E-04    0.10      61.9  T
  20   -209.9728221  0.996349E-08  0.355E-04    0.10      28.6  T
     SCC iter.                  ...        0 min,  0.545 sec
     gradient                   ...        0 min,  0.060 sec
 * total energy  :  -207.8771263 Eh     change       -0.4998701E-03 Eh
   gradient norm :     0.0123422 Eh/α   predicted    -0.4788766E-03 (  -4.20%)
   displ. norm   :     0.5820226 α      lambda       -0.7410486E-03
   maximum displ.:     0.3511431 α      in ANC's #3, #8, #6, ...

........................................................................
.............................. CYCLE  337 ..............................
........................................................................

 iter      E             dE          RMSdq      gap      omega  full diag
   1   -209.9673048 -0.209967E+03  0.141E-01    0.09       0.0  T
   2   -209.9443932  0.229116E-01  0.498E-01    0.18       1.0  T
   3   -209.9619394 -0.175462E-01  0.248E-01    0.08       1.0  T
   4   -209.9672558 -0.531641E-02  0.525E-02    0.10       1.0  T
   5   -209.9672572 -0.139424E-05  0.433E-02    0.10       1.0  T
   6   -209.9672786 -0.214108E-04  0.409E-02    0.09       1.0  T
   7   -209.9673553 -0.766933E-04  0.277E-02    0.09       1.0  T
   8   -209.9674213 -0.660308E-04  0.631E-03    0.10       1.6  T
   9   -209.9674169  0.442028E-05  0.890E-03    0.10       1.1  T
  10   -209.9674153  0.159312E-05  0.958E-03    0.10       1.1  T
  11   -209.9674201 -0.477253E-05  0.565E-03    0.10       1.8  T
  12   -209.9674173  0.278069E-05  0.799E-03    0.10       1.3  T
  13   -209.9674225 -0.516350E-05  0.279E-03    0.10       3.6  T
  14   -209.9674223  0.179292E-06  0.310E-03    0.10       3.3  T
  15   -209.9674229 -0.592220E-06  0.170E-03    0.10       6.0  T
  16   -209.9674231 -0.204038E-06  0.664E-04    0.10      15.3  T
  17   -209.9674231  0.732879E-08  0.745E-04    0.10      13.6  T
     SCC iter.                  ...        0 min,  0.478 sec
     gradient                   ...        0 min,  0.060 sec
 * total energy  :  -207.8775557 Eh     change       -0.4294069E-03 Eh
   gradient norm :     0.0141264 Eh/α   predicted    -0.4960456E-03 (  15.52%)
   displ. norm   :     0.4255717 α      lambda       -0.6091026E-03
   maximum displ.:     0.2741783 α      in ANC's #3, #6, #10, ...

........................................................................
.............................. CYCLE  338 ..............................
........................................................................

 iter      E             dE          RMSdq      gap      omega  full diag
   1   -209.9692759 -0.209969E+03  0.158E-01    0.09       0.0  T
   2   -209.9148735  0.544024E-01  0.761E-01    0.46       1.0  T
   3   -209.9655428 -0.506693E-01  0.251E-01    0.12       1.0  T
   4   -209.9688574 -0.331463E-02  0.152E-01    0.08       1.0  T
   5   -209.9686758  0.181617E-03  0.146E-01    0.08       1.0  T
   6   -209.9698798 -0.120401E-02  0.874E-02    0.11       1.0  T
   7   -209.9704713 -0.591416E-03  0.350E-02    0.09       1.0  T
   8   -209.9704833 -0.120036E-04  0.340E-02    0.10       1.0  T
   9   -209.9705816 -0.983524E-04  0.802E-03    0.10       1.3  T
  10   -209.9705601  0.214671E-04  0.175E-02    0.10       1.0  T
  11   -209.9705677 -0.752846E-05  0.145E-02    0.10       1.0  T
  12   -209.9705862 -0.184849E-04  0.181E-03    0.10       5.6  T
  13   -209.9705864 -0.195371E-06  0.112E-03    0.10       9.1  T
  14   -209.9705862  0.197829E-06  0.175E-03    0.10       5.8  T
  15   -209.9705859  0.238100E-06  0.241E-03    0.10       4.2  T
  16   -209.9705864 -0.438936E-06  0.810E-04    0.10      12.5  T
  17   -209.9705864 -0.295418E-08  0.719E-04    0.10      14.1  T
     SCC iter.                  ...        0 min,  0.462 sec
     gradient                   ...        0 min,  0.060 sec
 * total energy  :  -207.8779180 Eh     change       -0.3622458E-03 Eh
   gradient norm :     0.0114296 Eh/α   predicted    -0.3597129E-03 (  -0.70%)
   displ. norm   :     0.3932148 α      lambda       -0.6039868E-03
   maximum displ.:     0.2615556 α      in ANC's #3, #6, #8, ...
 * RMSD in coord.:     1.6157271 α      energy gain  -0.3345547E-01 Eh

generating ANC from exact Hessian ...
Using Lindh-Hessian (1995)
 Shifting diagonal of input Hessian by   1.038004396601675E-002
 Lowest  eigenvalues of input Hessian
    0.010000    0.010125    0.010227    0.000000    0.000000    0.000000
    0.000000    0.000000    0.000000    0.010559    0.010613    0.010651
    0.010725    0.011019    0.011295    0.011383    0.011680    0.011754
 Highest eigenvalues
    2.095072    2.133779    2.200613    2.344154    2.513343    3.294392
 

........................................................................
.............................. CYCLE  339 ..............................
........................................................................

 iter      E             dE          RMSdq      gap      omega  full diag
   1   -209.9721705 -0.209972E+03  0.189E-01    0.08       0.0  T
   2   -209.9093322  0.628383E-01  0.826E-01    0.57       1.0  T
   3   -209.9601122 -0.507800E-01  0.414E-01    0.15       1.0  T
   4   -209.9745766 -0.144644E-01  0.539E-02    0.10       1.0  T
   5   -209.9681604  0.641621E-02  0.268E-01    0.07       1.0  T
   6   -209.9741992 -0.603879E-02  0.773E-02    0.10       1.0  T
   7   -209.9742197 -0.205421E-04  0.753E-02    0.09       1.0  T
   8   -209.9747381 -0.518377E-03  0.803E-03    0.10       1.3  T
   9   -209.9747397 -0.162358E-05  0.655E-03    0.10       1.6  T
  10   -209.9747409 -0.124160E-05  0.506E-03    0.10       2.0  T
  11   -209.9747199  0.210695E-04  0.160E-02    0.10       1.0  T
  12   -209.9747368 -0.169065E-04  0.827E-03    0.10       1.2  T
  13   -209.9747413 -0.448593E-05  0.393E-03    0.10       2.6  T
  14   -209.9747415 -0.281235E-06  0.347E-03    0.10       2.9  T
  15   -209.9747425 -0.982975E-06  0.103E-03    0.10       9.9  T
  16   -209.9747426 -0.567121E-07  0.683E-04    0.10      14.9  T
  17   -209.9747424  0.185424E-06  0.156E-03    0.10       6.5  T
  18   -209.9747426 -0.160230E-06  0.789E-04    0.10      12.9  T
     SCC iter.                  ...        0 min,  0.492 sec
     gradient                   ...        0 min,  0.062 sec
 * total energy  :  -207.8781835 Eh     change       -0.2655340E-03 Eh
   gradient norm :     0.0125508 Eh/α   predicted     0.0000000E+00 (-100.00%)
   displ. norm   :     0.1127494 α      lambda       -0.4396311E-03
   maximum displ.:     0.0368999 α      in ANC's #8, #10, #13, ...

........................................................................
.............................. CYCLE  340 ..............................
........................................................................

 iter      E             dE          RMSdq      gap      omega  full diag
   1   -209.9711457 -0.209971E+03  0.204E-01    0.12       0.0  T
   2   -207.3833295  0.258782E+01  0.553E+00    0.15       1.0  T
   3   -209.9740482 -0.259072E+01  0.771E-02    0.10       1.0  T
   4   -209.9745591 -0.510932E-03  0.282E-02    0.10       1.0  T
   5   -209.9730740  0.148515E-02  0.134E-01    0.09       1.0  T
   6   -209.9727218  0.352145E-03  0.150E-01    0.08       1.0  T
   7   -209.9744855 -0.176365E-02  0.298E-02    0.09       1.0  T
   8   -209.9745752 -0.897483E-04  0.173E-02    0.10       1.0  T
   9   -209.9745470  0.282271E-04  0.218E-02    0.10       1.0  T
  10   -209.9745852 -0.381943E-04  0.500E-03    0.10       2.0  T
  11   -209.9745865 -0.133926E-05  0.264E-03    0.10       3.8  T
  12   -209.9745870 -0.518937E-06  0.118E-03    0.10       8.6  T
  13   -209.9745863  0.701062E-06  0.313E-03    0.10       3.2  T
  14   -209.9745870 -0.699650E-06  0.671E-04    0.10      15.1  T
  15   -209.9745871 -0.736384E-08  0.743E-04    0.10      13.7  T
     SCC iter.                  ...        0 min,  0.414 sec
     gradient                   ...        0 min,  0.059 sec
 * total energy  :  -207.8784894 Eh     change       -0.3059004E-03 Eh
   gradient norm :     0.0060875 Eh/α   predicted    -0.2226110E-03 ( -27.23%)
   displ. norm   :     0.2406181 α      lambda       -0.5040528E-03
   maximum displ.:     0.0867593 α      in ANC's #8, #10, #3, ...

........................................................................
.............................. CYCLE  341 ..............................
........................................................................

 iter      E             dE          RMSdq      gap      omega  full diag
   1   -209.9716214 -0.209972E+03  0.211E-01    0.12       0.0  T
   2   -207.4430375  0.252858E+01  0.547E+00    0.15       1.0  T
   3   -209.9722292 -0.252919E+01  0.153E-01    0.11       1.0  T
   4   -209.9696973  0.253188E-02  0.206E-01    0.12       1.0  T
   5   -209.9741931 -0.449576E-02  0.520E-02    0.10       1.0  T
   6   -209.9736299  0.563176E-03  0.958E-02    0.09       1.0  T
   7   -209.9735966  0.332847E-04  0.951E-02    0.09       1.0  T
   8   -209.9741401 -0.543453E-03  0.302E-02    0.09       1.0  T
   9   -209.9741428 -0.268724E-05  0.345E-02    0.10       1.0  T
  10   -209.9742194 -0.766283E-04  0.114E-02    0.10       1.0  T
  11   -209.9742287 -0.933625E-05  0.604E-03    0.10       1.7  T
  12   -209.9742313 -0.256815E-05  0.163E-03    0.10       6.2  T
  13   -209.9742312  0.660893E-07  0.155E-03    0.10       6.6  T
  14   -209.9742310  0.229297E-06  0.208E-03    0.10       4.9  T
  15   -209.9742313 -0.327875E-06  0.902E-04    0.10      11.3  T
  16   -209.9742313  0.912800E-08  0.919E-04    0.10      11.1  T
     SCC iter.                  ...        0 min,  0.434 sec
     gradient                   ...        0 min,  0.058 sec
 * total energy  :  -207.8786995 Eh     change       -0.2101423E-03 Eh
   gradient norm :     0.0084470 Eh/α   predicted    -0.2666181E-03 (  26.88%)
   displ. norm   :     0.2237550 α      lambda       -0.4013989E-03
   maximum displ.:     0.0852522 α      in ANC's #8, #10, #3, ...

........................................................................
.............................. CYCLE  342 ..............................
........................................................................

 iter      E             dE          RMSdq      gap      omega  full diag
   1   -209.9713650 -0.209971E+03  0.220E-01    0.08       0.0  T
   2   -209.9102694  0.610956E-01  0.815E-01    0.58       1.0  T
   3   -209.9737614 -0.634920E-01  0.629E-02    0.10       1.0  T
   4   -209.9709278  0.283362E-02  0.177E-01    0.12       1.0  T
   5   -209.9603017  0.106261E-01  0.392E-01    0.07       1.0  T
   6   -209.9724862 -0.121845E-01  0.127E-01    0.11       1.0  T
   7   -209.9738133 -0.132710E-02  0.123E-02    0.10       1.0  T
   8   -209.9735113  0.301963E-03  0.595E-02    0.09       1.0  T
   9   -209.9738096 -0.298233E-03  0.118E-02    0.10       1.0  T
  10   -209.9737230  0.865891E-04  0.330E-02    0.10       1.0  T
  11   -209.9737980 -0.749868E-04  0.165E-02    0.10       1.0  T
  12   -209.9738184 -0.204697E-04  0.611E-03    0.10       1.7  T
  13   -209.9738190 -0.601237E-06  0.540E-03    0.10       1.9  T
  14   -209.9738210 -0.192122E-05  0.273E-03    0.10       3.7  T
  15   -209.9738214 -0.425601E-06  0.160E-03    0.10       6.3  T
  16   -209.9738216 -0.206221E-06  0.290E-04    0.10      35.0  T
  17   -209.9738216  0.148169E-07  0.466E-04    0.10      21.8  T
     SCC iter.                  ...        0 min,  0.471 sec
     gradient                   ...        0 min,  0.060 sec
 * total energy  :  -207.8788522 Eh     change       -0.1526462E-03 Eh
   gradient norm :     0.0102627 Eh/α   predicted    -0.2107567E-03 (  38.07%)
   displ. norm   :     0.1771355 α      lambda       -0.3681184E-03
   maximum displ.:     0.0666901 α      in ANC's #8, #3, #5, ...

........................................................................
.............................. CYCLE  343 ..............................
........................................................................

 iter      E             dE          RMSdq      gap      omega  full diag
   1   -209.9666605 -0.209967E+03  0.300E-01    0.13       0.0  T
   2   -207.1595878  0.280707E+01  0.577E+00    0.15       1.0  T
   3   -209.9745479 -0.281496E+01  0.729E-02    0.10       1.0  T
   4   -209.9746000 -0.520917E-04  0.512E-02    0.10       1.0  T
   5   -209.9602757  0.143242E-01  0.402E-01    0.07       1.0  T
   6   -209.9621857 -0.191003E-02  0.385E-01    0.07       1.0  T
   7   -209.9725337 -0.103480E-01  0.148E-01    0.09       1.0  T
   8   -209.9742135 -0.167972E-02  0.785E-02    0.11       1.0  T
   9   -209.9744977 -0.284258E-03  0.451E-02    0.10       1.0  T
  10   -209.9745540 -0.562704E-04  0.343E-02    0.10       1.0  T
  11   -209.9746329 -0.788655E-04  0.147E-02    0.10       1.0  T
  12   -209.9746511 -0.182041E-04  0.246E-03    0.10       4.1  T
  13   -209.9746497  0.141246E-05  0.559E-03    0.10       1.8  T
  14   -209.9746503 -0.674750E-06  0.394E-03    0.10       2.6  T
  15   -209.9746512 -0.831173E-06  0.146E-03    0.10       6.9  T
  16   -209.9746513 -0.910379E-07  0.113E-03    0.10       9.0  T
  17   -209.9746512  0.351252E-07  0.131E-03    0.10       7.7  T
  18   -209.9746513 -0.499994E-07  0.943E-04    0.10      10.8  T
  19   -209.9746513 -0.533265E-07  0.325E-04    0.10      31.2  T
     SCC iter.                  ...        0 min,  0.524 sec
     gradient                   ...        0 min,  0.060 sec
 * total energy  :  -207.8790773 Eh     change       -0.2250934E-03 Eh
   gradient norm :     0.0061230 Eh/α   predicted    -0.1898347E-03 ( -15.66%)
   displ. norm   :     0.2660295 α      lambda       -0.3473761E-03
   maximum displ.:     0.1109713 α      in ANC's #8, #3, #5, ...

........................................................................
.............................. CYCLE  344 ..............................
........................................................................

 iter      E             dE          RMSdq      gap      omega  full diag
   1   -209.9743484 -0.209974E+03  0.150E-01    0.11       0.0  T
   2   -208.3579543  0.161639E+01  0.439E+00    0.05       1.0  T
   3   -209.9707872 -0.161283E+01  0.227E-01    0.12       1.0  T
   4   -209.9737149 -0.292773E-02  0.136E-01    0.11       1.0  T
   5   -209.9753562 -0.164125E-02  0.453E-02    0.10       1.0  T
   6   -209.9754519 -0.956567E-04  0.311E-02    0.10       1.0  T
   7   -209.9754445  0.738920E-05  0.348E-02    0.10       1.0  T
   8   -209.9755037 -0.592139E-04  0.117E-02    0.10       1.0  T
   9   -209.9754801  0.236003E-04  0.175E-02    0.10       1.0  T
  10   -209.9755085 -0.284432E-04  0.626E-03    0.10       1.6  T
  11   -209.9755058  0.276118E-05  0.618E-03    0.10       1.6  T
  12   -209.9755066 -0.803097E-06  0.517E-03    0.10       2.0  T
  13   -209.9755077 -0.118248E-05  0.408E-03    0.10       2.5  T
  14   -209.9755090 -0.126575E-05  0.141E-03    0.10       7.2  T
  15   -209.9755090  0.645545E-08  0.138E-03    0.10       7.3  T
  16   -209.9755091 -0.114406E-06  0.722E-04    0.10      14.1  T
  17   -209.9755092 -0.305754E-07  0.347E-04    0.10      29.3  T
     SCC iter.                  ...        0 min,  0.487 sec
     gradient                   ...        0 min,  0.060 sec
 * total energy  :  -207.8793118 Eh     change       -0.2345736E-03 Eh
   gradient norm :     0.0049538 Eh/α   predicted    -0.1859805E-03 ( -20.72%)
   displ. norm   :     0.4294982 α      lambda       -0.3651934E-03
   maximum displ.:     0.1733927 α      in ANC's #8, #3, #5, ...

........................................................................
.............................. CYCLE  345 ..............................
........................................................................

 iter      E             dE          RMSdq      gap      omega  full diag
   1   -209.9739061 -0.209974E+03  0.161E-01    0.11       0.0  T
   2   -209.0056254  0.968281E+00  0.338E+00    0.01       1.0  T
   3   -209.9598833 -0.954258E+00  0.403E-01    0.07       1.0  T
   4   -209.9744983 -0.146150E-01  0.729E-02    0.10       1.0  T
   5   -209.9727304  0.176782E-02  0.140E-01    0.09       1.0  T
   6   -209.9738123 -0.108191E-02  0.104E-01    0.11       1.0  T
   7   -209.9734751  0.337266E-03  0.118E-01    0.11       1.0  T
   8   -209.9735018 -0.267383E-04  0.114E-01    0.11       1.0  T
   9   -209.9742722 -0.770336E-03  0.675E-02    0.11       1.0  T
  10   -209.9745062 -0.234052E-03  0.450E-02    0.10       1.0  T
  11   -209.9746891 -0.182861E-03  0.121E-02    0.10       1.0  T
  12   -209.9746987 -0.960087E-05  0.445E-03    0.10       2.3  T
  13   -209.9746970  0.165071E-05  0.483E-03    0.10       2.1  T
  14   -209.9746985 -0.148465E-05  0.360E-03    0.10       2.8  T
  15   -209.9746986 -0.131289E-06  0.232E-03    0.10       4.4  T
  16   -209.9746987 -0.459905E-07  0.180E-03    0.10       5.6  T
  17   -209.9746989 -0.210059E-06  0.905E-04    0.10      11.2  T
  18   -209.9746990 -0.643539E-07  0.259E-04    0.10      39.2  T
     SCC iter.                  ...        0 min,  0.524 sec
     gradient                   ...        0 min,  0.058 sec
 * total energy  :  -207.8795096 Eh     change       -0.1977328E-03 Eh
   gradient norm :     0.0074536 Eh/α   predicted    -0.2162854E-03 (   9.38%)
   displ. norm   :     0.4175313 α      lambda       -0.3480699E-03
   maximum displ.:     0.1740810 α      in ANC's #8, #3, #5, ...

........................................................................
.............................. CYCLE  346 ..............................
........................................................................

 iter      E             dE          RMSdq      gap      omega  full diag
   1   -209.9724742 -0.209972E+03  0.176E-01    0.09       0.0  T
   2   -209.9226284  0.498458E-01  0.727E-01    0.43       1.0  T
   3   -209.9617028 -0.390743E-01  0.360E-01    0.07       1.0  T
   4   -209.9554511  0.625169E-02  0.462E-01    0.17       1.0  T
   5   -209.9603829 -0.493183E-02  0.385E-01    0.15       1.0  T
   6   -209.9716033 -0.112204E-01  0.154E-01    0.12       1.0  T
   7   -209.9724885 -0.885133E-03  0.111E-01    0.09       1.0  T
   8   -209.9735400 -0.105150E-02  0.258E-02    0.10       1.0  T
   9   -209.9735831 -0.431188E-04  0.834E-03    0.10       1.2  T
  10   -209.9735535  0.296013E-04  0.200E-02    0.10       1.0  T
  11   -209.9735721 -0.186170E-04  0.135E-02    0.10       1.0  T
  12   -209.9735870 -0.148753E-04  0.333E-03    0.10       3.0  T
  13   -209.9735856  0.134823E-05  0.501E-03    0.10       2.0  T
  14   -209.9735877 -0.211385E-05  0.130E-03    0.10       7.8  T
  15   -209.9735879 -0.120453E-06  0.427E-04    0.10      23.8  T
  16   -209.9735878  0.529655E-07  0.873E-04    0.10      11.6  T
     SCC iter.                  ...        0 min,  0.471 sec
     gradient                   ...        0 min,  0.061 sec
 * total energy  :  -207.8797054 Eh     change       -0.1958366E-03 Eh
   gradient norm :     0.0075690 Eh/α   predicted    -0.2043776E-03 (   4.36%)
   displ. norm   :     0.3013185 α      lambda       -0.2953007E-03
   maximum displ.:     0.1338158 α      in ANC's #3, #8, #5, ...

........................................................................
.............................. CYCLE  347 ..............................
........................................................................

 iter      E             dE          RMSdq      gap      omega  full diag
   1   -209.9691366 -0.209969E+03  0.288E-01    0.13       0.0  T
   2   -207.2509537  0.271818E+01  0.574E+00    0.17       1.0  T
   3   -209.9615330 -0.271058E+01  0.375E-01    0.15       1.0  T
   4   -209.9736165 -0.120834E-01  0.136E-01    0.11       1.0  T
   5   -209.9753625 -0.174605E-02  0.628E-02    0.10       1.0  T
   6   -209.9750254  0.337138E-03  0.971E-02    0.09       1.0  T
   7   -209.9751976 -0.172195E-03  0.725E-02    0.10       1.0  T
   8   -209.9745738  0.623825E-03  0.928E-02    0.11       1.0  T
   9   -209.9752929 -0.719162E-03  0.379E-02    0.10       1.0  T
  10   -209.9753934 -0.100498E-03  0.957E-03    0.10       1.1  T
  11   -209.9753866  0.677947E-05  0.126E-02    0.10       1.0  T
  12   -209.9754000 -0.133722E-04  0.275E-03    0.10       3.7  T
  13   -209.9754001 -0.108935E-06  0.198E-03    0.10       5.1  T
  14   -209.9753988  0.128355E-05  0.457E-03    0.10       2.2  T
  15   -209.9754002 -0.132243E-05  0.811E-04    0.10      12.5  T
  16   -209.9754001  0.361487E-07  0.124E-03    0.10       8.2  T
  17   -209.9754002 -0.963663E-07  0.267E-04    0.10      38.0  T
  18   -209.9754002  0.564455E-09  0.216E-04    0.10      47.0  T
     SCC iter.                  ...        0 min,  0.623 sec
     gradient                   ...        0 min,  0.061 sec
 * total energy  :  -207.8799056 Eh     change       -0.2001380E-03 Eh
   gradient norm :     0.0052276 Eh/α   predicted    -0.1610573E-03 ( -19.53%)
   displ. norm   :     0.3607890 α      lambda       -0.3172077E-03
   maximum displ.:     0.1704186 α      in ANC's #3, #8, #5, ...

........................................................................
.............................. CYCLE  348 ..............................
........................................................................

 iter      E             dE          RMSdq      gap      omega  full diag
   1   -209.9792255 -0.209979E+03  0.102E-01    0.10       0.0  T
   2   -209.9648722  0.143533E-01  0.401E-01    0.07       1.0  T
   3   -209.9744157 -0.954351E-02  0.236E-01    0.13       1.0  T
   4   -209.9774568 -0.304114E-02  0.137E-01    0.12       1.0  T
   5   -209.9791015 -0.164473E-02  0.461E-02    0.10       1.0  T
   6   -209.9791570 -0.554684E-04  0.370E-02    0.10       1.0  T
   7   -209.9790980  0.589801E-04  0.430E-02    0.10       1.0  T
   8   -209.9792671 -0.169058E-03  0.354E-03    0.10       2.9  T
   9   -209.9792653  0.174771E-05  0.528E-03    0.10       1.9  T
  10   -209.9792666 -0.128030E-05  0.319E-03    0.10       3.2  T
  11   -209.9792673 -0.712771E-06  0.132E-03    0.10       7.7  T
  12   -209.9792668  0.517827E-06  0.260E-03    0.10       3.9  T
  13   -209.9792674 -0.583294E-06  0.501E-04    0.10      20.3  T
  14   -209.9792674  0.996096E-08  0.524E-04    0.10      19.4  T
     SCC iter.                  ...        0 min,  0.450 sec
     gradient                   ...        0 min,  0.062 sec
 * total energy  :  -207.8801176 Eh     change       -0.2120927E-03 Eh
   gradient norm :     0.0043164 Eh/α   predicted    -0.1792522E-03 ( -15.48%)
   displ. norm   :     0.4882269 α      lambda       -0.2672829E-03
   maximum displ.:     0.2239166 α      in ANC's #3, #8, #5, ...

........................................................................
.............................. CYCLE  349 ..............................
........................................................................

 iter      E             dE          RMSdq      gap      omega  full diag
   1   -209.9747868 -0.209975E+03  0.219E-01    0.12       0.0  T
   2   -207.3963356  0.257845E+01  0.564E+00    0.17       1.0  T
   3   -209.9774316 -0.258110E+01  0.932E-02    0.09       1.0  T
   4   -209.9775117 -0.801600E-04  0.611E-02    0.11       1.0  T
   5   -209.9731216  0.439016E-02  0.226E-01    0.08       1.0  T
   6   -209.9740241 -0.902525E-03  0.198E-01    0.08       1.0  T
   7   -209.9777570 -0.373291E-02  0.431E-02    0.10       1.0  T
   8   -209.9775911  0.165912E-03  0.610E-02    0.11       1.0  T
   9   -209.9775984 -0.727688E-05  0.556E-02    0.11       1.0  T
  10   -209.9777485 -0.150089E-03  0.308E-02    0.10       1.0  T
  11   -209.9778186 -0.701240E-04  0.101E-02    0.10       1.0  T
  12   -209.9778270 -0.845096E-05  0.490E-03    0.10       2.1  T
  13   -209.9778259  0.109022E-05  0.569E-03    0.10       1.8  T
  14   -209.9778275 -0.152493E-05  0.213E-03    0.10       4.8  T
  15   -209.9778273  0.175812E-06  0.201E-03    0.10       5.1  T
  16   -209.9778276 -0.271765E-06  0.158E-03    0.10       6.4  T
  17   -209.9778275  0.249742E-07  0.133E-03    0.10       7.6  T
  18   -209.9778277 -0.117009E-06  0.517E-04    0.10      19.6  T
  19   -209.9778277 -0.208753E-07  0.363E-04    0.10      28.0  T
     SCC iter.                  ...        0 min,  0.530 sec
     gradient                   ...        0 min,  0.056 sec
 * total energy  :  -207.8802982 Eh     change       -0.1805586E-03 Eh
   gradient norm :     0.0050122 Eh/α   predicted    -0.1654990E-03 (  -8.34%)
   displ. norm   :     0.4049456 α      lambda       -0.2070897E-03
   maximum displ.:     0.2015798 α      in ANC's #3, #8, #5, ...

........................................................................
.............................. CYCLE  350 ..............................
........................................................................

 iter      E             dE          RMSdq      gap      omega  full diag
   1   -209.9754797 -0.209975E+03  0.174E-01    0.12       0.0  T
   2   -207.6313667  0.234411E+01  0.539E+00    0.14       1.0  T
   3   -209.9760008 -0.234463E+01  0.132E-01    0.11       1.0  T
   4   -209.9738721  0.212869E-02  0.187E-01    0.12       1.0  T
   5   -209.9773279 -0.345579E-02  0.453E-02    0.10       1.0  T
   6   -209.9773518 -0.239270E-04  0.447E-02    0.10       1.0  T
   7   -209.9773245  0.273028E-04  0.415E-02    0.10       1.0  T
   8   -209.9773560 -0.314252E-04  0.284E-02    0.10       1.0  T
   9   -209.9773962 -0.402093E-04  0.201E-02    0.10       1.0  T
  10   -209.9773901  0.605976E-05  0.199E-02    0.10       1.0  T
  11   -209.9774224 -0.322687E-04  0.692E-03    0.10       1.5  T
  12   -209.9774260 -0.361241E-05  0.273E-03    0.10       3.7  T
  13   -209.9774260  0.218881E-07  0.176E-03    0.10       5.8  T
  14   -209.9774254  0.566846E-06  0.388E-03    0.10       2.6  T
  15   -209.9774261 -0.721706E-06  0.117E-03    0.10       8.7  T
  16   -209.9774261 -0.132994E-07  0.717E-04    0.10      14.2  T
  17   -209.9774261  0.489587E-08  0.429E-04    0.10      23.6  T
     SCC iter.                  ...        0 min,  0.460 sec
     gradient                   ...        0 min,  0.060 sec
 * total energy  :  -207.8804348 Eh     change       -0.1366395E-03 Eh
   gradient norm :     0.0050849 Eh/α   predicted    -0.1205248E-03 ( -11.79%)
   displ. norm   :     0.3204101 α      lambda       -0.1876122E-03
   maximum displ.:     0.1737777 α      in ANC's #3, #5, #8, ...

........................................................................
.............................. CYCLE  351 ..............................
........................................................................

 iter      E             dE          RMSdq      gap      omega  full diag
   1   -209.9796607 -0.209980E+03  0.953E-02    0.10       0.0  T
   2   -209.9137089  0.659518E-01  0.867E-01    0.04       1.0  T
   3   -209.9778797 -0.641708E-01  0.147E-01    0.12       1.0  T
   4   -209.9788834 -0.100369E-02  0.933E-02    0.11       1.0  T
   5   -209.9796450 -0.761558E-03  0.267E-02    0.10       1.0  T
   6   -209.9796961 -0.511115E-04  0.153E-02    0.10       1.0  T
   7   -209.9796584  0.376860E-04  0.244E-02    0.10       1.0  T
   8   -209.9797134 -0.549503E-04  0.347E-03    0.10       2.9  T
   9   -209.9797135 -0.165786E-06  0.275E-03    0.10       3.7  T
  10   -209.9797132  0.290023E-06  0.262E-03    0.10       3.9  T
  11   -209.9797135 -0.279559E-06  0.154E-03    0.10       6.6  T
  12   -209.9797135 -0.113587E-07  0.146E-03    0.10       6.9  T
  13   -209.9797137 -0.127481E-06  0.695E-04    0.10      14.6  T
  14   -209.9797137 -0.599258E-08  0.488E-04    0.10      20.8  T
     SCC iter.                  ...        0 min,  0.374 sec
     gradient                   ...        0 min,  0.061 sec
 * total energy  :  -207.8805542 Eh     change       -0.1193263E-03 Eh
   gradient norm :     0.0046074 Eh/α   predicted    -0.1034371E-03 ( -13.32%)
   displ. norm   :     0.3834179 α      lambda       -0.1669021E-03
   maximum displ.:     0.1998424 α      in ANC's #3, #8, #5, ...

........................................................................
.............................. CYCLE  352 ..............................
........................................................................

 iter      E             dE          RMSdq      gap      omega  full diag
   1   -209.9770292 -0.209977E+03  0.963E-02    0.10       0.0  T
   2   -209.9579279  0.191013E-01  0.463E-01    0.07       1.0  T
   3   -209.9719610 -0.140330E-01  0.240E-01    0.13       1.0  T
   4   -209.9758385 -0.387754E-02  0.113E-01    0.11       1.0  T
   5   -209.9769669 -0.112839E-02  0.350E-02    0.10       1.0  T
   6   -209.9769968 -0.299538E-04  0.279E-02    0.10       1.0  T
   7   -209.9769806  0.162661E-04  0.288E-02    0.10       1.0  T
   8   -209.9770533 -0.727392E-04  0.797E-03    0.10       1.3  T
   9   -209.9770577 -0.436176E-05  0.362E-03    0.10       2.8  T
  10   -209.9770550  0.264396E-05  0.614E-03    0.10       1.7  T
  11   -209.9770579 -0.282799E-05  0.248E-03    0.10       4.1  T
  12   -209.9770580 -0.151721E-06  0.188E-03    0.10       5.4  T
  13   -209.9770583 -0.275664E-06  0.599E-04    0.10      16.9  T
  14   -209.9770582  0.971152E-07  0.115E-03    0.10       8.9  T
  15   -209.9770583 -0.969009E-07  0.400E-04    0.10      25.4  T
     SCC iter.                  ...        0 min,  0.409 sec
     gradient                   ...        0 min,  0.057 sec
 * total energy  :  -207.8806588 Eh     change       -0.1045997E-03 Eh
   gradient norm :     0.0041077 Eh/α   predicted    -0.9572273E-04 (  -8.49%)
   displ. norm   :     0.2328865 α      lambda       -0.1272409E-03
   maximum displ.:     0.1412671 α      in ANC's #3, #2, #4, ...

........................................................................
.............................. CYCLE  353 ..............................
........................................................................

 iter      E             dE          RMSdq      gap      omega  full diag
   1   -209.9794936 -0.209979E+03  0.618E-02    0.10       0.0  T
   2   -209.9685985  0.108951E-01  0.345E-01    0.15       1.0  T
   3   -209.9785269 -0.992841E-02  0.106E-01    0.09       1.0  T
   4   -209.9794672 -0.940287E-03  0.280E-02    0.10       1.0  T
   5   -209.9794442  0.229943E-04  0.301E-02    0.10       1.0  T
   6   -209.9795202 -0.759929E-04  0.761E-03    0.10       1.3  T
   7   -209.9794718  0.483783E-04  0.238E-02    0.10       1.0  T
   8   -209.9795235 -0.517384E-04  0.339E-03    0.10       3.0  T
   9   -209.9795201  0.339738E-05  0.683E-03    0.10       1.5  T
  10   -209.9795216 -0.146687E-05  0.534E-03    0.10       1.9  T
  11   -209.9795217 -0.131602E-06  0.484E-03    0.10       2.1  T
  12   -209.9795231 -0.138042E-05  0.307E-03    0.10       3.3  T
  13   -209.9795237 -0.614273E-06  0.153E-03    0.10       6.6  T
  14   -209.9795238 -0.940266E-07  0.109E-03    0.10       9.3  T
  15   -209.9795237  0.769096E-07  0.142E-03    0.10       7.2  T
  16   -209.9795239 -0.150843E-06  0.511E-04    0.10      19.9  T
  17   -209.9795239 -0.208662E-07  0.228E-04    0.10      44.5  T
     SCC iter.                  ...        0 min,  0.461 sec
     gradient                   ...        0 min,  0.060 sec
 * total energy  :  -207.8807435 Eh     change       -0.8475847E-04 Eh
   gradient norm :     0.0037159 Eh/α   predicted    -0.6707365E-04 ( -20.86%)
   displ. norm   :     0.2506476 α      lambda       -0.9310585E-04
   maximum displ.:     0.1490816 α      in ANC's #3, #2, #4, ...

........................................................................
.............................. CYCLE  354 ..............................
........................................................................

 iter      E             dE          RMSdq      gap      omega  full diag
   1   -209.9796251 -0.209980E+03  0.770E-02    0.10       0.0  T
   2   -209.8393560  0.140269E+00  0.127E+00    0.03       1.0  T
   3   -209.9779088 -0.138553E+00  0.145E-01    0.12       1.0  T
   4   -209.9788848 -0.975949E-03  0.949E-02    0.11       1.0  T
   5   -209.9796113 -0.726532E-03  0.341E-02    0.10       1.0  T
   6   -209.9796404 -0.290925E-04  0.271E-02    0.10       1.0  T
   7   -209.9796446 -0.426141E-05  0.245E-02    0.10       1.0  T
   8   -209.9796996 -0.549825E-04  0.426E-03    0.10       2.4  T
   9   -209.9797008 -0.115203E-05  0.219E-03    0.10       4.6  T
  10   -209.9797009 -0.111182E-06  0.168E-03    0.10       6.1  T
  11   -209.9797007  0.147509E-06  0.180E-03    0.10       5.6  T
  12   -209.9797009 -0.128402E-06  0.123E-03    0.10       8.3  T
  13   -209.9797010 -0.118178E-06  0.458E-04    0.10      22.2  T
  14   -209.9797010  0.408562E-09  0.367E-04    0.10      27.6  T
     SCC iter.                  ...        0 min,  0.383 sec
     gradient                   ...        0 min,  0.061 sec
 * total energy  :  -207.8808125 Eh     change       -0.6896460E-04 Eh
   gradient norm :     0.0031558 Eh/α   predicted    -0.4947312E-04 ( -28.26%)
   displ. norm   :     0.2661608 α      lambda       -0.9505504E-04
   maximum displ.:     0.1647850 α      in ANC's #3, #2, #9, ...

........................................................................
.............................. CYCLE  355 ..............................
........................................................................

 iter      E             dE          RMSdq      gap      omega  full diag
   1   -209.9774280 -0.209977E+03  0.179E-01    0.09       0.0  T
   2   -209.9213235  0.561045E-01  0.786E-01    0.57       1.0  T
   3   -209.9694787 -0.481552E-01  0.354E-01    0.15       1.0  T
   4   -209.9798239 -0.103452E-01  0.317E-02    0.10       1.0  T
   5   -209.9790896  0.734285E-03  0.916E-02    0.09       1.0  T
   6   -209.9792585 -0.168918E-03  0.829E-02    0.11       1.0  T
   7   -209.9795580 -0.299520E-03  0.605E-02    0.10       1.0  T
   8   -209.9797983 -0.240215E-03  0.298E-02    0.10       1.0  T
   9   -209.9798735 -0.752810E-04  0.574E-03    0.10       1.8  T
  10   -209.9798703  0.322176E-05  0.826E-03    0.10       1.2  T
  11   -209.9798761 -0.576394E-05  0.134E-03    0.10       7.6  T
  12   -209.9798701  0.600097E-05  0.833E-03    0.10       1.2  T
  13   -209.9798759 -0.581638E-05  0.183E-03    0.10       5.5  T
  14   -209.9798762 -0.267733E-06  0.397E-04    0.10      25.6  T
  15   -209.9798761  0.105099E-07  0.449E-04    0.10      22.6  T
     SCC iter.                  ...        0 min,  0.421 sec
     gradient                   ...        0 min,  0.059 sec
 * total energy  :  -207.8808806 Eh     change       -0.6807687E-04 Eh
   gradient norm :     0.0025877 Eh/α   predicted    -0.5089798E-04 ( -25.23%)
   displ. norm   :     0.2262828 α      lambda       -0.6452054E-04
   maximum displ.:     0.1444223 α      in ANC's #3, #2, #9, ...

........................................................................
.............................. CYCLE  356 ..............................
........................................................................

 iter      E             dE          RMSdq      gap      omega  full diag
   1   -209.9791745 -0.209979E+03  0.872E-02    0.10       0.0  T
   2   -209.9389658  0.402087E-01  0.653E-01    0.31       1.0  T
   3   -209.9794390 -0.404732E-01  0.520E-02    0.11       1.0  T
   4   -209.9794453 -0.635424E-05  0.410E-02    0.11       1.0  T
   5   -209.9784514  0.993939E-03  0.114E-01    0.09       1.0  T
   6   -209.9795822 -0.113079E-02  0.173E-02    0.10       1.0  T
   7   -209.9795915 -0.936458E-05  0.131E-02    0.10       1.0  T
   8   -209.9795971 -0.559855E-05  0.104E-02    0.10       1.0  T
   9   -209.9796040 -0.689411E-05  0.578E-03    0.10       1.8  T
  10   -209.9796067 -0.271395E-05  0.205E-03    0.10       5.0  T
  11   -209.9796064  0.345770E-06  0.271E-03    0.10       3.7  T
  12   -209.9796069 -0.453432E-06  0.122E-03    0.10       8.3  T
  13   -209.9796069 -0.863644E-07  0.757E-04    0.10      13.4  T
  14   -209.9796070 -0.291321E-07  0.413E-04    0.10      24.6  T
     SCC iter.                  ...        0 min,  0.396 sec
     gradient                   ...        0 min,  0.060 sec
 * total energy  :  -207.8809293 Eh     change       -0.4875817E-04 Eh
   gradient norm :     0.0024137 Eh/α   predicted    -0.3391569E-04 ( -30.44%)
   displ. norm   :     0.1885003 α      lambda       -0.5118440E-04
   maximum displ.:     0.1242586 α      in ANC's #3, #2, #9, ...

   *** GEOMETRY OPTIMIZATION CONVERGED AFTER 356 ITERATIONS ***

------------------------------------------------------------------------
 total energy gain   :        -0.3397150 Eh     -213.1744 kcal/mol
 total RMSD          :         6.9490422 a0        3.6773 Å
 total power (kW/mol):        -2.5053975 (step)   -3.6127 (real)
------------------------------------------------------------------------

 ANCopt (total)                0 d,  0 h,  4 min,  6.887 sec
 optimizer setup                ...        0 min,  0.001 sec (  0.000%)
 model hessian                  ...        0 min,  0.490 sec (  0.198%)
 ANC generation                 ...        0 min,  0.134 sec (  0.054%)
 coordinate transformation      ...        0 min,  0.030 sec (  0.012%)
 single point calculation       ...        4 min,  5.522 sec ( 99.447%)
 optimization log               ...        0 min,  0.467 sec (  0.189%)
 hessian update                 ...        0 min,  0.060 sec (  0.024%)
 rational function              ...        0 min,  0.130 sec (  0.053%)

================
 final structure:
================
97
 xtb: 6.7.1pre (5071a88)
C            1.23772285451693        8.04769598665828        8.62919222135301
S            0.94610951687053        8.55371546910239        6.90897503923385
O            1.55554198959854        9.84324151748757        6.71842770667991
O           -0.46369310801999        8.45657547078516        6.62271539975095
C            1.87122822146744        7.33537124714344        5.92212390400138
C            1.08333448709597        6.05177639408420        5.70519649821339
N            0.77370451093826        5.40457260118969        6.97664576241477
C           -0.61150774932193        5.54573312550620        7.42111572035057
C           -1.56331014802866        4.52433804489247        6.88047922982146
C           -2.68028736721541        4.55434626763939        6.09488511903989
C           -3.20984450406782        3.22814212152015        6.09255308084354
C           -2.37694528042929        2.46211209319476        6.87887194384928
C           -2.29236912784747        1.03988200075632        7.23561355940272
C           -1.48082781352173        0.78486139957115        8.36610935599815
C           -0.81202965030711       -0.36430786151446        8.83852110592966
C           -0.91920791255398       -1.75318069276638        8.47726462639273
N           -0.04948950753570       -2.58784847976359        9.28782624806553
C            0.44397663263172       -3.78349612769648        8.80022898543505
C            0.64693008412872       -4.00058933348857        7.43217461379987
C            1.11112573951174       -5.21701817522014        6.97554066103806
C            1.38790996714594       -6.26179539828070        7.85175558190267
O            1.70165948960596       -7.52254702051226        7.38600463914823
C            0.55563445080013       -8.20746189822229        6.87953124023739
C           -0.50204787490107       -8.32091417914866        7.95063098981914
C           -0.35801861151627       -9.28746811888466        8.94018475986628
C           -1.21913151010415       -9.35062997036350       10.01961231906238
C           -2.24818879458182       -8.43261617001392       10.13245772997323
C           -2.39964246603727       -7.47521957767019        9.14784241409935
F           -3.40116119259288       -6.58596250714343        9.26654009088660
C           -1.54460490243364       -7.39920431827708        8.05185498812656
Cl          -1.81475143627703       -6.14915457424055        6.87490480919403
C            1.26099094287064       -6.01543438950634        9.21921549165538
Cl           1.65594429504289       -7.25138506783076       10.34579178527819
C            0.80166834100070       -4.80040789659047        9.69033604614249
N           -1.73025114335286       -2.46794277917375        7.70685601558093
C           -2.50827178776605       -2.22278839843478        6.68951517012270
N           -2.88421581235140       -1.12743851080132        5.98496925044132
C           -2.90041574444535        0.19790667046401        6.28830428166408
O           -1.35015982664225        3.25010001699137        7.32373127391504
H            1.31375125658105        6.96954707908507        8.63789106812134
H            2.15588830851207        8.51650004343841        8.95526518726518
H            0.40433085809620        8.38602925129889        9.23044764598085
H            2.79062076600709        7.15654058446648        6.47047206937185
H            2.09398681733879        7.81334105699844        4.97282353236089
H            1.70467198357305        5.38439966987702        5.08351236710272
H            0.16968576562366        6.27670721719820        5.13791204022795
H            1.04120166597077        4.41093823108207        6.95887976099966
H           -0.95499231401284        6.55073522466359        7.16682013180412
H           -0.60634957711088        5.42960030073343        8.51345204203890
H           -3.11200808625047        5.42116139469473        5.61820033314327
H           -4.12813979171748        2.92200309818399        5.61883996694498
H           -1.27475272398196        1.67409829925709        8.95781569388993
H           -0.26127547305271       -0.21281909082874        9.77942403918474
H           -0.30558915771037       -2.63566710325910       10.26992584560726
H            0.38778089288629       -3.23379108188462        6.70728871300786
H            1.22853077539516       -5.36768667393306        5.89864013110895
H            0.15564536960438       -7.69017614919313        5.99992571840998
H            0.92448860235282       -9.19390273903159        6.59337893763303
H            0.46267427291885       -9.98400029071444        8.86490655033757
H           -1.08154587304791      -10.10121885958193       10.78197685839984
H           -2.92861178920095       -8.44106083253583       10.96871025492150
H            0.69441584404614       -4.65636491707727       10.75430924958063
H           -2.93406484878541       -3.13183641469329        6.25187976238879
H           -3.52258374721795        0.72834925837243        5.54528918022450
Ti          -2.86510082433406        1.23390682701485        2.59554108712996
Ti          -1.43152971055990       -0.75255400345812        4.50767964573598
Ti           0.52424942884579       -2.90819333017436        3.52314559377382
Ti          -1.19046276776529        3.57002402596972        3.12614054057675
Ti           0.57133326306893       -0.46576244310764        7.07954268306737
Ti           0.29278009301520        2.10071136873620        5.45030440443076
Ti          -1.50544233753208       -1.62720112642773        1.20082294910677
Ti           0.97370701819889        0.49056463180433        2.45362360689334
Ti           2.46472784225078       -1.73953353681092        1.40397205070876
Ti           1.98296605533756        3.27340498636577        2.90077512611804
Ti           3.20472243707849       -0.66388991771166        4.54366779440096
Ti           4.20064034958723        1.10579620862103        2.41612459674952
C           -0.07751013467441        5.11628894162803        2.41255997308583
C            3.22959384585012       -1.71724829295793        6.28693591233765
C            3.05269693929899        1.94596617913092        5.17698443085849
C            1.15982712699956        5.11925689007610        2.41229875281203
C            2.38746565984253       -1.34849237292010        7.11520077590258
C            2.13965487798672        2.88587188310120        4.87385846077830
C            3.94974251793966        1.05264537528184        5.32873548602790
O           -2.48859525735239        2.90635547552753        2.25208517698415
O           -2.75869674608763       -0.29386501690046        3.34582563096013
O           -1.09285431168352       -2.32231411466336        3.72944623004014
O           -0.73784011917916        0.93826725775271        4.54608942776300
O           -0.13165235331735       -1.18848469724013        5.74125143228486
O           -0.49077312488274        3.47343205496563        4.65546497017512
O            0.79730824683202        1.26105542139973        6.84936009538046
O           -0.44061391707908       -0.28959175140558        1.90294333930985
O            2.01498739365345       -0.02089109483910        1.15283027920993
O            2.13303921194412       -2.74184427954760        2.83539420595688
O            0.66480311230117        2.17802964634463        2.33113203077613
O            1.65286096595375       -0.11894544710881        3.88543532261510
O            3.44599420994720        2.68419342044894        2.24258621145350
O            4.23709996045444       -0.52394670671368        3.11131903751721
 
 Bond Distances (Angstroems)
 ---------------------------
C1-S2=1.8167         C1-H40=1.0809        C1-H41=1.0813        C1-H42=1.0819        S2-C1=1.8167         S2-O3=1.4390         
S2-O4=1.4418         S2-C5=1.8205         O3-S2=1.4390         O4-S2=1.4418         C5-S2=1.8205         C5-C6=1.5217         
C5-H43=1.0853        C5-H44=1.0859        C6-C5=1.5217         C6-N7=1.4599         C6-H45=1.1036        C6-H46=1.0987        
N7-C6=1.4599         N7-C8=1.4616         N7-H47=1.0292        C8-N7=1.4616         C8-C9=1.4972         C8-H48=1.0921        
C8-H49=1.0985        C9-C8=1.4972         C9-C10=1.3659        C9-O39=1.3659        C10-C9=1.3659        C10-C11=1.4280       
C10-H50=1.0793       C11-C10=1.4280       C11-C12=1.3780       C11-H51=1.0777       C12-C11=1.3780       C12-C13=1.4687       
C12-O39=1.3686       C13-C12=1.4687       C13-C14=1.4148       C13-C38=1.4057       C14-C13=1.4148       C14-C15=1.4110       
C14-H52=1.0878       C14-Ti69=2.7259      C15-C14=1.4110       C15-C16=1.4391       C15-H53=1.1007       C15-Ti69=2.2401      
C16-C15=1.4391       C16-N17=1.4526       C16-N35=1.3275       C16-Ti69=2.4151      N17-C16=1.4526       N17-C18=1.3823       
N17-H54=1.0161       C18-N17=1.3823       C18-C19=1.4000       C18-C34=1.3980       C19-C18=1.4000       C19-C20=1.3797       
C19-H55=1.0866       C20-C19=1.3797       C20-C21=1.3914       C20-H56=1.0937       C21-C20=1.3914       C21-O22=1.3802       
C21-C32=1.3953       O22-C21=1.3802       O22-C23=1.4279       C23-O22=1.4279       C23-C24=1.5096       C23-H57=1.0960       
C23-H58=1.0913       C24-C23=1.5096       C24-C25=1.3908       C24-C30=1.3952       C25-C24=1.3908       C25-C26=1.3823       
C25-H59=1.0791       C26-C25=1.3823       C26-C27=1.3836       C26-H60=1.0787       C27-C26=1.3836       C27-C28=1.3817       
C27-H61=1.0781       C28-C27=1.3817       C28-F29=1.3446       C28-C30=1.3921       F29-C28=1.3446       C30-C24=1.3952       
C30-C28=1.3921       C30-Cl31=1.7380      Cl31-C30=1.7380      C32-C21=1.3953       C32-Cl33=1.7184      C32-C34=1.3817       
Cl33-C32=1.7184      C34-C18=1.3980       C34-C32=1.3817       C34-H62=1.0790       N35-C16=1.3275       N35-C36=1.3040       
C36-N35=1.3040       C36-N37=1.3555       C36-H63=1.0951       C36-Ti66=2.8428      N37-C36=1.3555       N37-C38=1.3597       
N37-Ti66=2.1055      C38-C13=1.4057       C38-N37=1.3597       C38-H64=1.1048       C38-Ti66=2.4963      O39-C9=1.3659        
O39-C12=1.3686       O39-Ti70=2.7441      H40-C1=1.0809        H41-C1=1.0813        H42-C1=1.0819        H43-C5=1.0853        
H44-C5=1.0859        H45-C6=1.1036        H46-C6=1.0987        H47-N7=1.0292        H48-C8=1.0921        H49-C8=1.0985        
H50-C10=1.0793       H51-C11=1.0777       H52-C14=1.0878       H53-C15=1.1007       H54-N17=1.0161       H55-C19=1.0866       
H56-C20=1.0937       H57-C23=1.0960       H58-C23=1.0913       H59-C25=1.0791       H60-C26=1.0787       H61-C27=1.0781       
H62-C34=1.0790       H63-C36=1.0951       H64-C38=1.1048       Ti65-Ti66=3.1076     Ti65-Ti68=2.9229     Ti65-Ti71=3.4612     
Ti65-O84=1.7484      Ti65-O85=1.7054      Ti66-C36=2.8428      Ti66-N37=2.1055      Ti66-C38=2.4963      Ti66-Ti65=3.1076     
Ti66-Ti67=3.0726     Ti66-Ti69=3.2723     Ti66-Ti70=3.4645     Ti66-Ti71=3.4214     Ti66-Ti72=3.3985     Ti66-O85=1.8225      
Ti66-O86=1.7845      Ti66-O87=1.8280      Ti66-O88=1.8443      Ti67-Ti66=3.0726     Ti67-Ti71=3.3397     Ti67-Ti72=3.5913     
Ti67-Ti73=3.1020     Ti67-Ti75=3.6419     Ti67-O86=1.7323      Ti67-O93=1.7575      Ti68-Ti65=2.9229     Ti68-Ti70=3.1242     
Ti68-Ti72=3.8235     Ti68-Ti74=3.1952     Ti68-C77=2.0344      Ti68-O84=1.6999      Ti68-O89=1.6846      Ti68-O94=2.4519      
Ti69-C14=2.7259      Ti69-C15=2.2401      Ti69-C16=2.4151      Ti69-Ti66=3.2723     Ti69-Ti70=3.0527     Ti69-Ti75=3.6612     
Ti69-C81=2.0196      Ti69-O88=1.6756      Ti69-O90=1.7567      Ti70-O39=2.7441      Ti70-Ti66=3.4645     Ti70-Ti68=3.1242     
Ti70-Ti69=3.0527     Ti70-Ti72=3.4693     Ti70-Ti74=3.2760     Ti70-C79=2.7777      Ti70-C82=2.0880      Ti70-O87=1.7975      
Ti70-O89=1.7692      Ti70-O90=1.7079      Ti71-Ti65=3.4612     Ti71-Ti66=3.4214     Ti71-Ti67=3.3397     Ti71-Ti72=3.4929     
Ti71-O86=2.6547      Ti71-O91=1.8483      Ti72-Ti66=3.3985     Ti72-Ti67=3.5913     Ti72-Ti68=3.8235     Ti72-Ti70=3.4693     
Ti72-Ti71=3.4929     Ti72-Ti73=2.8807     Ti72-Ti74=2.9938     Ti72-Ti75=3.2678     Ti72-Ti76=3.2853     Ti72-O87=2.7401      
Ti72-O91=1.7065      Ti72-O92=1.7430      Ti72-O94=1.7199      Ti72-O95=1.6979      Ti73-Ti67=3.1020     Ti73-Ti72=2.8807     
Ti73-Ti75=3.4003     Ti73-Ti76=3.4834     Ti73-O92=1.7942      Ti73-O93=1.7787      Ti73-O97=2.7448      Ti74-Ti68=3.1952     
Ti74-Ti70=3.2760     Ti74-Ti72=2.9938     Ti74-Ti76=3.1387     Ti74-C77=2.8072      Ti74-C79=2.8439      Ti74-C80=2.0793      
Ti74-C82=2.0169      Ti74-O94=1.8061      Ti74-O96=1.7090      Ti75-Ti67=3.6419     Ti75-Ti69=3.6612     Ti75-Ti72=3.2678     
Ti75-Ti73=3.4003     Ti75-Ti76=2.9411     Ti75-C78=2.0370      Ti75-C79=2.6899      Ti75-C81=2.7838      Ti75-C83=2.0293      
Ti75-O95=1.7716      Ti75-O97=1.7712      Ti76-Ti72=3.2853     Ti76-Ti73=3.4834     Ti76-Ti74=3.1387     Ti76-Ti75=2.9411     
Ti76-O96=1.7581      Ti76-O97=1.7722      C77-Ti68=2.0344      C77-Ti74=2.8072      C77-C80=1.2373       C78-Ti75=2.0370      
C78-C81=1.2374       C79-Ti70=2.7777      C79-Ti74=2.8439      C79-Ti75=2.6899      C79-C82=1.3450       C79-C83=1.2750       
C80-Ti74=2.0793      C80-C77=1.2373       C81-Ti69=2.0196      C81-Ti75=2.7838      C81-C78=1.2374       C82-Ti70=2.0880      
C82-Ti74=2.0169      C82-C79=1.3450       C83-Ti75=2.0293      C83-C79=1.2750       O84-Ti65=1.7484      O84-Ti68=1.6999      
O85-Ti65=1.7054      O85-Ti66=1.8225      O86-Ti66=1.7845      O86-Ti67=1.7323      O86-Ti71=2.6547      O87-Ti66=1.8280      
O87-Ti70=1.7975      O87-Ti72=2.7401      O88-Ti66=1.8443      O88-Ti69=1.6756      O89-Ti68=1.6846      O89-Ti70=1.7692      
O90-Ti69=1.7567      O90-Ti70=1.7079      O91-Ti71=1.8483      O91-Ti72=1.7065      O92-Ti72=1.7430      O92-Ti73=1.7942      
O93-Ti67=1.7575      O93-Ti73=1.7787      O94-Ti68=2.4519      O94-Ti72=1.7199      O94-Ti74=1.8061      O95-Ti72=1.6979      
O95-Ti75=1.7716      O96-Ti74=1.7090      O96-Ti76=1.7581      O97-Ti73=2.7448      O97-Ti75=1.7712      O97-Ti76=1.7722      
 C  H  Rav=1.0885 sigma=0.0087  Rmin=1.0777  Rmax=1.1048    23
 C  C  Rav=1.3928 sigma=0.0659  Rmin=1.2373  Rmax=1.5217    27
 N  H  Rav=1.0226 sigma=0.0065  Rmin=1.0161  Rmax=1.0292     2
 N  C  Rav=1.3879 sigma=0.0585  Rmin=1.3040  Rmax=1.4616     8
 O  C  Rav=1.3856 sigma=0.0250  Rmin=1.3659  Rmax=1.4279     4
 F  C  Rav=1.3446 sigma=0.0000  Rmin=1.3446  Rmax=1.3446     1
 S  C  Rav=1.8186 sigma=0.0019  Rmin=1.8167  Rmax=1.8205     2
 S  O  Rav=1.4404 sigma=0.0014  Rmin=1.4390  Rmax=1.4418     2
 Cl C  Rav=1.7282 sigma=0.0098  Rmin=1.7184  Rmax=1.7380     2
 Ti C  Rav=2.4075 sigma=0.3402  Rmin=2.0169  Rmax=2.8439    17
 Ti N  Rav=2.1055 sigma=0.0000  Rmin=2.1055  Rmax=2.1055     1
 Ti O  Rav=1.8947 sigma=0.3322  Rmin=1.6756  Rmax=2.7448    33
 Ti Ti Rav=3.2958 sigma=0.2386  Rmin=2.8807  Rmax=3.8235    28
 
 selected bond angles (degree)
 --------------------
H40-C1-S2=107.26               H41-C1-S2=107.52               H41-C1-H40=111.74              H42-C1-S2=108.39               
H42-C1-H40=111.20              H42-C1-H41=110.54              O3-S2-C1=107.88                O4-S2-C1=109.04                
O4-S2-O3=116.63                C5-S2-C1=104.20                C5-S2-O3=108.22                C5-S2-O4=110.13                
C6-C5-S2=112.25                H43-C5-S2=105.48               H43-C5-C6=111.82               H44-C5-S2=106.47               
H44-C5-C6=110.66               H44-C5-H43=109.90              N7-C6-C5=111.08                H45-C6-C5=107.39               
H45-C6-N7=109.99               H46-C6-C5=109.36               H46-C6-N7=111.35               H46-C6-H45=107.53              
C8-N7-C6=115.03                H47-N7-C6=110.97               H47-N7-C8=110.17               C9-C8-N7=115.27                
H48-C8-N7=108.43               H48-C8-C9=110.11               H49-C8-N7=106.72               H49-C8-C9=106.85               
H49-C8-H48=109.29              C10-C9-C8=135.45               O39-C9-C8=114.84               O39-C9-C10=109.56              
C11-C10-C9=106.49              H50-C10-C9=126.78              H50-C10-C11=126.64             
 
 selected dihedral angles (degree)
 ---------------------------------
O3-S2-C1-H40=211.60           O3-S2-C1-H41=331.92           O3-S2-C1-H42= 91.44           O4-S2-C1-H40= 84.05           
O4-S2-C1-H41=204.36           O4-S2-C1-H42=323.89           C5-S2-C1-H40=326.47           C5-S2-C1-H41= 86.79           
C5-S2-C1-H42=206.32           C6-C5-S2-C1= 82.97            C6-C5-S2-O3=197.60            C6-C5-S2-O4=326.16            
H43-C5-S2-C1=320.97           H43-C5-S2-O3= 75.60           H43-C5-S2-O4=204.15           H44-C5-S2-C1=204.21           
H44-C5-S2-O3=318.84           H44-C5-S2-O4= 87.39           N7-C6-C5-S2=299.05            N7-C6-C5-H43= 57.37           
N7-C6-C5-H44=180.25           H45-C6-C5-S2=178.74           H45-C6-C5-H43=297.06          H45-C6-C5-H44= 59.94          
H46-C6-C5-S2= 62.35           H46-C6-C5-H43=180.67          H46-C6-C5-H44=303.55          C8-N7-C6-C5=104.65            
C8-N7-C6-H45=223.40           C8-N7-C6-H46=342.50           H47-N7-C6-C5=230.55           H47-N7-C6-H45=349.31          
H47-N7-C6-H46=108.41          C9-C8-N7-C6= 85.96            C9-C8-N7-H47=319.64           H48-C8-N7-C6=322.04           
H48-C8-N7-H47=195.73          H49-C8-N7-C6=204.42           H49-C8-N7-H47= 78.10          C10-C9-C8-N7=241.98           
C10-C9-C8-H48=  5.01          C10-C9-C8-H49=123.59          O39-C9-C8-N7= 67.16           O39-C9-C8-H48=190.19          
O39-C9-C8-H49=308.77          C11-C10-C9-C8=187.02          C11-C10-C9-O39=  2.03         H50-C10-C9-C8=  3.67          
H50-C10-C9-O39=178.68         
 
 CMA Distance (Angstroems)
 ---------------------------
R(CMA):  4.6813
           -------------------------------------------------
          |                Final Singlepoint                |
           -------------------------------------------------

          ...................................................
          :                      SETUP                      :
          :.................................................:
          :  # basis functions                 403          :
          :  # atomic orbitals                 388          :
          :  # shells                          184          :
          :  # electrons                       364          :
          :  max. iterations                   500          :
          :  Hamiltonian                  GFN2-xTB          :
          :  restarted?                      false          :
          :  GBSA solvation                  false          :
          :  PC potential                    false          :
          :  electronic temp.          300.0000000     K    :
          :  accuracy                    1.0000000          :
          :  -> integral cutoff          0.2500000E+02      :
          :  -> integral neglect         0.1000000E-07      :
          :  -> SCF convergence          0.1000000E-05 Eh   :
          :  -> wf. convergence          0.1000000E-03 e    :
          :  Broyden damping             0.4000000          :
          :  net charge                          0          :
          :  unpaired electrons                  0          :
          ...................................................

 iter      E             dE          RMSdq      gap      omega  full diag
   1   -209.9796070 -0.209980E+03  0.214E-04    0.10       0.0  T
   2   -209.9796068  0.185587E-06  0.146E-03    0.10       7.0  T
   3   -209.9796068 -0.529504E-07  0.120E-03    0.10       8.4  T
   4   -209.9796070 -0.133248E-06  0.144E-04    0.10      70.6  T
   5   -209.9796070  0.102695E-07  0.349E-04    0.10      29.1  T

   *** convergence criteria satisfied after 5 iterations ***

         #    Occupation            Energy/Eh            Energy/eV
      -------------------------------------------------------------
         1        2.0000           -1.0448250             -28.4311
       ...           ...                  ...                  ...
       176        2.0000           -0.3525412              -9.5931
       177        2.0000           -0.3445239              -9.3750
       178        2.0000           -0.3364196              -9.1544
       179        2.0000           -0.3268220              -8.8933
       180        2.0000           -0.3236893              -8.8080
       181        1.9997           -0.3116863              -8.4814
       182        1.6740           -0.3047245              -8.2920 (HOMO)
       183        0.1828           -0.3009879              -8.1903 (LUMO)
       184        0.1426           -0.3007316              -8.1833
       185        0.0005           -0.2952366              -8.0338
       186        0.0004           -0.2950691              -8.0292
       187        0.0000           -0.2886139              -7.8536
       ...           ...                  ...                  ...
       388                         11.8100398             321.3675
      -------------------------------------------------------------
                  HL-Gap            0.0037366 Eh            0.1017 eV
             Fermi-level           -0.3031701 Eh           -8.2497 eV

 SCC (total)                   0 d,  0 h,  0 min,  0.221 sec
 SCC setup                      ...        0 min,  0.000 sec (  0.000%)
 Dispersion                     ...        0 min,  0.001 sec (  0.453%)
 classical contributions        ...        0 min,  0.001 sec (  0.452%)
 integral evaluation            ...        0 min,  0.019 sec (  8.597%)
 iterations                     ...        0 min,  0.138 sec ( 62.443%)
 molecular gradient             ...        0 min,  0.060 sec ( 27.149%)
 printout                       ...        0 min,  0.002 sec (  0.905%)

         :::::::::::::::::::::::::::::::::::::::::::::::::::::
         ::                     SUMMARY                     ::
         :::::::::::::::::::::::::::::::::::::::::::::::::::::
         :: total energy            -207.880929328437 Eh    ::
         :: gradient norm              0.002465347367 Eh/a0 ::
         :: HOMO-LUMO gap              0.101676975363 eV    ::
         ::.................................................::
         :: SCC energy              -209.971195653880 Eh    ::
         :: -> isotropic ES            1.144303890917 Eh    ::
         :: -> anisotropic ES         -0.551703517368 Eh    ::
         :: -> anisotropic XC         -0.033043840956 Eh    ::
         :: -> dispersion             -0.221526360700 Eh    ::
         :: repulsion energy           2.090266325443 Eh    ::
         :: add. restraining           0.000000000000 Eh    ::
         :: total charge              -0.000000000002 e     ::
         :::::::::::::::::::::::::::::::::::::::::::::::::::::

           -------------------------------------------------
          |                Property Printout                |
           -------------------------------------------------

    * Orbital Energies and Occupations

         #    Occupation            Energy/Eh            Energy/eV
      -------------------------------------------------------------
         1        2.0000           -1.0448250             -28.4311
       ...           ...                  ...                  ...
       170        2.0000           -0.3775421             -10.2734
       171        2.0000           -0.3718061             -10.1174
       172        2.0000           -0.3670768              -9.9887
       173        2.0000           -0.3642491              -9.9117
       174        2.0000           -0.3596791              -9.7874
       175        2.0000           -0.3589353              -9.7671
       176        2.0000           -0.3525412              -9.5931
       177        2.0000           -0.3445239              -9.3750
       178        2.0000           -0.3364196              -9.1544
       179        2.0000           -0.3268220              -8.8933
       180        2.0000           -0.3236893              -8.8080
       181        1.9997           -0.3116863              -8.4814
       182        1.6740           -0.3047245              -8.2920 (HOMO)
       183        0.1828           -0.3009879              -8.1903 (LUMO)
       184        0.1426           -0.3007316              -8.1833
       185        0.0005           -0.2952366              -8.0338
       186        0.0004           -0.2950691              -8.0292
       187        0.0000           -0.2886139              -7.8536
       188                         -0.2790651              -7.5937
       189                         -0.2726041              -7.4179
       190                         -0.2697414              -7.3400
       191                         -0.2682188              -7.2986
       192                         -0.2643628              -7.1937
       193                         -0.2609358              -7.1004
       ...                                ...                  ...
       388                         11.8100398             321.3675
      -------------------------------------------------------------
                  HL-Gap            0.0037366 Eh            0.1017 eV
             Fermi-level           -0.3031701 Eh           -8.2497 eV

     #   Z          covCN         q      C6AA      α(0)
     1   6 C        3.746    -0.230    25.177     7.157
     2  16 S        3.688     1.034   105.683    17.302
     3   8 O        0.860    -0.552    24.968     6.699
     4   8 O        0.860    -0.573    25.457     6.765
     5   6 C        3.797    -0.170    23.809     6.948
     6   6 C        3.764    -0.022    21.014     6.534
     7   7 N        2.676    -0.249    26.472     7.641
     8   6 C        3.739    -0.037    21.323     6.589
     9   6 C        3.036     0.103    25.681     8.312
    10   6 C        2.983    -0.067    29.673     8.936
    11   6 C        2.998    -0.091    30.274     9.026
    12   6 C        3.089     0.109    25.499     8.277
    13   6 C        2.949    -0.057    29.406     8.894
    14   6 C        3.189    -0.078    29.439     8.851
    15   6 C        3.680    -0.128    23.202     6.899
    16   6 C        3.489     0.084    20.856     6.804
    17   7 N        2.711    -0.184    24.992     7.425
    18   6 C        2.904     0.087    26.064     8.371
    19   6 C        2.919    -0.065    29.617     8.924
    20   6 C        2.919    -0.050    29.231     8.866
    21   6 C        2.917     0.121    25.335     8.254
    22   8 O        1.702    -0.285    18.741     5.845
    23   6 C        3.719     0.062    19.645     6.331
    24   6 C        2.988    -0.004    28.104     8.696
    25   6 C        2.925    -0.032    28.805     8.802
    26   6 C        2.920    -0.031    28.784     8.798
    27   6 C        2.918    -0.049    29.223     8.865
    28   6 C        2.821     0.164    24.460     8.104
    29   9 F        0.787    -0.205    11.291     3.969
    30   6 C        2.882     0.069    26.450     8.431
    31  17 Cl       0.950    -0.138   103.446    15.560
    32   6 C        2.886     0.075    26.331     8.413
    33  17 Cl       0.975    -0.146   103.708    15.580
    34   6 C        2.967    -0.075    29.865     8.964
    35   7 N        1.841    -0.254    27.458     7.766
    36   6 C        2.920     0.090    25.991     8.360
    37   7 N        2.576    -0.307    27.933     7.849
    38   6 C        3.424    -0.013    23.869     7.471
    39   8 O        1.812    -0.175    16.920     5.555
    40   1 H        0.926     0.100     1.783     2.088
    41   1 H        0.926     0.092     1.861     2.133
    42   1 H        0.926     0.096     1.824     2.112
    43   1 H        0.925     0.088     1.898     2.154
    44   1 H        0.925     0.099     1.792     2.093
    45   1 H        0.923     0.090     1.876     2.142
    46   1 H        0.923     0.078     1.998     2.211
    47   1 H        0.859     0.177     1.232     1.739
    48   1 H        0.924     0.116     1.643     2.005
    49   1 H        0.923     0.081     1.966     2.193
    50   1 H        0.926     0.086     1.917     2.165
    51   1 H        0.926     0.070     2.091     2.261
    52   1 H        0.925     0.071     2.073     2.252
    53   1 H        0.923     0.094     1.845     2.124
    54   1 H        0.860     0.193     1.143     1.675
    55   1 H        0.925     0.095     1.832     2.116
    56   1 H        0.924     0.073     2.057     2.243
    57   1 H        0.924     0.050     2.325     2.385
    58   1 H        0.924     0.074     2.039     2.233
    59   1 H        0.926     0.071     2.072     2.251
    60   1 H        0.926     0.064     2.155     2.296
    61   1 H        0.926     0.076     2.022     2.224
    62   1 H        0.926     0.069     2.092     2.262
    63   1 H        0.924     0.064     2.149     2.292
    64   1 H        0.923     0.059     2.206     2.323
    65  22 Ti       3.262     1.032   102.829    24.761
    66  22 Ti       7.135     1.563    83.947    14.875
    67  22 Ti       3.485     1.016   102.886    24.745
    68  22 Ti       4.874     1.276    86.675    15.115
    69  22 Ti       5.391     1.201    87.412    15.179
    70  22 Ti       5.686     1.388    85.593    15.021
    71  22 Ti       2.058     0.934   203.964    34.967
    72  22 Ti       6.513     1.619    83.433    14.830
    73  22 Ti       3.628     1.017   102.266    24.560
    74  22 Ti       5.920     1.155    87.869    15.219
    75  22 Ti       5.502     1.235    87.077    15.150
    76  22 Ti       3.780     1.022    99.061    23.526
    77   6 C        2.009    -0.225    37.662     9.911
    78   6 C        1.852    -0.241    38.345    10.003
    79   6 C        2.706    -0.038    28.911     8.801
    80   6 C        1.919    -0.230    37.925     9.945
    81   6 C        2.035    -0.239    38.078     9.966
    82   6 C        2.642    -0.463    42.130    10.618
    83   6 C        1.911    -0.333    41.544    10.409
    84   8 O        1.453    -0.832    31.695     7.587
    85   8 O        1.499    -0.888    33.394     7.793
    86   8 O        1.605    -0.901    33.675     7.832
    87   8 O        1.567    -1.029    38.263     8.346
    88   8 O        1.479    -0.912    34.230     7.888
    89   8 O        1.458    -0.894    33.654     7.819
    90   8 O        1.453    -0.857    32.471     7.680
    91   8 O        1.511    -0.946    35.318     8.015
    92   8 O        1.525    -0.913    34.178     7.886
    93   8 O        1.476    -0.847    32.130     7.642
    94   8 O        1.836    -0.973    36.073     8.111
    95   8 O        1.468    -1.040    38.822     8.399
    96   8 O        1.453    -0.790    30.442     7.436
    97   8 O        1.537    -0.823    31.278     7.544

 Mol. C6AA /au·bohr⁶  :     233763.434530
 Mol. C8AA /au·bohr⁸  :    9647845.532314
 Mol. α(0) /au        :        798.384110


Wiberg/Mayer (AO) data.
largest (>0.10) Wiberg bond orders for each atom

 ---------------------------------------------------------------------------
     #   Z sym  total        # sym  WBO       # sym  WBO       # sym  WBO
 ---------------------------------------------------------------------------
     1   6 C    3.974 --    41 H    0.981    42 H    0.977    40 H    0.971
                             2 S    0.776
     2  16 S    4.840 --     3 O    1.647     4 O    1.607     1 C    0.776
                             5 C    0.761
     3   8 O    1.938 --     2 S    1.647     4 O    0.111
     4   8 O    1.922 --     2 S    1.607     3 O    0.111
     5   6 C    3.980 --     6 C    1.011    43 H    0.967    44 H    0.962
                             2 S    0.761
     6   6 C    3.974 --     5 C    1.011     7 N    1.009    46 H    0.942
                            45 H    0.897
     7   7 N    3.077 --     6 C    1.009     8 C    0.999    47 H    0.885
     8   6 C    3.971 --     7 N    0.999     9 C    0.993    49 H    0.950
                            48 H    0.944
     9   6 C    3.876 --    10 C    1.554    39 O    1.050     8 C    0.993
                            12 C    0.124
    10   6 C    3.978 --     9 C    1.554    11 C    1.248    50 H    0.932
    11   6 C    3.958 --    12 C    1.500    10 C    1.248    51 H    0.936
    12   6 C    3.894 --    11 C    1.500    13 C    1.056    39 O    1.049
                             9 C    0.124
    13   6 C    3.954 --    38 C    1.292    14 C    1.266    12 C    1.056
    14   6 C    3.956 --    15 C    1.281    13 C    1.266    52 H    0.937
                            69 Ti   0.116
    15   6 C    3.962 --    14 C    1.281    16 C    1.126    53 H    0.894
                            69 Ti   0.344
    16   6 C    3.941 --    35 N    1.286    15 C    1.126    17 N    0.953
                            69 Ti   0.228
    17   7 N    3.361 --    18 C    1.134    16 C    0.953    54 H    0.918
    18   6 C    3.971 --    34 C    1.340    19 C    1.320    17 N    1.134
    19   6 C    3.982 --    20 C    1.464    18 C    1.320    55 H    0.870
    20   6 C    3.981 --    19 C    1.464    21 C    1.377    56 H    0.912
    21   6 C    3.941 --    20 C    1.377    32 C    1.342    22 O    1.012
    22   8 O    2.115 --    21 C    1.012    23 C    0.948
    23   6 C    3.945 --    24 C    0.997    58 H    0.964    57 H    0.963
                            22 O    0.948
    24   6 C    3.984 --    25 C    1.411    30 C    1.377    23 C    0.997
                            27 C    0.105
    25   6 C    3.988 --    26 C    1.443    24 C    1.411    59 H    0.965
    26   6 C    3.989 --    25 C    1.443    27 C    1.430    60 H    0.968
    27   6 C    3.986 --    26 C    1.430    28 C    1.402    61 H    0.964
                            24 C    0.105
    28   6 C    3.893 --    27 C    1.402    30 C    1.352    29 F    0.973
    29   9 F    1.110 --    28 C    0.973
    30   6 C    3.921 --    24 C    1.377    28 C    1.352    31 Cl   0.992
    31  17 Cl   1.158 --    30 C    0.992
    32   6 C    3.923 --    34 C    1.426    21 C    1.342    33 Cl   0.987
    33  17 Cl   1.128 --    32 C    0.987
    34   6 C    3.975 --    32 C    1.426    18 C    1.340    62 H    0.962
    35   7 N    3.110 --    36 C    1.425    16 C    1.286
    36   6 C    3.950 --    35 N    1.425    37 N    1.202    63 H    0.909
    37   7 N    3.215 --    38 C    1.215    36 C    1.202    66 Ti   0.424
    38   6 C    3.938 --    13 C    1.292    37 N    1.215    64 H    0.868
                            66 Ti   0.129
    39   8 O    2.508 --     9 C    1.050    12 C    1.049    70 Ti   0.161
    40   1 H    0.990 --     1 C    0.971
    41   1 H    0.992 --     1 C    0.981
    42   1 H    0.991 --     1 C    0.977
    43   1 H    0.991 --     5 C    0.967
    44   1 H    0.990 --     5 C    0.962
    45   1 H    0.991 --     6 C    0.897
    46   1 H    0.993 --     6 C    0.942
    47   1 H    0.968 --     7 N    0.885
    48   1 H    0.985 --     8 C    0.944
    49   1 H    0.992 --     8 C    0.950
    50   1 H    0.991 --    10 C    0.932
    51   1 H    0.994 --    11 C    0.936
    52   1 H    0.994 --    14 C    0.937
    53   1 H    0.990 --    15 C    0.894
    54   1 H    0.959 --    17 N    0.918
    55   1 H    0.990 --    19 C    0.870
    56   1 H    0.994 --    20 C    0.912
    57   1 H    0.996 --    23 C    0.963
    58   1 H    0.993 --    23 C    0.964
    59   1 H    0.995 --    25 C    0.965
    60   1 H    0.995 --    26 C    0.968
    61   1 H    0.994 --    27 C    0.964
    62   1 H    0.994 --    34 C    0.962
    63   1 H    0.994 --    36 C    0.909
    64   1 H    0.995 --    38 C    0.868
    65  22 Ti   2.997 --    85 O    0.896    84 O    0.799    71 Ti   0.335
                            68 Ti   0.333    66 Ti   0.151
    66  22 Ti   3.747 --    86 O    0.698    85 O    0.612    87 O    0.496
                            88 O    0.462    37 N    0.424    65 Ti   0.151
                            67 Ti   0.145    38 C    0.129
    67  22 Ti   2.932 --    93 O    0.776    86 O    0.766    71 Ti   0.378
                            73 Ti   0.284    66 Ti   0.145
    68  22 Ti   3.908 --    84 O    0.940    89 O    0.908    77 C    0.770
                            65 Ti   0.333    94 O    0.215    74 Ti   0.156
                            70 Ti   0.125    80 C    0.106
    69  22 Ti   4.151 --    88 O    0.955    81 C    0.742    90 O    0.737
                            15 C    0.344    16 C    0.228    70 Ti   0.121
                            14 C    0.116    75 Ti   0.107
    70  22 Ti   3.927 --    90 O    0.868    82 C    0.653    89 O    0.602
                            87 O    0.552    39 O    0.161    74 Ti   0.141
                            68 Ti   0.125    69 Ti   0.121
    71  22 Ti   2.232 --    91 O    0.677    67 Ti   0.378    65 Ti   0.335
                            73 Ti   0.219    86 O    0.158    85 O    0.137
                            72 Ti   0.130
    72  22 Ti   3.754 --    92 O    0.766    91 O    0.712    95 O    0.635
                            94 O    0.621    73 Ti   0.188    71 Ti   0.130
                            74 Ti   0.110
    73  22 Ti   2.810 --    93 O    0.847    92 O    0.706    67 Ti   0.284
                            71 Ti   0.219    76 Ti   0.217    72 Ti   0.188
                            97 O    0.145
    74  22 Ti   4.103 --    96 O    0.992    82 C    0.809    80 C    0.663
                            94 O    0.533    76 Ti   0.192    68 Ti   0.156
                            83 C    0.144    70 Ti   0.141    72 Ti   0.110
    75  22 Ti   3.948 --    97 O    0.814    83 C    0.785    78 C    0.703
                            95 O    0.532    76 Ti   0.214    81 C    0.115
                            79 C    0.111    69 Ti   0.107
    76  22 Ti   2.692 --    96 O    0.775    97 O    0.764    73 Ti   0.217
                            75 Ti   0.214    74 Ti   0.192    92 O    0.131
                            83 C    0.130
    77   6 C    3.833 --    80 C    2.756    68 Ti   0.770
    78   6 C    3.751 --    81 C    2.747    75 Ti   0.703
    79   6 C    3.960 --    83 C    2.040    82 C    1.513    75 Ti   0.111
    80   6 C    3.705 --    77 C    2.756    74 Ti   0.663    68 Ti   0.106
    81   6 C    3.835 --    78 C    2.747    69 Ti   0.742    75 Ti   0.115
    82   6 C    3.593 --    79 C    1.513    74 Ti   0.809    70 Ti   0.653
    83   6 C    3.461 --    79 C    2.040    75 Ti   0.785    74 Ti   0.144
                            76 Ti   0.130
    84   8 O    1.959 --    68 Ti   0.940    65 Ti   0.799
    85   8 O    1.882 --    65 Ti   0.896    66 Ti   0.612    71 Ti   0.137
    86   8 O    1.863 --    67 Ti   0.766    66 Ti   0.698    71 Ti   0.158
    87   8 O    1.676 --    70 Ti   0.552    66 Ti   0.496
    88   8 O    1.860 --    69 Ti   0.955    66 Ti   0.462
    89   8 O    1.875 --    68 Ti   0.908    70 Ti   0.602
    90   8 O    1.923 --    70 Ti   0.868    69 Ti   0.737
    91   8 O    1.790 --    72 Ti   0.712    71 Ti   0.677
    92   8 O    1.846 --    72 Ti   0.766    73 Ti   0.706    76 Ti   0.131
    93   8 O    1.943 --    73 Ti   0.847    67 Ti   0.776
    94   8 O    1.767 --    72 Ti   0.621    74 Ti   0.533    68 Ti   0.215
    95   8 O    1.670 --    72 Ti   0.635    75 Ti   0.532
    96   8 O    2.018 --    74 Ti   0.992    76 Ti   0.775
    97   8 O    1.971 --    75 Ti   0.814    76 Ti   0.764    73 Ti   0.145
 ---------------------------------------------------------------------------

Topologies differ in total number of bonds
Writing topology from bond orders to xtbtopo.mol

molecular dipole:
                 x           y           z       tot (Debye)
 q only:       -0.598      -4.401      -2.150
   full:       -2.350      -1.369      -1.993       8.570
molecular quadrupole (traceless):
                xx          xy          yy          xz          yz          zz
 q only:       -5.092       6.832      -9.747      -2.905      -3.558      14.839
  q+dip:        2.719      -1.722     -43.362     -26.285      19.155      40.643
   full:        3.899       1.772     -42.344     -24.273      18.774      38.445

           -------------------------------------------------
          |                Geometry Summary                 |
           -------------------------------------------------

      molecular mass/u    :     1473.9496460
   center of mass at/Å    :        0.2286464      -0.1793100       5.2582652
  moments of inertia/u·Å² :        0.1382465E+05   0.3328124E+05   0.3664435E+05
rotational constants/cm⁻¹ :        0.1219390E-02   0.5065205E-03   0.4600337E-03

 * 100 selected distances

     #   Z          #   Z                                           value/Å
     1   6 C        2  16 S                                       1.8166568
     2  16 S        3   8 O                                       1.4389559
     2  16 S        4   8 O                                       1.4418476
     2  16 S        5   6 C                                       1.8204623
     5   6 C        6   6 C                                       1.5216603
     6   6 C        7   7 N                                       1.4599065
     7   7 N        8   6 C                                       1.4616064
     8   6 C        9   6 C                                       1.4971519
     9   6 C       10   6 C                                       1.3659052
    10   6 C       11   6 C                                       1.4280245
    11   6 C       12   6 C                                       1.3779771
    13   6 C       14   6 C                                       1.4147989
    14   6 C       15   6 C                                       1.4110472
    15   6 C       16   6 C                                       1.4390836
    16   6 C       17   7 N                                       1.4526152
    17   7 N       18   6 C                                       1.3823290
    18   6 C       19   6 C                                       1.3999617
    19   6 C       20   6 C                                       1.3797433
    20   6 C       21   6 C                                       1.3913741
    21   6 C       22   8 O                                       1.3801658
    22   8 O       23   6 C                                       1.4279347
    24   6 C       25   6 C                                       1.3907509
    25   6 C       26   6 C                                       1.3822695
    26   6 C       27   6 C                                       1.3836339
    27   6 C       28   6 C                                       1.3816708
    24   6 C       30   6 C                                       1.3952494
    28   6 C       30   6 C                                       1.3921409
    30   6 C       31  17 Cl                                      1.7380494
    21   6 C       32   6 C                                       1.3952595
    32   6 C       33  17 Cl                                      1.7183530
    18   6 C       34   6 C                                       1.3979785
    32   6 C       34   6 C                                       1.3817458
    16   6 C       35   7 N                                       1.3274810
    35   7 N       36   6 C                                       1.3039937
    36   6 C       37   7 N                                       1.3555481
    13   6 C       38   6 C                                       1.4057163
    37   7 N       38   6 C                                       1.3597113
     9   6 C       39   8 O                                       1.3658654
    12   6 C       39   8 O                                       1.3686174
     1   6 C       40   1 H                                       1.0808614
     1   6 C       41   1 H                                       1.0812626
     1   6 C       42   1 H                                       1.0819057
     5   6 C       43   1 H                                       1.0853336
     5   6 C       44   1 H                                       1.0859318
     6   6 C       45   1 H                                       1.1036047
     6   6 C       46   1 H                                       1.0987082
     7   7 N       47   1 H                                       1.0291646
     8   6 C       48   1 H                                       1.0920977
     8   6 C       49   1 H                                       1.0985046
    10   6 C       50   1 H                                       1.0793423
    11   6 C       51   1 H                                       1.0776788
    14   6 C       52   1 H                                       1.0878078
    15   6 C       53   1 H                                       1.1007168
    17   7 N       54   1 H                                       1.0160676 (min)
    19   6 C       55   1 H                                       1.0865531
    20   6 C       56   1 H                                       1.0937092
    23   6 C       57   1 H                                       1.0960301
    23   6 C       58   1 H                                       1.0913305
    25   6 C       59   1 H                                       1.0790556
    26   6 C       60   1 H                                       1.0786628
    27   6 C       61   1 H                                       1.0781304
    34   6 C       62   1 H                                       1.0790230
    36   6 C       63   1 H                                       1.0950767
    38   6 C       64   1 H                                       1.1047778
    37   7 N       66  22 Ti                                      2.1055215 (max)
    77   6 C       80   6 C                                       1.2373410
    69  22 Ti      81   6 C                                       2.0196092
    78   6 C       81   6 C                                       1.2374101
    70  22 Ti      82   6 C                                       2.0879929
    74  22 Ti      82   6 C                                       2.0168768
    79   6 C       82   6 C                                       1.3449737
    75  22 Ti      83   6 C                                       2.0292561
    79   6 C       83   6 C                                       1.2750457
    65  22 Ti      84   8 O                                       1.7483717
    68  22 Ti      84   8 O                                       1.6998756
    65  22 Ti      85   8 O                                       1.7053844
    66  22 Ti      85   8 O                                       1.8225458
    66  22 Ti      86   8 O                                       1.7845155
    67  22 Ti      86   8 O                                       1.7322931
    66  22 Ti      87   8 O                                       1.8279928
    70  22 Ti      87   8 O                                       1.7975149
    66  22 Ti      88   8 O                                       1.8442930
    69  22 Ti      88   8 O                                       1.6755716
    68  22 Ti      89   8 O                                       1.6845561
    70  22 Ti      89   8 O                                       1.7692055
    69  22 Ti      90   8 O                                       1.7566870
    70  22 Ti      90   8 O                                       1.7079017
    72  22 Ti      91   8 O                                       1.7065160
    72  22 Ti      92   8 O                                       1.7429617
    73  22 Ti      92   8 O                                       1.7941770
    67  22 Ti      93   8 O                                       1.7575207
    73  22 Ti      93   8 O                                       1.7786552
    72  22 Ti      94   8 O                                       1.7198734
    74  22 Ti      94   8 O                                       1.8060716
    72  22 Ti      95   8 O                                       1.6978922
    75  22 Ti      95   8 O                                       1.7715838
    74  22 Ti      96   8 O                                       1.7090450
    76  22 Ti      96   8 O                                       1.7581083
    75  22 Ti      97   8 O                                       1.7711609
    76  22 Ti      97   8 O                                       1.7721984

 * 11 distinct bonds (by element types)

   Z      Z             #   av. dist./Å        max./Å        min./Å
   1 H    6 C          23     1.0885263     1.1047778     1.0776788
   6 C    6 C          25     1.3851166     1.5216603     1.2373410
   1 H    7 N           2     1.0226161     1.0291646     1.0160676
   6 C    7 N           8     1.3878989     1.4616064     1.3039937
   6 C    8 O           4     1.3856458     1.4279347     1.3658654
   6 C   16 S           2     1.8185595     1.8204623     1.8166568
   8 O   16 S           2     1.4404018     1.4418476     1.4389559
   6 C   17 Cl          2     1.7282012     1.7380494     1.7183530
   6 C   22 Ti          4     2.0384337     2.0879929     2.0168768
   7 N   22 Ti          1     2.1055215     2.1055215     2.1055215
   8 O   22 Ti         27     1.7534249     1.8442930     1.6755716


optimized geometry written to: xtbopt.xyz


           -------------------------------------------------
          | TOTAL ENERGY             -207.880929328437 Eh   |
          | GRADIENT NORM               0.002465347367 Eh/α |
          | HOMO-LUMO GAP               0.101676975363 eV   |
           -------------------------------------------------

------------------------------------------------------------------------
 * finished run on 2026/09/02 at 16:47:33.410     
------------------------------------------------------------------------
 total:
 * wall-time:     0 d,  0 h,  4 min,  9.324 sec
 *  cpu-time:     0 d,  0 h, 13 min,  9.250 sec
 * ratio c/w:     3.166 speedup
 SCF:
 * wall-time:     0 d,  0 h,  0 min,  2.094 sec
 *  cpu-time:     0 d,  0 h,  0 min,  6.672 sec
 * ratio c/w:     3.186 speedup
 ANC optimizer:
 * wall-time:     0 d,  0 h,  4 min,  7.119 sec
 *  cpu-time:     0 d,  0 h, 13 min,  2.312 sec
 * ratio c/w:     3.166 speedup

