97
Drug@Ti3C2O2 complex
C      9.453326      3.937349      6.707355
S      8.808749      2.292394      6.511252
O      8.761785      2.004026      5.091048
O      9.553382      1.436423      7.415419
C      7.138575      2.407149      7.132802
C      6.222910      3.155330      6.174872
N      4.887172      3.301412      6.765322
C      3.926193      3.918250      5.842080
C      3.464398      2.981534      4.782241
C      3.801978      2.804503      3.461871
C      3.000225      1.736428      2.992995
C      2.192225      1.301953      4.041424
C      1.220384      0.260471      4.108394
C      0.739533     -0.354155      3.012195
C     -0.329447     -1.336374      3.011542
C     -0.347779     -2.495323      3.709720
N     -1.415431     -3.370524      3.583939
C     -2.759213     -3.108332      3.942163
C     -3.181739     -1.918775      4.550365
C     -4.528063     -1.710072      4.861930
C     -5.469058     -2.697449      4.578911
O     -6.774193     -2.425432      4.889998
C     -7.199063     -3.116641      6.071831
C     -7.359288     -2.125497      7.200259
C     -6.334241     -2.017726      8.161172
C     -6.423203     -1.099240      9.209662
C     -7.535945     -0.269983      9.310866
C     -8.550259     -0.361553      8.362345
F     -9.609262      0.453797      8.484410
C     -8.472896     -1.276191      7.307768
Cl     -9.767763     -1.327431      6.164172
C     -5.073024     -3.874887      3.940823
Cl     -6.211949     -5.096832      3.505655
C     -3.725078     -4.078852      3.632765
N      0.768363     -2.910059      4.391333
C      1.129506     -2.276736      5.462760
N      0.506600     -1.201530      6.036894
C      0.614609     -0.059381      5.435791
O      2.495019      2.093354      5.131834
H      9.361197      4.230401      7.754621
H      8.902508      4.621696      6.061309
H     10.506204      3.924071      6.416960
H      6.787932      1.378996      7.276869
H      7.192216      2.888872      8.114827
H      6.169687      2.598463      5.233339
H      6.631943      4.145778      5.948612
H      4.936091      3.873796      7.606788
H      4.342281      4.831262      5.399704
H      3.050746      4.231507      6.424133
H      4.543900      3.363000      2.908486
H      3.020019      1.318544      1.995675
H      1.092956     -0.089915      2.019129
H     -1.167933     -1.103968      2.358405
H     -1.123928     -4.281736      3.931796
H     -2.467485     -1.142538      4.811596
H     -4.838235     -0.779623      5.330338
H     -6.511993     -3.920996      6.371001
H     -8.152980     -3.611097      5.856271
H     -5.450214     -2.651030      8.091897
H     -5.622802     -1.030209      9.942917
H     -7.621417      0.450141     10.118796
H     -3.422583     -4.994196      3.129424
H      2.025020     -2.646600      5.991829
H      0.198832      0.819980      5.959219
Ti     -3.000000     -2.600000      1.250000
Ti      0.000000     -2.600000      1.250000
Ti      3.000000     -2.600000      1.250000
Ti     -1.500000      0.000000      1.250000
Ti      1.500000      0.000000      1.250000
Ti      0.000000      2.600000      1.250000
Ti     -3.000000     -2.600000     -1.250000
Ti      0.000000     -2.600000     -1.250000
Ti      3.000000     -2.600000     -1.250000
Ti     -1.500000      0.000000     -1.250000
Ti      1.500000      0.000000     -1.250000
Ti      0.000000      2.600000     -1.250000
C     -1.500000     -1.300000      0.000000
C      1.500000     -1.300000      0.000000
C      0.000000      1.300000      0.000000
C     -3.000000      0.000000      0.000000
C      3.000000      0.000000      0.000000
C     -1.500000      2.600000      0.000000
C      1.500000      2.600000      0.000000
O     -3.000000     -2.600000      2.450000
O      0.000000     -2.600000      2.450000
O      3.000000     -2.600000      2.450000
O     -1.500000      0.000000      2.450000
O      1.500000      0.000000      2.450000
O     -1.500000      2.600000      2.450000
O      1.500000      2.600000      2.450000
O     -3.000000     -2.600000     -2.450000
O      0.000000     -2.600000     -2.450000
O      3.000000     -2.600000     -2.450000
O     -1.500000      0.000000     -2.450000
O      1.500000      0.000000     -2.450000
O     -1.500000      2.600000     -2.450000
O      1.500000      2.600000     -2.450000
