97
Drug@Ti12C7O14 clean complex
C    -10.148429      1.653825     10.105541
S    -10.025427      1.924477      8.352937
O    -10.340653      3.321204      8.110354
O    -10.779982      0.882323      7.681368
C     -8.301465      1.706174      7.961080
C     -7.777751      0.315409      8.286903
N     -7.307715      0.240885      9.676589
C     -6.923126     -1.127951     10.057678
C     -5.662455     -1.573560      9.403743
C     -5.334220     -2.655781      8.624230
C     -3.961648     -2.509610      8.312237
C     -3.498081     -1.340588      8.911240
C     -2.192881     -0.766383      8.895002
C     -1.904673      0.328763      9.621645
C     -0.635985      1.034748      9.582067
C      0.580011      0.506023      9.865438
N      1.689224      1.330164      9.723766
C      3.026193      1.137261     10.115359
C      3.440218      0.155312     11.023533
C      4.790902     -0.017347     11.346544
C      5.755902      0.782346     10.740746
O      7.074546      0.631378     11.079799
C      7.625750     -0.548663     10.474368
C      9.141261     -0.521137     10.502861
C      9.841370      0.665949     10.794717
C     11.238901      0.700417     10.802366
C     11.963594     -0.450019     10.509314
C     11.286854     -1.625827     10.204613
F     12.008672     -2.719672      9.915627
C      9.889194     -1.671750     10.193411
Cl      9.117143     -3.164404      9.780790
C      5.367226      1.777247      9.843931
Cl      6.530012      2.805186      9.087346
C      4.015489      1.944455      9.528215
N      0.651021     -0.782613     10.338266
C      0.414802     -1.776950      9.543164
N      0.042238     -1.718270      8.227038
C     -1.154411     -1.300982      7.966232
O     -4.570333     -0.779967      9.578865
H     -9.970299      0.600351     10.323498
H     -9.425767      2.293866     10.614480
H    -11.161155      1.922096     10.415246
H     -7.734796      2.498325      8.461531
H     -8.226997      1.879895      6.881230
H     -6.936059      0.106256      7.616072
H     -8.545659     -0.442738      8.098077
H     -6.470318      0.819921      9.785710
H     -7.740865     -1.827784      9.849597
H     -6.772229     -1.145187     11.143343
H     -5.998454     -3.453551      8.320901
H     -3.367338     -3.191451      7.717822
H     -2.660541      0.786121     10.256532
H     -0.719068      2.080735      9.298602
H      1.506040      2.216878      9.272970
H      2.712156     -0.476789     11.524072
H      5.073775     -0.768447     12.078522
H      7.270856     -1.415122     11.044633
H      7.304900     -0.629746      9.427120
H      9.299676      1.584594     11.019350
H     11.756849      1.628212     11.034672
H     13.048954     -0.439066     10.510096
H      3.733382      2.708937      8.809030
H      0.526790     -2.793016      9.959623
H     -1.475120     -1.335365      6.909914
Ti     -2.141866     -3.008818      2.119748
Ti      0.288991     -1.694759      1.432425
Ti      1.903098     -3.067749     -0.729322
Ti     -2.521502     -0.251928      1.303687
Ti      2.142050      0.499533      2.204434
Ti     -0.681448      0.189635      3.681230
Ti     -2.036770     -3.077740     -1.200512
Ti     -0.605340     -0.770900     -2.035132
Ti      1.945488     -1.587317     -3.412400
Ti     -1.878170      1.746573     -1.240030
Ti      2.412512      0.454231     -0.774247
Ti      0.817742      1.838452     -2.940004
C     -3.678414      1.281398      0.600737
C      4.128193      0.482847      0.387293
C      0.455479      2.267202      0.349695
C     -3.666709      2.118834     -0.313920
C      4.115962      0.632239      1.621354
C     -0.635167      2.741046     -0.118921
C      1.630072      1.780996      0.734224
O     -3.093456     -1.956907      1.037949
O     -0.487250     -2.605849      2.701203
O      0.314079     -2.888890      0.145001
O     -0.800785     -0.435934      0.971227
O      1.902865     -1.158331      1.469449
O     -2.322673     -0.113878      3.024800
O      1.013786      0.441598      3.568761
O     -1.772019     -4.587905     -1.652810
O      0.190605     -1.189189     -3.534030
O      2.831420     -2.170248     -1.918042
O     -2.054558     -0.224445     -1.337505
O      0.768511     -0.390574     -1.063664
O     -0.900039      1.649313     -2.818565
O      2.415313      1.357463     -2.264115
