      -----------------------------------------------------------      
     |                   =====================                   |     
     |                           x T B                           |     
     |                   =====================                   |     
     |                         S. Grimme                         |     
     |          Mulliken Center for Theoretical Chemistry        |     
     |                    University of Bonn                     |     
      -----------------------------------------------------------      

   * xtb version 6.7.1pre (5071a88) compiled by 'Marcel@Raven' on 2024-07-23

   xtb is free software: you can redistribute it and/or modify it under
   the terms of the GNU Lesser General Public License as published by
   the Free Software Foundation, either version 3 of the License, or
   (at your option) any later version.
   
   xtb is distributed in the hope that it will be useful,
   but WITHOUT ANY WARRANTY; without even the implied warranty of
   MERCHANTABILITY or FITNESS FOR A PARTICULAR PURPOSE.  See the
   GNU Lesser General Public License for more details.
   
   Cite this work as:
   * C. Bannwarth, E. Caldeweyher, S. Ehlert, A. Hansen, P. Pracht,
     J. Seibert, S. Spicher, S. Grimme, WIREs Comput. Mol. Sci., 2020, 11,
     e01493. DOI: 10.1002/wcms.1493
   
   for GFN2-xTB:
   * C. Bannwarth, S. Ehlert and S. Grimme., J. Chem. Theory Comput., 2019,
     15, 1652-1671. DOI: 10.1021/acs.jctc.8b01176
   for GFN1-xTB:
   * S. Grimme, C. Bannwarth, P. Shushkov, J. Chem. Theory Comput., 2017,
     13, 1989-2009. DOI: 10.1021/acs.jctc.7b00118
   for GFN0-xTB:
   * P. Pracht, E. Caldeweyher, S. Ehlert, S. Grimme, ChemRxiv, 2019, preprint.
     DOI: 10.26434/chemrxiv.8326202.v1
   for GFN-FF:
   * S. Spicher and S. Grimme, Angew. Chem. Int. Ed., 2020, 59, 15665-15673.
     DOI: 10.1002/anie.202004239
   
   for ALPB and GBSA implicit solvation:
   * S. Ehlert, M. Stahn, S. Spicher, S. Grimme, J. Chem. Theory Comput.,
     2021, 17, 4250-4261. DOI: 10.1021/acs.jctc.1c00471
   
   for ddCOSMO and CPCM-X implicit solvation:
   * M. Stahn, S. Ehlert, S. Grimme, J. Phys. Chem. A,
     2023, XX, XXXX-XXXX. DOI: 10.1021/acs.jpca.3c04382
   
   for DFT-D4:
   * E. Caldeweyher, C. Bannwarth and S. Grimme, J. Chem. Phys., 2017,
     147, 034112. DOI: 10.1063/1.4993215
   * E. Caldeweyher, S. Ehlert, A. Hansen, H. Neugebauer, S. Spicher,
     C. Bannwarth and S. Grimme, J. Chem. Phys., 2019, 150, 154122.
     DOI: 10.1063/1.5090222
   * E. Caldeweyher, J.-M. Mewes, S. Ehlert and S. Grimme, Phys. Chem. Chem. Phys.
     2020, 22, 8499-8512. DOI: 10.1039/D0CP00502A
   
   for sTDA-xTB:
   * S. Grimme and C. Bannwarth, J. Chem. Phys., 2016, 145, 054103.
     DOI: 10.1063/1.4959605
   
   in the mass-spec context:
   * V. Asgeirsson, C. Bauer and S. Grimme, Chem. Sci., 2017, 8, 4879.
     DOI: 10.1039/c7sc00601b
   * J. Koopman and S. Grimme, ACS Omega 2019, 4, 12, 15120-15133.
     DOI: 10.1021/acsomega.9b02011
   
   for metadynamics refer to:
   * S. Grimme, J. Chem. Theory Comput., 2019, 155, 2847-2862
     DOI: 10.1021/acs.jctc.9b00143
   
   for SPH calculations refer to:
   * S. Spicher and S. Grimme, J. Chem. Theory Comput., 2021, 17, 1701-1714
     DOI: 10.1021/acs.jctc.0c01306
   
   for ONIOM refer to:
   * C. Plett, A. Katbashev, S. Ehlert, S. Grimme, M. Bursch,
     Phys. Chem. Chem. Phys., 2023, 25, 17860-17868. DOI: 10.1039/D3CP02178E
   
   for DIPRO refer to:
   * J. Kohn, N. Gildemeister, S. Grimme, D. Fazzi, A. Hansen,
     J. Chem. Phys., 2023, just accepted.
   
   for PTB refer to:
   * S. Grimme, M. Mueller, A. Hansen, J. Chem. Phys., 2023, 158, 124111.
     DOI: 10.1063/5.0137838
   
   with help from (in alphabetical order)
   P. Atkinson, C. Bannwarth, F. Bohle, G. Brandenburg, E. Caldeweyher
   M. Checinski, S. Dohm, S. Ehlert, S. Ehrlich, I. Gerasimov, C. Hölzer
   A. Katbashev, J. Kohn, J. Koopman, C. Lavigne, S. Lehtola, F. März, M. Müller,
   F. Musil, H. Neugebauer, J. Pisarek, C. Plett, P. Pracht, F. Pultar,
   J. Seibert, P. Shushkov, S. Spicher, M. Stahn, M. Steiner, T. Strunk,
   J. Stückrath, T. Rose, and J. Unsleber
   
 * started run on 2026/09/02 at 20:12:37.346     
   ID    Z sym.   atoms
    1   22 Ti     1-12
    2    6 C      13-19
    3    8 O      20-33

           -------------------------------------------------
          |                Calculation Setup                |
           -------------------------------------------------

          program call               : "c:\Users\Andre\Proyectos doctorado\nano-qsar-ai-papers\kras-pancreatic-gC3N4-ai\tools\xtb\xtb-6.7.1\bin\xtb.exe" "c:\Users\Andre\Proyectos doctorado\nano-qsar-ai-papers\mxene-glioblastoma-qsar-ai\calculations\gbm\Lapatinib\Lapatinib_mxene_frozen_from_opt.xyz" --gfn 2 --chrg 0 --uhf 0 --norestart
          coordinate file            : c:\Users\Andre\Proyectos doctorado\nano-qsar-ai-papers\mxene-glioblastoma-qsar-ai\calculations\gbm\Lapatinib\Lapatinib_mxene_frozen_from_opt.xyz
          omp threads                :                     4


molecular fragmentation (1/2 indicates fragments):
111111111111111111221222221122212
# atoms in fragment 1/2:    22    11
 fragment masses (1/2) :      710.46      172.00
CMA distance (Bohr)    :   1.022
constraining FC (au)   :  0.0500

           -------------------------------------------------
          |                 G F N 2 - x T B                 |
           -------------------------------------------------

        Reference                      10.1021/acs.jctc.8b01176
      * Hamiltonian:
        H0-scaling (s, p, d)           1.850000    2.230000    2.230000
        zeta-weighting                 0.500000
      * Dispersion:
        s8                             2.700000
        a1                             0.520000
        a2                             5.000000
        s9                             5.000000
      * Repulsion:
        kExp                           1.500000    1.000000
        rExp                           1.000000
      * Coulomb:
        alpha                          2.000000
        third order                    shell-resolved
        anisotropic                    true
        a3                             3.000000
        a5                             4.000000
        cn-shift                       1.200000
        cn-exp                         4.000000
        max-rad                        5.000000


          ...................................................
          :                      SETUP                      :
          :.................................................:
          :  # basis functions                 204          :
          :  # atomic orbitals                 192          :
          :  # shells                           78          :
          :  # electrons                       160          :
          :  max. iterations                   250          :
          :  Hamiltonian                  GFN2-xTB          :
          :  restarted?                      false          :
          :  GBSA solvation                  false          :
          :  PC potential                    false          :
          :  electronic temp.          300.0000000     K    :
          :  accuracy                    1.0000000          :
          :  -> integral cutoff          0.2500000E+02      :
          :  -> integral neglect         0.1000000E-07      :
          :  -> SCF convergence          0.1000000E-05 Eh   :
          :  -> wf. convergence          0.1000000E-03 e    :
          :  Broyden damping             0.4000000          :
          :  net charge                          0          :
          :  unpaired electrons                  0          :
          ...................................................

 iter      E             dE          RMSdq      gap      omega  full diag
   1    -91.0214414 -0.910214E+02  0.191E+01    0.01       0.0  T
   2    -83.2797646  0.774168E+01  0.147E+01    0.06       1.0  T
   3    -45.9341178  0.373456E+02  0.278E+01    0.03       1.0  T
   4    -90.7460654 -0.448119E+02  0.113E+01    0.19       1.0  T
   5    -92.4887755 -0.174271E+01  0.707E+00    0.34       1.0  T
   6    -92.5466536 -0.578781E-01  0.553E+00    0.24       1.0  T
   7    -92.4456390  0.101015E+00  0.486E+00    0.10       1.0  T
   8    -91.4988678  0.946771E+00  0.612E+00    0.08       1.0  T
   9    -92.4387533 -0.939885E+00  0.292E+00    0.14       1.0  T
  10    -92.5323993 -0.936460E-01  0.246E+00    0.16       1.0  T
  11    -92.6129954 -0.805961E-01  0.196E+00    0.30       1.0  T
  12    -92.6498036 -0.368082E-01  0.209E+00    0.46       1.0  T
  13    -92.6574150 -0.761141E-02  0.200E+00    0.54       1.0  T
  14    -92.6732493 -0.158343E-01  0.153E+00    0.59       1.0  T
  15    -92.6859464 -0.126971E-01  0.120E+00    0.61       1.0  T
  16    -92.6913036 -0.535724E-02  0.849E-01    0.59       1.0  T
  17    -92.6960484 -0.474475E-02  0.808E-01    0.52       1.0  T
  18    -92.7006001 -0.455173E-02  0.702E-01    0.43       1.0  T
  19    -92.7028946 -0.229447E-02  0.594E-01    0.35       1.0  T
  20    -92.7061159 -0.322132E-02  0.513E-01    0.25       1.0  T
  21    -92.7074426 -0.132668E-02  0.427E-01    0.23       1.0  T
  22    -92.7051612  0.228137E-02  0.772E-01    0.12       1.0  T
  23    -92.7041861  0.975115E-03  0.842E-01    0.12       1.0  T
  24    -92.7081258 -0.393971E-02  0.445E-01    0.14       1.0  T
  25    -92.7096867 -0.156086E-02  0.140E-01    0.18       1.0  T
  26    -92.7094554  0.231291E-03  0.156E-01    0.20       1.0  T
  27    -92.7087551  0.700215E-03  0.265E-01    0.23       1.0  T
  28    -92.7091265 -0.371382E-03  0.232E-01    0.21       1.0  T
  29    -92.7096232 -0.496629E-03  0.130E-01    0.19       1.0  T
  30    -92.7098344 -0.211251E-03  0.172E-02    0.17       1.0  T
  31    -92.7098357 -0.132828E-05  0.159E-02    0.17       1.1  T
  32    -92.7098363 -0.514180E-06  0.106E-02    0.17       1.6  T
  33    -92.7098372 -0.943872E-06  0.596E-03    0.17       2.9  T
  34    -92.7098375 -0.327990E-06  0.387E-03    0.17       4.5  T
  35    -92.7098375  0.534824E-07  0.348E-03    0.17       5.0  T
  36    -92.7098375 -0.555554E-07  0.320E-03    0.17       5.4  T
  37    -92.7098376 -0.765527E-07  0.212E-03    0.17       8.2  T
  38    -92.7098376 -0.458495E-07  0.501E-04    0.17      34.7  T
  39    -92.7098376  0.859309E-08  0.999E-04    0.17      17.4  T

   *** convergence criteria satisfied after 39 iterations ***

         #    Occupation            Energy/Eh            Energy/eV
      -------------------------------------------------------------
         1        2.0000           -0.8072618             -21.9667
       ...           ...                  ...                  ...
        74        2.0000           -0.3511390              -9.5550
        75        2.0000           -0.3461321              -9.4187
        76        2.0000           -0.3386913              -9.2163
        77        2.0000           -0.3304242              -8.9913
        78        2.0000           -0.3274405              -8.9101
        79        2.0000           -0.3051727              -8.3042
        80        1.9107           -0.2924647              -7.9584 (HOMO)
        81        0.0509           -0.2860915              -7.7849 (LUMO)
        82        0.0384           -0.2858162              -7.7775
        83                         -0.2721550              -7.4057
        84                         -0.2688068              -7.3146
        85                         -0.2678433              -7.2884
       ...                                ...                  ...
       192                         15.1936730             413.4409
      -------------------------------------------------------------
                  HL-Gap            0.0063732 Eh            0.1734 eV
             Fermi-level           -0.2895543 Eh           -7.8792 eV

 SCC (total)                   0 d,  0 h,  0 min,  0.340 sec
 SCC setup                      ...        0 min,  0.001 sec (  0.294%)
 Dispersion                     ...        0 min,  0.000 sec (  0.000%)
 classical contributions        ...        0 min,  0.000 sec (  0.000%)
 integral evaluation            ...        0 min,  0.008 sec (  2.353%)
 iterations                     ...        0 min,  0.312 sec ( 91.765%)
 molecular gradient             ...        0 min,  0.018 sec (  5.294%)
 printout                       ...        0 min,  0.001 sec (  0.294%)

         :::::::::::::::::::::::::::::::::::::::::::::::::::::
         ::                     SUMMARY                     ::
         :::::::::::::::::::::::::::::::::::::::::::::::::::::
         :: total energy             -92.008555327524 Eh    ::
         :: gradient norm              0.087719088496 Eh/a0 ::
         :: HOMO-LUMO gap              0.173422889245 eV    ::
         ::.................................................::
         :: SCC energy               -92.708101461089 Eh    ::
         :: -> isotropic ES            0.883202124095 Eh    ::
         :: -> anisotropic ES         -0.401456997553 Eh    ::
         :: -> anisotropic XC         -0.057984683577 Eh    ::
         :: -> dispersion             -0.090572805437 Eh    ::
         :: repulsion energy           0.699546133565 Eh    ::
         :: add. restraining           0.000000000000 Eh    ::
         :: total charge               0.000000000001 e     ::
         :::::::::::::::::::::::::::::::::::::::::::::::::::::

           -------------------------------------------------
          |                Property Printout                |
           -------------------------------------------------

    * Orbital Energies and Occupations

         #    Occupation            Energy/Eh            Energy/eV
      -------------------------------------------------------------
         1        2.0000           -0.8072618             -21.9667
       ...           ...                  ...                  ...
        68        2.0000           -0.3848514             -10.4723
        69        2.0000           -0.3821645             -10.3992
        70        2.0000           -0.3752717             -10.2117
        71        2.0000           -0.3674950             -10.0000
        72        2.0000           -0.3612263              -9.8295
        73        2.0000           -0.3525879              -9.5944
        74        2.0000           -0.3511390              -9.5550
        75        2.0000           -0.3461321              -9.4187
        76        2.0000           -0.3386913              -9.2163
        77        2.0000           -0.3304242              -8.9913
        78        2.0000           -0.3274405              -8.9101
        79        2.0000           -0.3051727              -8.3042
        80        1.9107           -0.2924647              -7.9584 (HOMO)
        81        0.0509           -0.2860915              -7.7849 (LUMO)
        82        0.0384           -0.2858162              -7.7775
        83                         -0.2721550              -7.4057
        84                         -0.2688068              -7.3146
        85                         -0.2678433              -7.2884
        86                         -0.2654511              -7.2233
        87                         -0.2652013              -7.2165
        88                         -0.2612651              -7.1094
        89                         -0.2576333              -7.0106
        90                         -0.2564758              -6.9791
        91                         -0.2560387              -6.9672
       ...                                ...                  ...
       192                         15.1936730             413.4409
      -------------------------------------------------------------
                  HL-Gap            0.0063732 Eh            0.1734 eV
             Fermi-level           -0.2895543 Eh           -7.8792 eV

     #   Z          covCN         q      C6AA      α(0)
     1  22 Ti       2.385     0.983   197.880    34.445
     2  22 Ti       7.056     1.556    84.009    14.881
     3  22 Ti       3.166     1.036   102.785    24.757
     4  22 Ti       5.594     1.205    87.371    15.176
     5  22 Ti       5.248     1.112    88.300    15.256
     6  22 Ti       4.390     1.101    88.388    15.304
     7  22 Ti       3.102     1.033   102.819    24.761
     8  22 Ti       6.599     1.523    84.317    14.908
     9  22 Ti       3.425     1.031   102.775    24.744
    10  22 Ti       5.819     1.146    87.958    15.227
    11  22 Ti       6.061     1.174    87.677    15.202
    12  22 Ti       3.578     1.013   102.633    24.664
    13   6 C        2.174    -0.258    38.245    10.002
    14   6 C        1.936    -0.254    38.730    10.050
    15   6 C        2.496    -0.015    28.563     8.729
    16   6 C        1.896    -0.228    37.855     9.937
    17   6 C        2.077    -0.236    37.904     9.946
    18   6 C        2.638    -0.435    41.070    10.484
    19   6 C        2.621    -0.391    39.443    10.272
    20   8 O        1.453    -0.750    29.292     7.294
    21   8 O        1.719    -0.879    32.915     7.746
    22   8 O        1.465    -0.923    34.612     7.930
    23   8 O        1.510    -0.987    36.759     8.177
    24   8 O        1.464    -0.910    34.188     7.881
    25   8 O        1.453    -0.770    29.840     7.362
    26   8 O        1.520    -0.837    31.744     7.599
    27   8 O        1.497    -0.919    34.411     7.910
    28   8 O        1.468    -0.872    32.909     7.733
    29   8 O        1.453    -0.796    30.609     7.456
    30   8 O        1.454    -0.908    34.146     7.875
    31   8 O        1.568    -0.988    36.751     8.180
    32   8 O        1.453    -0.769    29.819     7.360
    33   8 O        1.453    -0.790    30.423     7.434

 Mol. C6AA /au·bohr⁶  :      56298.884507
 Mol. C8AA /au·bohr⁸  :    3422035.497406
 Mol. α(0) /au        :        416.681795


Wiberg/Mayer (AO) data.
largest (>0.10) Wiberg bond orders for each atom

 ---------------------------------------------------------------------------
     #   Z sym  total        # sym  WBO       # sym  WBO       # sym  WBO
 ---------------------------------------------------------------------------
     1  22 Ti   2.517 --    20 O    1.167     7 Ti   0.311    21 O    0.241
                             2 Ti   0.210     4 Ti   0.134     6 Ti   0.129
     2  22 Ti   3.835 --    22 O    0.798    21 O    0.742    24 O    0.675
                            23 O    0.534     1 Ti   0.210     3 Ti   0.202
                             6 Ti   0.146     5 Ti   0.115
     3  22 Ti   2.645 --    29 O    0.902    22 O    0.636     9 Ti   0.274
                             2 Ti   0.202     7 Ti   0.180    27 O    0.100
     4  22 Ti   4.103 --    25 O    0.910    13 C    0.711    23 O    0.648
                            18 C    0.579    10 Ti   0.268     6 Ti   0.236
                             1 Ti   0.134    16 C    0.105
     5  22 Ti   3.987 --    19 C    0.721    24 O    0.705    17 C    0.682
                            26 O    0.620     6 Ti   0.367    11 Ti   0.264
                            18 C    0.147     2 Ti   0.115
     6  22 Ti   3.430 --    26 O    0.930    25 O    0.779    21 O    0.633
                             5 Ti   0.367     4 Ti   0.236     2 Ti   0.146
                             1 Ti   0.129
     7  22 Ti   2.650 --    20 O    0.786    27 O    0.745     1 Ti   0.311
                             8 Ti   0.223     3 Ti   0.180
     8  22 Ti   3.900 --    28 O    0.822    30 O    0.705    27 O    0.703
                            31 O    0.626     7 Ti   0.223     9 Ti   0.215
                            12 Ti   0.123    10 Ti   0.121
     9  22 Ti   2.693 --    29 O    0.918    28 O    0.722     3 Ti   0.274
                             8 Ti   0.215    11 Ti   0.199
    10  22 Ti   4.150 --    32 O    0.903    18 C    0.735    30 O    0.731
                            16 C    0.710     4 Ti   0.268    12 Ti   0.232
                            13 C    0.135     8 Ti   0.121    19 C    0.113
    11  22 Ti   4.143 --    33 O    0.960    14 C    0.709    19 C    0.593
                            31 O    0.540     5 Ti   0.264    12 Ti   0.223
                             9 Ti   0.199    17 C    0.128    18 C    0.110
    12  22 Ti   2.705 --    32 O    0.921    33 O    0.744    10 Ti   0.232
                            11 Ti   0.223    28 O    0.139     8 Ti   0.123
    13   6 C    3.802 --    16 C    2.733     4 Ti   0.711    10 Ti   0.135
    14   6 C    3.776 --    17 C    2.739    11 Ti   0.709
    15   6 C    3.968 --    18 C    1.758    19 C    1.756
    16   6 C    3.712 --    13 C    2.733    10 Ti   0.710     4 Ti   0.105
    17   6 C    3.766 --    14 C    2.739     5 Ti   0.682    11 Ti   0.128
    18   6 C    3.782 --    15 C    1.758    10 Ti   0.735     4 Ti   0.579
                             5 Ti   0.147    19 C    0.114    11 Ti   0.110
    19   6 C    3.721 --    15 C    1.756     5 Ti   0.721    11 Ti   0.593
                            18 C    0.114    10 Ti   0.113
    20   8 O    2.074 --     1 Ti   1.167     7 Ti   0.786
    21   8 O    1.882 --     2 Ti   0.742     6 Ti   0.633     1 Ti   0.241
    22   8 O    1.830 --     2 Ti   0.798     3 Ti   0.636
    23   8 O    1.756 --     4 Ti   0.648     2 Ti   0.534
    24   8 O    1.852 --     5 Ti   0.705     2 Ti   0.675
    25   8 O    2.027 --     4 Ti   0.910     6 Ti   0.779
    26   8 O    1.937 --     6 Ti   0.930     5 Ti   0.620
    27   8 O    1.839 --     7 Ti   0.745     8 Ti   0.703     3 Ti   0.100
    28   8 O    1.904 --     8 Ti   0.822     9 Ti   0.722    12 Ti   0.139
    29   8 O    2.008 --     9 Ti   0.918     3 Ti   0.902
    30   8 O    1.857 --    10 Ti   0.731     8 Ti   0.705
    31   8 O    1.751 --     8 Ti   0.626    11 Ti   0.540
    32   8 O    2.049 --    12 Ti   0.921    10 Ti   0.903
    33   8 O    2.024 --    11 Ti   0.960    12 Ti   0.744
 ---------------------------------------------------------------------------

Topologies differ in total number of bonds
Writing topology from bond orders to xtbtopo.mol

molecular dipole:
                 x           y           z       tot (Debye)
 q only:        0.273      -1.981       2.050
   full:       -0.133      -0.915       2.076       5.775
molecular quadrupole (traceless):
                xx          xy          yy          xz          yz          zz
 q only:      -49.906      22.825       6.633      -6.766     -21.242      43.273
  q+dip:      -20.653      26.211     -13.841      15.281     -16.608      34.493
   full:      -22.026      25.989      -9.789      13.437     -20.317      31.816


           -------------------------------------------------
          | TOTAL ENERGY              -92.008555327524 Eh   |
          | GRADIENT NORM               0.087719088496 Eh/α |
          | HOMO-LUMO GAP               0.173422889245 eV   |
           -------------------------------------------------

------------------------------------------------------------------------
 * finished run on 2026/09/02 at 20:12:37.724     
------------------------------------------------------------------------
 total:
 * wall-time:     0 d,  0 h,  0 min,  0.376 sec
 *  cpu-time:     0 d,  0 h,  0 min,  1.109 sec
 * ratio c/w:     2.950 speedup
 SCF:
 * wall-time:     0 d,  0 h,  0 min,  0.340 sec
 *  cpu-time:     0 d,  0 h,  0 min,  1.062 sec
 * ratio c/w:     3.125 speedup

