33
MXene frozen in true relaxed complex geometry
Ti          -2.49930316133880       -2.87387057358912        2.42791414123703
Ti           0.00233800683954       -1.55329284198974        2.04945015922314
Ti           1.93366834511173       -2.98236718866842        0.18395197278432
Ti          -2.76030473374935       -0.15218498956128        1.49865318129858
Ti           1.77148234630797        0.75317176074790        2.88792267938912
Ti          -1.13627932140010        0.60357461885409        3.93343184581828
Ti          -1.91564421343808       -3.10311260197323       -0.79401438645188
Ti          -0.40601853825160       -0.83255471536851       -1.57423417046386
Ti           2.30130158585112       -1.68762283054514       -2.57023971739073
Ti          -1.80068382517992        1.69048148966935       -1.09912999157315
Ti           2.41165988833795        0.48979090242906       -0.04700432623131
Ti           1.09105726932593        1.73467714256505       -2.46353836046323
C           -3.82031706733961        1.32051150463284        0.55391519169454
C            3.96495228994942        0.57725038124014        1.31930446795554
C            0.33621058015865        2.35403315941620        0.72066809077682
C           -3.68798728883273        2.08744497613511       -0.41154269017975
C            3.79995968408850        0.81082824615603        2.52929063165196
C           -0.71970048142099        2.76090541262492        0.12726841597045
C            1.47311000512796        1.92509761685920        1.25562640191776
O           -3.33976348318040       -1.86434083603737        1.24153017767434
O           -0.93751678907718       -2.43905038156850        3.20971409708850
O            0.25770571974672       -2.80887526571245        0.83004278964584
O           -1.02944463304365       -0.38905468142256        1.29795550093050
O            1.57613011568086       -0.93408191973599        2.27178522178698
O           -2.69646562857422        0.09147133629500        3.21835451353284
O            0.54247336798464        0.93992361958695        4.13482739174411
O           -1.53288728391460       -4.61342039905794       -1.15197073581004
O            0.57210011535517       -1.31233575464055       -2.93666648778892
O            2.99424588223366       -2.14561528516757       -0.94169173176872
O           -1.94322988103577       -0.24917594437489       -1.13990814836904
O            0.82890203959202       -0.36479574038836       -0.45995575135176
O           -0.63024701343015        1.57379572229358       -2.53068441843146
O            2.59957468203229        1.29872316394918       -1.57830040021293
