      -----------------------------------------------------------      
     |                   =====================                   |     
     |                           x T B                           |     
     |                   =====================                   |     
     |                         S. Grimme                         |     
     |          Mulliken Center for Theoretical Chemistry        |     
     |                    University of Bonn                     |     
      -----------------------------------------------------------      

   * xtb version 6.7.1pre (5071a88) compiled by 'Marcel@Raven' on 2024-07-23

   xtb is free software: you can redistribute it and/or modify it under
   the terms of the GNU Lesser General Public License as published by
   the Free Software Foundation, either version 3 of the License, or
   (at your option) any later version.
   
   xtb is distributed in the hope that it will be useful,
   but WITHOUT ANY WARRANTY; without even the implied warranty of
   MERCHANTABILITY or FITNESS FOR A PARTICULAR PURPOSE.  See the
   GNU Lesser General Public License for more details.
   
   Cite this work as:
   * C. Bannwarth, E. Caldeweyher, S. Ehlert, A. Hansen, P. Pracht,
     J. Seibert, S. Spicher, S. Grimme, WIREs Comput. Mol. Sci., 2020, 11,
     e01493. DOI: 10.1002/wcms.1493
   
   for GFN2-xTB:
   * C. Bannwarth, S. Ehlert and S. Grimme., J. Chem. Theory Comput., 2019,
     15, 1652-1671. DOI: 10.1021/acs.jctc.8b01176
   for GFN1-xTB:
   * S. Grimme, C. Bannwarth, P. Shushkov, J. Chem. Theory Comput., 2017,
     13, 1989-2009. DOI: 10.1021/acs.jctc.7b00118
   for GFN0-xTB:
   * P. Pracht, E. Caldeweyher, S. Ehlert, S. Grimme, ChemRxiv, 2019, preprint.
     DOI: 10.26434/chemrxiv.8326202.v1
   for GFN-FF:
   * S. Spicher and S. Grimme, Angew. Chem. Int. Ed., 2020, 59, 15665-15673.
     DOI: 10.1002/anie.202004239
   
   for ALPB and GBSA implicit solvation:
   * S. Ehlert, M. Stahn, S. Spicher, S. Grimme, J. Chem. Theory Comput.,
     2021, 17, 4250-4261. DOI: 10.1021/acs.jctc.1c00471
   
   for ddCOSMO and CPCM-X implicit solvation:
   * M. Stahn, S. Ehlert, S. Grimme, J. Phys. Chem. A,
     2023, XX, XXXX-XXXX. DOI: 10.1021/acs.jpca.3c04382
   
   for DFT-D4:
   * E. Caldeweyher, C. Bannwarth and S. Grimme, J. Chem. Phys., 2017,
     147, 034112. DOI: 10.1063/1.4993215
   * E. Caldeweyher, S. Ehlert, A. Hansen, H. Neugebauer, S. Spicher,
     C. Bannwarth and S. Grimme, J. Chem. Phys., 2019, 150, 154122.
     DOI: 10.1063/1.5090222
   * E. Caldeweyher, J.-M. Mewes, S. Ehlert and S. Grimme, Phys. Chem. Chem. Phys.
     2020, 22, 8499-8512. DOI: 10.1039/D0CP00502A
   
   for sTDA-xTB:
   * S. Grimme and C. Bannwarth, J. Chem. Phys., 2016, 145, 054103.
     DOI: 10.1063/1.4959605
   
   in the mass-spec context:
   * V. Asgeirsson, C. Bauer and S. Grimme, Chem. Sci., 2017, 8, 4879.
     DOI: 10.1039/c7sc00601b
   * J. Koopman and S. Grimme, ACS Omega 2019, 4, 12, 15120-15133.
     DOI: 10.1021/acsomega.9b02011
   
   for metadynamics refer to:
   * S. Grimme, J. Chem. Theory Comput., 2019, 155, 2847-2862
     DOI: 10.1021/acs.jctc.9b00143
   
   for SPH calculations refer to:
   * S. Spicher and S. Grimme, J. Chem. Theory Comput., 2021, 17, 1701-1714
     DOI: 10.1021/acs.jctc.0c01306
   
   for ONIOM refer to:
   * C. Plett, A. Katbashev, S. Ehlert, S. Grimme, M. Bursch,
     Phys. Chem. Chem. Phys., 2023, 25, 17860-17868. DOI: 10.1039/D3CP02178E
   
   for DIPRO refer to:
   * J. Kohn, N. Gildemeister, S. Grimme, D. Fazzi, A. Hansen,
     J. Chem. Phys., 2023, just accepted.
   
   for PTB refer to:
   * S. Grimme, M. Mueller, A. Hansen, J. Chem. Phys., 2023, 158, 124111.
     DOI: 10.1063/5.0137838
   
   with help from (in alphabetical order)
   P. Atkinson, C. Bannwarth, F. Bohle, G. Brandenburg, E. Caldeweyher
   M. Checinski, S. Dohm, S. Ehlert, S. Ehrlich, I. Gerasimov, C. Hölzer
   A. Katbashev, J. Kohn, J. Koopman, C. Lavigne, S. Lehtola, F. März, M. Müller,
   F. Musil, H. Neugebauer, J. Pisarek, C. Plett, P. Pracht, F. Pultar,
   J. Seibert, P. Shushkov, S. Spicher, M. Stahn, M. Steiner, T. Strunk,
   J. Stückrath, T. Rose, and J. Unsleber
   
 * started run on 2026/08/31 at 20:33:48.882     
   ID    Z sym.   atoms
    1    6 C      1, 5, 6, 8-16, 18-21, 23-28, 30, 32, 34, 36, 38, 77-83
    2   16 S      2
    3    8 O      3, 4, 22, 39, 84-97
    4    7 N      7, 17, 35, 37
    5    9 F      29
    6   17 Cl     31, 33
    7    1 H      40-64
    8   22 Ti     65-76

           -------------------------------------------------
          |                Calculation Setup                |
           -------------------------------------------------

          program call               : "c:\Users\Andre\Proyectos doctorado\kras-pancreatic-gC3N4-ai\tools\xtb\xtb-6.7.1\bin\xtb.exe" "c:\Users\Andre\Proyectos doctorado\mxene-glioblastoma-qsar-ai\calculations\gbm\Lapatinib\Lapatinib_Ti3C2O2_complex.xyz" --gfn 2 --sp --chrg 0 --uhf 0 --iterations 500 --norestart
          coordinate file            : c:\Users\Andre\Proyectos doctorado\mxene-glioblastoma-qsar-ai\calculations\gbm\Lapatinib\Lapatinib_Ti3C2O2_complex.xyz
          omp threads                :                    16


molecular fragmentation (1/2 indicates fragments):
111111111111111111111111111111111111111111111111111111111111111111111111
1111221221121221222222222
# atoms in fragment 1/2:    81    16
 fragment masses (1/2) :     1233.91      240.04
CMA distance (Bohr)    :   5.815
constraining FC (au)   :  0.0500

           -------------------------------------------------
          |                 G F N 2 - x T B                 |
           -------------------------------------------------

        Reference                      10.1021/acs.jctc.8b01176
      * Hamiltonian:
        H0-scaling (s, p, d)           1.850000    2.230000    2.230000
        zeta-weighting                 0.500000
      * Dispersion:
        s8                             2.700000
        a1                             0.520000
        a2                             5.000000
        s9                             5.000000
      * Repulsion:
        kExp                           1.500000    1.000000
        rExp                           1.000000
      * Coulomb:
        alpha                          2.000000
        third order                    shell-resolved
        anisotropic                    true
        a3                             3.000000
        a5                             4.000000
        cn-shift                       1.200000
        cn-exp                         4.000000
        max-rad                        5.000000


          ...................................................
          :                      SETUP                      :
          :.................................................:
          :  # basis functions                 403          :
          :  # atomic orbitals                 388          :
          :  # shells                          184          :
          :  # electrons                       364          :
          :  max. iterations                   500          :
          :  Hamiltonian                  GFN2-xTB          :
          :  restarted?                      false          :
          :  GBSA solvation                  false          :
          :  PC potential                    false          :
          :  electronic temp.          300.0000000     K    :
          :  accuracy                    1.0000000          :
          :  -> integral cutoff          0.2500000E+02      :
          :  -> integral neglect         0.1000000E-07      :
          :  -> SCF convergence          0.1000000E-05 Eh   :
          :  -> wf. convergence          0.1000000E-03 e    :
          :  Broyden damping             0.4000000          :
          :  net charge                          0          :
          :  unpaired electrons                  0          :
          ...................................................

 iter      E             dE          RMSdq      gap      omega  full diag
   1   -201.9671488 -0.201967E+03  0.133E+01    0.08       0.0  T
   2    -98.0706906  0.103896E+03  0.223E+01    0.16       1.0  T
   3    -70.1169457  0.279537E+02  0.229E+01    0.03       1.0  T
   4   -199.0847041 -0.128968E+03  0.127E+01    0.12       1.0  T
   5   -203.0026244 -0.391792E+01  0.117E+01    0.17       1.0  T
   6   -202.7918209  0.210803E+00  0.892E+00    0.22       1.0  T
   7   -203.8170085 -0.102519E+01  0.996E+00    0.10       1.0  T
   8   -199.0689887  0.474802E+01  0.109E+01    0.16       1.0  T
   9   -206.6848538 -0.761587E+01  0.890E+00    0.03       1.0  T
  10   -203.5474636  0.313739E+01  0.887E+00    0.10       1.0  T
  11   -204.2810063 -0.733543E+00  0.877E+00    0.07       1.0  T
  12   -204.1760831  0.104923E+00  0.882E+00    0.10       1.0  T
  13   -203.7010562  0.475027E+00  0.879E+00    0.06       1.0  T
  14   -201.4425965  0.225846E+01  0.872E+00    0.11       1.0  T
  15   -187.3979788  0.140446E+02  0.108E+01    0.14       1.0  T
  16   -198.4259659 -0.110280E+02  0.889E+00    0.26       1.0  T
  17   -201.5377287 -0.311176E+01  0.914E+00    0.07       1.0  T
  18   -205.1544289 -0.361670E+01  0.121E+01    0.08       1.0  T
  19   -207.6692655 -0.251484E+01  0.149E+01    0.10       1.0  T
  20   -205.9260563  0.174321E+01  0.120E+01    0.11       1.0  T
  21   -205.8966429  0.294134E-01  0.927E+00    0.09       1.0  T
  22   -206.8363702 -0.939727E+00  0.844E+00    0.13       1.0  T
  23   -208.5818762 -0.174551E+01  0.787E+00    0.15       1.0  T
  24   -208.8085152 -0.226639E+00  0.796E+00    0.06       1.0  T
  25   -208.7250030  0.835122E-01  0.798E+00    0.05       1.0  T
  26   -208.6334530  0.915500E-01  0.792E+00    0.05       1.0  T
  27   -208.0877419  0.545711E+00  0.760E+00    0.00       1.0  T
  28   -207.4312713  0.656471E+00  0.737E+00    0.03       1.0  T
  29   -207.4083126  0.229587E-01  0.740E+00    0.04       1.0  T
  30   -207.3465227  0.617899E-01  0.753E+00    0.03       1.0  T
  31   -207.3500568 -0.353408E-02  0.846E+00    0.03       1.0  T
  32   -207.3526671 -0.261036E-02  0.839E+00    0.03       1.0  T
  33   -207.2345380  0.118129E+00  0.832E+00    0.01       1.0  T
  34   -207.0827681  0.151770E+00  0.819E+00    0.01       1.0  T
  35   -208.7828038 -0.170004E+01  0.736E+00    0.09       1.0  T
  36   -208.6956983  0.871055E-01  0.736E+00    0.07       1.0  T
  37   -208.4866010  0.209097E+00  0.732E+00    0.05       1.0  T
  38   -210.2642539 -0.177765E+01  0.805E+00    0.09       1.0  T
  39   -212.1072782 -0.184302E+01  0.820E+00    0.24       1.0  T
  40   -212.4601130 -0.352835E+00  0.812E+00    0.21       1.0  T
  41   -213.7687151 -0.130860E+01  0.801E+00    0.17       1.0  T
  42   -213.7348705  0.338445E-01  0.767E+00    0.16       1.0  T
  43   -213.6951507  0.397199E-01  0.711E+00    0.02       1.0  T
  44   -214.4407556 -0.745605E+00  0.688E+00    0.04       1.0  T
  45   -213.8201040  0.620652E+00  0.702E+00    0.02       1.0  T
  46   -214.5758599 -0.755756E+00  0.667E+00    0.04       1.0  T
  47   -214.2050766  0.370783E+00  0.627E+00    0.06       1.0  T
  48   -214.0436394  0.161437E+00  0.625E+00    0.00       1.0  T
  49   -214.3896007 -0.345961E+00  0.592E+00    0.05       1.0  T
  50   -214.3084437  0.811570E-01  0.566E+00    0.03       1.0  T
  51   -214.2695281  0.389156E-01  0.609E+00    0.07       1.0  T
  52   -214.2706806 -0.115249E-02  0.573E+00    0.04       1.0  T
  53   -214.2561234  0.145572E-01  0.595E+00    0.10       1.0  T
  54   -214.5677534 -0.311630E+00  0.637E+00    0.17       1.0  T
  55   -217.7517076 -0.318395E+01  0.725E+00    0.04       1.0  T
  56   -217.6208480  0.130860E+00  0.720E+00    0.07       1.0  T
  57   -217.6831181 -0.622701E-01  0.722E+00    0.09       1.0  T
  58   -217.9375525 -0.254434E+00  0.710E+00    0.02       1.0  T
  59   -217.9324221  0.513044E-02  0.710E+00    0.02       1.0  T
  60   -217.8925136  0.399085E-01  0.708E+00    0.03       1.0  T
  61   -218.0179110 -0.125397E+00  0.713E+00    0.03       1.0  T
  62   -218.0301978 -0.122867E-01  0.713E+00    0.03       1.0  T
  63   -217.3673909  0.662807E+00  0.699E+00    0.02       1.0  T
  64   -217.1827648  0.184626E+00  0.693E+00    0.10       1.0  T
  65   -217.2788188 -0.960540E-01  0.694E+00    0.09       1.0  T
  66   -216.7054713  0.573348E+00  0.653E+00    0.00       1.0  T
  67   -215.5608371  0.114463E+01  0.596E+00    0.02       1.0  T
  68   -214.6867180  0.874119E+00  0.534E+00    0.02       1.0  T
  69   -214.7160371 -0.293192E-01  0.509E+00    0.04       1.0  T
  70   -214.3873601  0.328677E+00  0.593E+00    0.07       1.0  T
  71   -214.4054693 -0.181092E-01  0.741E+00    0.13       1.0  T
  72   -214.4888352 -0.833659E-01  0.864E+00    0.16       1.0  T
  73   -214.2887201  0.200115E+00  0.672E+00    0.10       1.0  T
  74   -214.3086462 -0.199262E-01  0.678E+00    0.11       1.0  T
  75   -214.2409371  0.677091E-01  0.592E+00    0.09       1.0  T
  76   -214.4019574 -0.161020E+00  0.692E+00    0.10       1.0  T
  77   -215.5311020 -0.112914E+01  0.494E+00    0.12       1.0  T
  78   -215.5387985 -0.769646E-02  0.484E+00    0.14       1.0  T
  79   -215.5510228 -0.122243E-01  0.480E+00    0.13       1.0  T
  80   -215.6086703 -0.576475E-01  0.427E+00    0.11       1.0  T
  81   -215.6723756 -0.637054E-01  0.409E+00    0.12       1.0  T
  82   -215.7770450 -0.104669E+00  0.386E+00    0.13       1.0  T
  83   -216.3158978 -0.538853E+00  0.447E+00    0.10       1.0  T
  84   -216.5398632 -0.223965E+00  0.480E+00    0.10       1.0  T
  85   -216.5605369 -0.206736E-01  0.473E+00    0.09       1.0  T
  86   -217.2879781 -0.727441E+00  0.525E+00    0.07       1.0  T
  87   -217.4360671 -0.148089E+00  0.531E+00    0.07       1.0  T
  88   -217.9255463 -0.489479E+00  0.557E+00    0.07       1.0  T
  89   -218.3995589 -0.474013E+00  0.571E+00    0.08       1.0  T
  90   -218.8720461 -0.472487E+00  0.585E+00    0.08       1.0  T
  91   -218.8758518 -0.380571E-02  0.585E+00    0.08       1.0  T
  92   -218.7232232  0.152629E+00  0.582E+00    0.08       1.0  T
  93   -218.5800514  0.143172E+00  0.578E+00    0.08       1.0  T
  94   -218.2218753  0.358176E+00  0.566E+00    0.08       1.0  T
  95   -217.8731589  0.348716E+00  0.546E+00    0.08       1.0  T
  96   -217.6411773  0.231982E+00  0.539E+00    0.08       1.0  T
  97   -216.5188269  0.112235E+01  0.462E+00    0.10       1.0  T
  98   -216.2976366  0.221190E+00  0.428E+00    0.15       1.0  T
  99   -215.9362219  0.361415E+00  0.396E+00    0.14       1.0  T
 100   -215.7909822  0.145240E+00  0.416E+00    0.10       1.0  T
 101   -215.6863220  0.104660E+00  0.465E+00    0.08       1.0  T
 102   -215.6458038  0.405182E-01  0.492E+00    0.07       1.0  T
 103   -215.6714415 -0.256377E-01  0.469E+00    0.07       1.0  T
 104   -215.8310650 -0.159623E+00  0.402E+00    0.11       1.0  T
 105   -215.6958382  0.135227E+00  0.398E+00    0.01       1.0  T
 106   -215.9781480 -0.282310E+00  0.393E+00    0.05       1.0  T
 107   -216.0341344 -0.559864E-01  0.449E+00    0.01       1.0  T
 108   -216.1671661 -0.133032E+00  0.440E+00    0.02       1.0  T
 109   -216.6926927 -0.525527E+00  0.531E+00    0.08       1.0  T
 110   -216.8786250 -0.185932E+00  0.534E+00    0.07       1.0  T
 111   -216.9453613 -0.667363E-01  0.536E+00    0.07       1.0  T
 112   -216.8662187  0.791426E-01  0.531E+00    0.06       1.0  T
 113   -216.1161944  0.750024E+00  0.447E+00    0.02       1.0  T
 114   -215.9168063  0.199388E+00  0.405E+00    0.01       1.0  T
 115   -215.7494403  0.167366E+00  0.404E+00    0.01       1.0  T
 116   -215.3248556  0.424585E+00  0.398E+00    0.05       1.0  T
 117   -215.1708680  0.153988E+00  0.446E+00    0.05       1.0  T
 118   -214.8700749  0.300793E+00  0.517E+00    0.04       1.0  T
 119   -214.8373907  0.326842E-01  0.534E+00    0.03       1.0  T
 120   -214.7934630  0.439277E-01  0.552E+00    0.02       1.0  T
 121   -214.8811616 -0.876985E-01  0.536E+00    0.03       1.0  T
 122   -214.9269700 -0.458085E-01  0.515E+00    0.04       1.0  T
 123   -215.0996605 -0.172691E+00  0.491E+00    0.04       1.0  T
 124   -215.2279786 -0.128318E+00  0.470E+00    0.03       1.0  T
 125   -215.5150599 -0.287081E+00  0.406E+00    0.00       1.0  T
 126   -215.7342953 -0.219235E+00  0.394E+00    0.03       1.0  T
 127   -216.1974982 -0.463203E+00  0.529E+00    0.08       1.0  T
 128   -217.1643072 -0.966809E+00  0.558E+00    0.06       1.0  T
 129   -217.4299307 -0.265624E+00  0.569E+00    0.06       1.0  T
 130   -216.1757791  0.125415E+01  0.475E+00    0.01       1.0  T
 131   -215.8543106  0.321469E+00  0.380E+00    0.05       1.0  T
 132   -215.4863064  0.368004E+00  0.421E+00    0.00       1.0  T
 133   -215.1987279  0.287578E+00  0.551E+00    0.02       1.0  T
 134   -214.8939933  0.304735E+00  0.734E+00    0.14       1.0  T
 135   -214.9599934 -0.660000E-01  0.790E+00    0.16       1.0  T
 136   -214.9480046  0.119888E-01  0.777E+00    0.15       1.0  T
 137   -214.9446984  0.330620E-02  0.772E+00    0.15       1.0  T
 138   -214.9499102 -0.521182E-02  0.765E+00    0.15       1.0  T
 139   -215.5203918 -0.570482E+00  0.592E+00    0.02       1.0  T
 140   -214.9998133  0.520579E+00  0.634E+00    0.06       1.0  T
 141   -215.7211163 -0.721303E+00  0.465E+00    0.09       1.0  T
 142   -215.5734230  0.147693E+00  0.472E+00    0.02       1.0  T
 143   -215.7044473 -0.131024E+00  0.419E+00    0.04       1.0  T
 144   -215.6942965  0.101508E-01  0.402E+00    0.03       1.0  T
 145   -215.8753569 -0.181060E+00  0.374E+00    0.06       1.0  T
 146   -215.9338619 -0.585050E-01  0.369E+00    0.06       1.0  T
 147   -216.0649634 -0.131101E+00  0.375E+00    0.07       1.0  T
 148   -216.0599857  0.497770E-02  0.375E+00    0.07       1.0  T
 149   -216.2113859 -0.151400E+00  0.435E+00    0.02       1.0  T
 150   -216.2509259 -0.395400E-01  0.490E+00    0.04       1.0  T
 151   -216.3430752 -0.921493E-01  0.511E+00    0.06       1.0  T
 152   -216.4967433 -0.153668E+00  0.525E+00    0.07       1.0  T
 153   -216.4351306  0.616126E-01  0.521E+00    0.07       1.0  T
 154   -216.2062342  0.228896E+00  0.475E+00    0.03       1.0  T
 155   -216.0288711  0.177363E+00  0.388E+00    0.05       1.0  T
 156   -215.5557955  0.473076E+00  0.392E+00    0.01       1.0  T
 157   -215.3184630  0.237333E+00  0.422E+00    0.04       1.0  T
 158   -215.2287314  0.897316E-01  0.437E+00    0.05       1.0  T
 159   -215.2366109 -0.787957E-02  0.436E+00    0.05       1.0  T
 160   -215.3312141 -0.946032E-01  0.417E+00    0.04       1.0  T
 161   -215.5414500 -0.210236E+00  0.388E+00    0.02       1.0  T
 162   -215.7742251 -0.232775E+00  0.447E+00    0.04       1.0  T
 163   -216.0398788 -0.265654E+00  0.515E+00    0.11       1.0  T
 164   -216.3808791 -0.341000E+00  0.538E+00    0.14       1.0  T
 165   -216.0718354  0.309044E+00  0.521E+00    0.13       1.0  T
 166   -215.7908809  0.280954E+00  0.469E+00    0.06       1.0  T
 167   -215.7788633  0.120176E-01  0.399E+00    0.01       1.0  T
 168   -215.6430314  0.135832E+00  0.383E+00    0.01       1.0  T
 169   -215.6210919  0.219395E-01  0.383E+00    0.01       1.0  T
 170   -215.5243124  0.967795E-01  0.391E+00    0.02       1.0  T
 171   -215.5293399 -0.502754E-02  0.390E+00    0.02       1.0  T
 172   -215.5627057 -0.333657E-01  0.387E+00    0.02       1.0  T
 173   -215.5991098 -0.364041E-01  0.385E+00    0.01       1.0  T
 174   -215.6231440 -0.240343E-01  0.383E+00    0.01       1.0  T
 175   -215.6351797 -0.120356E-01  0.383E+00    0.01       1.0  T
 176   -215.5921747  0.430050E-01  0.385E+00    0.01       1.0  T
 177   -215.5363561  0.558186E-01  0.390E+00    0.02       1.0  T
 178   -215.5513999 -0.150439E-01  0.389E+00    0.01       1.0  T
 179   -215.6160340 -0.646340E-01  0.384E+00    0.01       1.0  T
 180   -215.6376435 -0.216095E-01  0.385E+00    0.01       1.0  T
 181   -215.6500657 -0.124222E-01  0.388E+00    0.01       1.0  T
 182   -215.6904278 -0.403622E-01  0.395E+00    0.01       1.0  T
 183   -215.7217073 -0.312795E-01  0.408E+00    0.01       1.0  T
 184   -215.7552433 -0.335360E-01  0.424E+00    0.02       1.0  T
 185   -215.7819201 -0.266768E-01  0.436E+00    0.03       1.0  T
 186   -215.7978555 -0.159354E-01  0.451E+00    0.04       1.0  T
 187   -215.8203252 -0.224697E-01  0.466E+00    0.05       1.0  T
 188   -215.8496670 -0.293418E-01  0.481E+00    0.07       1.0  T
 189   -215.8823813 -0.327143E-01  0.493E+00    0.09       1.0  T
 190   -215.8958259 -0.134446E-01  0.497E+00    0.09       1.0  T
 191   -215.8650808  0.307450E-01  0.487E+00    0.08       1.0  T
 192   -215.8270242  0.380567E-01  0.461E+00    0.05       1.0  T
 193   -215.8036671  0.233571E-01  0.439E+00    0.03       1.0  T
 194   -215.7828227  0.208444E-01  0.436E+00    0.03       1.0  T
 195   -215.7779448  0.487789E-02  0.448E+00    0.04       1.0  T
 196   -215.7782136 -0.268754E-03  0.458E+00    0.05       1.0  T
 197   -215.7772607  0.952915E-03  0.471E+00    0.06       1.0  T
 198   -215.7675078  0.975287E-02  0.479E+00    0.07       1.0  T
 199   -215.7724480 -0.494019E-02  0.492E+00    0.08       1.0  T
 200   -215.7527344  0.197136E-01  0.491E+00    0.08       1.0  T
 201   -215.7733098 -0.205754E-01  0.509E+00    0.10       1.0  T
 202   -215.6672484  0.106061E+00  0.499E+00    0.08       1.0  T
 203   -215.6030734  0.641750E-01  0.487E+00    0.06       1.0  T
 204   -215.5562324  0.468410E-01  0.471E+00    0.04       1.0  T
 205   -215.4676426  0.885898E-01  0.450E+00    0.02       1.0  T
 206   -215.4145664  0.530763E-01  0.440E+00    0.02       1.0  T
 207   -215.3967506  0.178158E-01  0.439E+00    0.03       1.0  T
 208   -215.1298702  0.266880E+00  0.462E+00    0.04       1.0  T
 209   -215.0543261  0.755441E-01  0.474E+00    0.03       1.0  T
 210   -215.0462569  0.806923E-02  0.476E+00    0.04       1.0  T
 211   -215.2093191 -0.163062E+00  0.459E+00    0.03       1.0  T
 212   -215.3336373 -0.124318E+00  0.491E+00    0.04       1.0  T
 213   -215.5657336 -0.232096E+00  0.537E+00    0.12       1.0  T
 214   -215.7973355 -0.231602E+00  0.557E+00    0.15       1.0  T
 215   -215.7633133  0.340223E-01  0.555E+00    0.15       1.0  T
 216   -215.6784444  0.848689E-01  0.546E+00    0.14       1.0  T
 217   -215.6540149  0.244294E-01  0.530E+00    0.12       1.0  T
 218   -215.7018699 -0.478550E-01  0.432E+00    0.01       1.0  T
 219   -215.5264910  0.175379E+00  0.423E+00    0.01       1.0  T
 220   -215.4201731  0.106318E+00  0.447E+00    0.01       1.0  T
 221   -215.3109299  0.109243E+00  0.476E+00    0.02       1.0  T
 222   -215.1763934  0.134537E+00  0.514E+00    0.02       1.0  T
 223   -215.0678298  0.108564E+00  0.549E+00    0.02       1.0  T
 224   -215.0093440  0.584859E-01  0.569E+00    0.03       1.0  T
 225   -215.0008366  0.850739E-02  0.572E+00    0.03       1.0  T
 226   -215.0376929 -0.368564E-01  0.559E+00    0.02       1.0  T
 227   -215.1210322 -0.833393E-01  0.535E+00    0.02       1.0  T
 228   -215.2327857 -0.111753E+00  0.505E+00    0.02       1.0  T
 229   -215.3354691 -0.102683E+00  0.478E+00    0.01       1.0  T
 230   -215.3676502 -0.321812E-01  0.468E+00    0.01       1.0  T
 231   -215.3645724  0.307781E-02  0.467E+00    0.01       1.0  T
 232   -215.3650753 -0.502896E-03  0.467E+00    0.01       1.0  T
 233   -215.3646329  0.442430E-03  0.467E+00    0.01       1.0  T
 234   -215.3599352  0.469763E-02  0.467E+00    0.01       1.0  T
 235   -215.3558587  0.407655E-02  0.467E+00    0.01       1.0  T
 236   -215.5411624 -0.185304E+00  0.440E+00    0.00       1.0  T
 237   -215.5850834 -0.439210E-01  0.447E+00    0.01       1.0  T
 238   -215.6330810 -0.479976E-01  0.461E+00    0.02       1.0  T
 239   -215.6536256 -0.205446E-01  0.465E+00    0.03       1.0  T
 240   -215.6288849  0.247407E-01  0.464E+00    0.02       1.0  T
 241   -215.5122754  0.116610E+00  0.453E+00    0.01       1.0  T
 242   -215.1820893  0.330186E+00  0.492E+00    0.01       1.0  T
 243   -215.0095349  0.172554E+00  0.540E+00    0.02       1.0  T
 244   -214.8655468  0.143988E+00  0.591E+00    0.05       1.0  T
 245   -214.7989401  0.666067E-01  0.626E+00    0.07       1.0  T
 246   -214.7888476  0.100925E-01  0.633E+00    0.07       1.0  T
 247   -214.8138082 -0.249606E-01  0.619E+00    0.06       1.0  T
 248   -214.8659186 -0.521104E-01  0.604E+00    0.06       1.0  T
 249   -215.0747834 -0.208865E+00  0.555E+00    0.03       1.0  T
 250   -215.4029729 -0.328189E+00  0.485E+00    0.01       1.0  T
 251   -215.5349776 -0.132005E+00  0.480E+00    0.01       1.0  T
 252   -215.5768865 -0.419088E-01  0.489E+00    0.02       1.0  T
 253   -215.5551421  0.217444E-01  0.487E+00    0.02       1.0  T
 254   -215.4643818  0.907603E-01  0.486E+00    0.02       1.0  T
 255   -215.3522496  0.112132E+00  0.493E+00    0.02       1.0  T
 256   -215.3600189 -0.776926E-02  0.492E+00    0.02       1.0  T
 257   -215.4192306 -0.592117E-01  0.486E+00    0.02       1.0  T
 258   -215.5082065 -0.889759E-01  0.510E+00    0.05       1.0  T
 259   -215.5991733 -0.909668E-01  0.540E+00    0.08       1.0  T
 260   -215.6822930 -0.831197E-01  0.551E+00    0.10       1.0  T
 261   -215.6774290  0.486396E-02  0.550E+00    0.10       1.0  T
 262   -215.6093027  0.681264E-01  0.537E+00    0.08       1.0  T
 263   -215.5426744  0.666283E-01  0.503E+00    0.05       1.0  T
 264   -215.3854471  0.157227E+00  0.479E+00    0.02       1.0  T
 265   -215.1437294  0.241718E+00  0.505E+00    0.01       1.0  T
 266   -215.0779472  0.657822E-01  0.519E+00    0.02       1.0  T
 267   -215.1006248 -0.226776E-01  0.514E+00    0.02       1.0  T
 268   -215.1950249 -0.944001E-01  0.498E+00    0.02       1.0  T
 269   -215.3013256 -0.106301E+00  0.493E+00    0.03       1.0  T
 270   -215.4331824 -0.131857E+00  0.529E+00    0.09       1.0  T
 271   -215.6217391 -0.188557E+00  0.553E+00    0.13       1.0  T
 272   -215.7291677 -0.107429E+00  0.560E+00    0.14       1.0  T
 273   -215.7102047  0.189630E-01  0.559E+00    0.14       1.0  T
 274   -215.5926883  0.117516E+00  0.542E+00    0.11       1.0  T
 275   -215.5307114  0.619769E-01  0.492E+00    0.05       1.0  T
 276   -215.3111790  0.219532E+00  0.458E+00    0.02       1.0  T
 277   -214.9338954  0.377284E+00  0.541E+00    0.02       1.0  T
 278   -214.7357408  0.198155E+00  0.732E+00    0.14       1.0  T
 279   -215.2520257 -0.516285E+00  0.114E+01    0.09       1.0  T
 280   -215.1282930  0.123733E+00  0.123E+01    0.09       1.0  T
 281   -215.2351723 -0.106879E+00  0.117E+01    0.09       1.0  T
 282   -215.2819594 -0.467872E-01  0.107E+01    0.11       1.0  T
 283   -214.2056208  0.107634E+01  0.139E+01    0.05       1.0  T
 284   -214.1805204  0.251004E-01  0.139E+01    0.05       1.0  T
 285   -214.3426116 -0.162091E+00  0.138E+01    0.05       1.0  T
 286   -213.0351936  0.130742E+01  0.147E+01    0.01       1.0  T
 287   -213.1239505 -0.887569E-01  0.149E+01    0.02       1.0  T
 288   -212.7424305  0.381520E+00  0.151E+01    0.01       1.0  T
 289   -211.9384756  0.803955E+00  0.156E+01    0.03       1.0  T
 290   -212.2167355 -0.278260E+00  0.155E+01    0.02       1.0  T
 291   -212.5185394 -0.301804E+00  0.153E+01    0.01       1.0  T
 292   -212.4237781  0.947613E-01  0.154E+01    0.01       1.0  T
 293   -212.5236186 -0.998405E-01  0.153E+01    0.01       1.0  T
 294   -212.4526887  0.709299E-01  0.154E+01    0.01       1.0  T
 295   -212.4509603  0.172839E-02  0.154E+01    0.01       1.0  T
 296   -212.6979366 -0.246976E+00  0.152E+01    0.01       1.0  T
 297   -213.8247085 -0.112677E+01  0.145E+01    0.05       1.0  T
 298   -214.2019304 -0.377222E+00  0.141E+01    0.06       1.0  T
 299   -214.8295099 -0.627579E+00  0.130E+01    0.07       1.0  T
 300   -215.2262311 -0.396721E+00  0.117E+01    0.09       1.0  T
 301   -215.0042185  0.222013E+00  0.966E+00    0.16       1.0  T
 302   -214.3944197  0.609799E+00  0.129E+01    0.06       1.0  T
 303   -214.7054328 -0.311013E+00  0.125E+01    0.08       1.0  T
 304   -213.9352093  0.770223E+00  0.135E+01    0.04       1.0  T
 305   -213.1672107  0.767999E+00  0.142E+01    0.01       1.0  T
 306   -214.2486689 -0.108146E+01  0.133E+01    0.06       1.0  T
 307   -212.6764451  0.157222E+01  0.143E+01    0.03       1.0  T
 308   -212.9693867 -0.292942E+00  0.140E+01    0.02       1.0  T
 309   -213.0773617 -0.107975E+00  0.139E+01    0.01       1.0  T
 310   -212.7566611  0.320701E+00  0.142E+01    0.03       1.0  T
 311   -212.9050069 -0.148346E+00  0.141E+01    0.02       1.0  T
 312   -212.6668577  0.238149E+00  0.144E+01    0.03       1.0  T
 313   -212.8658588 -0.199001E+00  0.142E+01    0.02       1.0  T
 314   -212.8823881 -0.165294E-01  0.142E+01    0.02       1.0  T
 315   -212.7544035  0.127985E+00  0.143E+01    0.03       1.0  T
 316   -214.0128326 -0.125843E+01  0.132E+01    0.05       1.0  T
 317   -214.1791972 -0.166365E+00  0.125E+01    0.06       1.0  T
 318   -214.1321111  0.470861E-01  0.125E+01    0.06       1.0  T
 319   -214.1271357  0.497536E-02  0.125E+01    0.06       1.0  T
 320   -213.5845950  0.542541E+00  0.132E+01    0.02       1.0  T
 321   -214.0327027 -0.448108E+00  0.127E+01    0.05       1.0  T
 322   -213.9587387  0.739640E-01  0.129E+01    0.04       1.0  T
 323   -213.9238229  0.349157E-01  0.129E+01    0.04       1.0  T
 324   -213.7847383  0.139085E+00  0.131E+01    0.03       1.0  T
 325   -213.9237200 -0.138982E+00  0.130E+01    0.04       1.0  T
 326   -213.8046175  0.119103E+00  0.131E+01    0.03       1.0  T
 327   -213.6805812  0.124036E+00  0.132E+01    0.02       1.0  T
 328   -213.5185838  0.161997E+00  0.134E+01    0.01       1.0  T
 329   -213.3302834  0.188300E+00  0.137E+01    0.01       1.0  T
 330   -213.3335154 -0.323206E-02  0.137E+01    0.01       1.0  T
 331   -213.5093506 -0.175835E+00  0.135E+01    0.01       1.0  T
 332   -213.4432536  0.660971E-01  0.136E+01    0.01       1.0  T
 333   -213.5600777 -0.116824E+00  0.135E+01    0.02       1.0  T
 334   -213.6263088 -0.662311E-01  0.134E+01    0.02       1.0  T
 335   -213.5987961  0.275127E-01  0.135E+01    0.02       1.0  T
 336   -213.5693883  0.294078E-01  0.135E+01    0.02       1.0  T
 337   -213.5871431 -0.177548E-01  0.134E+01    0.02       1.0  T
 338   -213.6089398 -0.217967E-01  0.134E+01    0.02       1.0  T
 339   -213.6185571 -0.961736E-02  0.134E+01    0.02       1.0  T
 340   -213.3930509  0.225506E+00  0.136E+01    0.01       1.0  T
 341   -213.4614685 -0.684175E-01  0.135E+01    0.01       1.0  T
 342   -213.6031994 -0.141731E+00  0.133E+01    0.02       1.0  T
 343   -214.1571769 -0.553978E+00  0.123E+01    0.06       1.0  T
 344   -214.1120699  0.451070E-01  0.124E+01    0.06       1.0  T
 345   -214.2340330 -0.121963E+00  0.115E+01    0.07       1.0  T
 346   -214.1740585  0.599745E-01  0.124E+01    0.06       1.0  T
 347   -214.3441249 -0.170066E+00  0.109E+01    0.07       1.0  T
 348   -214.3480319 -0.390698E-02  0.109E+01    0.07       1.0  T
 349   -214.4316320 -0.836002E-01  0.106E+01    0.07       1.0  T
 350   -214.4363154 -0.468332E-02  0.100E+01    0.07       1.0  T
 351   -214.3313661  0.104949E+00  0.102E+01    0.06       1.0  T
 352   -214.3280446  0.332157E-02  0.100E+01    0.06       1.0  T
 353   -214.2323246  0.957200E-01  0.980E+00    0.06       1.0  T
 354   -214.2434509 -0.111263E-01  0.963E+00    0.06       1.0  T
 355   -214.2615734 -0.181225E-01  0.913E+00    0.06       1.0  T
 356   -214.5974624 -0.335889E+00  0.803E+00    0.05       1.0  T
 357   -214.9960931 -0.398631E+00  0.686E+00    0.01       1.0  T
 358   -215.3019620 -0.305869E+00  0.610E+00    0.02       1.0  T
 359   -215.4475625 -0.145601E+00  0.582E+00    0.03       1.0  T
 360   -215.8350513 -0.387489E+00  0.589E+00    0.02       1.0  T
 361   -216.0704794 -0.235428E+00  0.593E+00    0.00       1.0  T
 362   -215.7737380  0.296741E+00  0.579E+00    0.01       1.0  T
 363   -216.1755059 -0.401768E+00  0.599E+00    0.04       1.0  T
 364   -216.7831218 -0.607616E+00  0.626E+00    0.07       1.0  T
 365   -218.0981769 -0.131506E+01  0.651E+00    0.08       1.0  T
 366   -218.2905255 -0.192349E+00  0.654E+00    0.09       1.0  T
 367   -218.3192814 -0.287559E-01  0.653E+00    0.08       1.0  T
 368   -218.3928305 -0.735491E-01  0.655E+00    0.08       1.0  T
 369   -218.3065120  0.863185E-01  0.650E+00    0.07       1.0  T
 370   -218.6077124 -0.301200E+00  0.646E+00    0.07       1.0  T
 371   -219.1970832 -0.589371E+00  0.640E+00    0.05       1.0  T
 372   -219.2787685 -0.816853E-01  0.641E+00    0.07       1.0  T
 373   -219.2668502  0.119183E-01  0.641E+00    0.07       1.0  T
 374   -219.2731631 -0.631288E-02  0.641E+00    0.07       1.0  T
 375   -219.1548644  0.118299E+00  0.640E+00    0.08       1.0  T
 376   -219.0826014  0.722630E-01  0.636E+00    0.07       1.0  T
 377   -219.4163568 -0.333755E+00  0.626E+00    0.04       1.0  T
 378   -219.4504456 -0.340888E-01  0.625E+00    0.02       1.0  T
 379   -219.1457303  0.304715E+00  0.628E+00    0.04       1.0  T
 380   -219.0552193  0.905110E-01  0.631E+00    0.06       1.0  T
 381   -219.1057029 -0.504836E-01  0.633E+00    0.06       1.0  T
 382   -219.1344518 -0.287490E-01  0.634E+00    0.07       1.0  T
 383   -219.0834344  0.510174E-01  0.634E+00    0.08       1.0  T
 384   -219.1998140 -0.116380E+00  0.634E+00    0.10       1.0  T
 385   -219.1293267  0.704873E-01  0.634E+00    0.10       1.0  T
 386   -219.1236195  0.570724E-02  0.636E+00    0.12       1.0  T
 387   -219.0555023  0.681172E-01  0.638E+00    0.13       1.0  T
 388   -219.0267896  0.287127E-01  0.639E+00    0.10       1.0  T
 389   -219.1049670 -0.781774E-01  0.634E+00    0.06       1.0  T
 390   -219.0061567  0.988103E-01  0.632E+00    0.05       1.0  T
 391   -218.6354495  0.370707E+00  0.625E+00    0.04       1.0  T
 392   -218.3925340  0.242916E+00  0.618E+00    0.03       1.0  T
 393   -218.0982103  0.294324E+00  0.605E+00    0.01       1.0  T
 394   -218.2511793 -0.152969E+00  0.600E+00    0.00       1.0  T
 395   -218.6448402 -0.393661E+00  0.607E+00    0.00       1.0  T
 396   -218.9603827 -0.315542E+00  0.613E+00    0.00       1.0  T
 397   -219.1062103 -0.145828E+00  0.614E+00    0.00       1.0  T
 398   -219.1324426 -0.262323E-01  0.615E+00    0.00       1.0  T
 399   -219.2506441 -0.118202E+00  0.614E+00    0.00       1.0  T
 400   -219.1590836  0.915605E-01  0.614E+00    0.00       1.0  T
 401   -219.1464590  0.126246E-01  0.614E+00    0.00       1.0  T
 402   -219.1463913  0.676394E-04  0.614E+00    0.00       1.0  T
 403   -219.2392572 -0.928658E-01  0.614E+00    0.00       1.0  T
 404   -219.0494695  0.189788E+00  0.614E+00    0.00       1.0  T
 405   -218.2342052  0.815264E+00  0.604E+00    0.01       1.0  T
 406   -217.5366759  0.697529E+00  0.584E+00    0.00       1.0  T
 407   -216.9029105  0.633765E+00  0.559E+00    0.01       1.0  T
 408   -216.5653906  0.337520E+00  0.546E+00    0.01       1.0  T
 409   -216.5492931  0.160975E-01  0.548E+00    0.01       1.0  T
 410   -216.5406218  0.867126E-02  0.534E+00    0.03       1.0  T
 411   -216.5660374 -0.254156E-01  0.533E+00    0.03       1.0  T
 412   -216.3671556  0.198882E+00  0.516E+00    0.04       1.0  T
 413   -216.3073023  0.598533E-01  0.511E+00    0.04       1.0  T
 414   -216.2784437  0.288585E-01  0.509E+00    0.05       1.0  T
 415   -216.2557569  0.226869E-01  0.507E+00    0.05       1.0  T
 416   -216.2511040  0.465285E-02  0.507E+00    0.05       1.0  T
 417   -216.1161926  0.134911E+00  0.489E+00    0.05       1.0  T
 418   -215.9207802  0.195412E+00  0.447E+00    0.08       1.0  T
 419   -215.8024514  0.118329E+00  0.431E+00    0.12       1.0  T
 420   -215.7890012  0.134502E-01  0.431E+00    0.12       1.0  T
 421   -215.7952448 -0.624363E-02  0.431E+00    0.12       1.0  T
 422   -215.7981956 -0.295083E-02  0.430E+00    0.12       1.0  T
 423   -215.7856752  0.125204E-01  0.434E+00    0.11       1.0  T
 424   -215.7676462  0.180290E-01  0.437E+00    0.10       1.0  T
 425   -215.7934258 -0.257796E-01  0.441E+00    0.09       1.0  T
 426   -215.8499445 -0.565187E-01  0.447E+00    0.08       1.0  T
 427   -215.9107012 -0.607568E-01  0.452E+00    0.08       1.0  T
 428   -215.9230625 -0.123613E-01  0.442E+00    0.09       1.0  T
 429   -215.8266316  0.964309E-01  0.423E+00    0.11       1.0  T
 430   -215.7696207  0.570109E-01  0.421E+00    0.10       1.0  T
 431   -215.5859583  0.183662E+00  0.442E+00    0.05       1.0  T
 432   -215.4724105  0.113548E+00  0.468E+00    0.03       1.0  T
 433   -215.3717690  0.100641E+00  0.501E+00    0.02       1.0  T
 434   -215.1625636  0.209205E+00  0.558E+00    0.02       1.0  T
 435   -214.9481270  0.214437E+00  0.628E+00    0.06       1.0  T
 436   -214.8417448  0.106382E+00  0.690E+00    0.09       1.0  T
 437   -214.7799336  0.618112E-01  0.747E+00    0.11       1.0  T
 438   -214.7263537  0.535799E-01  0.799E+00    0.12       1.0  T
 439   -214.7281376 -0.178389E-02  0.827E+00    0.11       1.0  T
 440   -214.7722999 -0.441622E-01  0.864E+00    0.11       1.0  T
 441   -214.8046901 -0.323902E-01  0.892E+00    0.11       1.0  T
 442   -214.8249921 -0.203021E-01  0.895E+00    0.11       1.0  T
 443   -214.8166154  0.837669E-02  0.889E+00    0.11       1.0  T
 444   -214.8100523  0.656319E-02  0.893E+00    0.12       1.0  T
 445   -214.8118557 -0.180342E-02  0.898E+00    0.12       1.0  T
 446   -214.8387444 -0.268887E-01  0.934E+00    0.12       1.0  T
 447   -214.8592773 -0.205329E-01  0.943E+00    0.12       1.0  T
 448   -214.8611530 -0.187569E-02  0.945E+00    0.12       1.0  T
 449   -214.8431250  0.180280E-01  0.935E+00    0.12       1.0  T
 450   -214.8188802  0.242447E-01  0.926E+00    0.12       1.0  T
 451   -214.7927886  0.260916E-01  0.919E+00    0.11       1.0  T
 452   -214.7592744  0.335142E-01  0.903E+00    0.11       1.0  T
 453   -214.7382707  0.210037E-01  0.886E+00    0.11       1.0  T
 454   -214.7492451 -0.109744E-01  0.881E+00    0.11       1.0  T
 455   -214.7516645 -0.241940E-02  0.865E+00    0.11       1.0  T
 456   -214.7811028 -0.294384E-01  0.837E+00    0.11       1.0  T
 457   -214.8036498 -0.225470E-01  0.820E+00    0.10       1.0  T
 458   -214.8944685 -0.908187E-01  0.746E+00    0.07       1.0  T
 459   -215.0088361 -0.114368E+00  0.720E+00    0.05       1.0  T
 460   -214.9464541  0.623820E-01  0.733E+00    0.07       1.0  T
 461   -215.1921913 -0.245737E+00  0.668E+00    0.02       1.0  T
 462   -215.2455692 -0.533779E-01  0.647E+00    0.01       1.0  T
 463   -215.4552470 -0.209678E+00  0.582E+00    0.04       1.0  T
 464   -215.4795126 -0.242655E-01  0.556E+00    0.05       1.0  T
 465   -215.5095682 -0.300556E-01  0.531E+00    0.07       1.0  T
 466   -215.5190151 -0.944690E-02  0.528E+00    0.08       1.0  T
 467   -215.5389175 -0.199024E-01  0.506E+00    0.09       1.0  T
 468   -215.5861275 -0.472101E-01  0.477E+00    0.10       1.0  T
 469   -215.5819710  0.415651E-02  0.486E+00    0.10       1.0  T
 470   -215.6158157 -0.338447E-01  0.455E+00    0.10       1.0  T
 471   -215.6237365 -0.792078E-02  0.453E+00    0.10       1.0  T
 472   -215.6734854 -0.497489E-01  0.426E+00    0.10       1.0  T
 473   -215.6901202 -0.166348E-01  0.422E+00    0.10       1.0  T
 474   -215.7442020 -0.540818E-01  0.406E+00    0.10       1.0  T
 475   -215.7834396 -0.392375E-01  0.400E+00    0.10       1.0  T
 476   -215.8362346 -0.527950E-01  0.396E+00    0.11       1.0  T
 477   -215.9074382 -0.712036E-01  0.396E+00    0.11       1.0  T
 478   -215.9296059 -0.221677E-01  0.396E+00    0.11       1.0  T
 479   -216.0461302 -0.116524E+00  0.404E+00    0.11       1.0  T
 480   -216.0826528 -0.365226E-01  0.407E+00    0.11       1.0  T
 481   -216.1702368 -0.875840E-01  0.416E+00    0.11       1.0  T
 482   -216.1379126  0.323242E-01  0.411E+00    0.11       1.0  T
 483   -216.2209987 -0.830861E-01  0.421E+00    0.10       1.0  T
 484   -216.2229204 -0.192172E-02  0.421E+00    0.10       1.0  T
 485   -216.3585781 -0.135658E+00  0.443E+00    0.07       1.0  T
 486   -216.4239873 -0.654093E-01  0.455E+00    0.06       1.0  T
 487   -216.4330760 -0.908866E-02  0.456E+00    0.06       1.0  T
 488   -216.4052839  0.277921E-01  0.453E+00    0.06       1.0  T
 489   -216.5007660 -0.954820E-01  0.467E+00    0.04       1.0  T
 490   -216.6133599 -0.112594E+00  0.477E+00    0.03       1.0  T
 491   -216.6971370 -0.837771E-01  0.483E+00    0.03       1.0  T
 492   -216.6920192  0.511786E-02  0.483E+00    0.03       1.0  T
 493   -216.6273723  0.646469E-01  0.477E+00    0.03       1.0  T
 494   -216.5979491  0.294232E-01  0.473E+00    0.03       1.0  T
 495   -216.5614305  0.365186E-01  0.468E+00    0.03       1.0  T
 496   -216.5348830  0.265475E-01  0.465E+00    0.03       1.0  T
 497   -216.4767205  0.581625E-01  0.455E+00    0.04       1.0  T
 498   -216.4603860  0.163346E-01  0.453E+00    0.04       1.0  T
 499   -216.4475847  0.128012E-01  0.451E+00    0.04       1.0  T
 500   -216.4374501  0.101346E-01  0.450E+00    0.04       1.0  T

   *** convergence criteria cannot be satisfied within 500 iterations ***

         #    Occupation            Energy/Eh            Energy/eV
      -------------------------------------------------------------
         1        2.0000           -3.9872991            -108.4999
       ...           ...                  ...                  ...
       176        2.0000           -0.4232572             -11.5174
       177        2.0000           -0.4208253             -11.4512
       178        1.9999           -0.4177889             -11.3686
       179        1.9999           -0.4168658             -11.3435
       180        1.9889           -0.4127367             -11.2311
       181        1.8673           -0.4103176             -11.1653
       182        1.4221           -0.4086610             -11.1202 (HOMO)
       183        0.7010           -0.4072194             -11.0810 (LUMO)
       184        0.0194           -0.4034082             -10.9773
       185        0.0013           -0.4008560             -10.9078
       186        0.0001           -0.3985887             -10.8462
       187        0.0000           -0.3975774             -10.8186
       ...           ...                  ...                  ...
       388                         18.8309077             512.4151
      -------------------------------------------------------------
                  HL-Gap            0.0014417 Eh            0.0392 eV
             Fermi-level           -0.4078054 Eh          -11.0970 eV

 SCC (total)                   0 d,  0 h,  0 min, 18.444 sec
 SCC setup                      ...        0 min,  0.001 sec (  0.005%)
 Dispersion                     ...        0 min,  0.002 sec (  0.011%)
 classical contributions        ...        0 min,  0.000 sec (  0.000%)
 integral evaluation            ...        0 min,  0.014 sec (  0.076%)
 iterations                     ...        0 min, 18.388 sec ( 99.696%)
 molecular gradient             ...        0 min,  0.035 sec (  0.190%)
 printout                       ...        0 min,  0.004 sec (  0.022%)

########################################################################
[ERROR] Program stopped due to fatal error
-3- Single point calculation terminated
-2- xtb_calculator_singlepoint: Electronic structure method terminated
-1- scf: Self consistent charge iterator did not converge
########################################################################
abnormal termination of xtb
