      -----------------------------------------------------------      
     |                   =====================                   |     
     |                           x T B                           |     
     |                   =====================                   |     
     |                         S. Grimme                         |     
     |          Mulliken Center for Theoretical Chemistry        |     
     |                    University of Bonn                     |     
      -----------------------------------------------------------      

   * xtb version 6.7.1pre (5071a88) compiled by 'Marcel@Raven' on 2024-07-23

   xtb is free software: you can redistribute it and/or modify it under
   the terms of the GNU Lesser General Public License as published by
   the Free Software Foundation, either version 3 of the License, or
   (at your option) any later version.
   
   xtb is distributed in the hope that it will be useful,
   but WITHOUT ANY WARRANTY; without even the implied warranty of
   MERCHANTABILITY or FITNESS FOR A PARTICULAR PURPOSE.  See the
   GNU Lesser General Public License for more details.
   
   Cite this work as:
   * C. Bannwarth, E. Caldeweyher, S. Ehlert, A. Hansen, P. Pracht,
     J. Seibert, S. Spicher, S. Grimme, WIREs Comput. Mol. Sci., 2020, 11,
     e01493. DOI: 10.1002/wcms.1493
   
   for GFN2-xTB:
   * C. Bannwarth, S. Ehlert and S. Grimme., J. Chem. Theory Comput., 2019,
     15, 1652-1671. DOI: 10.1021/acs.jctc.8b01176
   for GFN1-xTB:
   * S. Grimme, C. Bannwarth, P. Shushkov, J. Chem. Theory Comput., 2017,
     13, 1989-2009. DOI: 10.1021/acs.jctc.7b00118
   for GFN0-xTB:
   * P. Pracht, E. Caldeweyher, S. Ehlert, S. Grimme, ChemRxiv, 2019, preprint.
     DOI: 10.26434/chemrxiv.8326202.v1
   for GFN-FF:
   * S. Spicher and S. Grimme, Angew. Chem. Int. Ed., 2020, 59, 15665-15673.
     DOI: 10.1002/anie.202004239
   
   for ALPB and GBSA implicit solvation:
   * S. Ehlert, M. Stahn, S. Spicher, S. Grimme, J. Chem. Theory Comput.,
     2021, 17, 4250-4261. DOI: 10.1021/acs.jctc.1c00471
   
   for ddCOSMO and CPCM-X implicit solvation:
   * M. Stahn, S. Ehlert, S. Grimme, J. Phys. Chem. A,
     2023, XX, XXXX-XXXX. DOI: 10.1021/acs.jpca.3c04382
   
   for DFT-D4:
   * E. Caldeweyher, C. Bannwarth and S. Grimme, J. Chem. Phys., 2017,
     147, 034112. DOI: 10.1063/1.4993215
   * E. Caldeweyher, S. Ehlert, A. Hansen, H. Neugebauer, S. Spicher,
     C. Bannwarth and S. Grimme, J. Chem. Phys., 2019, 150, 154122.
     DOI: 10.1063/1.5090222
   * E. Caldeweyher, J.-M. Mewes, S. Ehlert and S. Grimme, Phys. Chem. Chem. Phys.
     2020, 22, 8499-8512. DOI: 10.1039/D0CP00502A
   
   for sTDA-xTB:
   * S. Grimme and C. Bannwarth, J. Chem. Phys., 2016, 145, 054103.
     DOI: 10.1063/1.4959605
   
   in the mass-spec context:
   * V. Asgeirsson, C. Bauer and S. Grimme, Chem. Sci., 2017, 8, 4879.
     DOI: 10.1039/c7sc00601b
   * J. Koopman and S. Grimme, ACS Omega 2019, 4, 12, 15120-15133.
     DOI: 10.1021/acsomega.9b02011
   
   for metadynamics refer to:
   * S. Grimme, J. Chem. Theory Comput., 2019, 155, 2847-2862
     DOI: 10.1021/acs.jctc.9b00143
   
   for SPH calculations refer to:
   * S. Spicher and S. Grimme, J. Chem. Theory Comput., 2021, 17, 1701-1714
     DOI: 10.1021/acs.jctc.0c01306
   
   for ONIOM refer to:
   * C. Plett, A. Katbashev, S. Ehlert, S. Grimme, M. Bursch,
     Phys. Chem. Chem. Phys., 2023, 25, 17860-17868. DOI: 10.1039/D3CP02178E
   
   for DIPRO refer to:
   * J. Kohn, N. Gildemeister, S. Grimme, D. Fazzi, A. Hansen,
     J. Chem. Phys., 2023, just accepted.
   
   for PTB refer to:
   * S. Grimme, M. Mueller, A. Hansen, J. Chem. Phys., 2023, 158, 124111.
     DOI: 10.1063/5.0137838
   
   with help from (in alphabetical order)
   P. Atkinson, C. Bannwarth, F. Bohle, G. Brandenburg, E. Caldeweyher
   M. Checinski, S. Dohm, S. Ehlert, S. Ehrlich, I. Gerasimov, C. Hölzer
   A. Katbashev, J. Kohn, J. Koopman, C. Lavigne, S. Lehtola, F. März, M. Müller,
   F. Musil, H. Neugebauer, J. Pisarek, C. Plett, P. Pracht, F. Pultar,
   J. Seibert, P. Shushkov, S. Spicher, M. Stahn, M. Steiner, T. Strunk,
   J. Stückrath, T. Rose, and J. Unsleber
   
 * started run on 2026/09/01 at 20:32:02.190     
   ID    Z sym.   atoms
    1    6 C      1, 5, 6, 8-16, 18-21, 23-28, 30, 32, 34, 36, 38
    2   16 S      2
    3    8 O      3, 4, 22, 39
    4    7 N      7, 17, 35, 37
    5    9 F      29
    6   17 Cl     31, 33
    7    1 H      40-64

           -------------------------------------------------
          |                Calculation Setup                |
           -------------------------------------------------

          program call               : "c:\Users\Andre\Proyectos doctorado\nano-qsar-ai-papers\kras-pancreatic-gC3N4-ai\tools\xtb\xtb-6.7.1\bin\xtb.exe" "c:\Users\Andre\Proyectos doctorado\nano-qsar-ai-papers\mxene-glioblastoma-qsar-ai\calculations\gbm\Lapatinib\Lapatinib_drug_frozen_from_opt.xyz" --gfn 2 --sp --chrg 0 --uhf 0 --norestart
          coordinate file            : c:\Users\Andre\Proyectos doctorado\nano-qsar-ai-papers\mxene-glioblastoma-qsar-ai\calculations\gbm\Lapatinib\Lapatinib_drug_frozen_from_opt.xyz
          omp threads                :                    16


           -------------------------------------------------
          |                 G F N 2 - x T B                 |
           -------------------------------------------------

        Reference                      10.1021/acs.jctc.8b01176
      * Hamiltonian:
        H0-scaling (s, p, d)           1.850000    2.230000    2.230000
        zeta-weighting                 0.500000
      * Dispersion:
        s8                             2.700000
        a1                             0.520000
        a2                             5.000000
        s9                             5.000000
      * Repulsion:
        kExp                           1.500000    1.000000
        rExp                           1.000000
      * Coulomb:
        alpha                          2.000000
        third order                    shell-resolved
        anisotropic                    true
        a3                             3.000000
        a5                             4.000000
        cn-shift                       1.200000
        cn-exp                         4.000000
        max-rad                        5.000000


          ...................................................
          :                      SETUP                      :
          :.................................................:
          :  # basis functions                 199          :
          :  # atomic orbitals                 196          :
          :  # shells                          106          :
          :  # electrons                       204          :
          :  max. iterations                   250          :
          :  Hamiltonian                  GFN2-xTB          :
          :  restarted?                      false          :
          :  GBSA solvation                  false          :
          :  PC potential                    false          :
          :  electronic temp.          300.0000000     K    :
          :  accuracy                    1.0000000          :
          :  -> integral cutoff          0.2500000E+02      :
          :  -> integral neglect         0.1000000E-07      :
          :  -> SCF convergence          0.1000000E-05 Eh   :
          :  -> wf. convergence          0.1000000E-03 e    :
          :  Broyden damping             0.4000000          :
          :  net charge                          0          :
          :  unpaired electrons                  0          :
          ...................................................

 iter      E             dE          RMSdq      gap      omega  full diag
   1   -116.8175010 -0.116818E+03  0.479E+00    1.52       0.0  T
   2   -116.9341903 -0.116689E+00  0.304E+00    1.29       1.0  T
   3   -116.8868860  0.473043E-01  0.148E+00    1.38       1.0  T
   4   -116.9539538 -0.670678E-01  0.581E-01    1.26       1.0  T
   5   -116.9722949 -0.183410E-01  0.237E-01    1.25       1.0  T
   6   -116.9742209 -0.192598E-02  0.115E-01    1.24       1.0  T
   7   -116.9745702 -0.349364E-03  0.578E-02    1.24       1.0  T
   8   -116.9745934 -0.231943E-04  0.354E-02    1.24       1.0  T
   9   -116.9746206 -0.271419E-04  0.189E-02    1.24       1.0  T
  10   -116.9746273 -0.669752E-05  0.106E-02    1.24       1.2  T
  11   -116.9746291 -0.186670E-05  0.770E-03    1.24       1.6  T
  12   -116.9746302 -0.111319E-05  0.485E-03    1.24       2.6  T
  13   -116.9746308 -0.595756E-06  0.304E-03    1.24       4.1  T
  14   -116.9746310 -0.215420E-06  0.165E-03    1.24       7.6  T
  15   -116.9746311 -0.667671E-07  0.732E-04    1.24      17.1  T
  16   -116.9746311 -0.122563E-07  0.319E-04    1.24      39.1  T

   *** convergence criteria satisfied after 16 iterations ***

         #    Occupation            Energy/Eh            Energy/eV
      -------------------------------------------------------------
         1        2.0000           -1.0699124             -29.1138
       ...           ...                  ...                  ...
        96        2.0000           -0.4133509             -11.2478
        97        2.0000           -0.4094015             -11.1404
        98        2.0000           -0.4004419             -10.8966
        99        2.0000           -0.3918991             -10.6641
       100        2.0000           -0.3862561             -10.5106
       101        2.0000           -0.3805943             -10.3565
       102        2.0000           -0.3522999              -9.5866 (HOMO)
       103                         -0.3067122              -8.3461 (LUMO)
       104                         -0.2587593              -7.0412
       105                         -0.2520080              -6.8575
       106                         -0.2465121              -6.7079
       107                         -0.2452496              -6.6736
       ...                                ...                  ...
       196                          1.2100846              32.9281
      -------------------------------------------------------------
                  HL-Gap            0.0455877 Eh            1.2405 eV
             Fermi-level           -0.3295061 Eh           -8.9663 eV

 SCC (total)                   0 d,  0 h,  0 min,  0.230 sec
 SCC setup                      ...        0 min,  0.001 sec (  0.435%)
 Dispersion                     ...        0 min,  0.001 sec (  0.435%)
 classical contributions        ...        0 min,  0.000 sec (  0.000%)
 integral evaluation            ...        0 min,  0.006 sec (  2.609%)
 iterations                     ...        0 min,  0.213 sec ( 92.609%)
 molecular gradient             ...        0 min,  0.009 sec (  3.913%)
 printout                       ...        0 min,  0.000 sec (  0.000%)

         :::::::::::::::::::::::::::::::::::::::::::::::::::::
         ::                     SUMMARY                     ::
         :::::::::::::::::::::::::::::::::::::::::::::::::::::
         :: total energy            -115.531831115025 Eh    ::
         :: gradient norm              0.043107115225 Eh/a0 ::
         :: HOMO-LUMO gap              1.240503221853 eV    ::
         ::.................................................::
         :: SCC energy              -116.975314988430 Eh    ::
         :: -> isotropic ES            0.133921363253 Eh    ::
         :: -> anisotropic ES         -0.000519593756 Eh    ::
         :: -> anisotropic XC          0.040767520874 Eh    ::
         :: -> dispersion             -0.075902441918 Eh    ::
         :: repulsion energy           1.443483873405 Eh    ::
         :: add. restraining           0.000000000000 Eh    ::
         :: total charge              -0.000000000000 e     ::
         :::::::::::::::::::::::::::::::::::::::::::::::::::::

           -------------------------------------------------
          |                Property Printout                |
           -------------------------------------------------

    * Orbital Energies and Occupations

         #    Occupation            Energy/Eh            Energy/eV
      -------------------------------------------------------------
         1        2.0000           -1.0699124             -29.1138
       ...           ...                  ...                  ...
        90        2.0000           -0.4318630             -11.7516
        91        2.0000           -0.4304400             -11.7129
        92        2.0000           -0.4272790             -11.6269
        93        2.0000           -0.4233757             -11.5206
        94        2.0000           -0.4218624             -11.4795
        95        2.0000           -0.4136064             -11.2548
        96        2.0000           -0.4133509             -11.2478
        97        2.0000           -0.4094015             -11.1404
        98        2.0000           -0.4004419             -10.8966
        99        2.0000           -0.3918991             -10.6641
       100        2.0000           -0.3862561             -10.5106
       101        2.0000           -0.3805943             -10.3565
       102        2.0000           -0.3522999              -9.5866 (HOMO)
       103                         -0.3067122              -8.3461 (LUMO)
       104                         -0.2587593              -7.0412
       105                         -0.2520080              -6.8575
       106                         -0.2465121              -6.7079
       107                         -0.2452496              -6.6736
       108                         -0.2341682              -6.3720
       109                         -0.2290260              -6.2321
       110                         -0.1945262              -5.2933
       111                         -0.1697598              -4.6194
       112                         -0.1561518              -4.2491
       113                         -0.1448927              -3.9427
       ...                                ...                  ...
       196                          1.2100846              32.9281
      -------------------------------------------------------------
                  HL-Gap            0.0455877 Eh            1.2405 eV
             Fermi-level           -0.3295061 Eh           -8.9663 eV

     #   Z          covCN         q      C6AA      α(0)
     1   6 C        3.746    -0.206    24.647     7.082
     2  16 S        3.704     0.960   107.802    17.475
     3   8 O        0.860    -0.544    24.772     6.673
     4   8 O        0.860    -0.544    24.786     6.675
     5   6 C        3.797    -0.143    23.252     6.866
     6   6 C        3.785     0.005    20.515     6.451
     7   7 N        2.679    -0.266    26.882     7.700
     8   6 C        3.743    -0.000    20.660     6.484
     9   6 C        3.084     0.092    25.878     8.339
    10   6 C        3.005    -0.072    29.779     8.952
    11   6 C        3.012    -0.076    29.882     8.967
    12   6 C        3.100     0.104    25.580     8.288
    13   6 C        2.945    -0.045    29.107     8.849
    14   6 C        2.900    -0.015    28.374     8.734
    15   6 C        2.902    -0.103    30.606     9.071
    16   6 C        2.837     0.150    24.732     8.150
    17   7 N        2.708    -0.130    23.816     7.248
    18   6 C        2.903     0.068    26.477     8.437
    19   6 C        2.919    -0.055    29.356     8.885
    20   6 C        2.919    -0.066    29.643     8.928
    21   6 C        2.901     0.129    25.183     8.228
    22   8 O        1.706    -0.249    18.131     5.749
    23   6 C        3.702     0.082    19.366     6.293
    24   6 C        2.999     0.003    27.949     8.672
    25   6 C        2.922    -0.034    28.852     8.808
    26   6 C        2.922    -0.031    28.762     8.795
    27   6 C        2.918    -0.050    29.252     8.869
    28   6 C        2.817     0.164    24.447     8.101
    29   9 F        0.787    -0.203    11.268     3.965
    30   6 C        2.887     0.067    26.506     8.441
    31  17 Cl       0.958    -0.149   103.809    15.587
    32   6 C        2.888     0.076    26.305     8.409
    33  17 Cl       0.971    -0.160   104.180    15.615
    34   6 C        2.962    -0.069    29.711     8.941
    35   7 N        1.834    -0.231    26.900     7.686
    36   6 C        2.812     0.156    24.614     8.128
    37   7 N        1.824    -0.213    26.463     7.623
    38   6 C        2.866     0.084    26.114     8.377
    39   8 O        1.728    -0.212    17.511     5.650
    40   1 H        0.926     0.102     1.770     2.081
    41   1 H        0.926     0.080     1.979     2.200
    42   1 H        0.926     0.093     1.855     2.130
    43   1 H        0.925     0.068     2.106     2.269
    44   1 H        0.925     0.082     1.960     2.189
    45   1 H        0.923     0.030     2.592     2.518
    46   1 H        0.924     0.069     2.100     2.266
    47   1 H        0.860     0.147     1.418     1.866
    48   1 H        0.924     0.055     2.262     2.352
    49   1 H        0.924     0.057     2.237     2.339
    50   1 H        0.926     0.036     2.500     2.473
    51   1 H        0.926     0.032     2.560     2.502
    52   1 H        0.925     0.051     2.307     2.375
    53   1 H        0.925     0.027     2.628     2.535
    54   1 H        0.860     0.177     1.234     1.740
    55   1 H        0.926     0.077     2.011     2.218
    56   1 H        0.926     0.052     2.293     2.368
    57   1 H        0.923     0.053     2.285     2.364
    58   1 H        0.923     0.055     2.254     2.348
    59   1 H        0.926     0.083     1.946     2.181
    60   1 H        0.926     0.063     2.168     2.303
    61   1 H        0.926     0.074     2.041     2.234
    62   1 H        0.926     0.058     2.219     2.330
    63   1 H        0.924     0.057     2.230     2.336
    64   1 H        0.922     0.048     2.343     2.394

 Mol. C6AA /au·bohr⁶  :      61264.086190
 Mol. C8AA /au·bohr⁸  :    1604866.114677
 Mol. α(0) /au        :        387.100021


Wiberg/Mayer (AO) data.
largest (>0.10) Wiberg bond orders for each atom

 ---------------------------------------------------------------------------
     #   Z sym  total        # sym  WBO       # sym  WBO       # sym  WBO
 ---------------------------------------------------------------------------
     1   6 C    3.975 --    41 H    0.983    42 H    0.975    40 H    0.963
                             2 S    0.782
     2  16 S    4.904 --     3 O    1.656     4 O    1.654     1 C    0.782
                             5 C    0.761
     3   8 O    1.949 --     2 S    1.656     4 O    0.113
     4   8 O    1.951 --     2 S    1.654     3 O    0.113
     5   6 C    3.986 --     6 C    1.016    43 H    0.972    44 H    0.966
                             2 S    0.761
     6   6 C    3.983 --     5 C    1.016     7 N    1.012    46 H    0.963
                            45 H    0.962
     7   7 N    3.083 --     6 C    1.012     8 C    0.994    47 H    0.954
     8   6 C    3.984 --     9 C    1.004     7 N    0.994    48 H    0.970
                            49 H    0.965
     9   6 C    3.883 --    10 C    1.561    39 O    1.102     8 C    1.004
                            12 C    0.121
    10   6 C    3.981 --     9 C    1.561    11 C    1.309    50 H    0.974
    11   6 C    3.956 --    12 C    1.503    10 C    1.309    51 H    0.974
    12   6 C    3.910 --    11 C    1.503    13 C    1.098    39 O    1.096
                             9 C    0.121
    13   6 C    3.959 --    14 C    1.513    38 C    1.109    12 C    1.098
    14   6 C    3.979 --    13 C    1.513    15 C    1.267    52 H    0.959
    15   6 C    3.951 --    16 C    1.451    14 C    1.267    53 H    0.957
    16   6 C    3.931 --    15 C    1.451    17 N    1.160    35 N    1.150
    17   7 N    3.480 --    16 C    1.160    18 C    1.103    54 H    0.933
    18   6 C    3.964 --    19 C    1.360    34 C    1.336    17 N    1.103
    19   6 C    3.975 --    20 C    1.447    18 C    1.360    55 H    0.959
    20   6 C    3.985 --    19 C    1.447    21 C    1.366    56 H    0.964
    21   6 C    3.921 --    20 C    1.366    32 C    1.308    22 O    1.065
    22   8 O    2.238 --    21 C    1.065    23 C    0.977
    23   6 C    3.949 --    24 C    1.005    22 O    0.977    58 H    0.951
                            57 H    0.949
    24   6 C    3.985 --    25 C    1.416    30 C    1.369    23 C    1.005
                            27 C    0.104
    25   6 C    3.986 --    26 C    1.435    24 C    1.416    59 H    0.961
    26   6 C    3.990 --    27 C    1.439    25 C    1.435    60 H    0.968
    27   6 C    3.986 --    26 C    1.439    28 C    1.391    61 H    0.964
                            24 C    0.104
    28   6 C    3.894 --    27 C    1.391    30 C    1.365    29 F    0.974
    29   9 F    1.112 --    28 C    0.974
    30   6 C    3.921 --    24 C    1.369    28 C    1.365    31 Cl   0.986
    31  17 Cl   1.134 --    30 C    0.986
    32   6 C    3.918 --    34 C    1.444    21 C    1.308    33 Cl   0.979
    33  17 Cl   1.116 --    32 C    0.979
    34   6 C    3.971 --    32 C    1.444    18 C    1.336    62 H    0.964
    35   7 N    3.207 --    36 C    1.718    16 C    1.150    37 N    0.137
    36   6 C    3.961 --    35 N    1.718    37 N    1.184    63 H    0.931
    37   7 N    3.253 --    38 C    1.734    36 C    1.184    35 N    0.137
    38   6 C    3.956 --    37 N    1.734    13 C    1.109    64 H    0.947
    39   8 O    2.404 --     9 C    1.102    12 C    1.096
    40   1 H    0.990 --     1 C    0.963
    41   1 H    0.994 --     1 C    0.983
    42   1 H    0.991 --     1 C    0.975
    43   1 H    0.995 --     5 C    0.972
    44   1 H    0.993 --     5 C    0.966
    45   1 H    0.999 --     6 C    0.962
    46   1 H    0.995 --     6 C    0.963
    47   1 H    0.978 --     7 N    0.954
    48   1 H    0.996 --     8 C    0.970
    49   1 H    0.996 --     8 C    0.965
    50   1 H    0.998 --    10 C    0.974
    51   1 H    0.999 --    11 C    0.974
    52   1 H    0.997 --    14 C    0.959
    53   1 H    0.998 --    15 C    0.957
    54   1 H    0.968 --    17 N    0.933
    55   1 H    0.994 --    19 C    0.959
    56   1 H    0.997 --    20 C    0.964
    57   1 H    0.997 --    23 C    0.949
    58   1 H    0.996 --    23 C    0.951
    59   1 H    0.993 --    25 C    0.961
    60   1 H    0.995 --    26 C    0.968
    61   1 H    0.994 --    27 C    0.964
    62   1 H    0.996 --    34 C    0.964
    63   1 H    0.996 --    36 C    0.931
    64   1 H    0.997 --    38 C    0.947
 ---------------------------------------------------------------------------

Topologies differ in total number of bonds
Writing topology from bond orders to xtbtopo.mol

molecular dipole:
                 x           y           z       tot (Debye)
 q only:        0.710      -1.397       1.355
   full:        0.504      -1.461       1.349       5.215
molecular quadrupole (traceless):
                xx          xy          yy          xz          yz          zz
 q only:        2.975     -36.138     -91.018      27.589      -0.031      88.042
  q+dip:       14.532     -33.309    -105.875      24.316      -2.888      91.343
   full:       14.164     -33.120    -108.650      22.253      -2.566      94.486


           -------------------------------------------------
          | TOTAL ENERGY             -115.531831115025 Eh   |
          | GRADIENT NORM               0.043107115225 Eh/α |
          | HOMO-LUMO GAP               1.240503221853 eV   |
           -------------------------------------------------

------------------------------------------------------------------------
 * finished run on 2026/09/01 at 20:32:02.461     
------------------------------------------------------------------------
 total:
 * wall-time:     0 d,  0 h,  0 min,  0.269 sec
 *  cpu-time:     0 d,  0 h,  0 min,  1.078 sec
 * ratio c/w:     4.008 speedup
 SCF:
 * wall-time:     0 d,  0 h,  0 min,  0.231 sec
 *  cpu-time:     0 d,  0 h,  0 min,  0.984 sec
 * ratio c/w:     4.261 speedup

