97
 energy: -207.890751176027 gnorm: 0.003138061713 xtb: 6.7.1pre (5071a88)
C           -2.84517883890874       -6.60406688666079        8.45301443804168
S           -2.01396953652156       -7.49493295406931        7.10724532879408
O           -2.12101840904721       -6.72546499215074        5.87653334120693
O           -2.56369103354673       -8.82658611330414        7.08575972380937
C           -0.23061251454255       -7.67496184625766        7.47742956394133
C            0.32390005946042       -6.69117399451609        8.48920530689104
N           -0.13094998335780       -5.31711804550836        8.28646042789764
C            0.68963167668932       -4.38007355112114        9.07615623323935
C            1.86254296742719       -3.83102640469384        8.32609294511217
C            2.98573383581344       -4.38350426785405        7.77822556792774
C            3.63763800192477       -3.35078475175160        7.06303886844407
C            2.86963880298233       -2.22130812305272        7.21039572712867
C            2.86100007872036       -0.89887685574913        6.56534761428520
C            2.12517008123267        0.07127778025234        7.31509026651146
C            1.49024921329605        1.30118467463022        6.94088151457177
C            1.53715908876484        2.03692879007307        5.71232869971234
N            0.51673516902754        3.03848775199478        5.61369301101280
C            0.30324581998382        4.09245436621832        6.47482117407178
C            1.20120627710531        4.43953451335431        7.48388350631509
C            0.93920616954814        5.49863074413336        8.33620549209222
C           -0.21950027122160        6.25267624652534        8.20676824718559
O           -0.57118773237185        7.32124277974244        8.97975158051792
C            0.36160867706502        7.81103537265187        9.90740711450721
C           -0.13516471145410        9.11067493148030       10.48166133221752
C           -1.31385324515360        9.69744852265209       10.04310916417103
C           -1.74803530307413       10.89943401010433       10.57374212072554
C           -1.01060829418086       11.53773590211131       11.55473763971956
C            0.16359008717323       10.95456925244384       11.99452087744547
F            0.88306170637680       11.57183667868187       12.94852469344884
C            0.61069191811333        9.74935813559432       11.46980573893380
Cl           2.08683714762892        9.05711888287531       12.04270398815541
C           -1.11712794734339        5.89935321570880        7.19182278954583
Cl          -2.56262121663603        6.81880314631679        7.01620118157194
C           -0.87004108712513        4.84432739394634        6.34239014628449
N            2.29602607699479        2.01766970515789        4.62844315430459
C            3.08658495816344        1.17208811013498        4.01630379881001
N            3.48283845310644       -0.10976690503902        4.19474713794160
C            3.42232076874359       -0.93585957503264        5.27642132221631
O            1.79730785344534       -2.51710067450110        7.99063177867043
H           -2.39102378798900       -6.87844422365314        9.39553557562723
H           -2.76733381385463       -5.52752896606439        8.25978985735300
H           -3.88160685850331       -6.92348941363466        8.43569421363913
H            0.23574746708465       -7.51176571194894        6.47875030700667
H           -0.08026363796148       -8.69960070262228        7.80671432181316
H            1.42231147534124       -6.76192234778417        8.44354105787266
H            0.01785265163913       -6.97976573583612        9.50308516133763
H           -0.08365833010465       -5.06948117289827        7.28304150301362
H            1.00933409008366       -4.89914950042233        9.98568238210458
H            0.04652392338253       -3.52740173605935        9.36340382086999
H            3.32884414506064       -5.39408918737050        7.87425201950652
H            4.56304196447553       -3.44187824900673        6.53351187142411
H            2.05302426480531       -0.16109451644759        8.38078527874218
H            0.98053549173625        1.82713397594003        7.75765749997577
H            0.12098093236751        3.12973322306525        4.68698667927356
H            2.12750373979921        3.89607168590418        7.57918548311023
H            1.66087079776295        5.73690944552594        9.10092737999338
H            0.51407023695554        7.08851962539878       10.72420476560709
H            1.33491590767215        7.98603191338032        9.42409562822294
H           -1.88310853935761        9.19507167584118        9.27836949856611
H           -2.66541579177416       11.34331356343774       10.22056314344866
H           -1.32394644894238       12.47547342817127       11.98471994253107
H           -1.58179636377252        4.59350808626179        5.57102838287933
H            3.50582950541062        1.58660569916637        3.08967163241615
H            3.95195253113309       -1.87011261624017        5.05028993540659
Ti          -2.21624016269366       -2.71622206565187        7.19964505267354
Ti          -0.21602768845701       -2.84188190353990        4.88981346908544
Ti           0.12479909725340       -5.59156701351338        4.01301599756707
Ti          -2.05879912413444       -0.36573090794729        4.23718296062673
Ti           1.97778774240218       -1.28150084896242        3.25431615373238
Ti           0.35387705381948       -0.17163744711273        5.85953012859586
Ti          -3.31128059521903       -4.52031440289012        4.82196331855364
Ti          -2.29643160242536       -3.73054921766172        2.10863692999649
Ti          -0.87457172913726       -5.90220768655062        1.02291605312541
Ti          -3.17776230861236       -0.81844485917075        1.46960464774532
Ti           0.67627201688727       -3.00162897913040        1.11034443576185
Ti          -1.58823466763784       -2.18111995654854       -0.64755689174378
C           -3.98299570406870        0.20155988471532        3.80180437275462
C            2.67996675054590       -3.23152428127502        1.24113492330181
C           -0.33131934735590       -0.42986859209700        1.88067047302509
C           -4.45617411271522        0.27701027065904        2.65573108383611
C            3.19784268144075       -2.40560161162250        2.01337624125429
C           -1.49925619653139        0.04923811186499        2.25708078318161
C            0.83742554834934       -0.88700786258429        1.53246281999066
O           -3.26244225208339       -3.87427673513069        6.48933957993247
O            0.02132792379966       -1.86542022145503        6.33229332827290
O           -0.39145489182404       -4.47499761533828        5.35359629052211
O           -1.71378627570264       -2.06568999967596        4.38989791105664
O            1.26955527571158       -2.75053481961732        4.04206337269145
O           -1.31712413912966        0.36521401178906        5.67754174347321
O            0.82271706754898       -0.27873356235104        4.26449280029917
O           -2.55975787355933       -4.93150317534412        3.32147300152079
O           -2.23480557588145       -4.71894946564457        0.66898413311285
O            0.19710958044239       -6.19845479315207        2.38201425844449
O           -3.36894497833216       -2.40358784618301        2.17686056423724
O           -0.65513768541922       -3.23777715274151        2.22420596035650
O           -2.86958723678172       -1.09526807703654       -0.21029811764610
O           -0.07209390723890       -3.06493438747086       -0.43556367861486
