      -----------------------------------------------------------      
     |                   =====================                   |     
     |                           x T B                           |     
     |                   =====================                   |     
     |                         S. Grimme                         |     
     |          Mulliken Center for Theoretical Chemistry        |     
     |                    University of Bonn                     |     
      -----------------------------------------------------------      

   * xtb version 6.7.1pre (5071a88) compiled by 'Marcel@Raven' on 2024-07-23

   xtb is free software: you can redistribute it and/or modify it under
   the terms of the GNU Lesser General Public License as published by
   the Free Software Foundation, either version 3 of the License, or
   (at your option) any later version.
   
   xtb is distributed in the hope that it will be useful,
   but WITHOUT ANY WARRANTY; without even the implied warranty of
   MERCHANTABILITY or FITNESS FOR A PARTICULAR PURPOSE.  See the
   GNU Lesser General Public License for more details.
   
   Cite this work as:
   * C. Bannwarth, E. Caldeweyher, S. Ehlert, A. Hansen, P. Pracht,
     J. Seibert, S. Spicher, S. Grimme, WIREs Comput. Mol. Sci., 2020, 11,
     e01493. DOI: 10.1002/wcms.1493
   
   for GFN2-xTB:
   * C. Bannwarth, S. Ehlert and S. Grimme., J. Chem. Theory Comput., 2019,
     15, 1652-1671. DOI: 10.1021/acs.jctc.8b01176
   for GFN1-xTB:
   * S. Grimme, C. Bannwarth, P. Shushkov, J. Chem. Theory Comput., 2017,
     13, 1989-2009. DOI: 10.1021/acs.jctc.7b00118
   for GFN0-xTB:
   * P. Pracht, E. Caldeweyher, S. Ehlert, S. Grimme, ChemRxiv, 2019, preprint.
     DOI: 10.26434/chemrxiv.8326202.v1
   for GFN-FF:
   * S. Spicher and S. Grimme, Angew. Chem. Int. Ed., 2020, 59, 15665-15673.
     DOI: 10.1002/anie.202004239
   
   for ALPB and GBSA implicit solvation:
   * S. Ehlert, M. Stahn, S. Spicher, S. Grimme, J. Chem. Theory Comput.,
     2021, 17, 4250-4261. DOI: 10.1021/acs.jctc.1c00471
   
   for ddCOSMO and CPCM-X implicit solvation:
   * M. Stahn, S. Ehlert, S. Grimme, J. Phys. Chem. A,
     2023, XX, XXXX-XXXX. DOI: 10.1021/acs.jpca.3c04382
   
   for DFT-D4:
   * E. Caldeweyher, C. Bannwarth and S. Grimme, J. Chem. Phys., 2017,
     147, 034112. DOI: 10.1063/1.4993215
   * E. Caldeweyher, S. Ehlert, A. Hansen, H. Neugebauer, S. Spicher,
     C. Bannwarth and S. Grimme, J. Chem. Phys., 2019, 150, 154122.
     DOI: 10.1063/1.5090222
   * E. Caldeweyher, J.-M. Mewes, S. Ehlert and S. Grimme, Phys. Chem. Chem. Phys.
     2020, 22, 8499-8512. DOI: 10.1039/D0CP00502A
   
   for sTDA-xTB:
   * S. Grimme and C. Bannwarth, J. Chem. Phys., 2016, 145, 054103.
     DOI: 10.1063/1.4959605
   
   in the mass-spec context:
   * V. Asgeirsson, C. Bauer and S. Grimme, Chem. Sci., 2017, 8, 4879.
     DOI: 10.1039/c7sc00601b
   * J. Koopman and S. Grimme, ACS Omega 2019, 4, 12, 15120-15133.
     DOI: 10.1021/acsomega.9b02011
   
   for metadynamics refer to:
   * S. Grimme, J. Chem. Theory Comput., 2019, 155, 2847-2862
     DOI: 10.1021/acs.jctc.9b00143
   
   for SPH calculations refer to:
   * S. Spicher and S. Grimme, J. Chem. Theory Comput., 2021, 17, 1701-1714
     DOI: 10.1021/acs.jctc.0c01306
   
   for ONIOM refer to:
   * C. Plett, A. Katbashev, S. Ehlert, S. Grimme, M. Bursch,
     Phys. Chem. Chem. Phys., 2023, 25, 17860-17868. DOI: 10.1039/D3CP02178E
   
   for DIPRO refer to:
   * J. Kohn, N. Gildemeister, S. Grimme, D. Fazzi, A. Hansen,
     J. Chem. Phys., 2023, just accepted.
   
   for PTB refer to:
   * S. Grimme, M. Mueller, A. Hansen, J. Chem. Phys., 2023, 158, 124111.
     DOI: 10.1063/5.0137838
   
   with help from (in alphabetical order)
   P. Atkinson, C. Bannwarth, F. Bohle, G. Brandenburg, E. Caldeweyher
   M. Checinski, S. Dohm, S. Ehlert, S. Ehrlich, I. Gerasimov, C. Hölzer
   A. Katbashev, J. Kohn, J. Koopman, C. Lavigne, S. Lehtola, F. März, M. Müller,
   F. Musil, H. Neugebauer, J. Pisarek, C. Plett, P. Pracht, F. Pultar,
   J. Seibert, P. Shushkov, S. Spicher, M. Stahn, M. Steiner, T. Strunk,
   J. Stückrath, T. Rose, and J. Unsleber
   
 * started run on 2026/08/31 at 21:55:06.464     
   ID    Z sym.   atoms
    1    6 C      1, 5, 6, 8-16, 18-21, 23-28, 30, 32, 34, 36, 38, 77-83
    2   16 S      2
    3    8 O      3, 4, 22, 39, 84-97
    4    7 N      7, 17, 35, 37
    5    9 F      29
    6   17 Cl     31, 33
    7    1 H      40-64
    8   22 Ti     65-76

           -------------------------------------------------
          |                Calculation Setup                |
           -------------------------------------------------

          program call               : "c:\Users\Andre\Proyectos doctorado\kras-pancreatic-gC3N4-ai\tools\xtb\xtb-6.7.1\bin\xtb.exe" "c:\Users\Andre\Proyectos doctorado\mxene-glioblastoma-qsar-ai\calculations\gbm\Lapatinib\Lapatinib_Ti12C7O14_clean_complex.xyz" --gfn 2 --sp --chrg 0 --uhf 0 --etemp 500 --acc 1.0 --iterations 500 --norestart
          coordinate file            : c:\Users\Andre\Proyectos doctorado\mxene-glioblastoma-qsar-ai\calculations\gbm\Lapatinib\Lapatinib_Ti12C7O14_clean_complex.xyz
          omp threads                :                    16


molecular fragmentation (1/2 indicates fragments):
111111111111111111111111111111111111111111111111111111111111111122222222
2222222222222222222222222
# atoms in fragment 1/2:    64    33
 fragment masses (1/2) :      591.48      882.47
CMA distance (Bohr)    :  18.288
constraining FC (au)   :  0.0500

           -------------------------------------------------
          |                 G F N 2 - x T B                 |
           -------------------------------------------------

        Reference                      10.1021/acs.jctc.8b01176
      * Hamiltonian:
        H0-scaling (s, p, d)           1.850000    2.230000    2.230000
        zeta-weighting                 0.500000
      * Dispersion:
        s8                             2.700000
        a1                             0.520000
        a2                             5.000000
        s9                             5.000000
      * Repulsion:
        kExp                           1.500000    1.000000
        rExp                           1.000000
      * Coulomb:
        alpha                          2.000000
        third order                    shell-resolved
        anisotropic                    true
        a3                             3.000000
        a5                             4.000000
        cn-shift                       1.200000
        cn-exp                         4.000000
        max-rad                        5.000000


          ...................................................
          :                      SETUP                      :
          :.................................................:
          :  # basis functions                 403          :
          :  # atomic orbitals                 388          :
          :  # shells                          184          :
          :  # electrons                       364          :
          :  max. iterations                   500          :
          :  Hamiltonian                  GFN2-xTB          :
          :  restarted?                      false          :
          :  GBSA solvation                  false          :
          :  PC potential                    false          :
          :  electronic temp.          500.0000000     K    :
          :  accuracy                    1.0000000          :
          :  -> integral cutoff          0.2500000E+02      :
          :  -> integral neglect         0.1000000E-07      :
          :  -> SCF convergence          0.1000000E-05 Eh   :
          :  -> wf. convergence          0.1000000E-03 e    :
          :  Broyden damping             0.4000000          :
          :  net charge                          0          :
          :  unpaired electrons                  0          :
          ...................................................

 iter      E             dE          RMSdq      gap      omega  full diag
   1   -206.7710199 -0.206771E+03  0.129E+01    0.11       0.0  T
   2   -162.5078115  0.442632E+02  0.138E+01    0.11       1.0  T
   3     91.6752282  0.254183E+03  0.277E+01    0.12       1.0  T
   4   -154.8767859 -0.246552E+03  0.146E+01    0.04       1.0  T
   5    -96.6208351  0.582560E+02  0.170E+01    0.02       1.0  T
   6   -205.5036020 -0.108883E+03  0.105E+01    0.02       1.0  T
   7   -205.0111765  0.492425E+00  0.799E+00    0.24       1.0  T
   8   -206.9582689 -0.194709E+01  0.596E+00    0.07       1.0  T
   9   -201.0661448  0.589212E+01  0.782E+00    0.14       1.0  T
  10   -207.9550935 -0.688895E+01  0.593E+00    0.16       1.0  T
  11   -202.4911009  0.546399E+01  0.673E+00    0.03       1.0  T
  12   -206.0046016 -0.351350E+01  0.618E+00    0.13       1.0  T
  13   -206.5881853 -0.583584E+00  0.585E+00    0.04       1.0  T
  14   -205.9287485  0.659437E+00  0.569E+00    0.09       1.0  T
  15   -203.6091216  0.231963E+01  0.626E+00    0.33       1.0  T
  16   -205.2534446 -0.164432E+01  0.515E+00    0.03       1.0  T
  17   -201.1292287  0.412422E+01  0.508E+00    0.06       1.0  T
  18   -204.2213530 -0.309212E+01  0.435E+00    0.07       1.0  T
  19   -206.1728702 -0.195152E+01  0.353E+00    0.03       1.0  T
  20   -207.5566976 -0.138383E+01  0.303E+00    0.06       1.0  T
  21   -208.3521788 -0.795481E+00  0.278E+00    0.00       1.0  T
  22   -208.4485090 -0.963302E-01  0.273E+00    0.01       1.0  T
  23   -208.7008611 -0.252352E+00  0.269E+00    0.03       1.0  T
  24   -208.7333659 -0.325048E-01  0.277E+00    0.03       1.0  T
  25   -209.3912204 -0.657854E+00  0.178E+00    0.03       1.0  T
  26   -209.5073957 -0.116175E+00  0.172E+00    0.18       1.0  T
  27   -209.5086309 -0.123523E-02  0.166E+00    0.17       1.0  T
  28   -209.5252815 -0.166506E-01  0.143E+00    0.18       1.0  T
  29   -209.5355628 -0.102813E-01  0.134E+00    0.27       1.0  T
  30   -209.5371928 -0.163004E-02  0.122E+00    0.25       1.0  T
  31   -209.5453856 -0.819277E-02  0.107E+00    0.35       1.0  T
  32   -209.5526865 -0.730088E-02  0.945E-01    0.45       1.0  T
  33   -209.5572929 -0.460641E-02  0.853E-01    0.52       1.0  T
  34   -209.5662757 -0.898283E-02  0.652E-01    0.67       1.0  T
  35   -209.5757615 -0.948583E-02  0.471E-01    0.79       1.0  T
  36   -209.5782255 -0.246399E-02  0.434E-01    0.78       1.0  T
  37   -209.5809363 -0.271080E-02  0.395E-01    0.75       1.0  T
  38   -209.5821812 -0.124483E-02  0.377E-01    0.74       1.0  T
  39   -209.5828102 -0.629045E-03  0.365E-01    0.73       1.0  T
  40   -209.5863481 -0.353786E-02  0.314E-01    0.73       1.0  T
  41   -209.5887002 -0.235216E-02  0.282E-01    0.71       1.0  T
  42   -209.5906570 -0.195673E-02  0.244E-01    0.68       1.0  T
  43   -209.5923421 -0.168512E-02  0.216E-01    0.65       1.0  T
  44   -209.5940854 -0.174338E-02  0.177E-01    0.63       1.0  T
  45   -209.5948593 -0.773830E-03  0.138E-01    0.59       1.0  T
  46   -209.5952288 -0.369484E-03  0.112E-01    0.57       1.0  T
  47   -209.5954791 -0.250320E-03  0.947E-02    0.54       1.0  T
  48   -209.5959396 -0.460475E-03  0.693E-02    0.48       1.0  T
  49   -209.5961249 -0.185296E-03  0.602E-02    0.45       1.0  T
  50   -209.5963610 -0.236099E-03  0.484E-02    0.42       1.0  T
  51   -209.5964732 -0.112205E-03  0.412E-02    0.40       1.0  T
  52   -209.5965409 -0.677542E-04  0.361E-02    0.39       1.0  T
  53   -209.5966360 -0.951185E-04  0.296E-02    0.37       1.0  T
  54   -209.5966738 -0.377903E-04  0.254E-02    0.36       1.0  T
  55   -209.5967234 -0.495623E-04  0.198E-02    0.35       1.0  T
  56   -209.5967473 -0.239376E-04  0.165E-02    0.34       1.0  T
  57   -209.5967587 -0.114260E-04  0.142E-02    0.34       1.0  T
  58   -209.5967651 -0.636357E-05  0.124E-02    0.34       1.0  T
  59   -209.5967708 -0.569405E-05  0.997E-03    0.34       1.0  T
  60   -209.5967746 -0.376928E-05  0.781E-03    0.34       1.3  T
  61   -209.5967792 -0.464469E-05  0.556E-03    0.34       1.8  T
  62   -209.5967811 -0.188033E-05  0.358E-03    0.33       2.8  T
  63   -209.5967821 -0.954476E-06  0.203E-03    0.33       5.0  T
  64   -209.5967822 -0.193259E-06  0.158E-03    0.33       6.4  T
  65   -209.5967823 -0.940278E-07  0.129E-03    0.33       7.9  T
  66   -209.5967825 -0.109781E-06  0.792E-04    0.33      12.8  T
  67   -209.5967825 -0.312066E-07  0.496E-04    0.33      20.5  T

   *** convergence criteria satisfied after 67 iterations ***

         #    Occupation            Energy/Eh            Energy/eV
      -------------------------------------------------------------
         1        2.0000           -1.0604757             -28.8570
       ...           ...                  ...                  ...
       176        2.0000           -0.3586137              -9.7584
       177        2.0000           -0.3556020              -9.6764
       178        2.0000           -0.3541157              -9.6360
       179        2.0000           -0.3506756              -9.5424
       180        2.0000           -0.3427959              -9.3280
       181        2.0000           -0.3292563              -8.9595
       182        1.9596           -0.3149239              -8.5695 (HOMO)
       183        0.0404           -0.3026311              -8.2350 (LUMO)
       184        0.0000           -0.2911947              -7.9238
       185        0.0000           -0.2894418              -7.8761
       186        0.0000           -0.2893720              -7.8742
       187        0.0000           -0.2885521              -7.8519
       ...           ...                  ...                  ...
       388                         13.3511461             363.3032
      -------------------------------------------------------------
                  HL-Gap            0.0122928 Eh            0.3345 eV
             Fermi-level           -0.3087785 Eh           -8.4023 eV

 SCC (total)                   0 d,  0 h,  0 min,  3.892 sec
 SCC setup                      ...        0 min,  0.001 sec (  0.026%)
 Dispersion                     ...        0 min,  0.004 sec (  0.103%)
 classical contributions        ...        0 min,  0.000 sec (  0.000%)
 integral evaluation            ...        0 min,  0.014 sec (  0.360%)
 iterations                     ...        0 min,  3.841 sec ( 98.690%)
 molecular gradient             ...        0 min,  0.031 sec (  0.797%)
 printout                       ...        0 min,  0.001 sec (  0.026%)

         :::::::::::::::::::::::::::::::::::::::::::::::::::::
         ::                     SUMMARY                     ::
         :::::::::::::::::::::::::::::::::::::::::::::::::::::
         :: total energy            -207.543043576874 Eh    ::
         :: gradient norm              0.121689692431 Eh/a0 ::
         :: HOMO-LUMO gap              0.334503247963 eV    ::
         ::.................................................::
         :: SCC energy              -209.594886382094 Eh    ::
         :: -> isotropic ES            1.045291660491 Eh    ::
         :: -> anisotropic ES         -0.381878654993 Eh    ::
         :: -> anisotropic XC         -0.018934723751 Eh    ::
         :: -> dispersion             -0.166402447363 Eh    ::
         :: repulsion energy           2.051842805220 Eh    ::
         :: add. restraining           0.000000000000 Eh    ::
         :: total charge              -0.000000000015 e     ::
         :::::::::::::::::::::::::::::::::::::::::::::::::::::

           -------------------------------------------------
          |                Property Printout                |
           -------------------------------------------------

    * Orbital Energies and Occupations

         #    Occupation            Energy/Eh            Energy/eV
      -------------------------------------------------------------
         1        2.0000           -1.0604757             -28.8570
       ...           ...                  ...                  ...
       170        2.0000           -0.3863852             -10.5141
       171        2.0000           -0.3847388             -10.4693
       172        2.0000           -0.3826152             -10.4115
       173        2.0000           -0.3746338             -10.1943
       174        2.0000           -0.3663730              -9.9695
       175        2.0000           -0.3641649              -9.9094
       176        2.0000           -0.3586137              -9.7584
       177        2.0000           -0.3556020              -9.6764
       178        2.0000           -0.3541157              -9.6360
       179        2.0000           -0.3506756              -9.5424
       180        2.0000           -0.3427959              -9.3280
       181        2.0000           -0.3292563              -8.9595
       182        1.9596           -0.3149239              -8.5695 (HOMO)
       183        0.0404           -0.3026311              -8.2350 (LUMO)
       184        0.0000           -0.2911947              -7.9238
       185        0.0000           -0.2894418              -7.8761
       186        0.0000           -0.2893720              -7.8742
       187        0.0000           -0.2885521              -7.8519
       188        0.0000           -0.2853928              -7.7659
       189                         -0.2799986              -7.6192
       190                         -0.2789193              -7.5898
       191                         -0.2769417              -7.5360
       192                         -0.2767134              -7.5298
       193                         -0.2763372              -7.5195
       ...                                ...                  ...
       388                         13.3511461             363.3032
      -------------------------------------------------------------
                  HL-Gap            0.0122928 Eh            0.3345 eV
             Fermi-level           -0.3087785 Eh           -8.4023 eV

     #   Z          covCN         q      C6AA      α(0)
     1   6 C        3.745    -0.201    24.547     7.067
     2  16 S        3.698     0.987   107.031    17.412
     3   8 O        0.860    -0.558    25.106     6.718
     4   8 O        0.860    -0.558    25.109     6.718
     5   6 C        3.797    -0.148    23.361     6.882
     6   6 C        3.773     0.002    20.570     6.463
     7   7 N        2.676    -0.266    26.887     7.701
     8   6 C        3.742    -0.003    20.708     6.492
     9   6 C        3.033     0.098    25.795     8.331
    10   6 C        2.965    -0.074    29.839     8.960
    11   6 C        3.010    -0.074    29.821     8.958
    12   6 C        3.005     0.102    25.735     8.322
    13   6 C        2.946    -0.026    28.652     8.779
    14   6 C        2.911    -0.018    28.470     8.749
    15   6 C        2.915    -0.116    30.946     9.122
    16   6 C        2.854     0.143    24.886     8.176
    17   7 N        2.700    -0.147    24.191     7.305
    18   6 C        2.890     0.071    26.411     8.426
    19   6 C        2.917    -0.058    29.433     8.896
    20   6 C        2.910    -0.054    29.345     8.883
    21   6 C        2.917     0.123    25.291     8.247
    22   8 O        1.701    -0.293    18.874     5.866
    23   6 C        3.723     0.083    19.304     6.274
    24   6 C        2.980     0.005    27.913     8.666
    25   6 C        2.914    -0.033    28.827     8.804
    26   6 C        2.910    -0.033    28.822     8.803
    27   6 C        2.912    -0.051    29.274     8.872
    28   6 C        2.810     0.164    24.458     8.103
    29   9 F        0.787    -0.202    11.256     3.963
    30   6 C        2.879     0.065    26.531     8.444
    31  17 Cl       0.955    -0.149   103.820    15.588
    32   6 C        2.876     0.076    26.305     8.408
    33  17 Cl       0.959    -0.154   103.960    15.599
    34   6 C        2.958    -0.073    29.826     8.958
    35   7 N        1.836    -0.233    26.941     7.692
    36   6 C        2.862     0.146    24.824     8.167
    37   7 N        1.824    -0.189    25.911     7.543
    38   6 C        2.893     0.078    26.248     8.400
    39   8 O        1.726    -0.213    17.530     5.653
    40   1 H        0.925     0.093     1.846     2.125
    41   1 H        0.925     0.085     1.925     2.170
    42   1 H        0.925     0.096     1.825     2.113
    43   1 H        0.924     0.077     2.014     2.219
    44   1 H        0.924     0.085     1.924     2.169
    45   1 H        0.924     0.033     2.545     2.495
    46   1 H        0.924     0.063     2.161     2.299
    47   1 H        0.859     0.155     1.367     1.832
    48   1 H        0.924     0.053     2.287     2.365
    49   1 H        0.924     0.063     2.159     2.298
    50   1 H        0.925     0.042     2.421     2.433
    51   1 H        0.925     0.034     2.530     2.487
    52   1 H        0.925     0.056     2.249     2.345
    53   1 H        0.925     0.029     2.595     2.519
    54   1 H        0.860     0.178     1.227     1.735
    55   1 H        0.925     0.071     2.080     2.255
    56   1 H        0.925     0.062     2.180     2.309
    57   1 H        0.924     0.054     2.270     2.356
    58   1 H        0.923     0.051     2.311     2.377
    59   1 H        0.925     0.081     1.970     2.195
    60   1 H        0.925     0.061     2.187     2.313
    61   1 H        0.925     0.071     2.070     2.250
    62   1 H        0.925     0.057     2.234     2.338
    63   1 H        0.923     0.063     2.160     2.299
    64   1 H        0.923     0.065     2.139     2.287
    65  22 Ti       3.637     1.052   101.782    24.486
    66  22 Ti       6.855     1.553    84.042    14.884
    67  22 Ti       3.227     1.050   102.616    24.736
    68  22 Ti       5.860     1.381    85.657    15.026
    69  22 Ti       5.627     1.125    88.164    15.244
    70  22 Ti       3.541     1.029   102.594    24.686
    71  22 Ti       2.352     0.883   202.617    34.853
    72  22 Ti       6.011     1.350    85.960    15.053
    73  22 Ti       3.414     1.010   103.028    24.776
    74  22 Ti       5.519     1.101    88.409    15.266
    75  22 Ti       5.687     1.192    87.501    15.187
    76  22 Ti       3.581     1.028   102.448    24.639
    77   6 C        2.246    -0.258    37.663     9.943
    78   6 C        2.142    -0.255    38.309    10.005
    79   6 C        2.248    -0.019    30.595     8.962
    80   6 C        1.838    -0.208    37.276     9.863
    81   6 C        1.894    -0.223    37.715     9.919
    82   6 C        1.821    -0.345    42.102    10.484
    83   6 C        2.631    -0.402    39.861    10.327
    84   8 O        1.554    -0.849    32.050     7.638
    85   8 O        1.464    -0.881    33.225     7.769
    86   8 O        1.557    -0.957    35.631     8.054
    87   8 O        1.523    -1.007    37.492     8.259
    88   8 O        1.523    -0.914    34.202     7.888
    89   8 O        1.458    -0.824    31.440     7.557
    90   8 O        1.455    -0.798    30.655     7.462
    91   8 O        0.727    -0.635    27.063     6.971
    92   8 O        1.453    -0.864    32.704     7.707
    93   8 O        1.476    -0.800    30.680     7.467
    94   8 O        1.603    -0.946    35.204     8.008
    95   8 O        1.547    -0.970    36.098     8.106
    96   8 O        1.700    -0.817    30.978     7.515
    97   8 O        1.453    -0.781    30.168     7.402

 Mol. C6AA /au·bohr⁶  :     234636.440848
 Mol. C8AA /au·bohr⁸  :    9686991.953999
 Mol. α(0) /au        :        813.135743


Wiberg/Mayer (AO) data.
largest (>0.10) Wiberg bond orders for each atom

 ---------------------------------------------------------------------------
     #   Z sym  total        # sym  WBO       # sym  WBO       # sym  WBO
 ---------------------------------------------------------------------------
     1   6 C    3.978 --    41 H    0.979    40 H    0.978    42 H    0.972
                             2 S    0.803
     2  16 S    4.908 --     3 O    1.633     4 O    1.631     1 C    0.803
                             5 C    0.787
     3   8 O    1.924 --     2 S    1.633     4 O    0.117
     4   8 O    1.925 --     2 S    1.631     3 O    0.117
     5   6 C    3.983 --     6 C    1.010    43 H    0.968    44 H    0.962
                             2 S    0.787
     6   6 C    3.985 --     5 C    1.010     7 N    1.010    46 H    0.967
                            45 H    0.967
     7   7 N    3.050 --     6 C    1.010     8 C    1.000    47 H    0.951
     8   6 C    3.986 --     9 C    1.007     7 N    1.000    48 H    0.970
                            49 H    0.955
     9   6 C    3.896 --    10 C    1.552    39 O    1.112     8 C    1.007
                            12 C    0.124
    10   6 C    3.980 --     9 C    1.552    11 C    1.318    50 H    0.973
    11   6 C    3.963 --    12 C    1.494    10 C    1.318    51 H    0.972
    12   6 C    3.910 --    11 C    1.494    13 C    1.119    39 O    1.079
                             9 C    0.124
    13   6 C    3.971 --    14 C    1.661    12 C    1.119    38 C    1.024
    14   6 C    3.968 --    13 C    1.661    15 C    1.105    52 H    0.953
    15   6 C    3.936 --    16 C    1.610    14 C    1.105    53 H    0.947
    16   6 C    3.944 --    15 C    1.610    17 N    1.119    35 N    1.099
    17   7 N    3.447 --    16 C    1.119    18 C    1.111    54 H    0.934
    18   6 C    3.966 --    19 C    1.355    34 C    1.349    17 N    1.111
    19   6 C    3.980 --    20 C    1.450    18 C    1.355    55 H    0.962
    20   6 C    3.987 --    19 C    1.450    21 C    1.385    56 H    0.966
                            34 C    0.102
    21   6 C    3.930 --    20 C    1.385    32 C    1.345    22 O    1.014
    22   8 O    2.106 --    21 C    1.014    23 C    0.953
    23   6 C    3.949 --    24 C    1.006    57 H    0.957    58 H    0.955
                            22 O    0.953
    24   6 C    3.983 --    25 C    1.408    30 C    1.371    23 C    1.006
                            27 C    0.104
    25   6 C    3.985 --    26 C    1.438    24 C    1.408    59 H    0.963
    26   6 C    3.989 --    25 C    1.438    27 C    1.437    60 H    0.968
    27   6 C    3.986 --    26 C    1.437    28 C    1.392    61 H    0.965
                            24 C    0.104
    28   6 C    3.892 --    27 C    1.392    30 C    1.359    29 F    0.976
    29   9 F    1.115 --    28 C    0.976
    30   6 C    3.918 --    24 C    1.371    28 C    1.359    31 Cl   0.987
    31  17 Cl   1.134 --    30 C    0.987
    32   6 C    3.920 --    34 C    1.417    21 C    1.345    33 Cl   0.986
    33  17 Cl   1.127 --    32 C    0.986
    34   6 C    3.976 --    32 C    1.417    18 C    1.349    62 H    0.965
                            20 C    0.102
    35   7 N    3.141 --    36 C    1.742    16 C    1.099    37 N    0.116
    36   6 C    3.956 --    35 N    1.742    37 N    1.160    63 H    0.933
    37   7 N    3.213 --    38 C    1.798    36 C    1.160    35 N    0.116
    38   6 C    3.927 --    37 N    1.798    13 C    1.024    64 H    0.904
    39   8 O    2.399 --     9 C    1.112    12 C    1.079
    40   1 H    0.991 --     1 C    0.978
    41   1 H    0.993 --     1 C    0.979
    42   1 H    0.991 --     1 C    0.972
    43   1 H    0.994 --     5 C    0.968
    44   1 H    0.992 --     5 C    0.962
    45   1 H    0.999 --     6 C    0.967
    46   1 H    0.996 --     6 C    0.967
    47   1 H    0.976 --     7 N    0.951
    48   1 H    0.997 --     8 C    0.970
    49   1 H    0.994 --     8 C    0.955
    50   1 H    0.998 --    10 C    0.973
    51   1 H    0.997 --    11 C    0.972
    52   1 H    0.995 --    14 C    0.953
    53   1 H    0.993 --    15 C    0.947
    54   1 H    0.968 --    17 N    0.934
    55   1 H    0.994 --    19 C    0.962
    56   1 H    0.996 --    20 C    0.966
    57   1 H    0.997 --    23 C    0.957
    58   1 H    0.997 --    23 C    0.955
    59   1 H    0.993 --    25 C    0.963
    60   1 H    0.995 --    26 C    0.968
    61   1 H    0.995 --    27 C    0.965
    62   1 H    0.997 --    34 C    0.965
    63   1 H    0.995 --    36 C    0.933
    64   1 H    0.996 --    38 C    0.904
    65  22 Ti   2.823 --    84 O    0.845    85 O    0.815    71 Ti   0.330
                            66 Ti   0.200    68 Ti   0.197    70 Ti   0.100
    66  22 Ti   3.851 --    85 O    0.750    88 O    0.744    86 O    0.689
                            87 O    0.609    65 Ti   0.200    67 Ti   0.188
                            69 Ti   0.139    70 Ti   0.134
    67  22 Ti   2.721 --    93 O    0.961    86 O    0.599    73 Ti   0.372
                            66 Ti   0.188    71 Ti   0.140    88 O    0.110
    68  22 Ti   3.917 --    89 O    0.934    77 C    0.721    84 O    0.703
                            87 O    0.566    70 Ti   0.208    65 Ti   0.197
                            74 Ti   0.179    94 O    0.124
    69  22 Ti   4.065 --    83 C    0.886    90 O    0.778    81 C    0.743
                            88 O    0.601    75 Ti   0.283    70 Ti   0.171
                            82 C    0.156    78 C    0.152    66 Ti   0.139
    70  22 Ti   2.701 --    90 O    0.963    89 O    0.707    68 Ti   0.208
                            69 Ti   0.171    66 Ti   0.134    85 O    0.122
                            65 Ti   0.100
    71  22 Ti   3.768 --    91 O    1.997    72 Ti   0.608    65 Ti   0.330
                            86 O    0.153    84 O    0.147    67 Ti   0.140
                            94 O    0.112
    72  22 Ti   4.015 --    94 O    0.800    92 O    0.754    95 O    0.714
                            71 Ti   0.608    96 O    0.195    73 Ti   0.167
                            76 Ti   0.148    74 Ti   0.141
    73  22 Ti   2.745 --    92 O    0.834    93 O    0.764    67 Ti   0.372
                            76 Ti   0.221    72 Ti   0.167    75 Ti   0.130
    74  22 Ti   4.000 --    82 C    1.049    80 C    0.727    96 O    0.617
                            94 O    0.443    83 C    0.224    76 Ti   0.200
                            68 Ti   0.179    77 C    0.156    72 Ti   0.141
    75  22 Ti   4.076 --    97 O    0.968    78 C    0.671    83 C    0.650
                            95 O    0.442    69 Ti   0.283    76 Ti   0.210
                            82 C    0.139    73 Ti   0.130    93 O    0.114
    76  22 Ti   2.788 --    96 O    0.899    97 O    0.734    73 Ti   0.221
                            75 Ti   0.210    74 Ti   0.200    72 Ti   0.148
    77   6 C    3.842 --    80 C    2.739    68 Ti   0.721    74 Ti   0.156
    78   6 C    3.782 --    81 C    2.732    75 Ti   0.671    69 Ti   0.152
    79   6 C    3.978 --    82 C    2.009    83 C    1.606
    80   6 C    3.706 --    77 C    2.739    74 Ti   0.727
    81   6 C    3.748 --    78 C    2.732    69 Ti   0.743
    82   6 C    3.747 --    79 C    2.009    74 Ti   1.049    69 Ti   0.156
                            75 Ti   0.139
    83   6 C    3.804 --    79 C    1.606    69 Ti   0.886    75 Ti   0.650
                            74 Ti   0.224
    84   8 O    1.932 --    65 Ti   0.845    68 Ti   0.703    71 Ti   0.147
    85   8 O    1.892 --    65 Ti   0.815    66 Ti   0.750    70 Ti   0.122
    86   8 O    1.782 --    66 Ti   0.689    67 Ti   0.599    71 Ti   0.153
    87   8 O    1.717 --    66 Ti   0.609    68 Ti   0.566
    88   8 O    1.845 --    66 Ti   0.744    69 Ti   0.601    67 Ti   0.110
    89   8 O    1.969 --    68 Ti   0.934    70 Ti   0.707
    90   8 O    2.015 --    70 Ti   0.963    69 Ti   0.778
    91   8 O    2.172 --    71 Ti   1.997
    92   8 O    1.911 --    73 Ti   0.834    72 Ti   0.754
    93   8 O    2.007 --    67 Ti   0.961    73 Ti   0.764    75 Ti   0.114
    94   8 O    1.798 --    72 Ti   0.800    74 Ti   0.443    68 Ti   0.124
                            71 Ti   0.112
    95   8 O    1.771 --    72 Ti   0.714    75 Ti   0.442
    96   8 O    1.986 --    76 Ti   0.899    74 Ti   0.617    72 Ti   0.195
    97   8 O    2.032 --    75 Ti   0.968    76 Ti   0.734
 ---------------------------------------------------------------------------

Topologies differ in total number of bonds
Writing topology from bond orders to xtbtopo.mol

molecular dipole:
                 x           y           z       tot (Debye)
 q only:        0.896      -0.893      -0.004
   full:       -0.238      -1.205       0.059       3.126
molecular quadrupole (traceless):
                xx          xy          yy          xz          yz          zz
 q only:     -114.007      48.361      -2.009     -60.199      -0.030     116.016
  q+dip:     -104.612      45.825       3.372     -28.022     -20.756     101.239
   full:     -104.261      47.337       3.738     -28.931     -18.151     100.523


           -------------------------------------------------
          | TOTAL ENERGY             -207.543043576874 Eh   |
          | GRADIENT NORM               0.121689692431 Eh/α |
          | HOMO-LUMO GAP               0.334503247963 eV   |
           -------------------------------------------------

------------------------------------------------------------------------
 * finished run on 2026/08/31 at 21:55:10.435     
------------------------------------------------------------------------
 total:
 * wall-time:     0 d,  0 h,  0 min,  3.968 sec
 *  cpu-time:     0 d,  0 h,  0 min, 16.766 sec
 * ratio c/w:     4.225 speedup
 SCF:
 * wall-time:     0 d,  0 h,  0 min,  3.894 sec
 *  cpu-time:     0 d,  0 h,  0 min, 16.438 sec
 * ratio c/w:     4.221 speedup

normal termination of xtb
