      -----------------------------------------------------------      
     |                   =====================                   |     
     |                           x T B                           |     
     |                   =====================                   |     
     |                         S. Grimme                         |     
     |          Mulliken Center for Theoretical Chemistry        |     
     |                    University of Bonn                     |     
      -----------------------------------------------------------      

   * xtb version 6.7.1pre (5071a88) compiled by 'Marcel@Raven' on 2024-07-23

   xtb is free software: you can redistribute it and/or modify it under
   the terms of the GNU Lesser General Public License as published by
   the Free Software Foundation, either version 3 of the License, or
   (at your option) any later version.
   
   xtb is distributed in the hope that it will be useful,
   but WITHOUT ANY WARRANTY; without even the implied warranty of
   MERCHANTABILITY or FITNESS FOR A PARTICULAR PURPOSE.  See the
   GNU Lesser General Public License for more details.
   
   Cite this work as:
   * C. Bannwarth, E. Caldeweyher, S. Ehlert, A. Hansen, P. Pracht,
     J. Seibert, S. Spicher, S. Grimme, WIREs Comput. Mol. Sci., 2020, 11,
     e01493. DOI: 10.1002/wcms.1493
   
   for GFN2-xTB:
   * C. Bannwarth, S. Ehlert and S. Grimme., J. Chem. Theory Comput., 2019,
     15, 1652-1671. DOI: 10.1021/acs.jctc.8b01176
   for GFN1-xTB:
   * S. Grimme, C. Bannwarth, P. Shushkov, J. Chem. Theory Comput., 2017,
     13, 1989-2009. DOI: 10.1021/acs.jctc.7b00118
   for GFN0-xTB:
   * P. Pracht, E. Caldeweyher, S. Ehlert, S. Grimme, ChemRxiv, 2019, preprint.
     DOI: 10.26434/chemrxiv.8326202.v1
   for GFN-FF:
   * S. Spicher and S. Grimme, Angew. Chem. Int. Ed., 2020, 59, 15665-15673.
     DOI: 10.1002/anie.202004239
   
   for ALPB and GBSA implicit solvation:
   * S. Ehlert, M. Stahn, S. Spicher, S. Grimme, J. Chem. Theory Comput.,
     2021, 17, 4250-4261. DOI: 10.1021/acs.jctc.1c00471
   
   for ddCOSMO and CPCM-X implicit solvation:
   * M. Stahn, S. Ehlert, S. Grimme, J. Phys. Chem. A,
     2023, XX, XXXX-XXXX. DOI: 10.1021/acs.jpca.3c04382
   
   for DFT-D4:
   * E. Caldeweyher, C. Bannwarth and S. Grimme, J. Chem. Phys., 2017,
     147, 034112. DOI: 10.1063/1.4993215
   * E. Caldeweyher, S. Ehlert, A. Hansen, H. Neugebauer, S. Spicher,
     C. Bannwarth and S. Grimme, J. Chem. Phys., 2019, 150, 154122.
     DOI: 10.1063/1.5090222
   * E. Caldeweyher, J.-M. Mewes, S. Ehlert and S. Grimme, Phys. Chem. Chem. Phys.
     2020, 22, 8499-8512. DOI: 10.1039/D0CP00502A
   
   for sTDA-xTB:
   * S. Grimme and C. Bannwarth, J. Chem. Phys., 2016, 145, 054103.
     DOI: 10.1063/1.4959605
   
   in the mass-spec context:
   * V. Asgeirsson, C. Bauer and S. Grimme, Chem. Sci., 2017, 8, 4879.
     DOI: 10.1039/c7sc00601b
   * J. Koopman and S. Grimme, ACS Omega 2019, 4, 12, 15120-15133.
     DOI: 10.1021/acsomega.9b02011
   
   for metadynamics refer to:
   * S. Grimme, J. Chem. Theory Comput., 2019, 155, 2847-2862
     DOI: 10.1021/acs.jctc.9b00143
   
   for SPH calculations refer to:
   * S. Spicher and S. Grimme, J. Chem. Theory Comput., 2021, 17, 1701-1714
     DOI: 10.1021/acs.jctc.0c01306
   
   for ONIOM refer to:
   * C. Plett, A. Katbashev, S. Ehlert, S. Grimme, M. Bursch,
     Phys. Chem. Chem. Phys., 2023, 25, 17860-17868. DOI: 10.1039/D3CP02178E
   
   for DIPRO refer to:
   * J. Kohn, N. Gildemeister, S. Grimme, D. Fazzi, A. Hansen,
     J. Chem. Phys., 2023, just accepted.
   
   for PTB refer to:
   * S. Grimme, M. Mueller, A. Hansen, J. Chem. Phys., 2023, 158, 124111.
     DOI: 10.1063/5.0137838
   
   with help from (in alphabetical order)
   P. Atkinson, C. Bannwarth, F. Bohle, G. Brandenburg, E. Caldeweyher
   M. Checinski, S. Dohm, S. Ehlert, S. Ehrlich, I. Gerasimov, C. Hölzer
   A. Katbashev, J. Kohn, J. Koopman, C. Lavigne, S. Lehtola, F. März, M. Müller,
   F. Musil, H. Neugebauer, J. Pisarek, C. Plett, P. Pracht, F. Pultar,
   J. Seibert, P. Shushkov, S. Spicher, M. Stahn, M. Steiner, T. Strunk,
   J. Stückrath, T. Rose, and J. Unsleber
   
 * started run on 2026/08/31 at 21:19:24.928     
   ID    Z sym.   atoms
    1    6 C      1-7, 10, 12, 13, 43-49
    2    8 O      8, 11, 50-63
    3    7 N      9
    4   17 Cl     14
    5    1 H      15-30
    6   22 Ti     31-42

           -------------------------------------------------
          |                Calculation Setup                |
           -------------------------------------------------

          program call               : "c:\Users\Andre\Proyectos doctorado\kras-pancreatic-gC3N4-ai\tools\xtb\xtb-6.7.1\bin\xtb.exe" "c:\Users\Andre\Proyectos doctorado\mxene-glioblastoma-qsar-ai\calculations\gbm\Marizomib\Marizomib_Ti12C7O14_phys_complex.xyz" --gfn 2 --sp --chrg 0 --uhf 0 --etemp 300 --iterations 500 --norestart
          coordinate file            : c:\Users\Andre\Proyectos doctorado\mxene-glioblastoma-qsar-ai\calculations\gbm\Marizomib\Marizomib_Ti12C7O14_phys_complex.xyz
          omp threads                :                    16


molecular fragmentation (1/2 indicates fragments):
111111111111111111111111111111222222222222222222222222222222222
# atoms in fragment 1/2:    30    33
 fragment masses (1/2) :      217.69      882.47
CMA distance (Bohr)    :  17.896
constraining FC (au)   :  0.0500

           -------------------------------------------------
          |                 G F N 2 - x T B                 |
           -------------------------------------------------

        Reference                      10.1021/acs.jctc.8b01176
      * Hamiltonian:
        H0-scaling (s, p, d)           1.850000    2.230000    2.230000
        zeta-weighting                 0.500000
      * Dispersion:
        s8                             2.700000
        a1                             0.520000
        a2                             5.000000
        s9                             5.000000
      * Repulsion:
        kExp                           1.500000    1.000000
        rExp                           1.000000
      * Coulomb:
        alpha                          2.000000
        third order                    shell-resolved
        anisotropic                    true
        a3                             3.000000
        a5                             4.000000
        cn-shift                       1.200000
        cn-exp                         4.000000
        max-rad                        5.000000


          ...................................................
          :                      SETUP                      :
          :.................................................:
          :  # basis functions                 282          :
          :  # atomic orbitals                 269          :
          :  # shells                          123          :
          :  # electrons                       240          :
          :  max. iterations                   500          :
          :  Hamiltonian                  GFN2-xTB          :
          :  restarted?                      false          :
          :  GBSA solvation                  false          :
          :  PC potential                    false          :
          :  electronic temp.          300.0000000     K    :
          :  accuracy                    1.0000000          :
          :  -> integral cutoff          0.2500000E+02      :
          :  -> integral neglect         0.1000000E-07      :
          :  -> SCF convergence          0.1000000E-05 Eh   :
          :  -> wf. convergence          0.1000000E-03 e    :
          :  Broyden damping             0.4000000          :
          :  net charge                          0          :
          :  unpaired electrons                  0          :
          ...................................................

 iter      E             dE          RMSdq      gap      omega  full diag
   1   -136.6333687 -0.136633E+03  0.145E+01    0.05       0.0  T
   2   -126.1136823  0.105197E+02  0.112E+01    0.04       1.0  T
   3    -84.8502535  0.412634E+02  0.221E+01    0.17       1.0  T
   4   -137.5133168 -0.526631E+02  0.745E+00    0.37       1.0  T
   5   -137.4603045  0.530123E-01  0.603E+00    0.06       1.0  T
   6   -136.6850972  0.775207E+00  0.645E+00    0.01       1.0  T
   7   -137.9925662 -0.130747E+01  0.394E+00    0.76       1.0  T
   8   -138.1574536 -0.164887E+00  0.295E+00    0.70       1.0  T
   9   -138.2019743 -0.445207E-01  0.213E+00    0.29       1.0  T
  10   -137.9335999  0.268374E+00  0.276E+00    0.04       1.0  T
  11   -138.1897246 -0.256125E+00  0.169E+00    0.16       1.0  T
  12   -137.7072150  0.482510E+00  0.329E+00    0.06       1.0  T
  13   -138.2695027 -0.562288E+00  0.133E+00    0.45       1.0  T
  14   -138.2902150 -0.207122E-01  0.125E+00    0.72       1.0  T
  15   -138.2943501 -0.413509E-02  0.120E+00    0.74       1.0  T
  16   -138.3005890 -0.623894E-02  0.106E+00    0.79       1.0  T
  17   -138.3174416 -0.168525E-01  0.631E-01    0.88       1.0  T
  18   -138.3274445 -0.100029E-01  0.362E-01    0.78       1.0  T
  19   -138.3290890 -0.164458E-02  0.301E-01    0.77       1.0  T
  20   -138.3318572 -0.276811E-02  0.266E-01    0.74       1.0  T
  21   -138.3327806 -0.923421E-03  0.249E-01    0.73       1.0  T
  22   -138.3335726 -0.792016E-03  0.239E-01    0.71       1.0  T
  23   -138.3343797 -0.807056E-03  0.206E-01    0.71       1.0  T
  24   -138.3349519 -0.572281E-03  0.196E-01    0.69       1.0  T
  25   -138.3352831 -0.331144E-03  0.172E-01    0.69       1.0  T
  26   -138.3358381 -0.554973E-03  0.122E-01    0.66       1.0  T
  27   -138.3361146 -0.276593E-03  0.717E-02    0.64       1.0  T
  28   -138.3362385 -0.123846E-03  0.330E-02    0.62       1.0  T
  29   -138.3362807 -0.421679E-04  0.200E-02    0.61       1.0  T
  30   -138.3362953 -0.146315E-04  0.974E-03    0.60       1.3  T
  31   -138.3362972 -0.188456E-05  0.537E-03    0.60       2.3  T
  32   -138.3362976 -0.408192E-06  0.433E-03    0.60       2.9  T
  33   -138.3362984 -0.858720E-06  0.249E-03    0.60       5.1  T
  34   -138.3362985 -0.834911E-07  0.123E-03    0.60      10.2  T
  35   -138.3362985 -0.319523E-08  0.850E-04    0.60      14.8  T
  36   -138.3362985 -0.194482E-07  0.576E-04    0.60      21.9  T

   *** convergence criteria satisfied after 36 iterations ***

         #    Occupation            Energy/Eh            Energy/eV
      -------------------------------------------------------------
         1        2.0000           -1.0396050             -28.2891
       ...           ...                  ...                  ...
       114        2.0000           -0.3603023              -9.8043
       115        2.0000           -0.3552345              -9.6664
       116        2.0000           -0.3516076              -9.5677
       117        2.0000           -0.3474380              -9.4543
       118        2.0000           -0.3396342              -9.2419
       119        2.0000           -0.3246427              -8.8340
       120        2.0000           -0.3099883              -8.4352 (HOMO)
       121        0.0000           -0.2881009              -7.8396 (LUMO)
       122        0.0000           -0.2864202              -7.7939
       123        0.0000           -0.2863553              -7.7921
       124        0.0000           -0.2854578              -7.7677
       125                         -0.2813689              -7.6564
       ...                                ...                  ...
       269                         13.3696129             363.8057
      -------------------------------------------------------------
                  HL-Gap            0.0218874 Eh            0.5956 eV
             Fermi-level           -0.2992019 Eh           -8.1417 eV

 SCC (total)                   0 d,  0 h,  0 min,  0.512 sec
 SCC setup                      ...        0 min,  0.001 sec (  0.195%)
 Dispersion                     ...        0 min,  0.001 sec (  0.195%)
 classical contributions        ...        0 min,  0.000 sec (  0.000%)
 integral evaluation            ...        0 min,  0.006 sec (  1.172%)
 iterations                     ...        0 min,  0.491 sec ( 95.898%)
 molecular gradient             ...        0 min,  0.012 sec (  2.344%)
 printout                       ...        0 min,  0.001 sec (  0.195%)

         :::::::::::::::::::::::::::::::::::::::::::::::::::::
         ::                     SUMMARY                     ::
         :::::::::::::::::::::::::::::::::::::::::::::::::::::
         :: total energy            -137.199379746582 Eh    ::
         :: gradient norm              0.067066475579 Eh/a0 ::
         :: HOMO-LUMO gap              0.595585816848 eV    ::
         ::.................................................::
         :: SCC energy              -138.334000486930 Eh    ::
         :: -> isotropic ES            0.973598637217 Eh    ::
         :: -> anisotropic ES         -0.382964189032 Eh    ::
         :: -> anisotropic XC         -0.049321398243 Eh    ::
         :: -> dispersion             -0.118474241975 Eh    ::
         :: repulsion energy           1.134620740348 Eh    ::
         :: add. restraining           0.000000000000 Eh    ::
         :: total charge               0.000000000013 e     ::
         :::::::::::::::::::::::::::::::::::::::::::::::::::::

           -------------------------------------------------
          |                Property Printout                |
           -------------------------------------------------

    * Orbital Energies and Occupations

         #    Occupation            Energy/Eh            Energy/eV
      -------------------------------------------------------------
         1        2.0000           -1.0396050             -28.2891
       ...           ...                  ...                  ...
       108        2.0000           -0.3915568             -10.6548
       109        2.0000           -0.3881579             -10.5623
       110        2.0000           -0.3836414             -10.4394
       111        2.0000           -0.3792112             -10.3189
       112        2.0000           -0.3706987             -10.0872
       113        2.0000           -0.3626049              -9.8670
       114        2.0000           -0.3603023              -9.8043
       115        2.0000           -0.3552345              -9.6664
       116        2.0000           -0.3516076              -9.5677
       117        2.0000           -0.3474380              -9.4543
       118        2.0000           -0.3396342              -9.2419
       119        2.0000           -0.3246427              -8.8340
       120        2.0000           -0.3099883              -8.4352 (HOMO)
       121        0.0000           -0.2881009              -7.8396 (LUMO)
       122        0.0000           -0.2864202              -7.7939
       123        0.0000           -0.2863553              -7.7921
       124        0.0000           -0.2854578              -7.7677
       125                         -0.2813689              -7.6564
       126                         -0.2768060              -7.5323
       127                         -0.2755955              -7.4993
       128                         -0.2739365              -7.4542
       129                         -0.2738424              -7.4516
       130                         -0.2731297              -7.4322
       131                         -0.2725500              -7.4165
       ...                                ...                  ...
       269                         13.3696129             363.8057
      -------------------------------------------------------------
                  HL-Gap            0.0218874 Eh            0.5956 eV
             Fermi-level           -0.2992019 Eh           -8.1417 eV

     #   Z          covCN         q      C6AA      α(0)
     1   6 C        3.749    -0.113    22.719     6.798
     2   6 C        3.799    -0.068    21.798     6.648
     3   6 C        4.065     0.010    20.332     6.405
     4   6 C        3.751    -0.122    22.907     6.825
     5   6 C        4.308     0.017    20.211     6.385
     6   6 C        4.034    -0.063    21.622     6.605
     7   6 C        3.073     0.285    22.119     7.711
     8   8 O        0.856    -0.381    21.308     6.189
     9   7 N        3.078    -0.199    25.309     7.472
    10   6 C        3.861     0.181    17.686     5.981
    11   8 O        1.652    -0.430    21.448     6.252
    12   6 C        3.825    -0.064    21.716     6.631
    13   6 C        3.713     0.019    20.376     6.450
    14  17 Cl       0.914    -0.198   105.379    15.705
    15   1 H        0.924     0.048     2.349     2.397
    16   1 H        0.924     0.046     2.369     2.407
    17   1 H        0.924     0.048     2.349     2.397
    18   1 H        0.924     0.050     2.316     2.380
    19   1 H        0.924     0.041     2.434     2.440
    20   1 H        0.924     0.049     2.336     2.390
    21   1 H        0.924     0.060     2.205     2.322
    22   1 H        0.924     0.068     2.113     2.273
    23   1 H        0.924     0.057     2.237     2.339
    24   1 H        0.924     0.077     2.010     2.217
    25   1 H        0.924     0.030     2.594     2.519
    26   1 H        0.804     0.310     0.691     1.306
    27   1 H        0.924     0.057     2.233     2.337
    28   1 H        0.924     0.062     2.170     2.304
    29   1 H        0.924     0.069     2.102     2.267
    30   1 H        0.924     0.087     1.906     2.159
    31  22 Ti       3.637     1.049   101.817    24.491
    32  22 Ti       6.855     1.550    84.063    14.886
    33  22 Ti       3.227     1.047   102.655    24.740
    34  22 Ti       5.860     1.380    85.670    15.027
    35  22 Ti       5.627     1.123    88.191    15.247
    36  22 Ti       3.541     1.034   102.541    24.680
    37  22 Ti       2.352     0.880   202.680    34.859
    38  22 Ti       6.011     1.348    85.972    15.054
    39  22 Ti       3.414     1.007   103.067    24.781
    40  22 Ti       5.519     1.095    88.470    15.271
    41  22 Ti       5.687     1.189    87.532    15.190
    42  22 Ti       3.581     1.025   102.485    24.644
    43   6 C        2.246    -0.259    37.678     9.945
    44   6 C        2.142    -0.256    38.348    10.010
    45   6 C        2.248    -0.019    30.610     8.964
    46   6 C        1.838    -0.210    37.323     9.870
    47   6 C        1.894    -0.223    37.715     9.918
    48   6 C        1.821    -0.346    42.166    10.492
    49   6 C        2.631    -0.404    39.912    10.334
    50   8 O        1.554    -0.848    32.037     7.636
    51   8 O        1.464    -0.882    33.267     7.774
    52   8 O        1.557    -0.957    35.631     8.054
    53   8 O        1.523    -1.006    37.434     8.253
    54   8 O        1.523    -0.914    34.201     7.888
    55   8 O        1.458    -0.823    31.405     7.553
    56   8 O        1.455    -0.795    30.585     7.454
    57   8 O        0.727    -0.637    27.118     6.978
    58   8 O        1.453    -0.865    32.730     7.710
    59   8 O        1.476    -0.800    30.687     7.468
    60   8 O        1.603    -0.946    35.204     8.008
    61   8 O        1.547    -0.968    36.052     8.100
    62   8 O        1.700    -0.818    31.001     7.517
    63   8 O        1.453    -0.782    30.196     7.406

 Mol. C6AA /au·bohr⁶  :     109274.562349
 Mol. C8AA /au·bohr⁸  :    5320943.981597
 Mol. α(0) /au        :        564.710799


Wiberg/Mayer (AO) data.
largest (>0.10) Wiberg bond orders for each atom

 ---------------------------------------------------------------------------
     #   Z sym  total        # sym  WBO       # sym  WBO       # sym  WBO
 ---------------------------------------------------------------------------
     1   6 C    3.993 --     2 C    1.018    16 H    0.985    17 H    0.985
                            15 H    0.985
     2   6 C    3.983 --     1 C    1.018     3 C    0.989    19 H    0.972
                            18 H    0.961
     3   6 C    3.979 --     4 C    1.003     2 C    0.989     5 C    0.960
                            10 C    0.957
     4   6 C    3.973 --     3 C    1.003    21 H    0.982    22 H    0.979
                            20 H    0.968
     5   6 C    3.948 --     6 C    0.979    23 H    0.964     9 N    0.964
                             3 C    0.960
     6   6 C    3.985 --    12 C    0.990     5 C    0.979    24 H    0.943
                             7 C    0.942
     7   6 C    3.942 --     8 O    1.771     9 N    1.146     6 C    0.942
     8   8 O    2.085 --     7 C    1.771     9 N    0.165
     9   7 N    3.291 --     7 C    1.146     5 C    0.964    10 C    0.934
                             8 O    0.165
    10   6 C    3.941 --    11 O    1.000    25 H    0.959     3 C    0.957
                             9 N    0.934
    11   8 O    1.972 --    10 C    1.000    26 H    0.886
    12   6 C    3.988 --    13 C    1.015     6 C    0.990    27 H    0.968
                            28 H    0.964
    13   6 C    3.939 --    12 C    1.015    29 H    0.977    30 H    0.974
                            14 Cl   0.953
    14  17 Cl   0.999 --    13 C    0.953
    15   1 H    0.998 --     1 C    0.985
    16   1 H    0.998 --     1 C    0.985
    17   1 H    0.997 --     1 C    0.985
    18   1 H    0.997 --     2 C    0.961
    19   1 H    0.998 --     2 C    0.972
    20   1 H    0.997 --     4 C    0.968
    21   1 H    0.996 --     4 C    0.982
    22   1 H    0.995 --     4 C    0.979
    23   1 H    0.994 --     5 C    0.964
    24   1 H    0.992 --     6 C    0.943
    25   1 H    0.999 --    10 C    0.959
    26   1 H    0.903 --    11 O    0.886
    27   1 H    0.997 --    12 C    0.968
    28   1 H    0.996 --    12 C    0.964
    29   1 H    0.995 --    13 C    0.977
    30   1 H    0.992 --    13 C    0.974
    31  22 Ti   2.829 --    50 O    0.847    51 O    0.813    37 Ti   0.332
                            32 Ti   0.202    34 Ti   0.199
    32  22 Ti   3.855 --    51 O    0.750    54 O    0.747    52 O    0.688
                            53 O    0.611    31 Ti   0.202    33 Ti   0.187
                            35 Ti   0.140    36 Ti   0.132
    33  22 Ti   2.725 --    59 O    0.962    52 O    0.600    39 Ti   0.372
                            32 Ti   0.187    37 Ti   0.140    54 O    0.110
    34  22 Ti   3.918 --    55 O    0.939    43 C    0.721    50 O    0.702
                            53 O    0.566    36 Ti   0.203    31 Ti   0.199
                            40 Ti   0.179    60 O    0.123
    35  22 Ti   4.066 --    49 C    0.892    56 O    0.772    47 C    0.742
                            54 O    0.598    41 Ti   0.282    36 Ti   0.172
                            48 C    0.161    44 C    0.151    32 Ti   0.140
    36  22 Ti   2.644 --    56 O    0.973    55 O    0.705    34 Ti   0.203
                            35 Ti   0.172    32 Ti   0.132    51 O    0.123
    37  22 Ti   3.768 --    57 O    1.995    38 Ti   0.607    31 Ti   0.332
                            52 O    0.153    50 O    0.148    33 Ti   0.140
                            60 O    0.112
    38  22 Ti   4.019 --    60 O    0.802    58 O    0.751    61 O    0.716
                            37 Ti   0.607    62 O    0.196    39 Ti   0.167
                            42 Ti   0.149    40 Ti   0.141
    39  22 Ti   2.748 --    58 O    0.835    59 O    0.765    33 Ti   0.372
                            42 Ti   0.221    38 Ti   0.167    41 Ti   0.129
    40  22 Ti   4.015 --    48 C    1.059    46 C    0.726    62 O    0.613
                            60 O    0.441    49 C    0.233    42 Ti   0.200
                            34 Ti   0.179    43 C    0.156    38 Ti   0.141
    41  22 Ti   4.082 --    63 O    0.965    44 C    0.671    49 C    0.655
                            61 O    0.441    35 Ti   0.282    42 Ti   0.210
                            48 C    0.141    39 Ti   0.129    59 O    0.113
    42  22 Ti   2.794 --    62 O    0.900    63 O    0.735    39 Ti   0.221
                            41 Ti   0.210    40 Ti   0.200    38 Ti   0.149
    43   6 C    3.842 --    46 C    2.739    34 Ti   0.721    40 Ti   0.156
    44   6 C    3.782 --    47 C    2.732    41 Ti   0.671    35 Ti   0.151
    45   6 C    3.979 --    48 C    2.008    49 C    1.605
    46   6 C    3.705 --    43 C    2.739    40 Ti   0.726
    47   6 C    3.747 --    44 C    2.732    35 Ti   0.742
    48   6 C    3.769 --    45 C    2.008    40 Ti   1.059    35 Ti   0.161
                            41 Ti   0.141
    49   6 C    3.830 --    45 C    1.605    35 Ti   0.892    41 Ti   0.655
                            40 Ti   0.233
    50   8 O    1.933 --    31 Ti   0.847    34 Ti   0.702    37 Ti   0.148
    51   8 O    1.890 --    31 Ti   0.813    32 Ti   0.750    36 Ti   0.123
    52   8 O    1.782 --    32 Ti   0.688    33 Ti   0.600    37 Ti   0.153
    53   8 O    1.720 --    32 Ti   0.611    34 Ti   0.566
    54   8 O    1.845 --    32 Ti   0.747    35 Ti   0.598    33 Ti   0.110
    55   8 O    1.968 --    34 Ti   0.939    36 Ti   0.705
    56   8 O    2.016 --    36 Ti   0.973    35 Ti   0.772
    57   8 O    2.170 --    37 Ti   1.995
    58   8 O    1.909 --    39 Ti   0.835    38 Ti   0.751
    59   8 O    2.007 --    33 Ti   0.962    39 Ti   0.765    41 Ti   0.113
    60   8 O    1.798 --    38 Ti   0.802    40 Ti   0.441    34 Ti   0.123
                            37 Ti   0.112
    61   8 O    1.773 --    38 Ti   0.716    41 Ti   0.441
    62   8 O    1.985 --    42 Ti   0.900    40 Ti   0.613    38 Ti   0.196
    63   8 O    2.030 --    41 Ti   0.965    42 Ti   0.735
 ---------------------------------------------------------------------------

Topologies differ in total number of bonds
Writing topology from bond orders to xtbtopo.mol

molecular dipole:
                 x           y           z       tot (Debye)
 q only:       -0.083      -1.733      -1.264
   full:       -1.230      -1.854      -0.902       6.102
molecular quadrupole (traceless):
                xx          xy          yy          xz          yz          zz
 q only:      -22.745     -14.407       6.928     -55.067     -27.632      15.817
  q+dip:       -8.894     -21.950      -6.714     -20.717     -41.047      15.608
   full:       -5.782     -20.344      -5.427     -21.506     -39.135      11.209


           -------------------------------------------------
          | TOTAL ENERGY             -137.199379746582 Eh   |
          | GRADIENT NORM               0.067066475579 Eh/α |
          | HOMO-LUMO GAP               0.595585816848 eV   |
           -------------------------------------------------

------------------------------------------------------------------------
 * finished run on 2026/08/31 at 21:19:25.477     
------------------------------------------------------------------------
 total:
 * wall-time:     0 d,  0 h,  0 min,  0.548 sec
 *  cpu-time:     0 d,  0 h,  0 min,  5.047 sec
 * ratio c/w:     9.210 speedup
 SCF:
 * wall-time:     0 d,  0 h,  0 min,  0.513 sec
 *  cpu-time:     0 d,  0 h,  0 min,  4.688 sec
 * ratio c/w:     9.137 speedup

normal termination of xtb
