      -----------------------------------------------------------      
     |                   =====================                   |     
     |                           x T B                           |     
     |                   =====================                   |     
     |                         S. Grimme                         |     
     |          Mulliken Center for Theoretical Chemistry        |     
     |                    University of Bonn                     |     
      -----------------------------------------------------------      

   * xtb version 6.7.1pre (5071a88) compiled by 'Marcel@Raven' on 2024-07-23

   xtb is free software: you can redistribute it and/or modify it under
   the terms of the GNU Lesser General Public License as published by
   the Free Software Foundation, either version 3 of the License, or
   (at your option) any later version.
   
   xtb is distributed in the hope that it will be useful,
   but WITHOUT ANY WARRANTY; without even the implied warranty of
   MERCHANTABILITY or FITNESS FOR A PARTICULAR PURPOSE.  See the
   GNU Lesser General Public License for more details.
   
   Cite this work as:
   * C. Bannwarth, E. Caldeweyher, S. Ehlert, A. Hansen, P. Pracht,
     J. Seibert, S. Spicher, S. Grimme, WIREs Comput. Mol. Sci., 2020, 11,
     e01493. DOI: 10.1002/wcms.1493
   
   for GFN2-xTB:
   * C. Bannwarth, S. Ehlert and S. Grimme., J. Chem. Theory Comput., 2019,
     15, 1652-1671. DOI: 10.1021/acs.jctc.8b01176
   for GFN1-xTB:
   * S. Grimme, C. Bannwarth, P. Shushkov, J. Chem. Theory Comput., 2017,
     13, 1989-2009. DOI: 10.1021/acs.jctc.7b00118
   for GFN0-xTB:
   * P. Pracht, E. Caldeweyher, S. Ehlert, S. Grimme, ChemRxiv, 2019, preprint.
     DOI: 10.26434/chemrxiv.8326202.v1
   for GFN-FF:
   * S. Spicher and S. Grimme, Angew. Chem. Int. Ed., 2020, 59, 15665-15673.
     DOI: 10.1002/anie.202004239
   
   for ALPB and GBSA implicit solvation:
   * S. Ehlert, M. Stahn, S. Spicher, S. Grimme, J. Chem. Theory Comput.,
     2021, 17, 4250-4261. DOI: 10.1021/acs.jctc.1c00471
   
   for ddCOSMO and CPCM-X implicit solvation:
   * M. Stahn, S. Ehlert, S. Grimme, J. Phys. Chem. A,
     2023, XX, XXXX-XXXX. DOI: 10.1021/acs.jpca.3c04382
   
   for DFT-D4:
   * E. Caldeweyher, C. Bannwarth and S. Grimme, J. Chem. Phys., 2017,
     147, 034112. DOI: 10.1063/1.4993215
   * E. Caldeweyher, S. Ehlert, A. Hansen, H. Neugebauer, S. Spicher,
     C. Bannwarth and S. Grimme, J. Chem. Phys., 2019, 150, 154122.
     DOI: 10.1063/1.5090222
   * E. Caldeweyher, J.-M. Mewes, S. Ehlert and S. Grimme, Phys. Chem. Chem. Phys.
     2020, 22, 8499-8512. DOI: 10.1039/D0CP00502A
   
   for sTDA-xTB:
   * S. Grimme and C. Bannwarth, J. Chem. Phys., 2016, 145, 054103.
     DOI: 10.1063/1.4959605
   
   in the mass-spec context:
   * V. Asgeirsson, C. Bauer and S. Grimme, Chem. Sci., 2017, 8, 4879.
     DOI: 10.1039/c7sc00601b
   * J. Koopman and S. Grimme, ACS Omega 2019, 4, 12, 15120-15133.
     DOI: 10.1021/acsomega.9b02011
   
   for metadynamics refer to:
   * S. Grimme, J. Chem. Theory Comput., 2019, 155, 2847-2862
     DOI: 10.1021/acs.jctc.9b00143
   
   for SPH calculations refer to:
   * S. Spicher and S. Grimme, J. Chem. Theory Comput., 2021, 17, 1701-1714
     DOI: 10.1021/acs.jctc.0c01306
   
   for ONIOM refer to:
   * C. Plett, A. Katbashev, S. Ehlert, S. Grimme, M. Bursch,
     Phys. Chem. Chem. Phys., 2023, 25, 17860-17868. DOI: 10.1039/D3CP02178E
   
   for DIPRO refer to:
   * J. Kohn, N. Gildemeister, S. Grimme, D. Fazzi, A. Hansen,
     J. Chem. Phys., 2023, just accepted.
   
   for PTB refer to:
   * S. Grimme, M. Mueller, A. Hansen, J. Chem. Phys., 2023, 158, 124111.
     DOI: 10.1063/5.0137838
   
   with help from (in alphabetical order)
   P. Atkinson, C. Bannwarth, F. Bohle, G. Brandenburg, E. Caldeweyher
   M. Checinski, S. Dohm, S. Ehlert, S. Ehrlich, I. Gerasimov, C. Hölzer
   A. Katbashev, J. Kohn, J. Koopman, C. Lavigne, S. Lehtola, F. März, M. Müller,
   F. Musil, H. Neugebauer, J. Pisarek, C. Plett, P. Pracht, F. Pultar,
   J. Seibert, P. Shushkov, S. Spicher, M. Stahn, M. Steiner, T. Strunk,
   J. Stückrath, T. Rose, and J. Unsleber
   
 * started run on 2026/08/31 at 21:53:12.570     
   ID    Z sym.   atoms
    1    6 C      1-7, 10, 12, 13
    2    8 O      8, 11
    3    7 N      9
    4   17 Cl     14
    5    1 H      15-30

           -------------------------------------------------
          |                Calculation Setup                |
           -------------------------------------------------

          program call               : "c:\Users\Andre\Proyectos doctorado\kras-pancreatic-gC3N4-ai\tools\xtb\xtb-6.7.1\bin\xtb.exe" "c:\Users\Andre\Proyectos doctorado\mxene-glioblastoma-qsar-ai\calculations\gbm\Marizomib\Marizomib_drug.xyz" --gfn 2 --sp --chrg 0 --uhf 0 --etemp 500 --acc 1.0 --iterations 500 --norestart
          coordinate file            : c:\Users\Andre\Proyectos doctorado\mxene-glioblastoma-qsar-ai\calculations\gbm\Marizomib\Marizomib_drug.xyz
          omp threads                :                    16


           -------------------------------------------------
          |                 G F N 2 - x T B                 |
           -------------------------------------------------

        Reference                      10.1021/acs.jctc.8b01176
      * Hamiltonian:
        H0-scaling (s, p, d)           1.850000    2.230000    2.230000
        zeta-weighting                 0.500000
      * Dispersion:
        s8                             2.700000
        a1                             0.520000
        a2                             5.000000
        s9                             5.000000
      * Repulsion:
        kExp                           1.500000    1.000000
        rExp                           1.000000
      * Coulomb:
        alpha                          2.000000
        third order                    shell-resolved
        anisotropic                    true
        a3                             3.000000
        a5                             4.000000
        cn-shift                       1.200000
        cn-exp                         4.000000
        max-rad                        5.000000


          ...................................................
          :                      SETUP                      :
          :.................................................:
          :  # basis functions                  78          :
          :  # atomic orbitals                  77          :
          :  # shells                           45          :
          :  # electrons                        80          :
          :  max. iterations                   500          :
          :  Hamiltonian                  GFN2-xTB          :
          :  restarted?                      false          :
          :  GBSA solvation                  false          :
          :  PC potential                    false          :
          :  electronic temp.          500.0000000     K    :
          :  accuracy                    1.0000000          :
          :  -> integral cutoff          0.2500000E+02      :
          :  -> integral neglect         0.1000000E-07      :
          :  -> SCF convergence          0.1000000E-05 Eh   :
          :  -> wf. convergence          0.1000000E-03 e    :
          :  Broyden damping             0.4000000          :
          :  net charge                          0          :
          :  unpaired electrons                  0          :
          ...................................................

 iter      E             dE          RMSdq      gap      omega  full diag
   1    -45.5290544 -0.455291E+02  0.362E+00    3.85       0.0  T
   2    -45.5931360 -0.640816E-01  0.197E+00    3.60       1.0  T
   3    -45.5948679 -0.173196E-02  0.989E-01    3.71       1.0  T
   4    -45.5980005 -0.313259E-02  0.181E-01    3.50       1.0  T
   5    -45.5985517 -0.551174E-03  0.790E-02    3.57       1.0  T
   6    -45.5985793 -0.275996E-04  0.371E-02    3.57       1.0  T
   7    -45.5985841 -0.480780E-05  0.177E-02    3.57       1.0  T
   8    -45.5985861 -0.196215E-05  0.115E-02    3.57       1.6  T
   9    -45.5985870 -0.966423E-06  0.803E-03    3.57       2.3  T
  10    -45.5985878 -0.821674E-06  0.352E-03    3.57       5.2  T
  11    -45.5985880 -0.129357E-06  0.181E-03    3.57      10.1  T
  12    -45.5985880 -0.289979E-07  0.848E-04    3.57      21.5  T
  13    -45.5985880 -0.559272E-08  0.545E-04    3.57      33.5  T

   *** convergence criteria satisfied after 13 iterations ***

         #    Occupation            Energy/Eh            Energy/eV
      -------------------------------------------------------------
         1        2.0000           -1.0455020             -28.4496
       ...           ...                  ...                  ...
        34        2.0000           -0.4539399             -12.3523
        35        2.0000           -0.4413515             -12.0098
        36        2.0000           -0.4261761             -11.5968
        37        2.0000           -0.4242678             -11.5449
        38        2.0000           -0.4086511             -11.1200
        39        2.0000           -0.4064492             -11.0600
        40        2.0000           -0.3853332             -10.4855 (HOMO)
        41                         -0.2542789              -6.9193 (LUMO)
        42                         -0.1476859              -4.0187
        43                         -0.0852809              -2.3206
        44                         -0.0298216              -0.8115
        45                         -0.0090618              -0.2466
       ...                                ...                  ...
        77                          0.6865494              18.6820
      -------------------------------------------------------------
                  HL-Gap            0.1310544 Eh            3.5662 eV
             Fermi-level           -0.3198060 Eh           -8.7024 eV

 SCC (total)                   0 d,  0 h,  0 min,  0.025 sec
 SCC setup                      ...        0 min,  0.001 sec (  4.000%)
 Dispersion                     ...        0 min,  0.000 sec (  0.000%)
 classical contributions        ...        0 min,  0.000 sec (  0.000%)
 integral evaluation            ...        0 min,  0.002 sec (  8.000%)
 iterations                     ...        0 min,  0.020 sec ( 80.000%)
 molecular gradient             ...        0 min,  0.002 sec (  8.000%)
 printout                       ...        0 min,  0.000 sec (  0.000%)

         :::::::::::::::::::::::::::::::::::::::::::::::::::::
         ::                     SUMMARY                     ::
         :::::::::::::::::::::::::::::::::::::::::::::::::::::
         :: total energy             -45.139875468226 Eh    ::
         :: gradient norm              0.088833466039 Eh/a0 ::
         :: HOMO-LUMO gap              3.566170820155 eV    ::
         ::.................................................::
         :: SCC energy               -45.598234093408 Eh    ::
         :: -> isotropic ES            0.065750174781 Eh    ::
         :: -> anisotropic ES          0.003579171632 Eh    ::
         :: -> anisotropic XC          0.017733797972 Eh    ::
         :: -> dispersion             -0.027982750624 Eh    ::
         :: repulsion energy           0.458358625181 Eh    ::
         :: add. restraining           0.000000000000 Eh    ::
         :: total charge              -0.000000000000 e     ::
         :::::::::::::::::::::::::::::::::::::::::::::::::::::

           -------------------------------------------------
          |                Property Printout                |
           -------------------------------------------------

    * Orbital Energies and Occupations

         #    Occupation            Energy/Eh            Energy/eV
      -------------------------------------------------------------
         1        2.0000           -1.0455020             -28.4496
       ...           ...                  ...                  ...
        28        2.0000           -0.4868806             -13.2487
        29        2.0000           -0.4790271             -13.0350
        30        2.0000           -0.4740798             -12.9004
        31        2.0000           -0.4672153             -12.7136
        32        2.0000           -0.4658353             -12.6760
        33        2.0000           -0.4556120             -12.3978
        34        2.0000           -0.4539399             -12.3523
        35        2.0000           -0.4413515             -12.0098
        36        2.0000           -0.4261761             -11.5968
        37        2.0000           -0.4242678             -11.5449
        38        2.0000           -0.4086511             -11.1200
        39        2.0000           -0.4064492             -11.0600
        40        2.0000           -0.3853332             -10.4855 (HOMO)
        41                         -0.2542789              -6.9193 (LUMO)
        42                         -0.1476859              -4.0187
        43                         -0.0852809              -2.3206
        44                         -0.0298216              -0.8115
        45                         -0.0090618              -0.2466
        46                         -0.0045186              -0.1230
        47                          0.0173023               0.4708
        48                          0.0212671               0.5787
        49                          0.0244644               0.6657
        50                          0.0326226               0.8877
        51                          0.0329994               0.8980
       ...                                ...                  ...
        77                          0.6865494              18.6820
      -------------------------------------------------------------
                  HL-Gap            0.1310544 Eh            3.5662 eV
             Fermi-level           -0.3198060 Eh           -8.7024 eV

     #   Z          covCN         q      C6AA      α(0)
     1   6 C        3.749    -0.102    22.519     6.768
     2   6 C        3.802    -0.065    21.738     6.638
     3   6 C        4.082     0.012    20.287     6.398
     4   6 C        3.753    -0.110    22.665     6.789
     5   6 C        4.339     0.026    20.057     6.360
     6   6 C        4.027    -0.056    21.489     6.585
     7   6 C        3.087     0.296    21.915     7.674
     8   8 O        0.856    -0.355    20.798     6.114
     9   7 N        3.088    -0.228    25.979     7.570
    10   6 C        3.878     0.188    17.581     5.962
    11   8 O        1.652    -0.431    21.467     6.254
    12   6 C        3.822    -0.059    21.626     6.618
    13   6 C        3.714     0.028    20.222     6.425
    14  17 Cl       0.912    -0.193   105.194    15.691
    15   1 H        0.924     0.043     2.410     2.428
    16   1 H        0.924     0.033     2.551     2.498
    17   1 H        0.924     0.035     2.515     2.480
    18   1 H        0.923     0.050     2.320     2.382
    19   1 H        0.924     0.044     2.397     2.421
    20   1 H        0.924     0.059     2.205     2.322
    21   1 H        0.924     0.058     2.222     2.331
    22   1 H        0.924     0.041     2.439     2.443
    23   1 H        0.924     0.052     2.296     2.370
    24   1 H        0.924     0.068     2.106     2.269
    25   1 H        0.924     0.016     2.799     2.616
    26   1 H        0.804     0.313     0.684     1.299
    27   1 H        0.924     0.061     2.186     2.312
    28   1 H        0.924     0.050     2.323     2.384
    29   1 H        0.924     0.065     2.141     2.288
    30   1 H        0.924     0.061     2.183     2.311

 Mol. C6AA /au·bohr⁶  :       8822.100327
 Mol. C8AA /au·bohr⁸  :     211266.626766
 Mol. α(0) /au        :        138.999643


Wiberg/Mayer (AO) data.
largest (>0.10) Wiberg bond orders for each atom

 ---------------------------------------------------------------------------
     #   Z sym  total        # sym  WBO       # sym  WBO       # sym  WBO
 ---------------------------------------------------------------------------
     1   6 C    3.997 --     2 C    1.021    15 H    0.984    17 H    0.983
                            16 H    0.982
     2   6 C    3.994 --     1 C    1.021     3 C    0.989    19 H    0.973
                            18 H    0.972
     3   6 C    3.978 --     4 C    0.992     2 C    0.989     5 C    0.967
                            10 C    0.962
     4   6 C    3.990 --     3 C    0.992    22 H    0.985    21 H    0.984
                            20 H    0.983
     5   6 C    3.947 --     6 C    0.969    23 H    0.967     3 C    0.967
                             9 N    0.955
     6   6 C    3.987 --    12 C    0.995     5 C    0.969     7 C    0.943
                            24 H    0.940
     7   6 C    3.935 --     8 O    1.817     9 N    1.099     6 C    0.943
     8   8 O    2.109 --     7 C    1.817     9 N    0.134
     9   7 N    3.203 --     7 C    1.099     5 C    0.955    10 C    0.921
                             8 O    0.134
    10   6 C    3.940 --    11 O    1.002     3 C    0.962    25 H    0.955
                             9 N    0.921
    11   8 O    1.971 --    10 C    1.002    26 H    0.883
    12   6 C    3.994 --    13 C    1.014     6 C    0.995    27 H    0.973
                            28 H    0.965
    13   6 C    3.946 --    12 C    1.014    29 H    0.978    30 H    0.977
                            14 Cl   0.959
    14  17 Cl   1.003 --    13 C    0.959
    15   1 H    0.998 --     1 C    0.984
    16   1 H    0.999 --     1 C    0.982
    17   1 H    0.999 --     1 C    0.983
    18   1 H    0.997 --     2 C    0.972
    19   1 H    0.998 --     2 C    0.973
    20   1 H    0.996 --     4 C    0.983
    21   1 H    0.996 --     4 C    0.984
    22   1 H    0.998 --     4 C    0.985
    23   1 H    0.997 --     5 C    0.967
    24   1 H    0.995 --     6 C    0.940
    25   1 H    1.000 --    10 C    0.955
    26   1 H    0.902 --    11 O    0.883
    27   1 H    0.996 --    12 C    0.973
    28   1 H    0.997 --    12 C    0.965
    29   1 H    0.995 --    13 C    0.978
    30   1 H    0.996 --    13 C    0.977
 ---------------------------------------------------------------------------

Topologies differ in total number of bonds
Writing topology from bond orders to xtbtopo.mol

molecular dipole:
                 x           y           z       tot (Debye)
 q only:       -0.893       1.650      -1.071
   full:       -0.732       1.701      -0.886       5.217
molecular quadrupole (traceless):
                xx          xy          yy          xz          yz          zz
 q only:       -6.227       9.542       2.912      -8.808       4.501       3.315
  q+dip:       -8.952       7.834       2.798     -11.775       4.393       6.154
   full:       -8.665       7.828       2.884     -11.211       3.830       5.780


           -------------------------------------------------
          | TOTAL ENERGY              -45.139875468226 Eh   |
          | GRADIENT NORM               0.088833466039 Eh/α |
          | HOMO-LUMO GAP               3.566170820155 eV   |
           -------------------------------------------------

------------------------------------------------------------------------
 * finished run on 2026/08/31 at 21:53:12.621     
------------------------------------------------------------------------
 total:
 * wall-time:     0 d,  0 h,  0 min,  0.050 sec
 *  cpu-time:     0 d,  0 h,  0 min,  0.406 sec
 * ratio c/w:     8.125 speedup
 SCF:
 * wall-time:     0 d,  0 h,  0 min,  0.026 sec
 *  cpu-time:     0 d,  0 h,  0 min,  0.156 sec
 * ratio c/w:     6.010 speedup

normal termination of xtb
