      -----------------------------------------------------------      
     |                   =====================                   |     
     |                           x T B                           |     
     |                   =====================                   |     
     |                         S. Grimme                         |     
     |          Mulliken Center for Theoretical Chemistry        |     
     |                    University of Bonn                     |     
      -----------------------------------------------------------      

   * xtb version 6.7.1pre (5071a88) compiled by 'Marcel@Raven' on 2024-07-23

   xtb is free software: you can redistribute it and/or modify it under
   the terms of the GNU Lesser General Public License as published by
   the Free Software Foundation, either version 3 of the License, or
   (at your option) any later version.
   
   xtb is distributed in the hope that it will be useful,
   but WITHOUT ANY WARRANTY; without even the implied warranty of
   MERCHANTABILITY or FITNESS FOR A PARTICULAR PURPOSE.  See the
   GNU Lesser General Public License for more details.
   
   Cite this work as:
   * C. Bannwarth, E. Caldeweyher, S. Ehlert, A. Hansen, P. Pracht,
     J. Seibert, S. Spicher, S. Grimme, WIREs Comput. Mol. Sci., 2020, 11,
     e01493. DOI: 10.1002/wcms.1493
   
   for GFN2-xTB:
   * C. Bannwarth, S. Ehlert and S. Grimme., J. Chem. Theory Comput., 2019,
     15, 1652-1671. DOI: 10.1021/acs.jctc.8b01176
   for GFN1-xTB:
   * S. Grimme, C. Bannwarth, P. Shushkov, J. Chem. Theory Comput., 2017,
     13, 1989-2009. DOI: 10.1021/acs.jctc.7b00118
   for GFN0-xTB:
   * P. Pracht, E. Caldeweyher, S. Ehlert, S. Grimme, ChemRxiv, 2019, preprint.
     DOI: 10.26434/chemrxiv.8326202.v1
   for GFN-FF:
   * S. Spicher and S. Grimme, Angew. Chem. Int. Ed., 2020, 59, 15665-15673.
     DOI: 10.1002/anie.202004239
   
   for ALPB and GBSA implicit solvation:
   * S. Ehlert, M. Stahn, S. Spicher, S. Grimme, J. Chem. Theory Comput.,
     2021, 17, 4250-4261. DOI: 10.1021/acs.jctc.1c00471
   
   for ddCOSMO and CPCM-X implicit solvation:
   * M. Stahn, S. Ehlert, S. Grimme, J. Phys. Chem. A,
     2023, XX, XXXX-XXXX. DOI: 10.1021/acs.jpca.3c04382
   
   for DFT-D4:
   * E. Caldeweyher, C. Bannwarth and S. Grimme, J. Chem. Phys., 2017,
     147, 034112. DOI: 10.1063/1.4993215
   * E. Caldeweyher, S. Ehlert, A. Hansen, H. Neugebauer, S. Spicher,
     C. Bannwarth and S. Grimme, J. Chem. Phys., 2019, 150, 154122.
     DOI: 10.1063/1.5090222
   * E. Caldeweyher, J.-M. Mewes, S. Ehlert and S. Grimme, Phys. Chem. Chem. Phys.
     2020, 22, 8499-8512. DOI: 10.1039/D0CP00502A
   
   for sTDA-xTB:
   * S. Grimme and C. Bannwarth, J. Chem. Phys., 2016, 145, 054103.
     DOI: 10.1063/1.4959605
   
   in the mass-spec context:
   * V. Asgeirsson, C. Bauer and S. Grimme, Chem. Sci., 2017, 8, 4879.
     DOI: 10.1039/c7sc00601b
   * J. Koopman and S. Grimme, ACS Omega 2019, 4, 12, 15120-15133.
     DOI: 10.1021/acsomega.9b02011
   
   for metadynamics refer to:
   * S. Grimme, J. Chem. Theory Comput., 2019, 155, 2847-2862
     DOI: 10.1021/acs.jctc.9b00143
   
   for SPH calculations refer to:
   * S. Spicher and S. Grimme, J. Chem. Theory Comput., 2021, 17, 1701-1714
     DOI: 10.1021/acs.jctc.0c01306
   
   for ONIOM refer to:
   * C. Plett, A. Katbashev, S. Ehlert, S. Grimme, M. Bursch,
     Phys. Chem. Chem. Phys., 2023, 25, 17860-17868. DOI: 10.1039/D3CP02178E
   
   for DIPRO refer to:
   * J. Kohn, N. Gildemeister, S. Grimme, D. Fazzi, A. Hansen,
     J. Chem. Phys., 2023, just accepted.
   
   for PTB refer to:
   * S. Grimme, M. Mueller, A. Hansen, J. Chem. Phys., 2023, 158, 124111.
     DOI: 10.1063/5.0137838
   
   with help from (in alphabetical order)
   P. Atkinson, C. Bannwarth, F. Bohle, G. Brandenburg, E. Caldeweyher
   M. Checinski, S. Dohm, S. Ehlert, S. Ehrlich, I. Gerasimov, C. Hölzer
   A. Katbashev, J. Kohn, J. Koopman, C. Lavigne, S. Lehtola, F. März, M. Müller,
   F. Musil, H. Neugebauer, J. Pisarek, C. Plett, P. Pracht, F. Pultar,
   J. Seibert, P. Shushkov, S. Spicher, M. Stahn, M. Steiner, T. Strunk,
   J. Stückrath, T. Rose, and J. Unsleber
   
 * started run on 2026/08/31 at 21:53:12.658     
   ID    Z sym.   atoms
    1    6 C      1-7, 10, 12, 13, 43-49
    2    8 O      8, 11, 50-63
    3    7 N      9
    4   17 Cl     14
    5    1 H      15-30
    6   22 Ti     31-42

           -------------------------------------------------
          |                Calculation Setup                |
           -------------------------------------------------

          program call               : "c:\Users\Andre\Proyectos doctorado\kras-pancreatic-gC3N4-ai\tools\xtb\xtb-6.7.1\bin\xtb.exe" "c:\Users\Andre\Proyectos doctorado\mxene-glioblastoma-qsar-ai\calculations\gbm\Marizomib\Marizomib_Ti12C7O14_clean_complex.xyz" --gfn 2 --sp --chrg 0 --uhf 0 --etemp 500 --acc 1.0 --iterations 500 --norestart
          coordinate file            : c:\Users\Andre\Proyectos doctorado\mxene-glioblastoma-qsar-ai\calculations\gbm\Marizomib\Marizomib_Ti12C7O14_clean_complex.xyz
          omp threads                :                    16


molecular fragmentation (1/2 indicates fragments):
111111111111111111111111111111222222222222222222222222222222222
# atoms in fragment 1/2:    30    33
 fragment masses (1/2) :      217.69      882.47
CMA distance (Bohr)    :  18.911
constraining FC (au)   :  0.0500

           -------------------------------------------------
          |                 G F N 2 - x T B                 |
           -------------------------------------------------

        Reference                      10.1021/acs.jctc.8b01176
      * Hamiltonian:
        H0-scaling (s, p, d)           1.850000    2.230000    2.230000
        zeta-weighting                 0.500000
      * Dispersion:
        s8                             2.700000
        a1                             0.520000
        a2                             5.000000
        s9                             5.000000
      * Repulsion:
        kExp                           1.500000    1.000000
        rExp                           1.000000
      * Coulomb:
        alpha                          2.000000
        third order                    shell-resolved
        anisotropic                    true
        a3                             3.000000
        a5                             4.000000
        cn-shift                       1.200000
        cn-exp                         4.000000
        max-rad                        5.000000


          ...................................................
          :                      SETUP                      :
          :.................................................:
          :  # basis functions                 282          :
          :  # atomic orbitals                 269          :
          :  # shells                          123          :
          :  # electrons                       240          :
          :  max. iterations                   500          :
          :  Hamiltonian                  GFN2-xTB          :
          :  restarted?                      false          :
          :  GBSA solvation                  false          :
          :  PC potential                    false          :
          :  electronic temp.          500.0000000     K    :
          :  accuracy                    1.0000000          :
          :  -> integral cutoff          0.2500000E+02      :
          :  -> integral neglect         0.1000000E-07      :
          :  -> SCF convergence          0.1000000E-05 Eh   :
          :  -> wf. convergence          0.1000000E-03 e    :
          :  Broyden damping             0.4000000          :
          :  net charge                          0          :
          :  unpaired electrons                  0          :
          ...................................................

 iter      E             dE          RMSdq      gap      omega  full diag
   1   -136.6341572 -0.136634E+03  0.146E+01    0.05       0.0  T
   2   -126.8082730  0.982588E+01  0.109E+01    0.08       1.0  T
   3    -80.6641399  0.461441E+02  0.227E+01    0.12       1.0  T
   4   -136.9620791 -0.562979E+02  0.799E+00    0.01       1.0  T
   5   -137.9913763 -0.102930E+01  0.556E+00    0.34       1.0  T
   6   -138.0652530 -0.738768E-01  0.448E+00    0.39       1.0  T
   7   -137.9681470  0.971060E-01  0.353E+00    0.17       1.0  T
   8   -138.1740768 -0.205930E+00  0.249E+00    0.35       1.0  T
   9   -137.3817725  0.792304E+00  0.529E+00    0.01       1.0  T
  10   -138.0361893 -0.654417E+00  0.242E+00    0.12       1.0  T
  11   -137.1822010  0.853988E+00  0.555E+00    0.01       1.0  T
  12   -138.1054887 -0.923288E+00  0.150E+00    0.11       1.0  T
  13   -138.2568645 -0.151376E+00  0.121E+00    0.39       1.0  T
  14   -138.2759198 -0.190553E-01  0.111E+00    0.59       1.0  T
  15   -138.2833171 -0.739732E-02  0.963E-01    0.65       1.0  T
  16   -138.2960742 -0.127571E-01  0.711E-01    0.79       1.0  T
  17   -138.3032027 -0.712851E-02  0.496E-01    0.83       1.0  T
  18   -138.3089977 -0.579493E-02  0.370E-01    0.84       1.0  T
  19   -138.3115185 -0.252086E-02  0.351E-01    0.80       1.0  T
  20   -138.3129413 -0.142278E-02  0.308E-01    0.78       1.0  T
  21   -138.3145945 -0.165323E-02  0.286E-01    0.74       1.0  T
  22   -138.3155464 -0.951836E-03  0.281E-01    0.69       1.0  T
  23   -138.3164721 -0.925713E-03  0.280E-01    0.66       1.0  T
  24   -138.3167714 -0.299357E-03  0.264E-01    0.65       1.0  T
  25   -138.3170236 -0.252145E-03  0.254E-01    0.64       1.0  T
  26   -138.3171944 -0.170822E-03  0.233E-01    0.64       1.0  T
  27   -138.3173371 -0.142703E-03  0.205E-01    0.65       1.0  T
  28   -138.3174704 -0.133256E-03  0.191E-01    0.65       1.0  T
  29   -138.3177259 -0.255579E-03  0.158E-01    0.65       1.0  T
  30   -138.3179835 -0.257589E-03  0.116E-01    0.64       1.0  T
  31   -138.3181396 -0.156046E-03  0.771E-02    0.64       1.0  T
  32   -138.3182080 -0.684436E-04  0.513E-02    0.64       1.0  T
  33   -138.3182437 -0.357063E-04  0.314E-02    0.64       1.0  T
  34   -138.3182598 -0.160275E-04  0.160E-02    0.64       1.0  T
  35   -138.3182635 -0.370145E-05  0.806E-03    0.64       1.6  T
  36   -138.3182648 -0.131468E-05  0.472E-03    0.64       2.7  T
  37   -138.3182652 -0.403601E-06  0.284E-03    0.64       4.4  T
  38   -138.3182654 -0.227707E-06  0.106E-03    0.64      11.8  T
  39   -138.3182654 -0.495871E-07  0.850E-04    0.64      14.8  T
  40   -138.3182655 -0.132096E-08  0.658E-04    0.64      19.1  T

   *** convergence criteria satisfied after 40 iterations ***

         #    Occupation            Energy/Eh            Energy/eV
      -------------------------------------------------------------
         1        2.0000           -1.0422154             -28.3601
       ...           ...                  ...                  ...
       114        2.0000           -0.3594555              -9.7813
       115        2.0000           -0.3513693              -9.5612
       116        2.0000           -0.3512861              -9.5590
       117        2.0000           -0.3457584              -9.4086
       118        2.0000           -0.3381551              -9.2017
       119        2.0000           -0.3240114              -8.8168
       120        1.9982           -0.3094814              -8.4214 (HOMO)
       121        0.0009           -0.2861380              -7.7862 (LUMO)
       122        0.0005           -0.2851551              -7.7595
       123        0.0002           -0.2841766              -7.7328
       124        0.0002           -0.2841220              -7.7314
       125        0.0000           -0.2804359              -7.6310
       ...           ...                  ...                  ...
       269                         13.4395762             365.7095
      -------------------------------------------------------------
                  HL-Gap            0.0233434 Eh            0.6352 eV
             Fermi-level           -0.2984113 Eh           -8.1202 eV

 SCC (total)                   0 d,  0 h,  0 min,  0.692 sec
 SCC setup                      ...        0 min,  0.003 sec (  0.434%)
 Dispersion                     ...        0 min,  0.001 sec (  0.144%)
 classical contributions        ...        0 min,  0.000 sec (  0.000%)
 integral evaluation            ...        0 min,  0.007 sec (  1.012%)
 iterations                     ...        0 min,  0.665 sec ( 96.098%)
 molecular gradient             ...        0 min,  0.015 sec (  2.168%)
 printout                       ...        0 min,  0.001 sec (  0.144%)

         :::::::::::::::::::::::::::::::::::::::::::::::::::::
         ::                     SUMMARY                     ::
         :::::::::::::::::::::::::::::::::::::::::::::::::::::
         :: total energy            -137.183553244394 Eh    ::
         :: gradient norm              0.089672388589 Eh/a0 ::
         :: HOMO-LUMO gap              0.635204886633 eV    ::
         ::.................................................::
         :: SCC energy              -138.316065735711 Eh    ::
         :: -> isotropic ES            0.978166658680 Eh    ::
         :: -> anisotropic ES         -0.386391614914 Eh    ::
         :: -> anisotropic XC         -0.048576781305 Eh    ::
         :: -> dispersion             -0.118823581586 Eh    ::
         :: repulsion energy           1.132512491317 Eh    ::
         :: add. restraining           0.000000000000 Eh    ::
         :: total charge              -0.000000000044 e     ::
         :::::::::::::::::::::::::::::::::::::::::::::::::::::

           -------------------------------------------------
          |                Property Printout                |
           -------------------------------------------------

    * Orbital Energies and Occupations

         #    Occupation            Energy/Eh            Energy/eV
      -------------------------------------------------------------
         1        2.0000           -1.0422154             -28.3601
       ...           ...                  ...                  ...
       108        2.0000           -0.3882236             -10.5641
       109        2.0000           -0.3870448             -10.5320
       110        2.0000           -0.3823085             -10.4031
       111        2.0000           -0.3779539             -10.2846
       112        2.0000           -0.3698707             -10.0647
       113        2.0000           -0.3616585              -9.8412
       114        2.0000           -0.3594555              -9.7813
       115        2.0000           -0.3513693              -9.5612
       116        2.0000           -0.3512861              -9.5590
       117        2.0000           -0.3457584              -9.4086
       118        2.0000           -0.3381551              -9.2017
       119        2.0000           -0.3240114              -8.8168
       120        1.9982           -0.3094814              -8.4214 (HOMO)
       121        0.0009           -0.2861380              -7.7862 (LUMO)
       122        0.0005           -0.2851551              -7.7595
       123        0.0002           -0.2841766              -7.7328
       124        0.0002           -0.2841220              -7.7314
       125        0.0000           -0.2804359              -7.6310
       126        0.0000           -0.2754698              -7.4959
       127        0.0000           -0.2744436              -7.4680
       128        0.0000           -0.2724843              -7.4147
       129        0.0000           -0.2722104              -7.4072
       130                         -0.2716758              -7.3927
       131                         -0.2711955              -7.3796
       ...                                ...                  ...
       269                         13.4395762             365.7095
      -------------------------------------------------------------
                  HL-Gap            0.0233434 Eh            0.6352 eV
             Fermi-level           -0.2984113 Eh           -8.1202 eV

     #   Z          covCN         q      C6AA      α(0)
     1   6 C        3.749    -0.109    22.652     6.788
     2   6 C        3.802    -0.073    21.901     6.663
     3   6 C        4.082     0.013    20.279     6.396
     4   6 C        3.753    -0.136    23.173     6.864
     5   6 C        4.339     0.017    20.204     6.384
     6   6 C        4.027    -0.057    21.517     6.589
     7   6 C        3.087     0.295    21.936     7.677
     8   8 O        0.856    -0.351    20.730     6.104
     9   7 N        3.088    -0.226    25.919     7.561
    10   6 C        3.878     0.183    17.647     5.973
    11   8 O        1.652    -0.432    21.472     6.255
    12   6 C        3.822    -0.067    21.764     6.639
    13   6 C        3.714     0.024    20.293     6.436
    14  17 Cl       0.912    -0.189   105.087    15.683
    15   1 H        0.924     0.048     2.344     2.394
    16   1 H        0.924     0.037     2.495     2.470
    17   1 H        0.924     0.040     2.454     2.450
    18   1 H        0.923     0.057     2.237     2.339
    19   1 H        0.924     0.051     2.313     2.378
    20   1 H        0.924     0.078     1.996     2.210
    21   1 H        0.924     0.071     2.072     2.251
    22   1 H        0.924     0.066     2.129     2.282
    23   1 H        0.924     0.058     2.218     2.329
    24   1 H        0.924     0.075     2.027     2.227
    25   1 H        0.924     0.025     2.658     2.549
    26   1 H        0.804     0.316     0.676     1.291
    27   1 H        0.924     0.064     2.149     2.292
    28   1 H        0.924     0.055     2.258     2.350
    29   1 H        0.924     0.068     2.104     2.268
    30   1 H        0.924     0.064     2.156     2.296
    31  22 Ti       3.637     1.050   101.806    24.489
    32  22 Ti       6.855     1.551    84.055    14.885
    33  22 Ti       3.227     1.047   102.658    24.741
    34  22 Ti       5.860     1.379    85.682    15.028
    35  22 Ti       5.627     1.118    88.240    15.251
    36  22 Ti       3.541     1.020   102.708    24.700
    37  22 Ti       2.352     0.880   202.686    34.859
    38  22 Ti       6.011     1.348    85.979    15.054
    39  22 Ti       3.414     1.006   103.082    24.783
    40  22 Ti       5.519     1.095    88.470    15.271
    41  22 Ti       5.687     1.189    87.533    15.190
    42  22 Ti       3.581     1.024   102.498    24.645
    43   6 C        2.246    -0.259    37.692     9.947
    44   6 C        2.142    -0.256    38.347    10.010
    45   6 C        2.248    -0.019    30.609     8.964
    46   6 C        1.838    -0.211    37.355     9.874
    47   6 C        1.894    -0.226    37.812     9.931
    48   6 C        1.821    -0.347    42.182    10.494
    49   6 C        2.631    -0.404    39.930    10.336
    50   8 O        1.554    -0.849    32.073     7.641
    51   8 O        1.464    -0.882    33.269     7.775
    52   8 O        1.557    -0.958    35.662     8.057
    53   8 O        1.523    -1.005    37.403     8.249
    54   8 O        1.523    -0.913    34.187     7.887
    55   8 O        1.458    -0.823    31.401     7.553
    56   8 O        1.455    -0.800    30.727     7.471
    57   8 O        0.727    -0.637    27.125     6.979
    58   8 O        1.453    -0.865    32.741     7.712
    59   8 O        1.476    -0.801    30.706     7.470
    60   8 O        1.603    -0.946    35.203     8.008
    61   8 O        1.547    -0.968    36.032     8.098
    62   8 O        1.700    -0.818    31.004     7.518
    63   8 O        1.453    -0.782    30.209     7.407

 Mol. C6AA /au·bohr⁶  :     109252.086367
 Mol. C8AA /au·bohr⁸  :    5320758.337413
 Mol. α(0) /au        :        564.666707


Wiberg/Mayer (AO) data.
largest (>0.10) Wiberg bond orders for each atom

 ---------------------------------------------------------------------------
     #   Z sym  total        # sym  WBO       # sym  WBO       # sym  WBO
 ---------------------------------------------------------------------------
     1   6 C    3.996 --     2 C    1.021    15 H    0.984    17 H    0.983
                            16 H    0.982
     2   6 C    3.990 --     1 C    1.021     3 C    0.988    18 H    0.971
                            19 H    0.971
     3   6 C    3.978 --     4 C    0.994     2 C    0.988     5 C    0.966
                            10 C    0.961
     4   6 C    3.977 --     3 C    0.994    20 H    0.979    21 H    0.966
                            22 H    0.921
     5   6 C    3.947 --     6 C    0.970     3 C    0.966     9 N    0.956
                            23 H    0.952
     6   6 C    3.986 --    12 C    0.995     5 C    0.970     7 C    0.943
                            24 H    0.938
     7   6 C    3.936 --     8 O    1.819     9 N    1.098     6 C    0.943
     8   8 O    2.111 --     7 C    1.819     9 N    0.134
     9   7 N    3.203 --     7 C    1.098     5 C    0.956    10 C    0.921
                             8 O    0.134
    10   6 C    3.939 --    11 O    1.003     3 C    0.961    25 H    0.955
                             9 N    0.921
    11   8 O    1.971 --    10 C    1.003    26 H    0.882
    12   6 C    3.992 --    13 C    1.015     6 C    0.995    27 H    0.972
                            28 H    0.964
    13   6 C    3.947 --    12 C    1.015    29 H    0.977    30 H    0.976
                            14 Cl   0.960
    14  17 Cl   1.005 --    13 C    0.960
    15   1 H    0.997 --     1 C    0.984
    16   1 H    0.999 --     1 C    0.982
    17   1 H    0.998 --     1 C    0.983
    18   1 H    0.997 --     2 C    0.971
    19   1 H    0.995 --     2 C    0.971
    20   1 H    0.994 --     4 C    0.979
    21   1 H    0.994 --     4 C    0.966
    22   1 H    0.996 --     4 C    0.921
    23   1 H    0.997 --     5 C    0.952
    24   1 H    0.994 --     6 C    0.938
    25   1 H    0.999 --    10 C    0.955
    26   1 H    0.900 --    11 O    0.882
    27   1 H    0.996 --    12 C    0.972
    28   1 H    0.996 --    12 C    0.964
    29   1 H    0.995 --    13 C    0.977
    30   1 H    0.996 --    13 C    0.976
    31  22 Ti   2.829 --    50 O    0.847    51 O    0.813    37 Ti   0.334
                            32 Ti   0.201    34 Ti   0.198
    32  22 Ti   3.854 --    51 O    0.750    54 O    0.747    52 O    0.684
                            53 O    0.614    31 Ti   0.201    33 Ti   0.186
                            35 Ti   0.142    36 Ti   0.131
    33  22 Ti   2.725 --    59 O    0.959    52 O    0.602    39 Ti   0.372
                            32 Ti   0.186    37 Ti   0.141    54 O    0.110
    34  22 Ti   3.922 --    55 O    0.939    43 C    0.720    50 O    0.700
                            53 O    0.570    36 Ti   0.205    31 Ti   0.198
                            40 Ti   0.179    60 O    0.124
    35  22 Ti   4.077 --    49 C    0.895    56 O    0.776    47 C    0.741
                            54 O    0.599    41 Ti   0.284    36 Ti   0.169
                            48 C    0.162    44 C    0.151    32 Ti   0.142
    36  22 Ti   2.743 --    56 O    0.960    55 O    0.702    34 Ti   0.205
                            35 Ti   0.169    32 Ti   0.131    51 O    0.123
    37  22 Ti   3.772 --    57 O    1.994    38 Ti   0.608    31 Ti   0.334
                            52 O    0.153    50 O    0.148    33 Ti   0.141
                            60 O    0.112
    38  22 Ti   4.020 --    60 O    0.802    58 O    0.751    61 O    0.716
                            37 Ti   0.608    62 O    0.195    39 Ti   0.167
                            42 Ti   0.148    40 Ti   0.141
    39  22 Ti   2.749 --    58 O    0.835    59 O    0.766    33 Ti   0.372
                            42 Ti   0.221    38 Ti   0.167    41 Ti   0.129
    40  22 Ti   4.015 --    48 C    1.057    46 C    0.726    62 O    0.614
                            60 O    0.442    49 C    0.231    42 Ti   0.200
                            34 Ti   0.179    43 C    0.156    38 Ti   0.141
    41  22 Ti   4.083 --    63 O    0.965    44 C    0.671    49 C    0.655
                            61 O    0.441    35 Ti   0.284    42 Ti   0.210
                            48 C    0.140    39 Ti   0.129    59 O    0.113
    42  22 Ti   2.793 --    62 O    0.900    63 O    0.735    39 Ti   0.221
                            41 Ti   0.210    40 Ti   0.200    38 Ti   0.148
    43   6 C    3.841 --    46 C    2.739    34 Ti   0.720    40 Ti   0.156
    44   6 C    3.781 --    47 C    2.733    41 Ti   0.671    35 Ti   0.151
    45   6 C    3.978 --    48 C    2.009    49 C    1.605
    46   6 C    3.705 --    43 C    2.739    40 Ti   0.726
    47   6 C    3.746 --    44 C    2.733    35 Ti   0.741
    48   6 C    3.768 --    45 C    2.009    40 Ti   1.057    35 Ti   0.162
                            41 Ti   0.140
    49   6 C    3.828 --    45 C    1.605    35 Ti   0.895    41 Ti   0.655
                            40 Ti   0.231
    50   8 O    1.931 --    31 Ti   0.847    34 Ti   0.700    37 Ti   0.148
    51   8 O    1.890 --    31 Ti   0.813    32 Ti   0.750    36 Ti   0.123
    52   8 O    1.781 --    32 Ti   0.684    33 Ti   0.602    37 Ti   0.153
    53   8 O    1.720 --    32 Ti   0.614    34 Ti   0.570
    54   8 O    1.845 --    32 Ti   0.747    35 Ti   0.599    33 Ti   0.110
    55   8 O    1.971 --    34 Ti   0.939    36 Ti   0.702
    56   8 O    2.011 --    36 Ti   0.960    35 Ti   0.776
    57   8 O    2.169 --    37 Ti   1.994
    58   8 O    1.909 --    39 Ti   0.835    38 Ti   0.751
    59   8 O    2.006 --    33 Ti   0.959    39 Ti   0.766    41 Ti   0.113
    60   8 O    1.799 --    38 Ti   0.802    40 Ti   0.442    34 Ti   0.124
                            37 Ti   0.112
    61   8 O    1.774 --    38 Ti   0.716    41 Ti   0.441
    62   8 O    1.985 --    42 Ti   0.900    40 Ti   0.614    38 Ti   0.195
    63   8 O    2.030 --    41 Ti   0.965    42 Ti   0.735
 ---------------------------------------------------------------------------

Topologies differ in total number of bonds
Writing topology from bond orders to xtbtopo.mol

molecular dipole:
                 x           y           z       tot (Debye)
 q only:       -0.338       0.647      -1.288
   full:       -1.439       0.388      -0.784       4.281
molecular quadrupole (traceless):
                xx          xy          yy          xz          yz          zz
 q only:      -24.791       6.609      12.265     -68.500      39.346      12.526
  q+dip:      -13.333      -0.480      -5.602     -35.086      24.345      18.936
   full:      -10.436       1.324      -4.278     -34.910      26.796      14.713


           -------------------------------------------------
          | TOTAL ENERGY             -137.183553244394 Eh   |
          | GRADIENT NORM               0.089672388589 Eh/α |
          | HOMO-LUMO GAP               0.635204886633 eV   |
           -------------------------------------------------

------------------------------------------------------------------------
 * finished run on 2026/08/31 at 21:53:13.395     
------------------------------------------------------------------------
 total:
 * wall-time:     0 d,  0 h,  0 min,  0.736 sec
 *  cpu-time:     0 d,  0 h,  0 min,  5.297 sec
 * ratio c/w:     7.197 speedup
 SCF:
 * wall-time:     0 d,  0 h,  0 min,  0.693 sec
 *  cpu-time:     0 d,  0 h,  0 min,  4.953 sec
 * ratio c/w:     7.147 speedup

normal termination of xtb
