63
Drug@Ti3C2O2 complex
C     -2.691040      1.841071      5.736578
C     -1.360090      1.275164      5.259177
C     -1.208861     -0.230865      5.551670
C     -2.319260     -1.054673      4.880292
C      0.159584     -0.886268      5.237179
C      1.420251     -0.004740      5.152624
C      1.430230     -0.097952      6.685831
O      2.055824      0.403456      7.589120
N      0.392743     -0.991120      6.694683
C     -0.958318     -0.563223      7.050094
O     -1.753241     -1.605153      7.628404
C      2.619189     -0.646263      4.453867
C      3.883565      0.190732      4.616602
Cl      3.794611      1.687988      3.655610
H     -3.529321      1.435572      5.162484
H     -2.864821      1.620917      6.794207
H     -2.702910      2.928395      5.608894
H     -1.257761      1.457717      4.182739
H     -0.567403      1.845867      5.756312
H     -2.357696     -0.851213      3.804571
H     -2.159708     -2.131868      5.006141
H     -3.300873     -0.827733      5.308023
H      0.183263     -1.864830      4.748877
H      1.233472      1.006904      4.780906
H     -0.948612      0.307150      7.717266
H     -1.209096     -1.913512      8.373384
H      2.805274     -1.642787      4.873918
H      2.395805     -0.791192      3.389928
H      4.751643     -0.367615      4.253987
H      4.063556      0.470075      5.658139
Ti     -3.000000     -2.600000      1.250000
Ti      0.000000     -2.600000      1.250000
Ti      3.000000     -2.600000      1.250000
Ti     -1.500000      0.000000      1.250000
Ti      1.500000      0.000000      1.250000
Ti      0.000000      2.600000      1.250000
Ti     -3.000000     -2.600000     -1.250000
Ti      0.000000     -2.600000     -1.250000
Ti      3.000000     -2.600000     -1.250000
Ti     -1.500000      0.000000     -1.250000
Ti      1.500000      0.000000     -1.250000
Ti      0.000000      2.600000     -1.250000
C     -1.500000     -1.300000      0.000000
C      1.500000     -1.300000      0.000000
C      0.000000      1.300000      0.000000
C     -3.000000      0.000000      0.000000
C      3.000000      0.000000      0.000000
C     -1.500000      2.600000      0.000000
C      1.500000      2.600000      0.000000
O     -3.000000     -2.600000      2.450000
O      0.000000     -2.600000      2.450000
O      3.000000     -2.600000      2.450000
O     -1.500000      0.000000      2.450000
O      1.500000      0.000000      2.450000
O     -1.500000      2.600000      2.450000
O      1.500000      2.600000      2.450000
O     -3.000000     -2.600000     -2.450000
O      0.000000     -2.600000     -2.450000
O      3.000000     -2.600000     -2.450000
O     -1.500000      0.000000     -2.450000
O      1.500000      0.000000     -2.450000
O     -1.500000      2.600000     -2.450000
O      1.500000      2.600000     -2.450000
