63
Drug@Ti12C7O14 non-overlapping complex
C     -2.691040      1.841071      9.527880
C     -1.360090      1.275164      9.050479
C     -1.208861     -0.230865      9.342972
C     -2.319260     -1.054673      8.671594
C      0.159584     -0.886268      9.028481
C      1.420251     -0.004740      8.943926
C      1.430230     -0.097952     10.477133
O      2.055824      0.403456     11.380422
N      0.392743     -0.991120     10.485985
C     -0.958318     -0.563223     10.841396
O     -1.753241     -1.605153     11.419706
C      2.619189     -0.646263      8.245169
C      3.883565      0.190732      8.407904
Cl      3.794611      1.687988      7.446912
H     -3.529321      1.435572      8.953786
H     -2.864821      1.620917     10.585509
H     -2.702910      2.928395      9.400196
H     -1.257761      1.457717      7.974041
H     -0.567403      1.845867      9.547614
H     -2.357696     -0.851213      7.595873
H     -2.159708     -2.131868      8.797443
H     -3.300873     -0.827733      9.099325
H      0.183263     -1.864830      8.540179
H      1.233472      1.006904      8.572208
H     -0.948612      0.307150     11.508568
H     -1.209096     -1.913512     12.164686
H      2.805274     -1.642787      8.665220
H      2.395805     -0.791192      7.181230
H      4.751643     -0.367615      8.045289
H      4.063556      0.470075      9.449441
Ti     -2.141866     -3.008818      2.119748
Ti      0.288991     -1.694759      1.432425
Ti      1.903098     -3.067749     -0.729322
Ti     -2.521502     -0.251928      1.303687
Ti      2.142050      0.499533      2.204434
Ti     -0.681448      0.189635      3.681230
Ti     -2.036770     -3.077740     -1.200512
Ti     -0.605340     -0.770900     -2.035132
Ti      1.945488     -1.587317     -3.412400
Ti     -1.878170      1.746573     -1.240030
Ti      2.412512      0.454231     -0.774247
Ti      0.817742      1.838452     -2.940004
C     -3.678414      1.281398      0.600737
C      4.128193      0.482847      0.387293
C      0.455479      2.267202      0.349695
C     -3.666709      2.118834     -0.313920
C      4.115962      0.632239      1.621354
C     -0.635167      2.741046     -0.118921
C      1.630072      1.780996      0.734224
O     -3.093456     -1.956907      1.037949
O     -0.487250     -2.605849      2.701203
O      0.314079     -2.888890      0.145001
O     -0.800785     -0.435934      0.971227
O      1.902865     -1.158331      1.469449
O     -2.322673     -0.113878      3.024800
O      1.013786      0.441598      3.568761
O     -1.772019     -4.587905     -1.652810
O      0.190605     -1.189189     -3.534030
O      2.831420     -2.170248     -1.918042
O     -2.054558     -0.224445     -1.337505
O      0.768511     -0.390574     -1.063664
O     -0.900039      1.649313     -2.818565
O      2.415313      1.357463     -2.264115
