33
 energy: -92.087007757138 gnorm: 0.000926900783 xtb: 6.7.1pre (5071a88)
Ti          -1.83500118832357       -2.76510928002271        3.84013496677248
Ti           0.58984279508450       -1.88199618368279        2.52143516255165
Ti           1.91809067553393       -3.18248045824069        0.20705872698199
Ti          -2.27009341509272       -0.24026565495840        2.44704297755801
Ti           2.52693842826374        0.38545499378539        3.09710647929638
Ti          -0.17755311856512        0.42903894756200        4.60047394209158
Ti          -1.87428784301505       -3.24562321097035        0.41333120460703
Ti          -0.43299962620249       -0.81194098772418       -0.87070357082152
Ti           1.79316647875152       -1.52473535902645       -2.47796568372109
Ti          -1.88473368622280        1.60729231222782       -0.03685631245708
Ti           2.50133482707478        0.48585234963209        0.09910387815165
Ti           0.70655972698246        1.99760919623344       -1.76162800262730
C           -3.66237275249548        1.06826292682140        1.69259602897035
C            4.31061780742376        0.44166526136191        1.08994025850188
C            0.52534493648465        2.00540924139493        1.60245036727407
C           -3.72153045917554        1.92441806530659        0.79329807049562
C            4.42457389888316        0.55521125986761        2.32249149525730
C           -0.71157190708111        2.27218065613191        1.41758833144819
C            1.82325844442961        1.73209241820588        1.74723636708312
O           -2.96130918242729       -1.91208934505737        2.73583561635274
O           -0.07996278525823       -2.56601610088586        4.00272849647779
O            0.67161865547555       -3.28730337347550        1.49551194937144
O           -0.64369229184246       -0.82247357816573        1.98640599716536
O            2.16362427580065       -1.22368754868593        2.40692282016769
O           -1.85077728419818        0.23812085387592        4.05869222616109
O            1.53871475048288        0.46834112670493        4.53794307946863
O           -0.68342427561073       -2.54748112209514       -0.72354961756667
O            0.16357356737052       -0.71193476469427       -2.51013777514152
O            2.65580933805208       -2.31977820437118       -1.13570146459023
O           -1.94040283445916       -0.22255226853257       -0.25217861504336
O            0.95047543472639       -0.37939502624296        0.03415722193330
O           -0.99842851549649        2.04079253370203       -1.48547841529381
O            2.34839464067732        1.41686552312430       -1.35882460914715
