84
 energy: -199.863254702278 gnorm: 0.003156387556 xtb: 6.7.1pre (5071a88)
O            1.31657610058873        1.20988132430232        7.18262300273075
C            0.65399236620417        0.02644959913702        7.66700394689269
C            1.29415171524006       -0.27342294208213        9.04152766150847
N            2.72589715668949       -0.46747749611140        8.92798106149571
C            3.52076648985931        0.74901158771660        9.00451931764097
C            4.95738010765269        0.39139217598798        9.26459696353381
C            5.93557990871391        0.71593096647050        8.33423421999061
C            7.25655489729131        0.39642586250516        8.59127519389975
F            8.19564018725347        0.72244565609630        7.68717681373999
C            7.64113951184595       -0.25058829686813        9.75164088354294
C            6.66646948338454       -0.59100400346908       10.67104319291978
C            5.34256834545749       -0.27187014797067       10.42306642498783
I            3.90113086306324       -0.83148963356596       11.85173802071282
C            3.09777703486957       -1.27302098834269        7.76556009606013
C            1.88182497352450       -1.99966041686231        7.21137952689975
O            0.91293052251187       -1.04232073235937        6.75586353663631
C           -0.85349512514722        0.28864441418847        7.73560154530601
C           -1.27456865239918        1.54173786028695        7.26043576036379
F           -0.66466359408755        3.49349706538875        5.54826277501351
C           -2.62507751901770        1.81595853722056        7.38222656407984
F           -3.08460974911409        2.89744500794960        6.64010447457910
C           -3.51512500204956        1.04326462399575        8.10597726930172
F           -4.75648254976477        1.48262339020924        8.37890352686125
C           -3.13590174670743       -0.27349287663735        8.43293045122982
N           -4.03073745435456       -1.15760185533558        8.98031492145508
C           -5.42017548687112       -1.09014828032170        8.78515670026762
C           -6.25441198668482       -1.25261180604006        9.89225765124769
F           -5.68438701357110       -1.51890473726503       11.08723514306598
C           -7.62706607625463       -1.15985305829989        9.80379135713068
C           -8.19093881854594       -0.88869665801078        8.56767218191088
C           -7.39008671118877       -0.75537095684291        7.44512801619218
C           -6.00884242434941       -0.86823842618520        7.53154928542788
I           -4.58935913968569       -0.95496620787880        5.65948733482755
C           -1.80841751347837       -0.63603530122515        8.14721492580335
F           -1.53093031326233       -1.99777908567253        8.15581514510041
H            0.56669002443191        1.88458215912022        7.10037869199740
H            1.09115022447449        0.56648186986823        9.70633967513990
H            0.83815299574361       -1.16798286700276        9.47356380429575
H            3.14413243126556        1.34262792662435        9.84245958941784
H            3.45694643332216        1.35321834060163        8.08220348143275
H            5.67186216270188        1.21294593370803        7.41209457941405
H            8.67945652103654       -0.48119511854030        9.92571335889061
H            6.94048030892284       -1.09907331224306       11.58163864153613
H            3.49603259623153       -0.63623023862196        6.94191663293207
H            3.86664697950162       -1.99277063771220        8.06543454736337
H            1.41672094673200       -2.65743808667731        7.95638098434320
H            2.13839011321307       -2.58864220254471        6.32124280638603
H           -3.66017337577029       -2.02512540005376        9.33952190971965
H           -8.22808022539701       -1.28546790691725       10.68998931129931
H           -9.26151882630542       -0.79437748439862        8.48134569946607
H           -7.81825011828652       -0.57347223828156        6.47556410419474
Ti          -2.10003593692961       -2.93236303031412        5.01469410352126
Ti           0.38892090269687       -1.68371166975197        4.03620246175607
Ti           2.33369785140945       -2.50290679020098        1.88075086019683
Ti          -2.66993978973188       -0.42459550274298        3.43983345735024
Ti           1.82429679002041        0.81008038293594        4.83799235940438
Ti          -1.26089129493691        1.89352376428385        5.02649279704453
Ti          -1.29274048237636       -3.37329956673625        1.55266363563513
Ti          -0.21891241006157       -0.50296685939645        0.60602828917160
Ti           2.22784242717627       -0.81457929715130       -0.77604774571780
Ti          -1.91928215732647        1.76674265101250        1.33816135400070
Ti           2.43621075429356        0.99092141368951        1.92814728153756
Ti           0.82186347414297        2.45709299561123       -0.09850169477367
C           -4.08203215555455        0.67005509394875        2.41248495560572
C            4.00044006447276        1.00494779215676        3.28901116905873
C            0.23268149473198        2.48378450317022        3.07750814101202
C           -3.89563061698520        1.73638239802220        1.80475624072384
C            3.82718569036550        1.08860280406781        4.52090499891555
C           -1.07609707971774        2.54336533834895        2.98718145956033
C            1.51160940335813        2.31907662518025        3.29897634823501
O           -3.28848657600625       -2.01966540195254        3.87751462072169
O           -0.40054969415797       -2.74872759087262        5.20675640670174
O            0.98593529555081       -2.94832870914059        2.94314492256281
O           -0.97216323900245       -0.96868745180244        3.29450042879378
O            1.90709138979999       -0.81898457341530        4.18738865323420
O           -2.53236684411267        0.69435938874458        4.71459128417990
O            0.06094392286813        0.81355734555498        5.02726822520334
O           -0.26494711967406       -2.24507065250161        0.61526209653103
O            0.54152897359950       -0.24658733272600       -0.96408820003025
O            3.06311547482090       -1.38691968504526        0.72062331789675
O           -1.82466420990169       -0.02955054651745        0.98314602206578
O            0.89696712211861        0.08801786235402        1.74012139036089
O           -0.90336066901158        2.40936838611112        0.06643490342318
O            2.44803026445451        1.89883201423700        0.44978474617811
