84
Cobimetinib orientation 180 deg
O      1.036286      2.355882      9.086310
C      0.503452      1.063340      9.369354
C      1.295552      0.405048     10.554406
N      2.674473     -0.040370     10.247428
C      3.709370      0.825880     10.818445
C      5.094149      0.209524     10.777994
C      6.010251      0.699600      9.826326
C      7.291061      0.164879      9.731077
F      8.139389      0.648973      8.815068
C      7.700299     -0.861420     10.568131
C      6.812153     -1.362799     11.518475
C      5.515668     -0.834111     11.625927
I      4.287981     -1.681515     13.107694
C      2.852534     -0.333763      8.816543
C      1.528794     -0.740368      8.157536
O      0.597921      0.344132      8.137053
C     -0.950040      1.243480      9.762447
C     -1.334019      2.275661     10.627165
F     -0.408789      3.092207     11.154273
C     -2.663223      2.464467     10.988221
F     -2.994736      3.478209     11.801176
C     -3.645285      1.604554     10.517143
F     -4.923481      1.849027     10.846438
C     -3.315693      0.525894      9.690793
N     -4.242580     -0.437560      9.243086
C     -5.438034     -0.933562      9.804157
C     -5.690125     -0.927241     11.186742
F     -4.736685     -0.542181     12.050597
C     -6.898175     -1.374962     11.723216
C     -7.900105     -1.845810     10.881579
C     -7.685228     -1.873505      9.505209
C     -6.467995     -1.421603      8.974319
I     -6.247589     -1.502198      6.881230
C     -1.959865      0.367616      9.335341
F     -1.646785     -0.700869      8.582503
H      1.993943      2.235781      9.022885
H      1.290448      1.069551     11.427884
H      0.755403     -0.499562     10.866354
H      3.484215      1.062793     11.865995
H      3.718751      1.798477     10.309534
H      5.736284      1.501472      9.145887
H      8.703844     -1.264502     10.477481
H      7.143210     -2.168054     12.170673
H      3.238497      0.547114      8.288776
H      3.577646     -1.146267      8.699422
H      1.071273     -1.599514      8.662510
H      1.707454     -1.033960      7.118062
H     -3.963132     -0.912579      8.386839
H     -7.040917     -1.356204     12.799502
H     -8.843091     -2.193881     11.295712
H     -8.474726     -2.245199      8.855856
Ti     -2.141866     -3.008818      2.119748
Ti      0.288991     -1.694759      1.432425
Ti      1.903098     -3.067749     -0.729322
Ti     -2.521502     -0.251928      1.303687
Ti      2.142050      0.499533      2.204434
Ti     -0.681448      0.189635      3.681230
Ti     -2.036770     -3.077740     -1.200512
Ti     -0.605340     -0.770900     -2.035132
Ti      1.945488     -1.587317     -3.412400
Ti     -1.878170      1.746573     -1.240030
Ti      2.412512      0.454231     -0.774247
Ti      0.817742      1.838452     -2.940004
C     -3.678414      1.281398      0.600737
C      4.128193      0.482847      0.387293
C      0.455479      2.267202      0.349695
C     -3.666709      2.118834     -0.313920
C      4.115962      0.632239      1.621354
C     -0.635167      2.741046     -0.118921
C      1.630072      1.780996      0.734224
O     -3.093456     -1.956907      1.037949
O     -0.487250     -2.605849      2.701203
O      0.314079     -2.888890      0.145001
O     -0.800785     -0.435934      0.971227
O      1.902865     -1.158331      1.469449
O     -2.322673     -0.113878      3.024800
O      1.013786      0.441598      3.568761
O     -1.772019     -4.587905     -1.652810
O      0.190605     -1.189189     -3.534030
O      2.831420     -2.170248     -1.918042
O     -2.054558     -0.224445     -1.337505
O      0.768511     -0.390574     -1.063664
O     -0.900039      1.649313     -2.818565
O      2.415313      1.357463     -2.264115
