      -----------------------------------------------------------      
     |                   =====================                   |     
     |                           x T B                           |     
     |                   =====================                   |     
     |                         S. Grimme                         |     
     |          Mulliken Center for Theoretical Chemistry        |     
     |                    University of Bonn                     |     
      -----------------------------------------------------------      

   * xtb version 6.7.1pre (5071a88) compiled by 'Marcel@Raven' on 2024-07-23

   xtb is free software: you can redistribute it and/or modify it under
   the terms of the GNU Lesser General Public License as published by
   the Free Software Foundation, either version 3 of the License, or
   (at your option) any later version.
   
   xtb is distributed in the hope that it will be useful,
   but WITHOUT ANY WARRANTY; without even the implied warranty of
   MERCHANTABILITY or FITNESS FOR A PARTICULAR PURPOSE.  See the
   GNU Lesser General Public License for more details.
   
   Cite this work as:
   * C. Bannwarth, E. Caldeweyher, S. Ehlert, A. Hansen, P. Pracht,
     J. Seibert, S. Spicher, S. Grimme, WIREs Comput. Mol. Sci., 2020, 11,
     e01493. DOI: 10.1002/wcms.1493
   
   for GFN2-xTB:
   * C. Bannwarth, S. Ehlert and S. Grimme., J. Chem. Theory Comput., 2019,
     15, 1652-1671. DOI: 10.1021/acs.jctc.8b01176
   for GFN1-xTB:
   * S. Grimme, C. Bannwarth, P. Shushkov, J. Chem. Theory Comput., 2017,
     13, 1989-2009. DOI: 10.1021/acs.jctc.7b00118
   for GFN0-xTB:
   * P. Pracht, E. Caldeweyher, S. Ehlert, S. Grimme, ChemRxiv, 2019, preprint.
     DOI: 10.26434/chemrxiv.8326202.v1
   for GFN-FF:
   * S. Spicher and S. Grimme, Angew. Chem. Int. Ed., 2020, 59, 15665-15673.
     DOI: 10.1002/anie.202004239
   
   for ALPB and GBSA implicit solvation:
   * S. Ehlert, M. Stahn, S. Spicher, S. Grimme, J. Chem. Theory Comput.,
     2021, 17, 4250-4261. DOI: 10.1021/acs.jctc.1c00471
   
   for ddCOSMO and CPCM-X implicit solvation:
   * M. Stahn, S. Ehlert, S. Grimme, J. Phys. Chem. A,
     2023, XX, XXXX-XXXX. DOI: 10.1021/acs.jpca.3c04382
   
   for DFT-D4:
   * E. Caldeweyher, C. Bannwarth and S. Grimme, J. Chem. Phys., 2017,
     147, 034112. DOI: 10.1063/1.4993215
   * E. Caldeweyher, S. Ehlert, A. Hansen, H. Neugebauer, S. Spicher,
     C. Bannwarth and S. Grimme, J. Chem. Phys., 2019, 150, 154122.
     DOI: 10.1063/1.5090222
   * E. Caldeweyher, J.-M. Mewes, S. Ehlert and S. Grimme, Phys. Chem. Chem. Phys.
     2020, 22, 8499-8512. DOI: 10.1039/D0CP00502A
   
   for sTDA-xTB:
   * S. Grimme and C. Bannwarth, J. Chem. Phys., 2016, 145, 054103.
     DOI: 10.1063/1.4959605
   
   in the mass-spec context:
   * V. Asgeirsson, C. Bauer and S. Grimme, Chem. Sci., 2017, 8, 4879.
     DOI: 10.1039/c7sc00601b
   * J. Koopman and S. Grimme, ACS Omega 2019, 4, 12, 15120-15133.
     DOI: 10.1021/acsomega.9b02011
   
   for metadynamics refer to:
   * S. Grimme, J. Chem. Theory Comput., 2019, 155, 2847-2862
     DOI: 10.1021/acs.jctc.9b00143
   
   for SPH calculations refer to:
   * S. Spicher and S. Grimme, J. Chem. Theory Comput., 2021, 17, 1701-1714
     DOI: 10.1021/acs.jctc.0c01306
   
   for ONIOM refer to:
   * C. Plett, A. Katbashev, S. Ehlert, S. Grimme, M. Bursch,
     Phys. Chem. Chem. Phys., 2023, 25, 17860-17868. DOI: 10.1039/D3CP02178E
   
   for DIPRO refer to:
   * J. Kohn, N. Gildemeister, S. Grimme, D. Fazzi, A. Hansen,
     J. Chem. Phys., 2023, just accepted.
   
   for PTB refer to:
   * S. Grimme, M. Mueller, A. Hansen, J. Chem. Phys., 2023, 158, 124111.
     DOI: 10.1063/5.0137838
   
   with help from (in alphabetical order)
   P. Atkinson, C. Bannwarth, F. Bohle, G. Brandenburg, E. Caldeweyher
   M. Checinski, S. Dohm, S. Ehlert, S. Ehrlich, I. Gerasimov, C. Hölzer
   A. Katbashev, J. Kohn, J. Koopman, C. Lavigne, S. Lehtola, F. März, M. Müller,
   F. Musil, H. Neugebauer, J. Pisarek, C. Plett, P. Pracht, F. Pultar,
   J. Seibert, P. Shushkov, S. Spicher, M. Stahn, M. Steiner, T. Strunk,
   J. Stückrath, T. Rose, and J. Unsleber
   
 * started run on 2026/09/01 at 20:32:34.195     
   ID    Z sym.   atoms
    1   22 Ti     1-12
    2    6 C      13-19
    3    8 O      20-33

           -------------------------------------------------
          |                Calculation Setup                |
           -------------------------------------------------

          program call               : "c:\Users\Andre\Proyectos doctorado\nano-qsar-ai-papers\kras-pancreatic-gC3N4-ai\tools\xtb\xtb-6.7.1\bin\xtb.exe" "c:\Users\Andre\Proyectos doctorado\nano-qsar-ai-papers\mxene-glioblastoma-qsar-ai\calculations\gbm\Cobimetinib\xtbopt.xyz" --gfn 2 --chrg 0 --uhf 0 --wbo --norestart
          coordinate file            : c:\Users\Andre\Proyectos doctorado\nano-qsar-ai-papers\mxene-glioblastoma-qsar-ai\calculations\gbm\Cobimetinib\xtbopt.xyz
          omp threads                :                    16


molecular fragmentation (1/2 indicates fragments):
111111111111111111122221222222222
# atoms in fragment 1/2:    20    13
 fragment masses (1/2) :      674.48      207.99
CMA distance (Bohr)    :   0.942
constraining FC (au)   :  0.0500

           -------------------------------------------------
          |                 G F N 2 - x T B                 |
           -------------------------------------------------

        Reference                      10.1021/acs.jctc.8b01176
      * Hamiltonian:
        H0-scaling (s, p, d)           1.850000    2.230000    2.230000
        zeta-weighting                 0.500000
      * Dispersion:
        s8                             2.700000
        a1                             0.520000
        a2                             5.000000
        s9                             5.000000
      * Repulsion:
        kExp                           1.500000    1.000000
        rExp                           1.000000
      * Coulomb:
        alpha                          2.000000
        third order                    shell-resolved
        anisotropic                    true
        a3                             3.000000
        a5                             4.000000
        cn-shift                       1.200000
        cn-exp                         4.000000
        max-rad                        5.000000


          ...................................................
          :                      SETUP                      :
          :.................................................:
          :  # basis functions                 204          :
          :  # atomic orbitals                 192          :
          :  # shells                           78          :
          :  # electrons                       160          :
          :  max. iterations                   250          :
          :  Hamiltonian                  GFN2-xTB          :
          :  restarted?                      false          :
          :  GBSA solvation                  false          :
          :  PC potential                    false          :
          :  electronic temp.          300.0000000     K    :
          :  accuracy                    1.0000000          :
          :  -> integral cutoff          0.2500000E+02      :
          :  -> integral neglect         0.1000000E-07      :
          :  -> SCF convergence          0.1000000E-05 Eh   :
          :  -> wf. convergence          0.1000000E-03 e    :
          :  Broyden damping             0.4000000          :
          :  net charge                          0          :
          :  unpaired electrons                  0          :
          ...................................................

 iter      E             dE          RMSdq      gap      omega  full diag
   1    -91.2848888 -0.912849E+02  0.185E+01    0.02       0.0  T
   2    -85.9312356  0.535365E+01  0.128E+01    0.15       1.0  T
   3    -37.9721948  0.479590E+02  0.307E+01    0.06       1.0  T
   4    -89.3519942 -0.513798E+02  0.101E+01    0.03       1.0  T
   5    -91.2260202 -0.187403E+01  0.982E+00    0.01       1.0  T
   6    -92.4757861 -0.124977E+01  0.676E+00    0.22       1.0  T
   7    -92.5877776 -0.111991E+00  0.570E+00    0.58       1.0  T
   8    -92.6073845 -0.196069E-01  0.435E+00    0.69       1.0  T
   9    -92.6362707 -0.288862E-01  0.268E+00    0.51       1.0  T
  10    -92.6466682 -0.103975E-01  0.221E+00    0.55       1.0  T
  11    -92.6701356 -0.234674E-01  0.176E+00    0.68       1.0  T
  12    -92.6870518 -0.169162E-01  0.144E+00    0.82       1.0  T
  13    -92.6922401 -0.518833E-02  0.125E+00    0.93       1.0  T
  14    -92.7079519 -0.157118E-01  0.111E+00    0.87       1.0  T
  15    -92.7160569 -0.810498E-02  0.104E+00    0.76       1.0  T
  16    -92.7211764 -0.511954E-02  0.953E-01    0.64       1.0  T
  17    -92.7311835 -0.100070E-01  0.807E-01    0.39       1.0  T
  18    -92.7518992 -0.207157E-01  0.662E-01    0.14       1.0  T
  19    -92.7450337  0.686543E-02  0.629E-01    0.21       1.0  T
  20    -92.0808779  0.664156E+00  0.570E+00    0.03       1.0  T
  21    -92.0717735  0.910441E-02  0.575E+00    0.03       1.0  T
  22    -92.0693179  0.245560E-02  0.576E+00    0.03       1.0  T
  23    -92.0974362 -0.281182E-01  0.561E+00    0.02       1.0  T
  24    -92.7350950 -0.637659E+00  0.913E-01    0.54       1.0  T
  25    -92.7351240 -0.290115E-04  0.105E+00    0.62       1.0  T
  26    -92.7381305 -0.300642E-02  0.974E-01    0.56       1.0  T
  27    -92.7437879 -0.565748E-02  0.808E-01    0.34       1.0  T
  28    -92.7471355 -0.334756E-02  0.759E-01    0.26       1.0  T
  29    -92.7526224 -0.548692E-02  0.603E-01    0.19       1.0  T
  30    -92.7602192 -0.759673E-02  0.271E-01    0.14       1.0  T
  31    -92.7551530  0.506620E-02  0.520E-01    0.17       1.0  T
  32    -92.7552464 -0.934366E-04  0.522E-01    0.17       1.0  T
  33    -92.7622573 -0.701086E-02  0.411E-02    0.11       1.0  T
  34    -92.7618292  0.428010E-03  0.134E-01    0.10       1.0  T
  35    -92.7621289 -0.299687E-03  0.842E-02    0.12       1.0  T
  36    -92.7621066  0.223576E-04  0.857E-02    0.11       1.0  T
  37    -92.7622988 -0.192199E-03  0.108E-02    0.11       1.6  T
  38    -92.7622916  0.713325E-05  0.199E-02    0.11       1.0  T
  39    -92.7623010 -0.931479E-05  0.827E-03    0.11       2.1  T
  40    -92.7623019 -0.925748E-06  0.531E-03    0.11       3.3  T
  41    -92.7623023 -0.395751E-06  0.350E-03    0.11       5.0  T
  42    -92.7623025 -0.220748E-06  0.180E-03    0.11       9.7  T
  43    -92.7623026 -0.828575E-07  0.190E-04    0.11      91.4  T
  44    -92.7623026 -0.223991E-09  0.127E-04    0.11     137.6  T

   *** convergence criteria satisfied after 44 iterations ***

         #    Occupation            Energy/Eh            Energy/eV
      -------------------------------------------------------------
         1        2.0000           -0.8121003             -22.0984
       ...           ...                  ...                  ...
        74        2.0000           -0.3503401              -9.5332
        75        2.0000           -0.3458562              -9.4112
        76        2.0000           -0.3442464              -9.3674
        77        2.0000           -0.3386978              -9.2164
        78        2.0000           -0.3291116              -8.9556
        79        2.0000           -0.3198695              -8.7041
        80        1.7584           -0.3012756              -8.1981 (HOMO)
        81        0.1701           -0.2971330              -8.0854 (LUMO)
        82        0.0716           -0.2962609              -8.0617
        83        0.0000           -0.2877172              -7.8292
        84        0.0000           -0.2843866              -7.7386
        85                         -0.2787022              -7.5839
       ...                                ...                  ...
       192                         13.2697952             361.0895
      -------------------------------------------------------------
                  HL-Gap            0.0041426 Eh            0.1127 eV
             Fermi-level           -0.2993901 Eh           -8.1468 eV

 SCC (total)                   0 d,  0 h,  0 min,  0.496 sec
 SCC setup                      ...        0 min,  0.000 sec (  0.000%)
 Dispersion                     ...        0 min,  0.002 sec (  0.403%)
 classical contributions        ...        0 min,  0.001 sec (  0.202%)
 integral evaluation            ...        0 min,  0.003 sec (  0.605%)
 iterations                     ...        0 min,  0.480 sec ( 96.774%)
 molecular gradient             ...        0 min,  0.009 sec (  1.814%)
 printout                       ...        0 min,  0.001 sec (  0.202%)

         :::::::::::::::::::::::::::::::::::::::::::::::::::::
         ::                     SUMMARY                     ::
         :::::::::::::::::::::::::::::::::::::::::::::::::::::
         :: total energy             -92.087007757304 Eh    ::
         :: gradient norm              0.000926694373 Eh/a0 ::
         :: HOMO-LUMO gap              0.112726441737 eV    ::
         ::.................................................::
         :: SCC energy               -92.760543512937 Eh    ::
         :: -> isotropic ES            0.899219709399 Eh    ::
         :: -> anisotropic ES         -0.411293606838 Eh    ::
         :: -> anisotropic XC         -0.061983512285 Eh    ::
         :: -> dispersion             -0.091763074219 Eh    ::
         :: repulsion energy           0.673535755633 Eh    ::
         :: add. restraining           0.000000000000 Eh    ::
         :: total charge               0.000000000000 e     ::
         :::::::::::::::::::::::::::::::::::::::::::::::::::::

           -------------------------------------------------
          |                Property Printout                |
           -------------------------------------------------

    * Orbital Energies and Occupations

         #    Occupation            Energy/Eh            Energy/eV
      -------------------------------------------------------------
         1        2.0000           -0.8121003             -22.0984
       ...           ...                  ...                  ...
        68        2.0000           -0.3848425             -10.4721
        69        2.0000           -0.3779765             -10.2853
        70        2.0000           -0.3756227             -10.2212
        71        2.0000           -0.3722945             -10.1306
        72        2.0000           -0.3595866              -9.7848
        73        2.0000           -0.3579288              -9.7397
        74        2.0000           -0.3503401              -9.5332
        75        2.0000           -0.3458562              -9.4112
        76        2.0000           -0.3442464              -9.3674
        77        2.0000           -0.3386978              -9.2164
        78        2.0000           -0.3291116              -8.9556
        79        2.0000           -0.3198695              -8.7041
        80        1.7584           -0.3012756              -8.1981 (HOMO)
        81        0.1701           -0.2971330              -8.0854 (LUMO)
        82        0.0716           -0.2962609              -8.0617
        83        0.0000           -0.2877172              -7.8292
        84        0.0000           -0.2843866              -7.7386
        85                         -0.2787022              -7.5839
        86                         -0.2779147              -7.5624
        87                         -0.2688274              -7.3152
        88                         -0.2681255              -7.2961
        89                         -0.2629752              -7.1559
        90                         -0.2622042              -7.1349
        91                         -0.2594036              -7.0587
       ...                                ...                  ...
       192                         13.2697952             361.0895
      -------------------------------------------------------------
                  HL-Gap            0.0041426 Eh            0.1127 eV
             Fermi-level           -0.2993901 Eh           -8.1468 eV

     #   Z          covCN         q      C6AA      α(0)
     1  22 Ti       3.508     1.000   103.027    24.754
     2  22 Ti       6.605     1.542    84.140    14.893
     3  22 Ti       3.236     1.059   102.511    24.723
     4  22 Ti       5.918     1.362    85.841    15.042
     5  22 Ti       5.732     1.127    88.153    15.244
     6  22 Ti       3.499     1.019   102.826    24.733
     7  22 Ti       2.066     0.994   202.595    34.849
     8  22 Ti       6.617     1.562    83.952    14.876
     9  22 Ti       3.410     1.020   102.912    24.763
    10  22 Ti       5.861     1.133    88.086    15.238
    11  22 Ti       5.705     1.193    87.488    15.186
    12  22 Ti       3.573     1.024   102.530    24.656
    13   6 C        2.349    -0.268    36.753     9.860
    14   6 C        2.151    -0.260    38.461    10.026
    15   6 C        2.219    -0.033    31.193     9.042
    16   6 C        1.839    -0.221    37.699     9.919
    17   6 C        1.898    -0.231    37.959     9.950
    18   6 C        1.835    -0.371    43.074    10.603
    19   6 C        2.625    -0.406    39.997    10.344
    20   8 O        1.476    -0.828    31.521     7.569
    21   8 O        1.457    -0.869    32.848     7.725
    22   8 O        1.524    -0.920    34.402     7.911
    23   8 O        1.517    -1.012    37.668     8.278
    24   8 O        1.490    -0.916    34.321     7.899
    25   8 O        1.460    -0.820    31.308     7.542
    26   8 O        1.454    -0.798    30.671     7.464
    27   8 O        1.494    -0.874    32.952     7.740
    28   8 O        1.484    -0.874    32.969     7.741
    29   8 O        1.456    -0.815    31.161     7.524
    30   8 O        1.555    -0.937    34.946     7.976
    31   8 O        1.516    -0.990    36.866     8.189
    32   8 O        1.464    -0.803    30.800     7.481
    33   8 O        1.453    -0.792    30.490     7.442

 Mol. C6AA /au·bohr⁶  :      56662.691453
 Mol. C8AA /au·bohr⁸  :    3448125.584391
 Mol. α(0) /au        :        427.180713


Wiberg/Mayer (AO) data.
largest (>0.10) Wiberg bond orders for each atom

 ---------------------------------------------------------------------------
     #   Z sym  total        # sym  WBO       # sym  WBO       # sym  WBO
 ---------------------------------------------------------------------------
     1  22 Ti   2.865 --    21 O    0.858    20 O    0.827     7 Ti   0.389
                             2 Ti   0.196     4 Ti   0.193     6 Ti   0.156
     2  22 Ti   3.866 --    22 O    0.772    21 O    0.736    24 O    0.703
                            23 O    0.640     1 Ti   0.196     3 Ti   0.194
                             5 Ti   0.128     6 Ti   0.113
     3  22 Ti   2.646 --    29 O    0.872    22 O    0.643     9 Ti   0.295
                             2 Ti   0.194     7 Ti   0.161    27 O    0.102
                            24 O    0.100
     4  22 Ti   3.942 --    25 O    0.938    20 O    0.745    13 C    0.691
                            23 O    0.499    10 Ti   0.205     1 Ti   0.193
                             6 Ti   0.191    30 O    0.112
     5  22 Ti   4.091 --    19 C    0.836    26 O    0.824    17 C    0.726
                            24 O    0.658    11 Ti   0.272     6 Ti   0.209
                            18 C    0.148    14 C    0.141     2 Ti   0.128
     6  22 Ti   2.716 --    26 O    0.933    25 O    0.718     5 Ti   0.209
                             4 Ti   0.191     1 Ti   0.156     2 Ti   0.113
                            21 O    0.106
     7  22 Ti   2.379 --    27 O    0.895     1 Ti   0.389     8 Ti   0.192
                            20 O    0.170     3 Ti   0.161    22 O    0.156
                            30 O    0.107
     8  22 Ti   3.829 --    28 O    0.792    30 O    0.683    31 O    0.662
                            27 O    0.650     9 Ti   0.201     7 Ti   0.192
                            10 Ti   0.127    12 Ti   0.121
     9  22 Ti   2.698 --    29 O    0.854    28 O    0.765     3 Ti   0.295
                             8 Ti   0.201    12 Ti   0.150    11 Ti   0.148
    10  22 Ti   4.093 --    18 C    0.879    32 O    0.823    16 C    0.735
                            30 O    0.587     4 Ti   0.205    12 Ti   0.200
                            13 C    0.174    19 C    0.138     8 Ti   0.127
    11  22 Ti   4.081 --    33 O    0.952    14 C    0.683    19 C    0.624
                            31 O    0.518     5 Ti   0.272    12 Ti   0.217
                             9 Ti   0.148    18 C    0.123
    12  22 Ti   2.708 --    32 O    0.886    33 O    0.739    11 Ti   0.217
                            10 Ti   0.200     9 Ti   0.150    28 O    0.136
                             8 Ti   0.121
    13   6 C    3.821 --    16 C    2.725     4 Ti   0.691    10 Ti   0.174
    14   6 C    3.791 --    17 C    2.736    11 Ti   0.683     5 Ti   0.141
    15   6 C    3.976 --    18 C    2.016    19 C    1.577
    16   6 C    3.685 --    13 C    2.725    10 Ti   0.735
    17   6 C    3.733 --    14 C    2.736     5 Ti   0.726
    18   6 C    3.629 --    15 C    2.016    10 Ti   0.879     5 Ti   0.148
                            11 Ti   0.123
    19   6 C    3.629 --    15 C    1.577     5 Ti   0.836    11 Ti   0.624
                            10 Ti   0.138
    20   8 O    1.960 --     1 Ti   0.827     4 Ti   0.745     7 Ti   0.170
    21   8 O    1.911 --     1 Ti   0.858     2 Ti   0.736     6 Ti   0.106
    22   8 O    1.833 --     2 Ti   0.772     3 Ti   0.643     7 Ti   0.156
    23   8 O    1.712 --     2 Ti   0.640     4 Ti   0.499
    24   8 O    1.845 --     2 Ti   0.703     5 Ti   0.658     3 Ti   0.100
    25   8 O    1.979 --     4 Ti   0.938     6 Ti   0.718
    26   8 O    2.012 --     6 Ti   0.933     5 Ti   0.824
    27   8 O    1.895 --     7 Ti   0.895     8 Ti   0.650     3 Ti   0.102
    28   8 O    1.902 --     8 Ti   0.792     9 Ti   0.765    12 Ti   0.136
    29   8 O    1.989 --     3 Ti   0.872     9 Ti   0.854
    30   8 O    1.817 --     8 Ti   0.683    10 Ti   0.587     4 Ti   0.112
                             7 Ti   0.107
    31   8 O    1.745 --     8 Ti   0.662    11 Ti   0.518
    32   8 O    2.006 --    12 Ti   0.886    10 Ti   0.823
    33   8 O    2.019 --    11 Ti   0.952    12 Ti   0.739
 ---------------------------------------------------------------------------

Topologies differ in total number of bonds
Writing topology from bond orders to xtbtopo.mol

molecular dipole:
                 x           y           z       tot (Debye)
 q only:       -0.600      -3.557      -1.027
   full:       -1.219      -3.334      -0.231       9.041
molecular quadrupole (traceless):
                xx          xy          yy          xz          yz          zz
 q only:      -40.373      22.370      32.686     -28.707      -8.581       7.687
  q+dip:      -31.230      12.840      13.095       4.707     -16.315      18.135
   full:      -30.167      13.424      15.464       3.110     -15.459      14.703


           -------------------------------------------------
          | TOTAL ENERGY              -92.087007757304 Eh   |
          | GRADIENT NORM               0.000926694373 Eh/α |
          | HOMO-LUMO GAP               0.112726441737 eV   |
           -------------------------------------------------

------------------------------------------------------------------------
 * finished run on 2026/09/01 at 20:32:34.746     
------------------------------------------------------------------------
 total:
 * wall-time:     0 d,  0 h,  0 min,  0.549 sec
 *  cpu-time:     0 d,  0 h,  0 min,  3.156 sec
 * ratio c/w:     5.749 speedup
 SCF:
 * wall-time:     0 d,  0 h,  0 min,  0.497 sec
 *  cpu-time:     0 d,  0 h,  0 min,  3.031 sec
 * ratio c/w:     6.099 speedup

