      -----------------------------------------------------------      
     |                   =====================                   |     
     |                           x T B                           |     
     |                   =====================                   |     
     |                         S. Grimme                         |     
     |          Mulliken Center for Theoretical Chemistry        |     
     |                    University of Bonn                     |     
      -----------------------------------------------------------      

   * xtb version 6.7.1pre (5071a88) compiled by 'Marcel@Raven' on 2024-07-23

   xtb is free software: you can redistribute it and/or modify it under
   the terms of the GNU Lesser General Public License as published by
   the Free Software Foundation, either version 3 of the License, or
   (at your option) any later version.
   
   xtb is distributed in the hope that it will be useful,
   but WITHOUT ANY WARRANTY; without even the implied warranty of
   MERCHANTABILITY or FITNESS FOR A PARTICULAR PURPOSE.  See the
   GNU Lesser General Public License for more details.
   
   Cite this work as:
   * C. Bannwarth, E. Caldeweyher, S. Ehlert, A. Hansen, P. Pracht,
     J. Seibert, S. Spicher, S. Grimme, WIREs Comput. Mol. Sci., 2020, 11,
     e01493. DOI: 10.1002/wcms.1493
   
   for GFN2-xTB:
   * C. Bannwarth, S. Ehlert and S. Grimme., J. Chem. Theory Comput., 2019,
     15, 1652-1671. DOI: 10.1021/acs.jctc.8b01176
   for GFN1-xTB:
   * S. Grimme, C. Bannwarth, P. Shushkov, J. Chem. Theory Comput., 2017,
     13, 1989-2009. DOI: 10.1021/acs.jctc.7b00118
   for GFN0-xTB:
   * P. Pracht, E. Caldeweyher, S. Ehlert, S. Grimme, ChemRxiv, 2019, preprint.
     DOI: 10.26434/chemrxiv.8326202.v1
   for GFN-FF:
   * S. Spicher and S. Grimme, Angew. Chem. Int. Ed., 2020, 59, 15665-15673.
     DOI: 10.1002/anie.202004239
   
   for ALPB and GBSA implicit solvation:
   * S. Ehlert, M. Stahn, S. Spicher, S. Grimme, J. Chem. Theory Comput.,
     2021, 17, 4250-4261. DOI: 10.1021/acs.jctc.1c00471
   
   for ddCOSMO and CPCM-X implicit solvation:
   * M. Stahn, S. Ehlert, S. Grimme, J. Phys. Chem. A,
     2023, XX, XXXX-XXXX. DOI: 10.1021/acs.jpca.3c04382
   
   for DFT-D4:
   * E. Caldeweyher, C. Bannwarth and S. Grimme, J. Chem. Phys., 2017,
     147, 034112. DOI: 10.1063/1.4993215
   * E. Caldeweyher, S. Ehlert, A. Hansen, H. Neugebauer, S. Spicher,
     C. Bannwarth and S. Grimme, J. Chem. Phys., 2019, 150, 154122.
     DOI: 10.1063/1.5090222
   * E. Caldeweyher, J.-M. Mewes, S. Ehlert and S. Grimme, Phys. Chem. Chem. Phys.
     2020, 22, 8499-8512. DOI: 10.1039/D0CP00502A
   
   for sTDA-xTB:
   * S. Grimme and C. Bannwarth, J. Chem. Phys., 2016, 145, 054103.
     DOI: 10.1063/1.4959605
   
   in the mass-spec context:
   * V. Asgeirsson, C. Bauer and S. Grimme, Chem. Sci., 2017, 8, 4879.
     DOI: 10.1039/c7sc00601b
   * J. Koopman and S. Grimme, ACS Omega 2019, 4, 12, 15120-15133.
     DOI: 10.1021/acsomega.9b02011
   
   for metadynamics refer to:
   * S. Grimme, J. Chem. Theory Comput., 2019, 155, 2847-2862
     DOI: 10.1021/acs.jctc.9b00143
   
   for SPH calculations refer to:
   * S. Spicher and S. Grimme, J. Chem. Theory Comput., 2021, 17, 1701-1714
     DOI: 10.1021/acs.jctc.0c01306
   
   for ONIOM refer to:
   * C. Plett, A. Katbashev, S. Ehlert, S. Grimme, M. Bursch,
     Phys. Chem. Chem. Phys., 2023, 25, 17860-17868. DOI: 10.1039/D3CP02178E
   
   for DIPRO refer to:
   * J. Kohn, N. Gildemeister, S. Grimme, D. Fazzi, A. Hansen,
     J. Chem. Phys., 2023, just accepted.
   
   for PTB refer to:
   * S. Grimme, M. Mueller, A. Hansen, J. Chem. Phys., 2023, 158, 124111.
     DOI: 10.1063/5.0137838
   
   with help from (in alphabetical order)
   P. Atkinson, C. Bannwarth, F. Bohle, G. Brandenburg, E. Caldeweyher
   M. Checinski, S. Dohm, S. Ehlert, S. Ehrlich, I. Gerasimov, C. Hölzer
   A. Katbashev, J. Kohn, J. Koopman, C. Lavigne, S. Lehtola, F. März, M. Müller,
   F. Musil, H. Neugebauer, J. Pisarek, C. Plett, P. Pracht, F. Pultar,
   J. Seibert, P. Shushkov, S. Spicher, M. Stahn, M. Steiner, T. Strunk,
   J. Stückrath, T. Rose, and J. Unsleber
   
 * started run on 2026/09/02 at 20:13:07.187     
   ID    Z sym.   atoms
    1    8 O      1, 16
    2    6 C      2, 3, 5-8, 10-12, 14, 15, 17, 18, 20, 22, 24, 26, 27,
                  29-32, 34
    3    7 N      4, 25
    4    9 F      9, 19, 21, 23, 28, 35
    5   53 I      13, 33
    6    1 H      36-51

           -------------------------------------------------
          |                Calculation Setup                |
           -------------------------------------------------

          program call               : "c:\Users\Andre\Proyectos doctorado\nano-qsar-ai-papers\kras-pancreatic-gC3N4-ai\tools\xtb\xtb-6.7.1\bin\xtb.exe" "c:\Users\Andre\Proyectos doctorado\nano-qsar-ai-papers\mxene-glioblastoma-qsar-ai\calculations\gbm\Cobimetinib\Cobimetinib_drug_frozen_from_opt.xyz" --gfn 2 --chrg 0 --uhf 0 --norestart
          coordinate file            : c:\Users\Andre\Proyectos doctorado\nano-qsar-ai-papers\mxene-glioblastoma-qsar-ai\calculations\gbm\Cobimetinib\Cobimetinib_drug_frozen_from_opt.xyz
          omp threads                :                     4


molecular fragmentation (1/2 indicates fragments):
111111111111111111112111111111111112111111111111111
# atoms in fragment 1/2:    49     2
 fragment masses (1/2) :      700.18       20.01
CMA distance (Bohr)    :  11.179
constraining FC (au)   :  0.0500

           -------------------------------------------------
          |                 G F N 2 - x T B                 |
           -------------------------------------------------

        Reference                      10.1021/acs.jctc.8b01176
      * Hamiltonian:
        H0-scaling (s, p, d)           1.850000    2.230000    2.230000
        zeta-weighting                 0.500000
      * Dispersion:
        s8                             2.700000
        a1                             0.520000
        a2                             5.000000
        s9                             5.000000
      * Repulsion:
        kExp                           1.500000    1.000000
        rExp                           1.000000
      * Coulomb:
        alpha                          2.000000
        third order                    shell-resolved
        anisotropic                    true
        a3                             3.000000
        a5                             4.000000
        cn-shift                       1.200000
        cn-exp                         4.000000
        max-rad                        5.000000


          ...................................................
          :                      SETUP                      :
          :.................................................:
          :  # basis functions                 168          :
          :  # atomic orbitals                 166          :
          :  # shells                           88          :
          :  # electrons                       186          :
          :  max. iterations                   250          :
          :  Hamiltonian                  GFN2-xTB          :
          :  restarted?                      false          :
          :  GBSA solvation                  false          :
          :  PC potential                    false          :
          :  electronic temp.          300.0000000     K    :
          :  accuracy                    1.0000000          :
          :  -> integral cutoff          0.2500000E+02      :
          :  -> integral neglect         0.1000000E-07      :
          :  -> SCF convergence          0.1000000E-05 Eh   :
          :  -> wf. convergence          0.1000000E-03 e    :
          :  Broyden damping             0.4000000          :
          :  net charge                          0          :
          :  unpaired electrons                  0          :
          ...................................................

 iter      E             dE          RMSdq      gap      omega  full diag
   1   -106.7651615 -0.106765E+03  0.631E+00    0.23       0.0  T
   2    -92.5409152  0.142242E+02  0.100E+01    0.13       1.0  T
   3   -107.0680986 -0.145272E+02  0.474E+00    0.18       1.0  T
   4   -106.8371134  0.230985E+00  0.718E+00    0.13       1.0  T
   5   -107.2775180 -0.440405E+00  0.439E+00    0.14       1.0  T
   6   -107.8264109 -0.548893E+00  0.265E+00    0.09       1.0  T
   7   -107.3984178  0.427993E+00  0.379E+00    0.16       1.0  T
   8   -106.6811945  0.717223E+00  0.413E+00    0.25       1.0  T
   9   -107.5177379 -0.836543E+00  0.274E+00    0.12       1.0  T
  10   -107.6440425 -0.126305E+00  0.231E+00    0.38       1.0  T
  11   -106.3085419  0.133550E+01  0.371E+00    0.01       1.0  T
  12   -107.8526389 -0.154410E+01  0.184E+00    0.16       1.0  T
  13   -107.8684775 -0.158386E-01  0.176E+00    0.14       1.0  T
  14   -104.1187332  0.374974E+01  0.533E+00    0.00       1.0  T
  15   -104.2011923 -0.824591E-01  0.525E+00    0.00       1.0  T
  16   -107.5086199 -0.330743E+01  0.222E+00    0.03       1.0  T
  17   -107.2511182  0.257502E+00  0.261E+00    0.03       1.0  T
  18   -106.7074356  0.543683E+00  0.328E+00    0.03       1.0  T
  19   -105.1189582  0.158848E+01  0.465E+00    0.01       1.0  T
  20   -107.4478705 -0.232891E+01  0.245E+00    0.02       1.0  T
  21   -107.5004397 -0.525692E-01  0.233E+00    0.02       1.0  T
  22   -107.9111984 -0.410759E+00  0.143E+00    0.11       1.0  T
  23   -107.9309155 -0.197171E-01  0.142E+00    0.04       1.0  T
  24   -107.9398016 -0.888606E-02  0.137E+00    0.04       1.0  T
  25   -107.1306896  0.809112E+00  0.279E+00    0.04       1.0  T
  26   -107.6721677 -0.541478E+00  0.192E+00    0.05       1.0  T
  27   -107.3241757  0.347992E+00  0.253E+00    0.05       1.0  T
  28   -107.6131427 -0.288967E+00  0.203E+00    0.05       1.0  T
  29   -107.8522362 -0.239093E+00  0.146E+00    0.04       1.0  T
  30   -107.7606228  0.916134E-01  0.171E+00    0.06       1.0  T
  31   -107.9978451 -0.237222E+00  0.810E-01    0.02       1.0  T
  32   -107.9644486  0.333964E-01  0.126E+00    0.04       1.0  T
  33   -107.9417275  0.227211E-01  0.134E+00    0.05       1.0  T
  34   -107.9388937  0.283384E-02  0.130E+00    0.07       1.0  T
  35   -107.9069970  0.318967E-01  0.140E+00    0.10       1.0  T
  36   -107.9142313 -0.723423E-02  0.135E+00    0.09       1.0  T
  37   -107.9168562 -0.262492E-02  0.135E+00    0.09       1.0  T
  38   -107.9194521 -0.259590E-02  0.127E+00    0.09       1.0  T
  39   -107.9358224 -0.163703E-01  0.119E+00    0.04       1.0  T
  40   -107.9314364  0.438601E-02  0.118E+00    0.04       1.0  T
  41   -107.9377048 -0.626843E-02  0.111E+00    0.05       1.0  T
  42   -107.9351756  0.252915E-02  0.113E+00    0.04       1.0  T
  43   -107.9398833 -0.470762E-02  0.109E+00    0.04       1.0  T
  44   -107.9448806 -0.499737E-02  0.104E+00    0.04       1.0  T
  45   -107.9444050  0.475593E-03  0.103E+00    0.05       1.0  T
  46   -108.0043132 -0.599082E-01  0.676E-01    0.04       1.0  T
  47   -107.9134230  0.908902E-01  0.118E+00    0.02       1.0  T
  48   -108.0145075 -0.101084E+00  0.606E-01    0.05       1.0  T
  49   -107.6987347  0.315773E+00  0.182E+00    0.03       1.0  T
  50   -108.0488043 -0.350070E+00  0.241E-01    0.04       1.0  T
  51   -107.7670585  0.281746E+00  0.165E+00    0.03       1.0  T
  52   -108.0270989 -0.260040E+00  0.544E-01    0.02       1.0  T
  53   -107.9077477  0.119351E+00  0.120E+00    0.02       1.0  T
  54   -107.9688993 -0.611515E-01  0.923E-01    0.02       1.0  T
  55   -107.9519558  0.169435E-01  0.101E+00    0.02       1.0  T
  56   -107.9495859  0.236988E-02  0.102E+00    0.02       1.0  T
  57   -107.9682224 -0.186365E-01  0.930E-01    0.02       1.0  T
  58   -108.0202113 -0.519890E-01  0.590E-01    0.01       1.0  T
  59   -108.0505624 -0.303511E-01  0.169E-01    0.03       1.0  T
  60   -108.0319886  0.185738E-01  0.514E-01    0.05       1.0  T
  61   -108.0007385  0.312502E-01  0.791E-01    0.05       1.0  T
  62   -107.9996070  0.113141E-02  0.797E-01    0.05       1.0  T
  63   -108.0059224 -0.631533E-02  0.733E-01    0.05       1.0  T
  64   -108.0522081 -0.462857E-01  0.944E-02    0.03       1.0  T
  65   -108.0393569  0.128512E-01  0.381E-01    0.02       1.0  T
  66   -108.0523986 -0.130418E-01  0.566E-02    0.04       1.0  T
  67   -108.0525710 -0.172418E-03  0.494E-02    0.03       1.0  T
  68   -108.0524732  0.978125E-04  0.475E-02    0.04       1.0  T
  69   -108.0522488  0.224426E-03  0.843E-02    0.03       1.0  T
  70   -108.0525403 -0.291463E-03  0.569E-02    0.03       1.0  T
  71   -108.0525549 -0.146243E-04  0.515E-02    0.03       1.0  T
  72   -108.0520700  0.484855E-03  0.687E-02    0.04       1.0  T
  73   -108.0525845 -0.514487E-03  0.280E-02    0.03       1.0  T
  74   -108.0524326  0.151905E-03  0.399E-02    0.04       1.0  T
  75   -108.0524972 -0.645908E-04  0.316E-02    0.03       1.0  T
  76   -108.0524849  0.123443E-04  0.335E-02    0.03       1.0  T
  77   -108.0524433  0.415795E-04  0.395E-02    0.03       1.0  T
  78   -108.0525671 -0.123865E-03  0.196E-02    0.03       1.0  T
  79   -108.0525355  0.316487E-04  0.261E-02    0.03       1.0  T
  80   -108.0525846 -0.490714E-04  0.150E-02    0.03       1.0  T
  81   -108.0525679  0.166564E-04  0.196E-02    0.03       1.0  T
  82   -108.0525886 -0.206535E-04  0.138E-02    0.03       1.0  T
  83   -108.0525775  0.110854E-04  0.174E-02    0.03       1.0  T
  84   -108.0525934 -0.159269E-04  0.123E-02    0.03       1.1  T
  85   -108.0525890  0.437004E-05  0.141E-02    0.03       1.0  T
  86   -108.0526040 -0.149634E-04  0.733E-03    0.03       1.9  T
  87   -108.0526037  0.263101E-06  0.761E-03    0.03       1.8  T
  88   -108.0526094 -0.567430E-05  0.151E-03    0.03       9.3  T
  89   -108.0526094 -0.153251E-07  0.147E-03    0.03       9.5  T
  90   -108.0526094 -0.156939E-07  0.162E-03    0.03       8.6  T
  91   -108.0526096 -0.178419E-06  0.725E-04    0.03      19.3  T
  92   -108.0526097 -0.365128E-07  0.238E-04    0.03      58.9  T

   *** convergence criteria satisfied after 92 iterations ***

         #    Occupation            Energy/Eh            Energy/eV
      -------------------------------------------------------------
         1        2.0000           -0.8446368             -22.9837
       ...           ...                  ...                  ...
        87        2.0000           -0.4091406             -11.1333
        88        2.0000           -0.4062964             -11.0559
        89        1.9993           -0.4007305             -10.9044
        90        1.9749           -0.3973316             -10.8119
        91        1.9316           -0.3963586             -10.7855
        92        1.7234           -0.3949226             -10.7464
        93        1.4823           -0.3941838             -10.7263 (HOMO)
        94        0.8873           -0.3929694             -10.6932 (LUMO)
        95        0.0011           -0.3860672             -10.5054
        96                         -0.2950699              -8.0293
        97                         -0.2823241              -7.6824
        98                         -0.2782467              -7.5715
       ...                                ...                  ...
       166                          0.6035838              16.4244
      -------------------------------------------------------------
                  HL-Gap            0.0012144 Eh            0.0330 eV
             Fermi-level           -0.3931844 Eh          -10.6991 eV

 SCC (total)                   0 d,  0 h,  0 min,  0.527 sec
 SCC setup                      ...        0 min,  0.000 sec (  0.000%)
 Dispersion                     ...        0 min,  0.001 sec (  0.190%)
 classical contributions        ...        0 min,  0.000 sec (  0.000%)
 integral evaluation            ...        0 min,  0.005 sec (  0.949%)
 iterations                     ...        0 min,  0.509 sec ( 96.584%)
 molecular gradient             ...        0 min,  0.011 sec (  2.087%)
 printout                       ...        0 min,  0.001 sec (  0.190%)

         :::::::::::::::::::::::::::::::::::::::::::::::::::::
         ::                     SUMMARY                     ::
         :::::::::::::::::::::::::::::::::::::::::::::::::::::
         :: total energy            -107.006837485774 Eh    ::
         :: gradient norm              0.164283180782 Eh/a0 ::
         :: HOMO-LUMO gap              0.033046366445 eV    ::
         ::.................................................::
         :: SCC energy              -108.052251094770 Eh    ::
         :: -> isotropic ES            0.161928234491 Eh    ::
         :: -> anisotropic ES         -0.003563120701 Eh    ::
         :: -> anisotropic XC          0.005465942510 Eh    ::
         :: -> dispersion             -0.070644693859 Eh    ::
         :: repulsion energy           1.045413608996 Eh    ::
         :: add. restraining           0.000000000000 Eh    ::
         :: total charge               0.000000001018 e     ::
         :::::::::::::::::::::::::::::::::::::::::::::::::::::

           -------------------------------------------------
          |                Property Printout                |
           -------------------------------------------------

    * Orbital Energies and Occupations

         #    Occupation            Energy/Eh            Energy/eV
      -------------------------------------------------------------
         1        2.0000           -0.8446368             -22.9837
       ...           ...                  ...                  ...
        81        2.0000           -0.4415157             -12.0143
        82        2.0000           -0.4362137             -11.8700
        83        2.0000           -0.4319992             -11.7553
        84        2.0000           -0.4287557             -11.6670
        85        2.0000           -0.4255771             -11.5805
        86        2.0000           -0.4153229             -11.3015
        87        2.0000           -0.4091406             -11.1333
        88        2.0000           -0.4062964             -11.0559
        89        1.9993           -0.4007305             -10.9044
        90        1.9749           -0.3973316             -10.8119
        91        1.9316           -0.3963586             -10.7855
        92        1.7234           -0.3949226             -10.7464
        93        1.4823           -0.3941838             -10.7263 (HOMO)
        94        0.8873           -0.3929694             -10.6932 (LUMO)
        95        0.0011           -0.3860672             -10.5054
        96                         -0.2950699              -8.0293
        97                         -0.2823241              -7.6824
        98                         -0.2782467              -7.5715
        99                         -0.2729744              -7.4280
       100                         -0.2669097              -7.2630
       101                         -0.2655630              -7.2263
       102                         -0.2609389              -7.1005
       103                         -0.2512100              -6.8358
       104                         -0.1641689              -4.4673
       ...                                ...                  ...
       166                          0.6035838              16.4244
      -------------------------------------------------------------
                  HL-Gap            0.0012144 Eh            0.0330 eV
             Fermi-level           -0.3931844 Eh          -10.6991 eV

     #   Z          covCN         q      C6AA      α(0)
     1   8 O        0.854    -0.460    22.919     6.419
     2   6 C        3.653     0.311    16.208     5.781
     3   6 C        3.754     0.005    20.551     6.464
     4   7 N        2.774    -0.069    22.571     7.056
     5   6 C        3.776    -0.001    20.629     6.471
     6   6 C        3.102     0.005    27.777     8.636
     7   6 C        2.923    -0.055    29.354     8.885
     8   6 C        2.784     0.173    24.271     8.070
     9   9 F        0.787    -0.211    11.352     3.980
    10   6 C        2.917    -0.047    29.172     8.857
    11   6 C        3.078    -0.032    28.710     8.785
    12   6 C        2.959     0.045    26.982     8.520
    13  53 I        1.314    -0.105   379.741    33.639
    14   6 C        3.748    -0.009    20.799     6.505
    15   6 C        3.681     0.076    19.522     6.328
    16   8 O        1.690    -0.310    19.172     5.911
    17   6 C        2.949    -0.029    28.714     8.789
    18   6 C        2.816     0.161    24.521     8.113
    19   9 F        0.785    -0.171    10.942     3.907
    20   6 C        1.972    -0.060    32.686     9.233
    21   9 F        0.000    -0.347    13.324     4.251
    22   6 C        2.815     0.166    24.419     8.096
    23   9 F        0.786    -0.175    10.985     3.915
    24   6 C        2.896     0.065    26.544     8.447
    25   7 N        2.701    -0.126    23.740     7.236
    26   6 C        2.945     0.064    26.564     8.453
    27   6 C        2.784     0.174    24.261     8.068
    28   9 F        0.787    -0.200    11.236     3.960
    29   6 C        2.917    -0.043    29.067     8.841
    30   6 C        2.923    -0.020    28.511     8.756
    31   6 C        2.933    -0.023    28.579     8.767
    32   6 C        2.900     0.032    27.293     8.566
    33  53 I        0.973    -0.092   378.678    33.593
    34   6 C        2.809     0.122    25.310     8.242
    35   9 F        0.783    -0.225    11.492     4.004
    36   1 H        0.000     0.173     3.106     3.223
    37   1 H        0.924     0.086     1.913     2.163
    38   1 H        0.924     0.067     2.122     2.278
    39   1 H        0.924     0.080     1.979     2.200
    40   1 H        0.922     0.096     1.824     2.112
    41   1 H        0.924     0.074     2.043     2.236
    42   1 H        0.926     0.075     2.028     2.227
    43   1 H        0.926     0.070     2.082     2.256
    44   1 H        0.921     0.064     2.155     2.296
    45   1 H        0.923     0.065     2.147     2.291
    46   1 H        0.924     0.048     2.349     2.397
    47   1 H        0.922     0.077     2.007     2.215
    48   1 H        0.860     0.203     1.093     1.638
    49   1 H        0.926     0.082     1.962     2.190
    50   1 H        0.926     0.074     2.044     2.235
    51   1 H        0.926     0.080     1.974     2.197

 Mol. C6AA /au·bohr⁶  :      46659.422608
 Mol. C8AA /au·bohr⁸  :    1543664.643167
 Mol. α(0) /au        :        339.702192


Wiberg/Mayer (AO) data.
largest (>0.10) Wiberg bond orders for each atom

 ---------------------------------------------------------------------------
     #   Z sym  total        # sym  WBO       # sym  WBO       # sym  WBO
 ---------------------------------------------------------------------------
     1   8 O    1.813 --     2 C    1.217    20 C    0.191
     2   6 C    3.924 --     1 O    1.217    16 O    0.918    17 C    0.868
                             3 C    0.828
     3   6 C    3.935 --     4 N    1.058    37 H    0.964    38 H    0.960
                             2 C    0.828
     4   7 N    3.263 --     3 C    1.058    14 C    0.997     5 C    0.996
     5   6 C    3.953 --     6 C    1.005     4 N    0.996    39 H    0.952
                            40 H    0.923
     6   6 C    3.983 --     7 C    1.410    12 C    1.390     5 C    1.005
                            10 C    0.105
     7   6 C    3.986 --     6 C    1.410     8 C    1.395    41 H    0.960
                            11 C    0.107
     8   6 C    3.893 --     7 C    1.395    10 C    1.390     9 F    0.970
     9   9 F    1.104 --     8 C    0.970
    10   6 C    3.988 --    11 C    1.439     8 C    1.390    42 H    0.963
                             6 C    0.105
    11   6 C    3.987 --    10 C    1.439    12 C    1.422    43 H    0.966
                             7 C    0.107
    12   6 C    3.955 --    11 C    1.422     6 C    1.390    13 I    0.980
    13  53 I    1.129 --    12 C    0.980
    14   6 C    3.961 --     4 N    0.997    15 C    0.978    44 H    0.966
                            45 H    0.957
    15   6 C    3.938 --    16 O    0.988    14 C    0.978    46 H    0.966
                            47 H    0.963
    16   8 O    2.126 --    15 C    0.988     2 C    0.918
    17   6 C    3.928 --    34 C    1.391    18 C    1.322     2 C    0.868
    18   6 C    3.850 --    20 C    1.378    17 C    1.322    19 F    0.959
    19   9 F    1.142 --    18 C    0.959
    20   6 C    3.518 --    22 C    1.412    18 C    1.378     1 O    0.191
                            36 H    0.126
    21   9 F    0.063
    22   6 C    3.865 --    20 C    1.412    24 C    1.262    23 F    0.981
    23   9 F    1.121 --    22 C    0.981
    24   6 C    3.945 --    34 C    1.285    22 C    1.262    25 N    1.173
    25   7 N    3.325 --    24 C    1.173    26 C    1.013    48 H    0.912
    26   6 C    3.965 --    32 C    1.382    27 C    1.350    25 N    1.013
                            30 C    0.103
    27   6 C    3.891 --    29 C    1.394    26 C    1.350    28 F    0.976
    28   9 F    1.111 --    27 C    0.976
    29   6 C    3.984 --    30 C    1.438    27 C    1.394    49 H    0.962
                            32 C    0.107
    30   6 C    3.985 --    29 C    1.438    31 C    1.423    50 H    0.963
                            26 C    0.103
    31   6 C    3.984 --    32 C    1.435    30 C    1.423    51 H    0.962
    32   6 C    3.932 --    31 C    1.435    26 C    1.382    33 I    0.934
                            29 C    0.107
    33  53 I    1.080 --    32 C    0.934
    34   6 C    3.854 --    17 C    1.391    24 C    1.285    35 F    0.937
    35   9 F    1.069 --    34 C    0.937
    36   1 H    0.297 --    20 C    0.126
    37   1 H    0.992 --     3 C    0.964
    38   1 H    0.990 --     3 C    0.960
    39   1 H    0.992 --     5 C    0.952
    40   1 H    0.971 --     5 C    0.923
    41   1 H    0.994 --     7 C    0.960
    42   1 H    0.994 --    10 C    0.963
    43   1 H    0.994 --    11 C    0.966
    44   1 H    0.993 --    14 C    0.966
    45   1 H    0.984 --    14 C    0.957
    46   1 H    0.996 --    15 C    0.966
    47   1 H    0.991 --    15 C    0.963
    48   1 H    0.956 --    25 N    0.912
    49   1 H    0.991 --    29 C    0.962
    50   1 H    0.990 --    30 C    0.963
    51   1 H    0.992 --    31 C    0.962
 ---------------------------------------------------------------------------

Topologies differ in total number of bonds
Writing topology from bond orders to xtbtopo.mol

molecular dipole:
                 x           y           z       tot (Debye)
 q only:       -2.544      -2.012       2.634
   full:       -2.740      -2.201       1.945      10.209
molecular quadrupole (traceless):
                xx          xy          yy          xz          yz          zz
 q only:      -40.953     -28.073     -12.076     -56.557     -44.359      53.029
  q+dip:      -34.404     -23.724       8.276     -63.337     -45.566      26.128
   full:      -32.273     -24.710       5.539     -63.265     -43.885      26.734


           -------------------------------------------------
          | TOTAL ENERGY             -107.006837485774 Eh   |
          | GRADIENT NORM               0.164283180782 Eh/α |
          | HOMO-LUMO GAP               0.033046366445 eV   |
           -------------------------------------------------

------------------------------------------------------------------------
 * finished run on 2026/09/02 at 20:13:07.753     
------------------------------------------------------------------------
 total:
 * wall-time:     0 d,  0 h,  0 min,  0.563 sec
 *  cpu-time:     0 d,  0 h,  0 min,  1.750 sec
 * ratio c/w:     3.108 speedup
 SCF:
 * wall-time:     0 d,  0 h,  0 min,  0.527 sec
 *  cpu-time:     0 d,  0 h,  0 min,  1.672 sec
 * ratio c/w:     3.172 speedup

