      -----------------------------------------------------------      
     |                   =====================                   |     
     |                           x T B                           |     
     |                   =====================                   |     
     |                         S. Grimme                         |     
     |          Mulliken Center for Theoretical Chemistry        |     
     |                    University of Bonn                     |     
      -----------------------------------------------------------      

   * xtb version 6.7.1pre (5071a88) compiled by 'Marcel@Raven' on 2024-07-23

   xtb is free software: you can redistribute it and/or modify it under
   the terms of the GNU Lesser General Public License as published by
   the Free Software Foundation, either version 3 of the License, or
   (at your option) any later version.
   
   xtb is distributed in the hope that it will be useful,
   but WITHOUT ANY WARRANTY; without even the implied warranty of
   MERCHANTABILITY or FITNESS FOR A PARTICULAR PURPOSE.  See the
   GNU Lesser General Public License for more details.
   
   Cite this work as:
   * C. Bannwarth, E. Caldeweyher, S. Ehlert, A. Hansen, P. Pracht,
     J. Seibert, S. Spicher, S. Grimme, WIREs Comput. Mol. Sci., 2020, 11,
     e01493. DOI: 10.1002/wcms.1493
   
   for GFN2-xTB:
   * C. Bannwarth, S. Ehlert and S. Grimme., J. Chem. Theory Comput., 2019,
     15, 1652-1671. DOI: 10.1021/acs.jctc.8b01176
   for GFN1-xTB:
   * S. Grimme, C. Bannwarth, P. Shushkov, J. Chem. Theory Comput., 2017,
     13, 1989-2009. DOI: 10.1021/acs.jctc.7b00118
   for GFN0-xTB:
   * P. Pracht, E. Caldeweyher, S. Ehlert, S. Grimme, ChemRxiv, 2019, preprint.
     DOI: 10.26434/chemrxiv.8326202.v1
   for GFN-FF:
   * S. Spicher and S. Grimme, Angew. Chem. Int. Ed., 2020, 59, 15665-15673.
     DOI: 10.1002/anie.202004239
   
   for ALPB and GBSA implicit solvation:
   * S. Ehlert, M. Stahn, S. Spicher, S. Grimme, J. Chem. Theory Comput.,
     2021, 17, 4250-4261. DOI: 10.1021/acs.jctc.1c00471
   
   for ddCOSMO and CPCM-X implicit solvation:
   * M. Stahn, S. Ehlert, S. Grimme, J. Phys. Chem. A,
     2023, XX, XXXX-XXXX. DOI: 10.1021/acs.jpca.3c04382
   
   for DFT-D4:
   * E. Caldeweyher, C. Bannwarth and S. Grimme, J. Chem. Phys., 2017,
     147, 034112. DOI: 10.1063/1.4993215
   * E. Caldeweyher, S. Ehlert, A. Hansen, H. Neugebauer, S. Spicher,
     C. Bannwarth and S. Grimme, J. Chem. Phys., 2019, 150, 154122.
     DOI: 10.1063/1.5090222
   * E. Caldeweyher, J.-M. Mewes, S. Ehlert and S. Grimme, Phys. Chem. Chem. Phys.
     2020, 22, 8499-8512. DOI: 10.1039/D0CP00502A
   
   for sTDA-xTB:
   * S. Grimme and C. Bannwarth, J. Chem. Phys., 2016, 145, 054103.
     DOI: 10.1063/1.4959605
   
   in the mass-spec context:
   * V. Asgeirsson, C. Bauer and S. Grimme, Chem. Sci., 2017, 8, 4879.
     DOI: 10.1039/c7sc00601b
   * J. Koopman and S. Grimme, ACS Omega 2019, 4, 12, 15120-15133.
     DOI: 10.1021/acsomega.9b02011
   
   for metadynamics refer to:
   * S. Grimme, J. Chem. Theory Comput., 2019, 155, 2847-2862
     DOI: 10.1021/acs.jctc.9b00143
   
   for SPH calculations refer to:
   * S. Spicher and S. Grimme, J. Chem. Theory Comput., 2021, 17, 1701-1714
     DOI: 10.1021/acs.jctc.0c01306
   
   for ONIOM refer to:
   * C. Plett, A. Katbashev, S. Ehlert, S. Grimme, M. Bursch,
     Phys. Chem. Chem. Phys., 2023, 25, 17860-17868. DOI: 10.1039/D3CP02178E
   
   for DIPRO refer to:
   * J. Kohn, N. Gildemeister, S. Grimme, D. Fazzi, A. Hansen,
     J. Chem. Phys., 2023, just accepted.
   
   for PTB refer to:
   * S. Grimme, M. Mueller, A. Hansen, J. Chem. Phys., 2023, 158, 124111.
     DOI: 10.1063/5.0137838
   
   with help from (in alphabetical order)
   P. Atkinson, C. Bannwarth, F. Bohle, G. Brandenburg, E. Caldeweyher
   M. Checinski, S. Dohm, S. Ehlert, S. Ehrlich, I. Gerasimov, C. Hölzer
   A. Katbashev, J. Kohn, J. Koopman, C. Lavigne, S. Lehtola, F. März, M. Müller,
   F. Musil, H. Neugebauer, J. Pisarek, C. Plett, P. Pracht, F. Pultar,
   J. Seibert, P. Shushkov, S. Spicher, M. Stahn, M. Steiner, T. Strunk,
   J. Stückrath, T. Rose, and J. Unsleber
   
 * started run on 2026/08/31 at 21:49:14.548     
   ID    Z sym.   atoms
    1    8 O      1, 16, 71-84
    2    6 C      2, 3, 5-8, 10-12, 14, 15, 17, 18, 20, 22, 24, 26, 27,
                  29-32, 34, 64-70
    3    7 N      4, 25
    4    9 F      9, 19, 21, 23, 28, 35
    5   53 I      13, 33
    6    1 H      36-51
    7   22 Ti     52-63

           -------------------------------------------------
          |                Calculation Setup                |
           -------------------------------------------------

          program call               : "c:\Users\Andre\Proyectos doctorado\kras-pancreatic-gC3N4-ai\tools\xtb\xtb-6.7.1\bin\xtb.exe" "c:\Users\Andre\Proyectos doctorado\mxene-glioblastoma-qsar-ai\calculations\gbm\Cobimetinib\Cobimetinib_opt_orient_180deg.xyz" --opt vloose --gfn 2 --chrg 0 --uhf 0 --etemp 500 --acc 1.0 --iterations 500 --cycles 25 --norestart
          coordinate file            : c:\Users\Andre\Proyectos doctorado\mxene-glioblastoma-qsar-ai\calculations\gbm\Cobimetinib\Cobimetinib_opt_orient_180deg.xyz
          omp threads                :                    16


molecular fragmentation (1/2 indicates fragments):
111111111111111111111111111111111111111111111111111222222222222222222222
222222222222
# atoms in fragment 1/2:    51    33
 fragment masses (1/2) :      720.19      882.47
CMA distance (Bohr)    :  19.241
constraining FC (au)   :  0.0500

           -------------------------------------------------
          |                 G F N 2 - x T B                 |
           -------------------------------------------------

        Reference                      10.1021/acs.jctc.8b01176
      * Hamiltonian:
        H0-scaling (s, p, d)           1.850000    2.230000    2.230000
        zeta-weighting                 0.500000
      * Dispersion:
        s8                             2.700000
        a1                             0.520000
        a2                             5.000000
        s9                             5.000000
      * Repulsion:
        kExp                           1.500000    1.000000
        rExp                           1.000000
      * Coulomb:
        alpha                          2.000000
        third order                    shell-resolved
        anisotropic                    true
        a3                             3.000000
        a5                             4.000000
        cn-shift                       1.200000
        cn-exp                         4.000000
        max-rad                        5.000000


          ...................................................
          :                      SETUP                      :
          :.................................................:
          :  # basis functions                 372          :
          :  # atomic orbitals                 358          :
          :  # shells                          166          :
          :  # electrons                       346          :
          :  max. iterations                   500          :
          :  Hamiltonian                  GFN2-xTB          :
          :  restarted?                      false          :
          :  GBSA solvation                  false          :
          :  PC potential                    false          :
          :  electronic temp.          500.0000000     K    :
          :  accuracy                    1.0000000          :
          :  -> integral cutoff          0.2500000E+02      :
          :  -> integral neglect         0.1000000E-07      :
          :  -> SCF convergence          0.1000000E-05 Eh   :
          :  -> wf. convergence          0.1000000E-03 e    :
          :  Broyden damping             0.4000000          :
          :  net charge                          0          :
          :  unpaired electrons                  0          :
          ...................................................

 iter      E             dE          RMSdq      gap      omega  full diag
   1   -197.5199720 -0.197520E+03  0.141E+01    0.05       0.0  T
   2   -146.3686774  0.511513E+02  0.154E+01    0.05       1.0  T
   3    123.8604882  0.270229E+03  0.310E+01    0.01       1.0  T
   4   -158.9984307 -0.282859E+03  0.152E+01    0.05       1.0  T
   5   -150.0774013  0.892103E+01  0.155E+01    0.05       1.0  T
   6   -195.1251377 -0.450477E+02  0.110E+01    0.02       1.0  T
   7   -197.9805488 -0.285541E+01  0.757E+00    0.08       1.0  T
   8   -198.1700835 -0.189535E+00  0.627E+00    0.05       1.0  T
   9   -190.2089462  0.796114E+01  0.841E+00    0.02       1.0  T
  10   -197.3675656 -0.715862E+01  0.717E+00    0.12       1.0  T
  11   -193.8876167  0.347995E+01  0.746E+00    0.00       1.0  T
  12   -194.5490134 -0.661397E+00  0.736E+00    0.06       1.0  T
  13   -192.3316760  0.221734E+01  0.767E+00    0.12       1.0  T
  14   -192.8523024 -0.520626E+00  0.755E+00    0.09       1.0  T
  15   -196.0979031 -0.324560E+01  0.674E+00    0.02       1.0  T
  16   -195.0346372  0.106327E+01  0.642E+00    0.08       1.0  T
  17   -195.9990585 -0.964421E+00  0.625E+00    0.02       1.0  T
  18   -191.1966239  0.480243E+01  0.646E+00    0.00       1.0  T
  19   -195.1477962 -0.395117E+01  0.601E+00    0.10       1.0  T
  20   -197.5170438 -0.236925E+01  0.489E+00    0.07       1.0  T
  21   -193.2188233  0.429822E+01  0.535E+00    0.01       1.0  T
  22   -199.5056307 -0.628681E+01  0.354E+00    0.01       1.0  T
  23   -198.5528819  0.952749E+00  0.336E+00    0.15       1.0  T
  24   -195.4361638  0.311672E+01  0.500E+00    0.17       1.0  T
  25   -199.1489619 -0.371280E+01  0.300E+00    0.08       1.0  T
  26   -200.4186684 -0.126971E+01  0.281E+00    0.04       1.0  T
  27   -200.4322620 -0.135936E-01  0.287E+00    0.03       1.0  T
  28   -200.2828944  0.149368E+00  0.275E+00    0.03       1.0  T
  29   -199.2076498  0.107524E+01  0.318E+00    0.02       1.0  T
  30   -200.0493310 -0.841681E+00  0.325E+00    0.07       1.0  T
  31   -199.7984015  0.250929E+00  0.353E+00    0.04       1.0  T
  32   -197.8150359  0.198337E+01  0.416E+00    0.13       1.0  T
  33   -199.1909357 -0.137590E+01  0.329E+00    0.02       1.0  T
  34   -201.0332562 -0.184232E+01  0.163E+00    0.17       1.0  T
  35   -201.0705912 -0.373350E-01  0.146E+00    0.23       1.0  T
  36   -201.0819858 -0.113946E-01  0.134E+00    0.33       1.0  T
  37   -201.0880045 -0.601867E-02  0.126E+00    0.52       1.0  T
  38   -201.0917019 -0.369742E-02  0.118E+00    0.63       1.0  T
  39   -201.0966939 -0.499204E-02  0.111E+00    0.70       1.0  T
  40   -201.1037985 -0.710458E-02  0.101E+00    0.78       1.0  T
  41   -201.1129867 -0.918821E-02  0.903E-01    0.76       1.0  T
  42   -201.1202539 -0.726721E-02  0.779E-01    0.69       1.0  T
  43   -201.1249942 -0.474026E-02  0.711E-01    0.63       1.0  T
  44   -201.1294754 -0.448125E-02  0.651E-01    0.57       1.0  T
  45   -201.1319226 -0.244716E-02  0.604E-01    0.59       1.0  T
  46   -201.1355347 -0.361210E-02  0.551E-01    0.64       1.0  T
  47   -201.1378285 -0.229381E-02  0.517E-01    0.70       1.0  T
  48   -201.1388628 -0.103426E-02  0.502E-01    0.73       1.0  T
  49   -201.1423307 -0.346792E-02  0.439E-01    0.74       1.0  T
  50   -201.1444361 -0.210541E-02  0.380E-01    0.72       1.0  T
  51   -201.1460241 -0.158804E-02  0.326E-01    0.72       1.0  T
  52   -201.1475575 -0.153336E-02  0.275E-01    0.75       1.0  T
  53   -201.1489449 -0.138743E-02  0.226E-01    0.76       1.0  T
  54   -201.1496956 -0.750657E-03  0.202E-01    0.74       1.0  T
  55   -201.1500952 -0.399663E-03  0.175E-01    0.74       1.0  T
  56   -201.1505623 -0.467091E-03  0.147E-01    0.75       1.0  T
  57   -201.1508522 -0.289885E-03  0.132E-01    0.74       1.0  T
  58   -201.1511497 -0.297478E-03  0.120E-01    0.73       1.0  T
  59   -201.1514954 -0.345700E-03  0.106E-01    0.72       1.0  T
  60   -201.1517614 -0.266028E-03  0.944E-02    0.70       1.0  T
  61   -201.1519526 -0.191177E-03  0.838E-02    0.70       1.0  T
  62   -201.1520207 -0.680652E-04  0.791E-02    0.70       1.0  T
  63   -201.1521614 -0.140733E-03  0.696E-02    0.69       1.0  T
  64   -201.1523083 -0.146930E-03  0.590E-02    0.68       1.0  T
  65   -201.1523787 -0.703758E-04  0.533E-02    0.68       1.0  T
  66   -201.1524418 -0.631246E-04  0.471E-02    0.67       1.0  T
  67   -201.1524797 -0.378250E-04  0.438E-02    0.66       1.0  T
  68   -201.1525101 -0.304884E-04  0.410E-02    0.66       1.0  T
  69   -201.1525391 -0.290038E-04  0.383E-02    0.66       1.0  T
  70   -201.1525745 -0.353838E-04  0.354E-02    0.65       1.0  T
  71   -201.1525902 -0.156836E-04  0.339E-02    0.65       1.0  T
  72   -201.1526078 -0.176006E-04  0.320E-02    0.65       1.0  T
  73   -201.1526245 -0.167185E-04  0.297E-02    0.64       1.0  T
  74   -201.1526491 -0.246046E-04  0.254E-02    0.64       1.0  T
  75   -201.1526728 -0.236708E-04  0.205E-02    0.64       1.0  T
  76   -201.1526929 -0.201429E-04  0.160E-02    0.63       1.0  T
  77   -201.1527024 -0.948451E-05  0.130E-02    0.63       1.0  T
  78   -201.1527069 -0.444458E-05  0.111E-02    0.63       1.0  T
  79   -201.1527107 -0.379936E-05  0.934E-03    0.62       1.2  T
  80   -201.1527107  0.171302E-07  0.881E-03    0.62       1.2  T
  81   -201.1527104  0.258438E-06  0.823E-03    0.62       1.3  T
  82   -201.1527118 -0.139612E-05  0.705E-03    0.62       1.5  T
  83   -201.1527126 -0.793372E-06  0.615E-03    0.62       1.8  T
  84   -201.1527130 -0.388243E-06  0.558E-03    0.62       2.0  T
  85   -201.1527132 -0.224528E-06  0.518E-03    0.62       2.1  T
  86   -201.1527135 -0.268151E-06  0.463E-03    0.62       2.4  T
  87   -201.1527139 -0.390907E-06  0.387E-03    0.62       2.8  T
  88   -201.1527143 -0.396282E-06  0.299E-03    0.62       3.7  T
  89   -201.1527147 -0.413809E-06  0.169E-03    0.62       6.5  T
  90   -201.1527148 -0.164069E-06  0.704E-04    0.62      15.5  T
  91   -201.1527149 -0.280791E-07  0.413E-04    0.62      26.4  T

   *** convergence criteria satisfied after 91 iterations ***

         #    Occupation            Energy/Eh            Energy/eV
      -------------------------------------------------------------
         1        2.0000           -0.8534353             -23.2232
       ...           ...                  ...                  ...
       167        2.0000           -0.3583247              -9.7505
       168        2.0000           -0.3506017              -9.5404
       169        2.0000           -0.3485552              -9.4847
       170        2.0000           -0.3445569              -9.3759
       171        2.0000           -0.3376275              -9.1873
       172        2.0000           -0.3223600              -8.7719
       173        1.9976           -0.3077499              -8.3743 (HOMO)
       174        0.0009           -0.2848978              -7.7525 (LUMO)
       175        0.0007           -0.2845795              -7.7438
       176        0.0003           -0.2833169              -7.7094
       177        0.0002           -0.2824548              -7.6860
       178        0.0002           -0.2823469              -7.6831
       ...           ...                  ...                  ...
       358                         13.3397583             362.9933
      -------------------------------------------------------------
                  HL-Gap            0.0228521 Eh            0.6218 eV
             Fermi-level           -0.2970959 Eh           -8.0844 eV

 SCC (total)                   0 d,  0 h,  0 min,  3.237 sec
 SCC setup                      ...        0 min,  0.003 sec (  0.093%)
 Dispersion                     ...        0 min,  0.005 sec (  0.154%)
 classical contributions        ...        0 min,  0.001 sec (  0.031%)
 integral evaluation            ...        0 min,  0.014 sec (  0.433%)
 iterations                     ...        0 min,  3.191 sec ( 98.579%)
 molecular gradient             ...        0 min,  0.021 sec (  0.649%)
 printout                       ...        0 min,  0.002 sec (  0.062%)

         :::::::::::::::::::::::::::::::::::::::::::::::::::::
         ::                     SUMMARY                     ::
         :::::::::::::::::::::::::::::::::::::::::::::::::::::
         :: total energy            -199.429395528573 Eh    ::
         :: gradient norm              0.071689756590 Eh/a0 ::
         :: HOMO-LUMO gap              0.621836708789 eV    ::
         ::.................................................::
         :: SCC energy              -201.150656470556 Eh    ::
         :: -> isotropic ES            1.025932176100 Eh    ::
         :: -> anisotropic ES         -0.375204477620 Eh    ::
         :: -> anisotropic XC         -0.066500198992 Eh    ::
         :: -> dispersion             -0.158390296752 Eh    ::
         :: repulsion energy           1.721260941982 Eh    ::
         :: add. restraining           0.000000000000 Eh    ::
         :: total charge               0.000000000003 e     ::
         :::::::::::::::::::::::::::::::::::::::::::::::::::::

      ----------------------------------------------------------- 
     |                   =====================                   |
     |                        A N C O P T                        |
     |                   =====================                   |
     |               Approximate Normal Coordinate               |
     |                Rational Function Optimizer                |
      ----------------------------------------------------------- 
      ----------------------------------------------------------- 
     |                   =====================                   |
     |                        A N C O P T                        |
     |                   =====================                   |
     |               Approximate Normal Coordinate               |
     |                Rational Function Optimizer                |
      ----------------------------------------------------------- 

          ...................................................
          :                      SETUP                      :
          :.................................................:
          :   optimization level            normal          :
          :   max. optcycles                    25          :
          :   ANC micro-cycles                  20          :
          :   degrees of freedom               246          :
          :.................................................:
          :   RF solver                   davidson          :
          :   write xtbopt.log                true          :
          :   linear?                        false          :
          :   energy convergence         0.5000000E-05 Eh   :
          :   grad. convergence          0.1000000E-02 Eh/α :
          :   maxmium RF displ.          1.0000000          :
          :   Hlow (freq-cutoff)         0.1000000E-01      :
          :   Hmax (freq-cutoff)         5.0000000          :
          :   S6 in model hess.         20.0000000          :
          ...................................................

generating ANC from exact Hessian ...
Using Lindh-Hessian (1995)
 Shifting diagonal of input Hessian by   1.791441100637616E-002
 Lowest  eigenvalues of input Hessian
    0.010000    0.017284    0.017393    0.017431    0.000000    0.000000
    0.000000    0.000000    0.000000    0.000000    0.017926    0.017941
    0.017960    0.018022    0.018233    0.018240    0.018355    0.018441
 Highest eigenvalues
    2.000964    2.055464    2.058603    2.168986    2.193426    2.262054
 

........................................................................
.............................. CYCLE    1 ..............................
........................................................................

 iter      E             dE          RMSdq      gap      omega  full diag
   1   -201.1527149 -0.201153E+03  0.371E-04    0.62       0.0  T
   2   -201.1527149 -0.516505E-08  0.398E-04    0.62      27.4  T
   3   -201.1527149 -0.200009E-08  0.249E-04    0.62      43.8  T
     SCC iter.                  ...        0 min,  0.098 sec
     gradient                   ...        0 min,  0.020 sec
 * total energy  :  -199.4293955 Eh     change       -0.1266380E-07 Eh
   gradient norm :     0.0716979 Eh/α   predicted     0.0000000E+00 (-100.00%)
   displ. norm   :     0.3591960 α      lambda       -0.1417937E-01
   maximum displ.:     0.1063099 α      in ANC's #38, #93, #26, ...

........................................................................
.............................. CYCLE    2 ..............................
........................................................................

 iter      E             dE          RMSdq      gap      omega  full diag
   1   -201.1950252 -0.201195E+03  0.186E-01    0.63       0.0  T
   2   -201.1950932 -0.679730E-04  0.108E-01    0.61       1.0  T
   3   -201.1946406  0.452582E-03  0.116E-01    0.65       1.0  T
   4   -201.1950699 -0.429282E-03  0.550E-02    0.62       1.0  T
   5   -201.1951683 -0.984162E-04  0.293E-02    0.62       1.0  T
   6   -201.1952045 -0.362320E-04  0.153E-02    0.63       1.0  T
   7   -201.1952119 -0.737175E-05  0.849E-03    0.62       1.3  T
   8   -201.1952130 -0.111164E-05  0.515E-03    0.62       2.1  T
   9   -201.1952131 -0.123455E-06  0.305E-03    0.62       3.6  T
  10   -201.1952131 -0.142506E-07  0.218E-03    0.62       5.0  T
  11   -201.1952133 -0.185605E-06  0.108E-03    0.62      10.1  T
  12   -201.1952134 -0.413869E-07  0.544E-04    0.62      20.1  T
  13   -201.1952134 -0.425857E-08  0.375E-04    0.62      29.1  T
     SCC iter.                  ...        0 min,  0.360 sec
     gradient                   ...        0 min,  0.018 sec
 * total energy  :  -199.4392670 Eh     change       -0.9871430E-02 Eh
   gradient norm :     0.0326189 Eh/α   predicted    -0.8004528E-02 ( -18.91%)
   displ. norm   :     0.3835178 α      lambda       -0.5788938E-02
   maximum displ.:     0.1200418 α      in ANC's #26, #38, #18, ...

........................................................................
.............................. CYCLE    3 ..............................
........................................................................

 iter      E             dE          RMSdq      gap      omega  full diag
   1   -201.2239479 -0.201224E+03  0.173E-01    0.61       0.0  T
   2   -201.2240372 -0.892820E-04  0.923E-02    0.62       1.0  T
   3   -201.2238008  0.236426E-03  0.814E-02    0.61       1.0  T
   4   -201.2239409 -0.140063E-03  0.591E-02    0.62       1.0  T
   5   -201.2241239 -0.183069E-03  0.253E-02    0.62       1.0  T
   6   -201.2241289 -0.491951E-05  0.189E-02    0.61       1.0  T
   7   -201.2241427 -0.138568E-04  0.655E-03    0.62       1.7  T
   8   -201.2241431 -0.431025E-06  0.389E-03    0.62       2.8  T
   9   -201.2241431 -0.693279E-08  0.291E-03    0.62       3.8  T
  10   -201.2241433 -0.143453E-06  0.193E-03    0.62       5.6  T
  11   -201.2241434 -0.113966E-06  0.952E-04    0.62      11.5  T
  12   -201.2241434 -0.122080E-07  0.596E-04    0.62      18.3  T
     SCC iter.                  ...        0 min,  0.300 sec
     gradient                   ...        0 min,  0.020 sec
 * total energy  :  -199.4426294 Eh     change       -0.3362467E-02 Eh
   gradient norm :     0.0149585 Eh/α   predicted    -0.3323745E-02 (  -1.15%)
   displ. norm   :     0.4618975 α      lambda       -0.3331944E-02
   maximum displ.:     0.2601768 α      in ANC's #1, #26, #6, ...

........................................................................
.............................. CYCLE    4 ..............................
........................................................................

 iter      E             dE          RMSdq      gap      omega  full diag
   1   -201.2292938 -0.201229E+03  0.460E-01    0.60       0.0  T
   2   -201.2299752 -0.681401E-03  0.255E-01    0.64       1.0  T
   3   -201.2302122 -0.236971E-03  0.125E-01    0.63       1.0  T
   4   -201.2300446  0.167586E-03  0.104E-01    0.65       1.0  T
   5   -201.2303232 -0.278616E-03  0.729E-02    0.63       1.0  T
   6   -201.2304890 -0.165800E-03  0.323E-02    0.64       1.0  T
   7   -201.2304939 -0.486864E-05  0.263E-02    0.63       1.0  T
   8   -201.2305244 -0.305438E-04  0.105E-02    0.64       1.0  T
   9   -201.2305245 -0.305255E-07  0.826E-03    0.63       1.3  T
  10   -201.2305257 -0.118850E-05  0.574E-03    0.64       1.9  T
  11   -201.2305264 -0.745788E-06  0.317E-03    0.63       3.4  T
  12   -201.2305266 -0.195272E-06  0.166E-03    0.63       6.6  T
  13   -201.2305266 -0.233668E-07  0.125E-03    0.63       8.7  T
  14   -201.2305266 -0.158919E-07  0.819E-04    0.63      13.3  T
  15   -201.2305266  0.558873E-08  0.670E-04    0.63      16.3  T
     SCC iter.                  ...        0 min,  0.362 sec
     gradient                   ...        0 min,  0.018 sec
 * total energy  :  -199.4414532 Eh     change        0.1176285E-02 Eh
   gradient norm :     0.0309041 Eh/α   predicted    -0.2021407E-02 (-271.85%)
   displ. norm   :     0.2931651 α      lambda       -0.4990497E-02
   maximum displ.:     0.2349129 α      in ANC's #1, #6, #26, ...

........................................................................
.............................. CYCLE    5 ..............................
........................................................................

 iter      E             dE          RMSdq      gap      omega  full diag
   1   -201.2285173 -0.201229E+03  0.380E-01    0.64       0.0  T
   2   -201.2288227 -0.305410E-03  0.179E-01    0.60       1.0  T
   3   -201.2287325  0.902695E-04  0.119E-01    0.65       1.0  T
   4   -201.2287566 -0.241374E-04  0.980E-02    0.60       1.0  T
   5   -201.2290190 -0.262425E-03  0.538E-02    0.63       1.0  T
   6   -201.2290258 -0.674721E-05  0.367E-02    0.63       1.0  T
   7   -201.2290700 -0.442233E-04  0.222E-02    0.62       1.0  T
   8   -201.2290897 -0.197644E-04  0.836E-03    0.62       1.3  T
   9   -201.2290901 -0.319367E-06  0.637E-03    0.62       1.7  T
  10   -201.2290909 -0.813033E-06  0.447E-03    0.62       2.4  T
  11   -201.2290913 -0.377468E-06  0.249E-03    0.62       4.4  T
  12   -201.2290914 -0.149084E-06  0.135E-03    0.62       8.1  T
  13   -201.2290914 -0.955538E-10  0.113E-03    0.62       9.6  T
  14   -201.2290914 -0.216184E-07  0.792E-04    0.62      13.8  T
  15   -201.2290914 -0.139392E-07  0.500E-04    0.62      21.8  T
     SCC iter.                  ...        0 min,  0.436 sec
     gradient                   ...        0 min,  0.020 sec
 * total energy  :  -199.4442109 Eh     change       -0.2757730E-02 Eh
   gradient norm :     0.0177196 Eh/α   predicted    -0.2709706E-02 (  -1.74%)
   displ. norm   :     0.2775972 α      lambda       -0.2390217E-02
   maximum displ.:     0.1141398 α      in ANC's #30, #18, #6, ...

........................................................................
.............................. CYCLE    6 ..............................
........................................................................

 iter      E             dE          RMSdq      gap      omega  full diag
   1   -201.2258739 -0.201226E+03  0.309E-01    0.58       0.0  T
   2   -201.2258843 -0.104822E-04  0.131E-01    0.60       1.0  T
   3   -201.2252724  0.611945E-03  0.133E-01    0.58       1.0  T
   4   -201.2258773 -0.604947E-03  0.696E-02    0.60       1.0  T
   5   -201.2260853 -0.207957E-03  0.422E-02    0.60       1.0  T
   6   -201.2261157 -0.303819E-04  0.309E-02    0.59       1.0  T
   7   -201.2261424 -0.267105E-04  0.115E-02    0.60       1.0  T
   8   -201.2261432 -0.834735E-06  0.588E-03    0.60       1.9  T
   9   -201.2261430  0.250765E-06  0.470E-03    0.60       2.3  T
  10   -201.2261438 -0.811905E-06  0.276E-03    0.60       3.9  T
  11   -201.2261438 -0.187399E-07  0.182E-03    0.60       6.0  T
  12   -201.2261439 -0.106803E-06  0.108E-03    0.60      10.1  T
  13   -201.2261439 -0.173332E-07  0.777E-04    0.60      14.0  T
  14   -201.2261439 -0.177597E-07  0.469E-04    0.60      23.3  T
     SCC iter.                  ...        0 min,  0.356 sec
     gradient                   ...        0 min,  0.021 sec
 * total energy  :  -199.4444547 Eh     change       -0.2438167E-03 Eh
   gradient norm :     0.0250469 Eh/α   predicted    -0.1287203E-02 ( 427.94%)
   displ. norm   :     0.2694131 α      lambda       -0.3741953E-02
   maximum displ.:     0.1144445 α      in ANC's #30, #6, #32, ...

........................................................................
.............................. CYCLE    7 ..............................
........................................................................

 iter      E             dE          RMSdq      gap      omega  full diag
   1   -201.2278412 -0.201228E+03  0.287E-01    0.60       0.0  T
   2   -201.2279129 -0.716897E-04  0.126E-01    0.64       1.0  T
   3   -201.2275846  0.328285E-03  0.112E-01    0.60       1.0  T
   4   -201.2277841 -0.199488E-03  0.833E-02    0.64       1.0  T
   5   -201.2280811 -0.297067E-03  0.345E-02    0.63       1.0  T
   6   -201.2280861 -0.499182E-05  0.236E-02    0.62       1.0  T
   7   -201.2280982 -0.120588E-04  0.152E-02    0.63       1.0  T
   8   -201.2281062 -0.803962E-05  0.575E-03    0.62       1.9  T
   9   -201.2281062 -0.814282E-09  0.393E-03    0.62       2.8  T
  10   -201.2281064 -0.133860E-06  0.274E-03    0.62       4.0  T
  11   -201.2281063  0.206760E-07  0.213E-03    0.62       5.1  T
  12   -201.2281065 -0.158799E-06  0.137E-03    0.62       8.0  T
  13   -201.2281065 -0.350317E-07  0.837E-04    0.62      13.0  T
  14   -201.2281065 -0.384327E-08  0.549E-04    0.62      19.9  T
     SCC iter.                  ...        0 min,  0.346 sec
     gradient                   ...        0 min,  0.023 sec
 * total energy  :  -199.4452942 Eh     change       -0.8395161E-03 Eh
   gradient norm :     0.0120399 Eh/α   predicted    -0.2006785E-02 ( 139.04%)
   displ. norm   :     0.3611150 α      lambda       -0.2558554E-02
   maximum displ.:     0.1410585 α      in ANC's #6, #19, #26, ...

........................................................................
.............................. CYCLE    8 ..............................
........................................................................

 iter      E             dE          RMSdq      gap      omega  full diag
   1   -201.2305230 -0.201231E+03  0.279E-01    0.65       0.0  T
   2   -201.2304759  0.471153E-04  0.125E-01    0.59       1.0  T
   3   -201.2298665  0.609461E-03  0.138E-01    0.66       1.0  T
   4   -201.2306914 -0.824927E-03  0.412E-02    0.61       1.0  T
   5   -201.2306944 -0.298526E-05  0.330E-02    0.62       1.0  T
   6   -201.2307065 -0.121325E-04  0.271E-02    0.62       1.0  T
   7   -201.2307370 -0.304802E-04  0.109E-02    0.62       1.0  T
   8   -201.2307385 -0.148212E-05  0.585E-03    0.62       1.9  T
   9   -201.2307386 -0.113078E-06  0.455E-03    0.62       2.4  T
  10   -201.2307392 -0.604410E-06  0.285E-03    0.62       3.8  T
  11   -201.2307393 -0.117357E-06  0.172E-03    0.62       6.4  T
  12   -201.2307393 -0.259959E-07  0.114E-03    0.62       9.6  T
  13   -201.2307393  0.925857E-08  0.952E-04    0.62      11.5  T
  14   -201.2307393 -0.237980E-07  0.662E-04    0.62      16.5  T
     SCC iter.                  ...        0 min,  0.367 sec
     gradient                   ...        0 min,  0.019 sec
 * total energy  :  -199.4461036 Eh     change       -0.8094133E-03 Eh
   gradient norm :     0.0177940 Eh/α   predicted    -0.1446103E-02 (  78.66%)
   displ. norm   :     0.2912494 α      lambda       -0.1359735E-02
   maximum displ.:     0.1655143 α      in ANC's #6, #26, #18, ...

........................................................................
.............................. CYCLE    9 ..............................
........................................................................

 iter      E             dE          RMSdq      gap      omega  full diag
   1   -201.2318789 -0.201232E+03  0.136E-01    0.62       0.0  T
   2   -201.2318854 -0.650493E-05  0.493E-02    0.63       1.0  T
   3   -201.2318126  0.727087E-04  0.442E-02    0.61       1.0  T
   4   -201.2318814 -0.687085E-04  0.224E-02    0.63       1.0  T
   5   -201.2318918 -0.103940E-04  0.150E-02    0.63       1.0  T
   6   -201.2318983 -0.651619E-05  0.109E-02    0.62       1.0  T
   7   -201.2319025 -0.423586E-05  0.388E-03    0.63       2.8  T
   8   -201.2319027 -0.153413E-06  0.254E-03    0.62       4.3  T
   9   -201.2319027 -0.285282E-07  0.186E-03    0.63       5.9  T
  10   -201.2319028 -0.118824E-06  0.105E-03    0.63      10.4  T
  11   -201.2319028 -0.120031E-07  0.662E-04    0.63      16.5  T
  12   -201.2319028 -0.398867E-08  0.529E-04    0.63      20.6  T
     SCC iter.                  ...        0 min,  0.359 sec
     gradient                   ...        0 min,  0.018 sec
 * total energy  :  -199.4472452 Eh     change       -0.1141592E-02 Eh
   gradient norm :     0.0111987 Eh/α   predicted    -0.7375407E-03 ( -35.39%)
   displ. norm   :     0.6579940 α      lambda       -0.2222819E-02
   maximum displ.:     0.4055403 α      in ANC's #6, #26, #8, ...

........................................................................
.............................. CYCLE   10 ..............................
........................................................................

 iter      E             dE          RMSdq      gap      omega  full diag
   1   -201.2321941 -0.201232E+03  0.245E-01    0.58       0.0  T
   2   -201.2321337  0.604217E-04  0.111E-01    0.63       1.0  T
   3   -201.2316155  0.518184E-03  0.133E-01    0.56       1.0  T
   4   -201.2322851 -0.669642E-03  0.419E-02    0.61       1.0  T
   5   -201.2322635  0.216493E-04  0.400E-02    0.61       1.0  T
   6   -201.2323155 -0.519925E-04  0.168E-02    0.61       1.0  T
   7   -201.2323210 -0.557384E-05  0.119E-02    0.61       1.0  T
   8   -201.2323269 -0.587031E-05  0.583E-03    0.61       1.9  T
   9   -201.2323272 -0.263418E-06  0.369E-03    0.61       3.0  T
  10   -201.2323271  0.159037E-07  0.301E-03    0.61       3.6  T
  11   -201.2323275 -0.342905E-06  0.162E-03    0.61       6.7  T
  12   -201.2323276 -0.663517E-07  0.992E-04    0.61      11.0  T
  13   -201.2323276 -0.150463E-07  0.622E-04    0.61      17.5  T
     SCC iter.                  ...        0 min,  0.312 sec
     gradient                   ...        0 min,  0.022 sec
 * total energy  :  -199.4489398 Eh     change       -0.1694600E-02 Eh
   gradient norm :     0.0089431 Eh/α   predicted    -0.1592605E-02 (  -6.02%)
   displ. norm   :     0.7334568 α      lambda       -0.2031407E-02
   maximum displ.:     0.4717780 α      in ANC's #6, #8, #26, ...

........................................................................
.............................. CYCLE   11 ..............................
........................................................................

 iter      E             dE          RMSdq      gap      omega  full diag
   1   -201.2323222 -0.201232E+03  0.284E-01    0.62       0.0  T
   2   -201.2323534 -0.311637E-04  0.101E-01    0.61       1.0  T
   3   -201.2322162  0.137185E-03  0.823E-02    0.64       1.0  T
   4   -201.2323178 -0.101602E-03  0.545E-02    0.60       1.0  T
   5   -201.2324213 -0.103566E-03  0.217E-02    0.62       1.0  T
   6   -201.2324179  0.342406E-05  0.188E-02    0.61       1.0  T
   7   -201.2324283 -0.103297E-04  0.890E-03    0.62       1.2  T
   8   -201.2324304 -0.211986E-05  0.543E-03    0.62       2.0  T
   9   -201.2324311 -0.718696E-06  0.302E-03    0.62       3.6  T
  10   -201.2324312 -0.154022E-06  0.192E-03    0.62       5.7  T
  11   -201.2324313 -0.183502E-07  0.161E-03    0.62       6.8  T
  12   -201.2324313 -0.838935E-07  0.873E-04    0.62      12.5  T
  13   -201.2324313  0.680870E-09  0.742E-04    0.62      14.7  T
     SCC iter.                  ...        0 min,  0.393 sec
     gradient                   ...        0 min,  0.023 sec
 * total energy  :  -199.4504527 Eh     change       -0.1512888E-02 Eh
   gradient norm :     0.0159624 Eh/α   predicted    -0.1562112E-02 (   3.25%)
   displ. norm   :     0.6750977 α      lambda       -0.1908999E-02
   maximum displ.:     0.4683255 α      in ANC's #6, #8, #4, ...

........................................................................
.............................. CYCLE   12 ..............................
........................................................................

 iter      E             dE          RMSdq      gap      omega  full diag
   1   -201.2353133 -0.201235E+03  0.191E-01    0.60       0.0  T
   2   -201.2353242 -0.108861E-04  0.755E-02    0.62       1.0  T
   3   -201.2351533  0.170919E-03  0.657E-02    0.59       1.0  T
   4   -201.2352617 -0.108407E-03  0.458E-02    0.62       1.0  T
   5   -201.2353419 -0.802453E-04  0.197E-02    0.61       1.0  T
   6   -201.2353474 -0.544223E-05  0.131E-02    0.61       1.0  T
   7   -201.2353528 -0.539509E-05  0.697E-03    0.61       1.6  T
   8   -201.2353536 -0.851072E-06  0.459E-03    0.61       2.4  T
   9   -201.2353539 -0.309165E-06  0.338E-03    0.61       3.2  T
  10   -201.2353542 -0.270366E-06  0.219E-03    0.61       5.0  T
  11   -201.2353543 -0.105274E-06  0.122E-03    0.61       8.9  T
  12   -201.2353543 -0.303127E-07  0.749E-04    0.61      14.6  T
  13   -201.2353543 -0.248443E-08  0.542E-04    0.61      20.1  T
     SCC iter.                  ...        0 min,  0.359 sec
     gradient                   ...        0 min,  0.021 sec
 * total energy  :  -199.4521248 Eh     change       -0.1672093E-02 Eh
   gradient norm :     0.0139848 Eh/α   predicted    -0.1389521E-02 ( -16.90%)
   displ. norm   :     0.7606337 α      lambda       -0.2708391E-02
   maximum displ.:     0.5454865 α      in ANC's #6, #8, #4, ...

........................................................................
.............................. CYCLE   13 ..............................
........................................................................

 iter      E             dE          RMSdq      gap      omega  full diag
   1   -201.2390711 -0.201239E+03  0.231E-01    0.60       0.0  T
   2   -201.2390642  0.686507E-05  0.910E-02    0.62       1.0  T
   3   -201.2385682  0.495995E-03  0.108E-01    0.58       1.0  T
   4   -201.2390679 -0.499697E-03  0.483E-02    0.61       1.0  T
   5   -201.2391332 -0.652628E-04  0.267E-02    0.61       1.0  T
   6   -201.2391429 -0.976224E-05  0.168E-02    0.61       1.0  T
   7   -201.2391513 -0.834114E-05  0.907E-03    0.61       1.2  T
   8   -201.2391533 -0.201071E-05  0.594E-03    0.61       1.8  T
   9   -201.2391536 -0.311746E-06  0.466E-03    0.61       2.3  T
  10   -201.2391541 -0.474446E-06  0.303E-03    0.61       3.6  T
  11   -201.2391543 -0.214212E-06  0.181E-03    0.61       6.0  T
  12   -201.2391543 -0.606660E-07  0.126E-03    0.61       8.7  T
  13   -201.2391543 -0.310743E-08  0.960E-04    0.61      11.4  T
  14   -201.2391544 -0.846026E-08  0.767E-04    0.61      14.2  T
     SCC iter.                  ...        0 min,  0.354 sec
     gradient                   ...        0 min,  0.021 sec
 * total energy  :  -199.4543109 Eh     change       -0.2186079E-02 Eh
   gradient norm :     0.0139448 Eh/α   predicted    -0.2137691E-02 (  -2.21%)
   displ. norm   :     0.7506375 α      lambda       -0.2602105E-02
   maximum displ.:     0.5596440 α      in ANC's #6, #8, #9, ...

........................................................................
.............................. CYCLE   14 ..............................
........................................................................

 iter      E             dE          RMSdq      gap      omega  full diag
   1   -201.2476737 -0.201248E+03  0.222E-01    0.63       0.0  T
   2   -201.2475878  0.859168E-04  0.100E-01    0.61       1.0  T
   3   -201.2468433  0.744516E-03  0.127E-01    0.62       1.0  T
   4   -201.2476618 -0.818527E-03  0.503E-02    0.62       1.0  T
   5   -201.2477502 -0.883775E-04  0.334E-02    0.61       1.0  T
   6   -201.2477794 -0.292226E-04  0.153E-02    0.62       1.0  T
   7   -201.2477855 -0.612126E-05  0.862E-03    0.62       1.3  T
   8   -201.2477861 -0.597363E-06  0.560E-03    0.62       1.9  T
   9   -201.2477865 -0.323291E-06  0.420E-03    0.62       2.6  T
  10   -201.2477868 -0.312447E-06  0.286E-03    0.62       3.8  T
  11   -201.2477869 -0.150297E-06  0.185E-03    0.62       5.9  T
  12   -201.2477870 -0.443169E-07  0.124E-03    0.62       8.8  T
  13   -201.2477870 -0.697068E-08  0.107E-03    0.62      10.2  T
  14   -201.2477870 -0.293127E-07  0.631E-04    0.62      17.3  T
  15   -201.2477870 -0.533237E-08  0.401E-04    0.62      27.2  T
     SCC iter.                  ...        0 min,  0.460 sec
     gradient                   ...        0 min,  0.021 sec
 * total energy  :  -199.4562924 Eh     change       -0.1981543E-02 Eh
   gradient norm :     0.0165240 Eh/α   predicted    -0.2034141E-02 (   2.65%)
   displ. norm   :     0.8646166 α      lambda       -0.2683297E-02
   maximum displ.:     0.6458468 α      in ANC's #6, #8, #4, ...

........................................................................
.............................. CYCLE   15 ..............................
........................................................................

 iter      E             dE          RMSdq      gap      omega  full diag
   1   -201.2420018 -0.201242E+03  0.229E-01    0.62       0.0  T
   2   -201.2420285 -0.267781E-04  0.829E-02    0.62       1.0  T
   3   -201.2419115  0.117031E-03  0.597E-02    0.62       1.0  T
   4   -201.2418962  0.152785E-04  0.540E-02    0.63       1.0  T
   5   -201.2420373 -0.141034E-03  0.243E-02    0.62       1.0  T
   6   -201.2420472 -0.992926E-05  0.133E-02    0.62       1.0  T
   7   -201.2420528 -0.561429E-05  0.868E-03    0.62       1.3  T
   8   -201.2420543 -0.151015E-05  0.494E-03    0.62       2.2  T
   9   -201.2420544 -0.672589E-07  0.376E-03    0.62       2.9  T
  10   -201.2420546 -0.200344E-06  0.256E-03    0.62       4.3  T
  11   -201.2420547 -0.131360E-06  0.164E-03    0.62       6.6  T
  12   -201.2420548 -0.505632E-07  0.103E-03    0.62      10.6  T
  13   -201.2420548  0.704654E-08  0.872E-04    0.62      12.5  T
  14   -201.2420548 -0.151314E-07  0.587E-04    0.62      18.6  T
     SCC iter.                  ...        0 min,  0.335 sec
     gradient                   ...        0 min,  0.020 sec
 * total energy  :  -199.4587537 Eh     change       -0.2461322E-02 Eh
   gradient norm :     0.0160839 Eh/α   predicted    -0.2344623E-02 (  -4.74%)
   displ. norm   :     0.7969663 α      lambda       -0.2907138E-02
   maximum displ.:     0.6228285 α      in ANC's #6, #8, #9, ...

........................................................................
.............................. CYCLE   16 ..............................
........................................................................

 iter      E             dE          RMSdq      gap      omega  full diag
   1   -201.2387170 -0.201239E+03  0.226E-01    0.61       0.0  T
   2   -201.2387026  0.144041E-04  0.791E-02    0.62       1.0  T
   3   -201.2382875  0.415101E-03  0.932E-02    0.62       1.0  T
   4   -201.2387018 -0.414342E-03  0.409E-02    0.62       1.0  T
   5   -201.2387570 -0.552131E-04  0.208E-02    0.63       1.0  T
   6   -201.2387640 -0.701765E-05  0.160E-02    0.62       1.0  T
   7   -201.2387691 -0.510627E-05  0.806E-03    0.62       1.4  T
   8   -201.2387709 -0.174327E-05  0.519E-03    0.62       2.1  T
   9   -201.2387710 -0.976688E-07  0.402E-03    0.62       2.7  T
  10   -201.2387713 -0.360188E-06  0.264E-03    0.62       4.1  T
  11   -201.2387714 -0.842793E-07  0.175E-03    0.62       6.2  T
  12   -201.2387715 -0.726940E-07  0.119E-03    0.62       9.2  T
  13   -201.2387715  0.204446E-08  0.960E-04    0.62      11.4  T
  14   -201.2387715 -0.159207E-07  0.672E-04    0.62      16.2  T
     SCC iter.                  ...        0 min,  0.349 sec
     gradient                   ...        0 min,  0.022 sec
 * total energy  :  -199.4611784 Eh     change       -0.2424675E-02 Eh
   gradient norm :     0.0211596 Eh/α   predicted    -0.2376812E-02 (  -1.97%)
   displ. norm   :     0.8488141 α      lambda       -0.2596546E-02
   maximum displ.:     0.6777278 α      in ANC's #6, #8, #9, ...

........................................................................
.............................. CYCLE   17 ..............................
........................................................................

 iter      E             dE          RMSdq      gap      omega  full diag
   1   -201.2364088 -0.201236E+03  0.200E-01    0.62       0.0  T
   2   -201.2364247 -0.158973E-04  0.731E-02    0.62       1.0  T
   3   -201.2362739  0.150800E-03  0.609E-02    0.62       1.0  T
   4   -201.2363332 -0.593105E-04  0.468E-02    0.62       1.0  T
   5   -201.2364420 -0.108812E-03  0.220E-02    0.61       1.0  T
   6   -201.2364481 -0.608816E-05  0.134E-02    0.62       1.0  T
   7   -201.2364539 -0.582277E-05  0.760E-03    0.61       1.4  T
   8   -201.2364547 -0.756583E-06  0.447E-03    0.62       2.4  T
   9   -201.2364548 -0.156934E-06  0.295E-03    0.62       3.7  T
  10   -201.2364549 -0.608190E-07  0.194E-03    0.62       5.6  T
  11   -201.2364549 -0.425064E-07  0.148E-03    0.62       7.4  T
  12   -201.2364550 -0.766333E-07  0.821E-04    0.62      13.3  T
  13   -201.2364550 -0.301949E-08  0.670E-04    0.62      16.3  T
     SCC iter.                  ...        0 min,  0.336 sec
     gradient                   ...        0 min,  0.020 sec
 * total energy  :  -199.4636481 Eh     change       -0.2469710E-02 Eh
   gradient norm :     0.0214565 Eh/α   predicted    -0.2233663E-02 (  -9.56%)
   displ. norm   :     0.7918892 α      lambda       -0.3467773E-02
   maximum displ.:     0.6458870 α      in ANC's #6, #8, #29, ...

........................................................................
.............................. CYCLE   18 ..............................
........................................................................

 iter      E             dE          RMSdq      gap      omega  full diag
   1   -201.2487688 -0.201249E+03  0.214E-01    0.62       0.0  T
   2   -201.2487830 -0.142207E-04  0.826E-02    0.61       1.0  T
   3   -201.2485201  0.262908E-03  0.801E-02    0.63       1.0  T
   4   -201.2487474 -0.227286E-03  0.463E-02    0.60       1.0  T
   5   -201.2488145 -0.671441E-04  0.212E-02    0.61       1.0  T
   6   -201.2488269 -0.123771E-04  0.139E-02    0.61       1.0  T
   7   -201.2488343 -0.733328E-05  0.665E-03    0.61       1.6  T
   8   -201.2488347 -0.428972E-06  0.461E-03    0.61       2.4  T
   9   -201.2488350 -0.335954E-06  0.322E-03    0.61       3.4  T
  10   -201.2488353 -0.291885E-06  0.183E-03    0.61       6.0  T
  11   -201.2488354 -0.445651E-07  0.106E-03    0.61      10.3  T
  12   -201.2488354 -0.170654E-07  0.577E-04    0.61      18.9  T
  13   -201.2488354 -0.105001E-08  0.463E-04    0.61      23.6  T
     SCC iter.                  ...        0 min,  0.321 sec
     gradient                   ...        0 min,  0.022 sec
 * total energy  :  -199.4659173 Eh     change       -0.2269158E-02 Eh
   gradient norm :     0.0246891 Eh/α   predicted    -0.2821190E-02 (  24.33%)
   displ. norm   :     0.8210368 α      lambda       -0.3319706E-02
   maximum displ.:     0.6628131 α      in ANC's #6, #8, #9, ...

........................................................................
.............................. CYCLE   19 ..............................
........................................................................

 iter      E             dE          RMSdq      gap      omega  full diag
   1   -201.2486228 -0.201249E+03  0.195E-01    0.61       0.0  T
   2   -201.2486596 -0.368698E-04  0.730E-02    0.58       1.0  T
   3   -201.2486119  0.477543E-04  0.454E-02    0.59       1.0  T
   4   -201.2486222 -0.102806E-04  0.386E-02    0.56       1.0  T
   5   -201.2486698 -0.476652E-04  0.178E-02    0.57       1.0  T
   6   -201.2486699 -0.661109E-07  0.147E-02    0.57       1.0  T
   7   -201.2486800 -0.101591E-04  0.669E-03    0.57       1.6  T
   8   -201.2486808 -0.731599E-06  0.435E-03    0.57       2.5  T
   9   -201.2486810 -0.236634E-06  0.311E-03    0.57       3.5  T
  10   -201.2486812 -0.172239E-06  0.189E-03    0.57       5.8  T
  11   -201.2486813 -0.812279E-07  0.102E-03    0.57      10.7  T
  12   -201.2486813 -0.119878E-07  0.642E-04    0.57      17.0  T
  13   -201.2486813 -0.396312E-09  0.547E-04    0.57      20.0  T
     SCC iter.                  ...        0 min,  0.342 sec
     gradient                   ...        0 min,  0.025 sec
 * total energy  :  -199.4689001 Eh     change       -0.2982853E-02 Eh
   gradient norm :     0.0106345 Eh/α   predicted    -0.2778766E-02 (  -6.84%)
   displ. norm   :     0.8813504 α      lambda       -0.3101583E-02
   maximum displ.:     0.7351118 α      in ANC's #6, #8, #9, ...

........................................................................
.............................. CYCLE   20 ..............................
........................................................................

 iter      E             dE          RMSdq      gap      omega  full diag
   1   -201.2495568 -0.201250E+03  0.219E-01    0.58       0.0  T
   2   -201.2495754 -0.185806E-04  0.841E-02    0.54       1.0  T
   3   -201.2493393  0.236055E-03  0.829E-02    0.56       1.0  T
   4   -201.2495677 -0.228390E-03  0.401E-02    0.53       1.0  T
   5   -201.2495943 -0.265823E-04  0.258E-02    0.53       1.0  T
   6   -201.2496215 -0.272444E-04  0.130E-02    0.53       1.0  T
   7   -201.2496275 -0.593129E-05  0.613E-03    0.53       1.8  T
   8   -201.2496275 -0.661673E-07  0.451E-03    0.53       2.4  T
   9   -201.2496281 -0.558673E-06  0.289E-03    0.53       3.8  T
  10   -201.2496283 -0.178232E-06  0.161E-03    0.53       6.8  T
  11   -201.2496283 -0.356459E-07  0.101E-03    0.53      10.9  T
  12   -201.2496283 -0.439985E-08  0.746E-04    0.53      14.6  T
  13   -201.2496283 -0.125052E-07  0.533E-04    0.53      20.5  T
     SCC iter.                  ...        0 min,  0.515 sec
     gradient                   ...        0 min,  0.021 sec
 * total energy  :  -199.4717726 Eh     change       -0.2872476E-02 Eh
   gradient norm :     0.0171887 Eh/α   predicted    -0.2755415E-02 (  -4.08%)
   displ. norm   :     0.8628874 α      lambda       -0.3067852E-02
   maximum displ.:     0.7280123 α      in ANC's #6, #8, #9, ...
 * RMSD in coord.:     1.1176224 α      energy gain  -0.4237709E-01 Eh

generating ANC from exact Hessian ...
Using Lindh-Hessian (1995)
 Shifting diagonal of input Hessian by   1.959042527247341E-002
 Lowest  eigenvalues of input Hessian
    0.010000    0.018965    0.019073    0.019117    0.019194    0.000000
    0.000000    0.000000    0.000000    0.000000    0.000000    0.019628
    0.019643    0.019687    0.019764    0.019851    0.019954    0.020067
 Highest eigenvalues
    2.063373    2.101139    2.128146    2.213288    2.260382    2.271728
 

........................................................................
.............................. CYCLE   21 ..............................
........................................................................

 iter      E             dE          RMSdq      gap      omega  full diag
   1   -201.2539945 -0.201254E+03  0.223E-01    0.54       0.0  T
   2   -201.2539594  0.351580E-04  0.916E-02    0.50       1.0  T
   3   -201.2532141  0.745299E-03  0.128E-01    0.53       1.0  T
   4   -201.2540330 -0.818946E-03  0.340E-02    0.50       1.0  T
   5   -201.2540413 -0.827183E-05  0.246E-02    0.50       1.0  T
   6   -201.2540672 -0.259710E-04  0.134E-02    0.50       1.0  T
   7   -201.2540724 -0.514021E-05  0.682E-03    0.50       1.6  T
   8   -201.2540729 -0.493123E-06  0.453E-03    0.50       2.4  T
   9   -201.2540729 -0.300704E-07  0.358E-03    0.50       3.0  T
  10   -201.2540732 -0.326540E-06  0.223E-03    0.50       4.9  T
  11   -201.2540733 -0.976037E-07  0.140E-03    0.50       7.8  T
  12   -201.2540733 -0.112393E-07  0.999E-04    0.50      10.9  T
  13   -201.2540733  0.955453E-09  0.847E-04    0.50      12.9  T
     SCC iter.                  ...        0 min,  0.453 sec
     gradient                   ...        0 min,  0.031 sec
 * total energy  :  -199.4746562 Eh     change       -0.2883552E-02 Eh
   gradient norm :     0.0203997 Eh/α   predicted     0.0000000E+00 (-100.00%)
   displ. norm   :     0.1904313 α      lambda       -0.1317576E-02
   maximum displ.:     0.0855473 α      in ANC's #9, #8, #6, ...

........................................................................
.............................. CYCLE   22 ..............................
........................................................................

 iter      E             dE          RMSdq      gap      omega  full diag
   1   -201.2571044 -0.201257E+03  0.127E-01    0.50       0.0  T
   2   -201.2570938  0.106186E-04  0.439E-02    0.51       1.0  T
   3   -201.2568766  0.217243E-03  0.639E-02    0.51       1.0  T
   4   -201.2571192 -0.242617E-03  0.186E-02    0.50       1.0  T
   5   -201.2571224 -0.324265E-05  0.124E-02    0.51       1.0  T
   6   -201.2571258 -0.340212E-05  0.862E-03    0.50       1.3  T
   7   -201.2571275 -0.168955E-05  0.440E-03    0.51       2.5  T
   8   -201.2571278 -0.267627E-06  0.265E-03    0.51       4.1  T
   9   -201.2571279 -0.795895E-07  0.185E-03    0.51       5.9  T
  10   -201.2571279 -0.725849E-07  0.116E-03    0.51       9.4  T
  11   -201.2571280 -0.259354E-07  0.674E-04    0.51      16.2  T
  12   -201.2571280 -0.679151E-08  0.445E-04    0.51      24.5  T
     SCC iter.                  ...        0 min,  0.399 sec
     gradient                   ...        0 min,  0.041 sec
 * total energy  :  -199.4756930 Eh     change       -0.1036790E-02 Eh
   gradient norm :     0.0097913 Eh/α   predicted    -0.6826854E-03 ( -34.15%)
   displ. norm   :     0.5818735 α      lambda       -0.2977500E-02
   maximum displ.:     0.2623187 α      in ANC's #9, #8, #6, ...

........................................................................
.............................. CYCLE   23 ..............................
........................................................................

 iter      E             dE          RMSdq      gap      omega  full diag
   1   -201.2565510 -0.201257E+03  0.400E-01    0.46       0.0  T
   2   -201.2567245 -0.173442E-03  0.161E-01    0.52       1.0  T
   3   -201.2562247  0.499783E-03  0.141E-01    0.46       1.0  T
   4   -201.2565526 -0.327884E-03  0.997E-02    0.49       1.0  T
   5   -201.2570227 -0.470103E-03  0.508E-02    0.50       1.0  T
   6   -201.2570611 -0.384219E-04  0.385E-02    0.48       1.0  T
   7   -201.2570987 -0.375823E-04  0.175E-02    0.49       1.0  T
   8   -201.2571029 -0.424856E-05  0.109E-02    0.49       1.0  T
   9   -201.2571044 -0.147354E-05  0.778E-03    0.49       1.4  T
  10   -201.2571054 -0.104479E-05  0.560E-03    0.49       1.9  T
  11   -201.2571059 -0.504430E-06  0.378E-03    0.49       2.9  T
  12   -201.2571063 -0.389965E-06  0.220E-03    0.49       5.0  T
  13   -201.2571063  0.586496E-08  0.190E-03    0.49       5.8  T
  14   -201.2571064 -0.466977E-07  0.141E-03    0.49       7.7  T
  15   -201.2571064 -0.593811E-07  0.753E-04    0.49      14.5  T
  16   -201.2571064 -0.733667E-08  0.463E-04    0.49      23.6  T
     SCC iter.                  ...        0 min,  0.489 sec
     gradient                   ...        0 min,  0.035 sec
 * total energy  :  -199.4775338 Eh     change       -0.1840836E-02 Eh
   gradient norm :     0.0180786 Eh/α   predicted    -0.1992809E-02 (   8.26%)
   displ. norm   :     0.7622768 α      lambda       -0.4667981E-02
   maximum displ.:     0.3364109 α      in ANC's #9, #8, #6, ...

........................................................................
.............................. CYCLE   24 ..............................
........................................................................

 iter      E             dE          RMSdq      gap      omega  full diag
   1   -201.2535958 -0.201254E+03  0.331E-01    0.44       0.0  T
   2   -201.2534733  0.122529E-03  0.156E-01    0.45       1.0  T
   3   -201.2518599  0.161342E-02  0.196E-01    0.46       1.0  T
   4   -201.2536265 -0.176664E-02  0.743E-02    0.44       1.0  T
   5   -201.2538207 -0.194195E-03  0.458E-02    0.46       1.0  T
   6   -201.2538639 -0.432031E-04  0.267E-02    0.44       1.0  T
   7   -201.2538734 -0.948832E-05  0.184E-02    0.45       1.0  T
   8   -201.2538805 -0.704943E-05  0.950E-03    0.45       1.1  T
   9   -201.2538816 -0.116005E-05  0.701E-03    0.45       1.6  T
  10   -201.2538823 -0.646265E-06  0.496E-03    0.45       2.2  T
  11   -201.2538830 -0.765827E-06  0.331E-03    0.45       3.3  T
  12   -201.2538832 -0.199501E-06  0.212E-03    0.45       5.2  T
  13   -201.2538833 -0.318131E-07  0.169E-03    0.45       6.5  T
  14   -201.2538833 -0.296208E-07  0.127E-03    0.45       8.6  T
  15   -201.2538833 -0.407487E-07  0.707E-04    0.45      15.4  T
  16   -201.2538833 -0.749597E-08  0.471E-04    0.45      23.2  T
     SCC iter.                  ...        0 min,  0.472 sec
     gradient                   ...        0 min,  0.021 sec
 * total energy  :  -199.4809537 Eh     change       -0.3419943E-02 Eh
   gradient norm :     0.0234276 Eh/α   predicted    -0.3690201E-02 (   7.90%)
   displ. norm   :     0.6503006 α      lambda       -0.3481608E-02
   maximum displ.:     0.2962085 α      in ANC's #9, #8, #6, ...

........................................................................
.............................. CYCLE   25 ..............................
........................................................................

 iter      E             dE          RMSdq      gap      omega  full diag
   1   -201.2522502 -0.201252E+03  0.338E-01    0.45       0.0  T
   2   -201.2518173  0.432883E-03  0.157E-01    0.40       1.0  T
   3   -201.2502204  0.159684E-02  0.220E-01    0.50       1.0  T
   4   -201.2525402 -0.231979E-02  0.511E-02    0.43       1.0  T
   5   -201.2525470 -0.675181E-05  0.402E-02    0.42       1.0  T
   6   -201.2525992 -0.522703E-04  0.272E-02    0.43       1.0  T
   7   -201.2526129 -0.136552E-04  0.159E-02    0.42       1.0  T
   8   -201.2526189 -0.603552E-05  0.981E-03    0.43       1.1  T
   9   -201.2526194 -0.509589E-06  0.750E-03    0.43       1.5  T
  10   -201.2526203 -0.827646E-06  0.576E-03    0.43       1.9  T
  11   -201.2526209 -0.625816E-06  0.382E-03    0.43       2.9  T
  12   -201.2526211 -0.165847E-06  0.271E-03    0.43       4.0  T
  13   -201.2526212 -0.133770E-06  0.187E-03    0.43       5.8  T
  14   -201.2526212 -0.125717E-07  0.140E-03    0.43       7.8  T
  15   -201.2526213 -0.766817E-07  0.665E-04    0.43      16.4  T
  16   -201.2526213 -0.794290E-08  0.414E-04    0.43      26.3  T
     SCC iter.                  ...        0 min,  0.429 sec
     gradient                   ...        0 min,  0.022 sec
 * total energy  :  -199.4832392 Eh     change       -0.2285442E-02 Eh
   gradient norm :     0.0393948 Eh/α   predicted    -0.2476970E-02 (   8.38%)
   displ. norm   :     0.4991892 α      lambda       -0.4835118E-02
   maximum displ.:     0.2197163 α      in ANC's #9, #6, #8, ...

........................................................................
.............................. CYCLE   26 ..............................
........................................................................

 iter      E             dE          RMSdq      gap      omega  full diag
   1   -201.2685109 -0.201269E+03  0.258E-01    0.44       0.0  T
   2   -201.2682807  0.230244E-03  0.139E-01    0.38       1.0  T
   3   -201.2672321  0.104861E-02  0.180E-01    0.49       1.0  T
   4   -201.2687200 -0.148793E-02  0.524E-02    0.41       1.0  T
   5   -201.2687427 -0.227361E-04  0.392E-02    0.40       1.0  T
   6   -201.2687806 -0.379150E-04  0.278E-02    0.41       1.0  T
   7   -201.2688058 -0.251997E-04  0.133E-02    0.41       1.0  T
   8   -201.2688070 -0.113402E-05  0.887E-03    0.41       1.2  T
   9   -201.2688072 -0.242299E-06  0.673E-03    0.41       1.6  T
  10   -201.2688076 -0.407060E-06  0.552E-03    0.41       2.0  T
  11   -201.2688085 -0.847374E-06  0.321E-03    0.41       3.4  T
  12   -201.2688086 -0.130177E-06  0.230E-03    0.41       4.7  T
  13   -201.2688086 -0.461754E-07  0.160E-03    0.41       6.8  T
  14   -201.2688087 -0.343533E-07  0.108E-03    0.41      10.1  T
  15   -201.2688087 -0.330177E-07  0.607E-04    0.41      18.0  T
  16   -201.2688087 -0.789038E-08  0.348E-04    0.41      31.4  T
     SCC iter.                  ...        0 min,  0.426 sec
     gradient                   ...        0 min,  0.026 sec
 * total energy  :  -199.4848614 Eh     change       -0.1622256E-02 Eh
   gradient norm :     0.0358196 Eh/α   predicted    -0.3019992E-02 (  86.16%)
   displ. norm   :     0.5763339 α      lambda       -0.5692684E-02
   maximum displ.:     0.2605864 α      in ANC's #9, #8, #6, ...

........................................................................
.............................. CYCLE   27 ..............................
........................................................................

 iter      E             dE          RMSdq      gap      omega  full diag
   1   -201.2662882 -0.201266E+03  0.414E-01    0.37       0.0  T
   2   -201.2661719  0.116377E-03  0.156E-01    0.47       1.0  T
   3   -201.2647969  0.137493E-02  0.182E-01    0.32       1.0  T
   4   -201.2664967 -0.169979E-02  0.808E-02    0.45       1.0  T
   5   -201.2667363 -0.239611E-03  0.482E-02    0.41       1.0  T
   6   -201.2667920 -0.556472E-04  0.281E-02    0.40       1.0  T
   7   -201.2667949 -0.291947E-05  0.219E-02    0.39       1.0  T
   8   -201.2668137 -0.188254E-04  0.115E-02    0.40       1.0  T
   9   -201.2668158 -0.205393E-05  0.941E-03    0.40       1.2  T
  10   -201.2668182 -0.247550E-05  0.579E-03    0.40       1.9  T
  11   -201.2668186 -0.340527E-06  0.405E-03    0.40       2.7  T
  12   -201.2668185  0.919553E-07  0.330E-03    0.40       3.3  T
  13   -201.2668189 -0.388224E-06  0.176E-03    0.40       6.2  T
  14   -201.2668189 -0.464175E-07  0.140E-03    0.40       7.8  T
  15   -201.2668190 -0.419132E-07  0.878E-04    0.40      12.4  T
  16   -201.2668190 -0.785323E-08  0.525E-04    0.40      20.8  T
     SCC iter.                  ...        0 min,  0.434 sec
     gradient                   ...        0 min,  0.019 sec
 * total energy  :  -199.4886234 Eh     change       -0.3761972E-02 Eh
   gradient norm :     0.0246323 Eh/α   predicted    -0.3791780E-02 (   0.79%)
   displ. norm   :     0.7489143 α      lambda       -0.4070750E-02
   maximum displ.:     0.3572591 α      in ANC's #9, #8, #6, ...

........................................................................
.............................. CYCLE   28 ..............................
........................................................................

 iter      E             dE          RMSdq      gap      omega  full diag
   1   -201.2655575 -0.201266E+03  0.382E-01    0.37       0.0  T
   2   -201.2655574  0.736361E-08  0.124E-01    0.40       1.0  T
   3   -201.2647525  0.804908E-03  0.144E-01    0.35       1.0  T
   4   -201.2656522 -0.899696E-03  0.607E-02    0.39       1.0  T
   5   -201.2657589 -0.106713E-03  0.403E-02    0.39       1.0  T
   6   -201.2657892 -0.302709E-04  0.308E-02    0.37       1.0  T
   7   -201.2658197 -0.304387E-04  0.183E-02    0.39       1.0  T
   8   -201.2658226 -0.295396E-05  0.128E-02    0.38       1.0  T
   9   -201.2658251 -0.249405E-05  0.957E-03    0.38       1.1  T
  10   -201.2658278 -0.266165E-05  0.569E-03    0.38       1.9  T
  11   -201.2658279 -0.167378E-06  0.401E-03    0.38       2.7  T
  12   -201.2658283 -0.364113E-06  0.266E-03    0.38       4.1  T
  13   -201.2658284 -0.767412E-07  0.204E-03    0.38       5.3  T
  14   -201.2658285 -0.909349E-07  0.138E-03    0.38       7.9  T
  15   -201.2658285 -0.388164E-07  0.787E-04    0.38      13.9  T
  16   -201.2658285 -0.623788E-08  0.508E-04    0.38      21.5  T
     SCC iter.                  ...        0 min,  0.393 sec
     gradient                   ...        0 min,  0.022 sec
 * total energy  :  -199.4918124 Eh     change       -0.3189014E-02 Eh
   gradient norm :     0.0328452 Eh/α   predicted    -0.3176961E-02 (  -0.38%)
   displ. norm   :     0.7505456 α      lambda       -0.4088138E-02
   maximum displ.:     0.3599198 α      in ANC's #9, #8, #6, ...

........................................................................
.............................. CYCLE   29 ..............................
........................................................................

 iter      E             dE          RMSdq      gap      omega  full diag
   1   -201.2692518 -0.201269E+03  0.342E-01    0.37       0.0  T
   2   -201.2693229 -0.710739E-04  0.107E-01    0.37       1.0  T
   3   -201.2688220  0.500891E-03  0.114E-01    0.39       1.0  T
   4   -201.2692281 -0.406106E-03  0.651E-02    0.35       1.0  T
   5   -201.2694163 -0.188154E-03  0.316E-02    0.38       1.0  T
   6   -201.2694290 -0.127275E-04  0.246E-02    0.36       1.0  T
   7   -201.2694442 -0.151520E-04  0.160E-02    0.37       1.0  T
   8   -201.2694482 -0.404105E-05  0.108E-02    0.37       1.0  T
   9   -201.2694502 -0.199890E-05  0.805E-03    0.37       1.4  T
  10   -201.2694516 -0.142873E-05  0.577E-03    0.37       1.9  T
  11   -201.2694523 -0.630906E-06  0.377E-03    0.37       2.9  T
  12   -201.2694524 -0.160447E-06  0.275E-03    0.37       4.0  T
  13   -201.2694526 -0.204268E-06  0.164E-03    0.37       6.7  T
  14   -201.2694526 -0.123219E-07  0.112E-03    0.37       9.7  T
  15   -201.2694527 -0.133596E-07  0.812E-04    0.37      13.4  T
  16   -201.2694527 -0.244140E-07  0.439E-04    0.37      24.8  T
     SCC iter.                  ...        0 min,  0.406 sec
     gradient                   ...        0 min,  0.020 sec
 * total energy  :  -199.4956772 Eh     change       -0.3864758E-02 Eh
   gradient norm :     0.0289587 Eh/α   predicted    -0.3195529E-02 ( -17.32%)
   displ. norm   :     0.7841348 α      lambda       -0.5677445E-02
   maximum displ.:     0.3501301 α      in ANC's #9, #6, #8, ...

........................................................................
.............................. CYCLE   30 ..............................
........................................................................

 iter      E             dE          RMSdq      gap      omega  full diag
   1   -201.2830641 -0.201283E+03  0.409E-01    0.35       0.0  T
   2   -201.2830970 -0.329304E-04  0.138E-01    0.36       1.0  T
   3   -201.2820086  0.108838E-02  0.161E-01    0.37       1.0  T
   4   -201.2830768 -0.106810E-02  0.767E-02    0.34       1.0  T
   5   -201.2833262 -0.249408E-03  0.417E-02    0.38       1.0  T
   6   -201.2833495 -0.233549E-04  0.340E-02    0.34       1.0  T
   7   -201.2833981 -0.486112E-04  0.200E-02    0.36       1.0  T
   8   -201.2834038 -0.568241E-05  0.130E-02    0.35       1.0  T
   9   -201.2834068 -0.300734E-05  0.982E-03    0.35       1.1  T
  10   -201.2834094 -0.262867E-05  0.658E-03    0.35       1.7  T
  11   -201.2834095 -0.927990E-07  0.489E-03    0.36       2.2  T
  12   -201.2834102 -0.670627E-06  0.327E-03    0.35       3.3  T
  13   -201.2834104 -0.205034E-06  0.223E-03    0.35       4.9  T
  14   -201.2834105 -0.481622E-07  0.150E-03    0.35       7.3  T
  15   -201.2834105 -0.433952E-07  0.104E-03    0.35      10.5  T
  16   -201.2834105 -0.177976E-07  0.627E-04    0.36      17.4  T
  17   -201.2834105 -0.171301E-07  0.343E-04    0.35      31.8  T
     SCC iter.                  ...        0 min,  0.460 sec
     gradient                   ...        0 min,  0.023 sec
 * total energy  :  -199.5003329 Eh     change       -0.4655756E-02 Eh
   gradient norm :     0.0264722 Eh/α   predicted    -0.4584163E-02 (  -1.54%)
   displ. norm   :     0.8857637 α      lambda       -0.5904986E-02
   maximum displ.:     0.3795623 α      in ANC's #9, #8, #6, ...

........................................................................
.............................. CYCLE   31 ..............................
........................................................................

 iter      E             dE          RMSdq      gap      omega  full diag
   1   -201.2811086 -0.201281E+03  0.561E-01    0.30       0.0  T
   2   -201.2813552 -0.246619E-03  0.186E-01    0.40       1.0  T
   3   -201.2778388  0.351637E-02  0.216E-01    0.23       1.0  T
   4   -201.2803941 -0.255522E-02  0.142E-01    0.48       1.0  T
   5   -201.2817554 -0.136131E-02  0.834E-02    0.37       1.0  T
   6   -201.2819367 -0.181308E-03  0.384E-02    0.34       1.0  T
   7   -201.2817293  0.207358E-03  0.499E-02    0.30       1.0  T
   8   -201.2819451 -0.215754E-03  0.234E-02    0.34       1.0  T
   9   -201.2819569 -0.118610E-04  0.149E-02    0.32       1.0  T
  10   -201.2819633 -0.640663E-05  0.967E-03    0.33       1.1  T
  11   -201.2819643 -0.100620E-05  0.619E-03    0.33       1.8  T
  12   -201.2819647 -0.384190E-06  0.494E-03    0.33       2.2  T
  13   -201.2819652 -0.516559E-06  0.342E-03    0.33       3.2  T
  14   -201.2819654 -0.176248E-06  0.241E-03    0.33       4.5  T
  15   -201.2819654 -0.670761E-08  0.188E-03    0.33       5.8  T
  16   -201.2819655 -0.775870E-07  0.132E-03    0.33       8.3  T
  17   -201.2819656 -0.579108E-07  0.698E-04    0.33      15.6  T
  18   -201.2819656 -0.181300E-07  0.359E-04    0.33      30.4  T
     SCC iter.                  ...        0 min,  0.462 sec
     gradient                   ...        0 min,  0.020 sec
 * total energy  :  -199.5058854 Eh     change       -0.5552461E-02 Eh
   gradient norm :     0.0431595 Eh/α   predicted    -0.5268950E-02 (  -5.11%)
   displ. norm   :     0.7822655 α      lambda       -0.8127099E-02
   maximum displ.:     0.3529096 α      in ANC's #22, #8, #2, ...

........................................................................
.............................. CYCLE   32 ..............................
........................................................................

 iter      E             dE          RMSdq      gap      omega  full diag
   1   -201.2803427 -0.201280E+03  0.767E-01    0.24       0.0  T
   2   -201.2797074  0.635319E-03  0.292E-01    0.54       1.0  T
   3   -201.0569489  0.222759E+00  0.113E+00    0.02       1.0  T
   4   -201.2792796 -0.222331E+00  0.200E-01    0.62       1.0  T
   5   -201.2805360 -0.125638E-02  0.184E-01    0.54       1.0  T
   6   -201.2806791 -0.143111E-03  0.130E-01    0.53       1.0  T
   7   -201.2812663 -0.587175E-03  0.118E-01    0.48       1.0  T
   8   -201.2817285 -0.462236E-03  0.879E-02    0.42       1.0  T
   9   -201.2823288 -0.600268E-03  0.496E-02    0.36       1.0  T
  10   -201.2825823 -0.253528E-03  0.222E-02    0.32       1.0  T
  11   -201.2826232 -0.408562E-04  0.125E-02    0.31       1.0  T
  12   -201.2826206  0.262953E-05  0.100E-02    0.29       1.1  T
  13   -201.2826301 -0.954986E-05  0.464E-03    0.30       2.4  T
  14   -201.2826304 -0.229596E-06  0.386E-03    0.30       2.8  T
  15   -201.2826311 -0.732133E-06  0.279E-03    0.30       3.9  T
  16   -201.2826316 -0.562760E-06  0.144E-03    0.30       7.6  T
  17   -201.2826317 -0.127675E-07  0.969E-04    0.30      11.3  T
  18   -201.2826317 -0.154782E-07  0.578E-04    0.30      18.9  T
     SCC iter.                  ...        0 min,  0.533 sec
     gradient                   ...        0 min,  0.023 sec
 * total energy  :  -199.5114775 Eh     change       -0.5592114E-02 Eh
   gradient norm :     0.0627700 Eh/α   predicted    -0.6550186E-02 (  17.13%)
   displ. norm   :     0.6813956 α      lambda       -0.7821704E-02
   maximum displ.:     0.2568435 α      in ANC's #22, #9, #2, ...

........................................................................
.............................. CYCLE   33 ..............................
........................................................................

 iter      E             dE          RMSdq      gap      omega  full diag
   1   -201.2807527 -0.201281E+03  0.633E-01    0.21       0.0  T
   2   -201.2765094  0.424321E-02  0.333E-01    0.64       1.0  T
   3   -201.0334256  0.243084E+00  0.118E+00    0.01       1.0  T
   4   -201.2795147 -0.246089E+00  0.235E-01    0.60       1.0  T
   5   -201.2805590 -0.104430E-02  0.192E-01    0.55       1.0  T
   6   -201.2806170 -0.580002E-04  0.164E-01    0.55       1.0  T
   7   -201.2819163 -0.129930E-02  0.141E-01    0.50       1.0  T
   8   -201.2826967 -0.780379E-03  0.980E-02    0.40       1.0  T
   9   -201.2837535 -0.105685E-02  0.389E-02    0.31       1.0  T
  10   -201.2839050 -0.151478E-03  0.163E-02    0.28       1.0  T
  11   -201.2839019  0.310792E-05  0.150E-02    0.27       1.0  T
  12   -201.2839150 -0.131006E-04  0.753E-03    0.28       1.4  T
  13   -201.2839164 -0.144892E-05  0.460E-03    0.28       2.4  T
  14   -201.2839162  0.217458E-06  0.390E-03    0.28       2.8  T
  15   -201.2839171 -0.885890E-06  0.195E-03    0.28       5.6  T
  16   -201.2839171 -0.437492E-07  0.141E-03    0.28       7.7  T
  17   -201.2839171 -0.857162E-08  0.928E-04    0.28      11.8  T
  18   -201.2839172 -0.443846E-07  0.526E-04    0.28      20.7  T
     SCC iter.                  ...        0 min,  0.422 sec
     gradient                   ...        0 min,  0.020 sec
 * total energy  :  -199.5186727 Eh     change       -0.7195135E-02 Eh
   gradient norm :     0.0675623 Eh/α   predicted    -0.5726668E-02 ( -20.41%)
   displ. norm   :     0.6655615 α      lambda       -0.2195743E-01
   maximum displ.:     0.2860730 α      in ANC's #224, #22, #11, ...

........................................................................
.............................. CYCLE   34 ..............................
........................................................................

 iter      E             dE          RMSdq      gap      omega  full diag
   1   -201.1897555 -0.201190E+03  0.165E+00    0.08       0.0  T
   2   -201.1123327  0.774228E-01  0.199E+00    0.65       1.0  T
   3   -201.2810578 -0.168725E+00  0.698E-01    0.85       1.0  T
   4   -201.2965824 -0.155246E-01  0.493E-01    0.36       1.0  T
   5   -201.2987461 -0.216366E-02  0.377E-01    0.24       1.0  T
   6   -201.2952207  0.352542E-02  0.253E-01    0.37       1.0  T
   7   -201.2954844 -0.263684E-03  0.297E-01    0.20       1.0  T
   8   -201.2991970 -0.371264E-02  0.172E-01    0.23       1.0  T
   9   -201.2999525 -0.755483E-03  0.122E-01    0.29       1.0  T
  10   -201.2999591 -0.656199E-05  0.105E-01    0.21       1.0  T
  11   -201.3008248 -0.865704E-03  0.564E-02    0.26       1.0  T
  12   -201.3010183 -0.193580E-03  0.192E-02    0.24       1.0  T
  13   -201.3009918  0.265592E-04  0.222E-02    0.24       1.0  T
  14   -201.3010343 -0.425606E-04  0.111E-02    0.25       1.0  T
  15   -201.3010295  0.487896E-05  0.914E-03    0.25       1.2  T
  16   -201.3010381 -0.861571E-05  0.405E-03    0.25       2.7  T
  17   -201.3010372  0.844179E-06  0.520E-03    0.25       2.1  T
  18   -201.3010384 -0.114862E-05  0.273E-03    0.25       4.0  T
  19   -201.3010383  0.486100E-07  0.295E-03    0.25       3.7  T
  20   -201.3010386 -0.256496E-06  0.148E-03    0.25       7.4  T
  21   -201.3010387 -0.645036E-07  0.157E-03    0.25       7.0  T
  22   -201.3010388 -0.108667E-06  0.560E-04    0.25      19.5  T
  23   -201.3010388 -0.214984E-07  0.323E-04    0.25      33.8  T
     SCC iter.                  ...        0 min,  0.562 sec
     gradient                   ...        0 min,  0.019 sec
 * total energy  :  -199.5322298 Eh     change       -0.1355712E-01 Eh
   gradient norm :     0.0620695 Eh/α   predicted    -0.1584199E-01 (  16.85%)
   displ. norm   :     0.7501415 α      lambda       -0.1526713E-01
   maximum displ.:     0.3291404 α      in ANC's #22, #11, #224, ...

........................................................................
.............................. CYCLE   35 ..............................
........................................................................

 iter      E             dE          RMSdq      gap      omega  full diag
   1   -200.9901367 -0.200990E+03  0.276E+00    0.02       0.0  T
   2   -199.7994379  0.119070E+01  0.515E+00    0.17       1.0  T
   3   -201.1876701 -0.138823E+01  0.168E+00    0.74       1.0  T
   4   -200.9228076  0.264862E+00  0.160E+00    0.06       1.0  T
   5   -201.2497319 -0.326924E+00  0.102E+00    0.94       1.0  T
   6   -201.2794248 -0.296929E-01  0.760E-01    0.62       1.0  T
   7   -201.2893607 -0.993589E-02  0.597E-01    0.40       1.0  T
   8   -201.3049232 -0.155626E-01  0.293E-01    0.19       1.0  T
   9   -201.3057778 -0.854592E-03  0.261E-01    0.25       1.0  T
  10   -201.3095269 -0.374906E-02  0.130E-01    0.19       1.0  T
  11   -201.3039248  0.560206E-02  0.316E-01    0.15       1.0  T
  12   -201.3059355 -0.201069E-02  0.221E-01    0.25       1.0  T
  13   -201.3053194  0.616106E-03  0.276E-01    0.15       1.0  T
  14   -201.3062092 -0.889786E-03  0.224E-01    0.16       1.0  T
  15   -201.3091880 -0.297876E-02  0.101E-01    0.18       1.0  T
  16   -201.3096121 -0.424145E-03  0.683E-02    0.18       1.0  T
  17   -201.3098620 -0.249922E-03  0.213E-02    0.19       1.0  T
  18   -201.3098936 -0.316080E-04  0.113E-02    0.20       1.0  T
  19   -201.3098722  0.214789E-04  0.213E-02    0.19       1.0  T
  20   -201.3098999 -0.277788E-04  0.371E-03    0.20       2.9  T
  21   -201.3098993  0.601257E-06  0.397E-03    0.20       2.7  T
  22   -201.3098990  0.354897E-06  0.420E-03    0.20       2.6  T
  23   -201.3099000 -0.102351E-05  0.178E-03    0.20       6.1  T
  24   -201.3099003 -0.259809E-06  0.613E-04    0.20      17.8  T
  25   -201.3099001  0.112462E-06  0.141E-03    0.20       7.7  T
  26   -201.3099003 -0.107515E-06  0.434E-04    0.20      25.1  T
     SCC iter.                  ...        0 min,  0.638 sec
     gradient                   ...        0 min,  0.022 sec
 * total energy  :  -199.5441701 Eh     change       -0.1194037E-01 Eh
   gradient norm :     0.0553678 Eh/α   predicted    -0.1192908E-01 (  -0.09%)
   displ. norm   :     0.5593411 α      lambda       -0.1787467E-01
   maximum displ.:     0.2319633 α      in ANC's #224, #15, #16, ...

........................................................................
.............................. CYCLE   36 ..............................
........................................................................

 iter      E             dE          RMSdq      gap      omega  full diag
   1   -201.3052170 -0.201305E+03  0.685E-01    0.25       0.0  T
   2   -198.7797898  0.252543E+01  0.658E+00    0.23       1.0  T
   3   -201.3141922 -0.253440E+01  0.281E-01    0.21       1.0  T
   4   -201.2760832  0.381089E-01  0.552E-01    0.10       1.0  T
   5   -201.2973595 -0.212763E-01  0.433E-01    0.39       1.0  T
   6   -201.3132142 -0.158546E-01  0.206E-01    0.25       1.0  T
   7   -201.3132727 -0.585774E-04  0.190E-01    0.25       1.0  T
   8   -201.3148047 -0.153191E-02  0.132E-01    0.24       1.0  T
   9   -201.3145879  0.216763E-03  0.143E-01    0.19       1.0  T
  10   -201.3157074 -0.111955E-02  0.988E-02    0.23       1.0  T
  11   -201.3161575 -0.450058E-03  0.633E-02    0.22       1.0  T
  12   -201.3163407 -0.183172E-03  0.361E-02    0.21       1.0  T
  13   -201.3163626 -0.219409E-04  0.297E-02    0.21       1.0  T
  14   -201.3163577  0.492564E-05  0.171E-02    0.21       1.0  T
  15   -201.3163495  0.815408E-05  0.170E-02    0.21       1.0  T
  16   -201.3163522 -0.268547E-05  0.156E-02    0.21       1.0  T
  17   -201.3163716 -0.193884E-04  0.809E-03    0.21       1.3  T
  18   -201.3163748 -0.316299E-05  0.497E-03    0.21       2.2  T
  19   -201.3163761 -0.129504E-05  0.156E-03    0.21       7.0  T
  20   -201.3163757  0.341341E-06  0.221E-03    0.21       4.9  T
  21   -201.3163760 -0.291904E-06  0.146E-03    0.21       7.5  T
  22   -201.3163761 -0.459713E-07  0.112E-03    0.21       9.7  T
  23   -201.3163761 -0.450292E-07  0.687E-04    0.21      15.9  T
  24   -201.3163761 -0.232174E-07  0.218E-04    0.21      50.0  T
     SCC iter.                  ...        0 min,  0.607 sec
     gradient                   ...        0 min,  0.021 sec
 * total energy  :  -199.5516670 Eh     change       -0.7496869E-02 Eh
   gradient norm :     0.0534028 Eh/α   predicted    -0.1173347E-01 (  56.51%)
   displ. norm   :     0.5254418 α      lambda       -0.9736371E-02
   maximum displ.:     0.2263220 α      in ANC's #22, #29, #9, ...

........................................................................
.............................. CYCLE   37 ..............................
........................................................................

 iter      E             dE          RMSdq      gap      omega  full diag
   1   -201.2825174 -0.201283E+03  0.101E+00    0.09       0.0  T
   2   -201.2103604  0.721570E-01  0.147E+00    0.65       1.0  T
   3   -201.3007030 -0.903426E-01  0.745E-01    0.17       1.0  T
   4   -201.2903544  0.103486E-01  0.708E-01    0.59       1.0  T
   5   -201.3234782 -0.331237E-01  0.319E-01    0.24       1.0  T
   6   -200.9619693  0.361509E+00  0.146E+00    0.07       1.0  T
   7   -201.2576713 -0.295702E+00  0.108E+00    0.07       1.0  T
   8   -201.3272277 -0.695564E-01  0.137E-01    0.21       1.0  T
   9   -201.2411601  0.860676E-01  0.118E+00    0.06       1.0  T
  10   -201.3168894 -0.757293E-01  0.435E-01    0.12       1.0  T
  11   -201.3275105 -0.106210E-01  0.147E-01    0.16       1.0  T
  12   -201.3271583  0.352211E-03  0.165E-01    0.16       1.0  T
  13   -201.3284986 -0.134036E-02  0.727E-02    0.17       1.0  T
  14   -201.3287713 -0.272675E-03  0.320E-02    0.18       1.0  T
  15   -201.3288164 -0.451386E-04  0.203E-02    0.18       1.0  T
  16   -201.3288324 -0.159239E-04  0.122E-02    0.18       1.0  T
  17   -201.3288389 -0.654848E-05  0.600E-03    0.18       1.8  T
  18   -201.3288289  0.996038E-05  0.140E-02    0.18       1.0  T
  19   -201.3288412 -0.122619E-04  0.204E-03    0.18       5.4  T
  20   -201.3288413 -0.798238E-07  0.189E-03    0.18       5.8  T
  21   -201.3288412  0.567284E-07  0.239E-03    0.18       4.6  T
  22   -201.3288415 -0.242914E-06  0.159E-03    0.18       6.9  T
  23   -201.3288416 -0.138557E-06  0.397E-04    0.18      27.5  T
  24   -201.3288416  0.307153E-09  0.476E-04    0.18      22.9  T
     SCC iter.                  ...        0 min,  0.557 sec
     gradient                   ...        0 min,  0.020 sec
 * total energy  :  -199.5547591 Eh     change       -0.3092043E-02 Eh
   gradient norm :     0.0407073 Eh/α   predicted    -0.6212246E-02 ( 100.91%)
   displ. norm   :     0.5179111 α      lambda       -0.1372867E-01
   maximum displ.:     0.2230622 α      in ANC's #22, #9, #11, ...

........................................................................
.............................. CYCLE   38 ..............................
........................................................................

 iter      E             dE          RMSdq      gap      omega  full diag
   1   -201.3161886 -0.201316E+03  0.904E-01    0.43       0.0  T
   2   -199.0861663  0.223002E+01  0.591E+00    0.11       1.0  T
   3   -201.3123141 -0.222615E+01  0.608E-01    0.29       1.0  T
   4   -201.3163629 -0.404877E-02  0.553E-01    0.37       1.0  T
   5   -201.3195485 -0.318560E-02  0.483E-01    0.27       1.0  T
   6   -201.3173153  0.223317E-02  0.479E-01    0.36       1.0  T
   7   -201.3232723 -0.595700E-02  0.427E-01    0.23       1.0  T
   8   -201.3213669  0.190535E-02  0.417E-01    0.31       1.0  T
   9   -201.3236868 -0.231990E-02  0.387E-01    0.26       1.0  T
  10   -201.3248238 -0.113694E-02  0.353E-01    0.26       1.0  T
  11   -201.3260422 -0.121845E-02  0.307E-01    0.26       1.0  T
  12   -201.3278223 -0.178004E-02  0.242E-01    0.26       1.0  T
  13   -201.3285405 -0.718274E-03  0.220E-01    0.19       1.0  T
  14   -201.3274630  0.107750E-02  0.258E-01    0.18       1.0  T
  15   -201.3049202  0.225428E-01  0.656E-01    0.13       1.0  T
  16   -201.3164192 -0.114990E-01  0.492E-01    0.15       1.0  T
  17   -201.3219997 -0.558049E-02  0.385E-01    0.16       1.0  T
  18   -201.3297703 -0.777065E-02  0.153E-01    0.20       1.0  T
  19   -201.3307588 -0.988449E-03  0.896E-02    0.21       1.0  T
  20   -201.3311682 -0.409419E-03  0.424E-02    0.22       1.0  T
  21   -201.3312552 -0.869875E-04  0.181E-02    0.23       1.0  T
  22   -201.3312638 -0.861379E-05  0.116E-02    0.24       1.0  T
  23   -201.3312689 -0.507211E-05  0.738E-03    0.24       1.5  T
  24   -201.3312723 -0.343328E-05  0.235E-03    0.24       4.6  T
  25   -201.3312717  0.585728E-06  0.380E-03    0.23       2.9  T
  26   -201.3312719 -0.222648E-06  0.314E-03    0.23       3.5  T
  27   -201.3312720 -0.743495E-07  0.297E-03    0.23       3.7  T
  28   -201.3312723 -0.271868E-06  0.211E-03    0.24       5.2  T
  29   -201.3312725 -0.211032E-06  0.103E-03    0.24      10.5  T
  30   -201.3312726 -0.511700E-07  0.524E-04    0.24      20.8  T
  31   -201.3312726 -0.149441E-07  0.161E-04    0.24      67.6  T
     SCC iter.                  ...        0 min,  0.806 sec
     gradient                   ...        0 min,  0.022 sec
 * total energy  :  -199.5520768 Eh     change        0.2682233E-02 Eh
   gradient norm :     0.0803648 Eh/α   predicted    -0.8705580E-02 (-424.56%)
   displ. norm   :     0.3333835 α      lambda       -0.1265981E-01
   maximum displ.:     0.1133027 α      in ANC's #9, #1, #8, ...

........................................................................
.............................. CYCLE   39 ..............................
........................................................................

 iter      E             dE          RMSdq      gap      omega  full diag
   1   -201.2528316 -0.201253E+03  0.116E+00    0.08       0.0  T
   2   -201.1767503  0.760814E-01  0.172E+00    0.89       1.0  T
   3   -201.2963589 -0.119609E+00  0.737E-01    0.52       1.0  T
   4   -201.3148098 -0.184509E-01  0.514E-01    0.26       1.0  T
   5   -201.3159360 -0.112624E-02  0.446E-01    0.34       1.0  T
   6   -201.3216302 -0.569416E-02  0.299E-01    0.20       1.0  T
   7   -201.3227533 -0.112315E-02  0.229E-01    0.18       1.0  T
   8   -201.3235020 -0.748649E-03  0.194E-01    0.27       1.0  T
   9   -201.3257711 -0.226917E-02  0.827E-02    0.21       1.0  T
  10   -201.3247742  0.996958E-03  0.156E-01    0.25       1.0  T
  11   -201.3253212 -0.547013E-03  0.120E-01    0.21       1.0  T
  12   -201.3260191 -0.697894E-03  0.695E-02    0.23       1.0  T
  13   -201.3262922 -0.273152E-03  0.210E-02    0.21       1.0  T
  14   -201.3263100 -0.177754E-04  0.132E-02    0.22       1.0  T
  15   -201.3263110 -0.990264E-06  0.126E-02    0.21       1.0  T
  16   -201.3263131 -0.210101E-05  0.112E-02    0.21       1.0  T
  17   -201.3263185 -0.543185E-05  0.630E-03    0.21       1.7  T
  18   -201.3263193 -0.752464E-06  0.492E-03    0.21       2.2  T
  19   -201.3263208 -0.152814E-05  0.207E-03    0.21       5.3  T
  20   -201.3263210 -0.201586E-06  0.671E-04    0.21      16.2  T
  21   -201.3263210  0.396970E-07  0.946E-04    0.21      11.5  T
     SCC iter.                  ...        0 min,  0.513 sec
     gradient                   ...        0 min,  0.022 sec
 * total energy  :  -199.5596153 Eh     change       -0.7538479E-02 Eh
   gradient norm :     0.0201679 Eh/α   predicted    -0.7033430E-02 (  -6.70%)
   displ. norm   :     0.5930320 α      lambda       -0.4486448E-02
   maximum displ.:     0.3018835 α      in ANC's #9, #8, #6, ...

........................................................................
.............................. CYCLE   40 ..............................
........................................................................

 iter      E             dE          RMSdq      gap      omega  full diag
   1   -201.3038621 -0.201304E+03  0.782E-01    0.11       0.0  T
   2   -201.2494558  0.544064E-01  0.113E+00    0.76       1.0  T
   3   -201.2996740 -0.502182E-01  0.607E-01    0.12       1.0  T
   4   -201.3015500 -0.187607E-02  0.592E-01    0.51       1.0  T
   5   -201.3268786 -0.253286E-01  0.220E-01    0.24       1.0  T
   6   -201.3245708  0.230781E-02  0.210E-01    0.16       1.0  T
   7   -201.3293792 -0.480834E-02  0.119E-01    0.18       1.0  T
   8   -201.3283030  0.107618E-02  0.166E-01    0.24       1.0  T
   9   -201.3291798 -0.876793E-03  0.125E-01    0.17       1.0  T
  10   -201.3301032 -0.923420E-03  0.496E-02    0.19       1.0  T
  11   -201.3302380 -0.134763E-03  0.198E-02    0.19       1.0  T
  12   -201.3302029  0.350558E-04  0.317E-02    0.19       1.0  T
  13   -201.3302511 -0.481559E-04  0.120E-02    0.20       1.0  T
  14   -201.3302545 -0.341505E-05  0.941E-03    0.19       1.2  T
  15   -201.3302567 -0.217998E-05  0.735E-03    0.19       1.5  T
  16   -201.3302519  0.479746E-05  0.120E-02    0.19       1.0  T
  17   -201.3302604 -0.855680E-05  0.227E-03    0.19       4.8  T
  18   -201.3302605 -0.551792E-07  0.190E-03    0.19       5.8  T
  19   -201.3302587  0.175797E-05  0.553E-03    0.20       2.0  T
  20   -201.3302605 -0.179328E-05  0.188E-03    0.20       5.8  T
  21   -201.3302607 -0.209732E-06  0.355E-04    0.19      30.7  T
  22   -201.3302607  0.128737E-07  0.472E-04    0.19      23.1  T
     SCC iter.                  ...        0 min,  0.548 sec
     gradient                   ...        0 min,  0.021 sec
 * total energy  :  -199.5625684 Eh     change       -0.2953098E-02 Eh
   gradient norm :     0.0170925 Eh/α   predicted    -0.3032136E-02 (   2.68%)
   displ. norm   :     0.7033772 α      lambda       -0.3107078E-02
   maximum displ.:     0.3678892 α      in ANC's #9, #8, #6, ...

........................................................................
.............................. CYCLE   41 ..............................
........................................................................

 iter      E             dE          RMSdq      gap      omega  full diag
   1   -201.3308824 -0.201331E+03  0.255E-01    0.19       0.0  T
   2   -201.3248133  0.606909E-02  0.258E-01    0.15       1.0  T
   3   -201.3053193  0.194940E-01  0.532E-01    0.46       1.0  T
   4   -201.3255454 -0.202261E-01  0.255E-01    0.26       1.0  T
   5   -201.3292062 -0.366086E-02  0.145E-01    0.23       1.0  T
   6   -201.3308490 -0.164274E-02  0.438E-02    0.19       1.0  T
   7   -201.3301352  0.713771E-03  0.739E-02    0.19       1.0  T
   8   -201.3307516 -0.616429E-03  0.666E-02    0.18       1.0  T
   9   -201.3309685 -0.216807E-03  0.268E-02    0.19       1.0  T
  10   -201.3309567  0.117534E-04  0.263E-02    0.20       1.0  T
  11   -201.3309938 -0.371250E-04  0.172E-02    0.19       1.0  T
  12   -201.3310084 -0.145367E-04  0.902E-03    0.19       1.2  T
  13   -201.3310128 -0.445568E-05  0.365E-03    0.19       3.0  T
  14   -201.3310065  0.626770E-05  0.104E-02    0.19       1.0  T
  15   -201.3310133 -0.675286E-05  0.203E-03    0.19       5.4  T
  16   -201.3310126  0.700926E-06  0.393E-03    0.19       2.8  T
  17   -201.3310133 -0.677436E-06  0.196E-03    0.19       5.6  T
  18   -201.3310134 -0.115052E-06  0.107E-03    0.19      10.2  T
  19   -201.3310135 -0.916445E-07  0.415E-04    0.19      26.3  T
  20   -201.3310135  0.913528E-08  0.434E-04    0.19      25.2  T
     SCC iter.                  ...        0 min,  0.471 sec
     gradient                   ...        0 min,  0.019 sec
 * total energy  :  -199.5653761 Eh     change       -0.2807680E-02 Eh
   gradient norm :     0.0165258 Eh/α   predicted    -0.2322145E-02 ( -17.29%)
   displ. norm   :     0.7771947 α      lambda       -0.5115364E-02
   maximum displ.:     0.3005847 α      in ANC's #9, #8, #6, ...

........................................................................
.............................. CYCLE   42 ..............................
........................................................................

 iter      E             dE          RMSdq      gap      omega  full diag
   1   -201.3474938 -0.201347E+03  0.523E-01    0.25       0.0  T
   2   -200.2062467  0.114125E+01  0.417E+00    0.02       1.0  T
   3   -201.3403385 -0.113409E+01  0.440E-01    0.23       1.0  T
   4   -201.3365212  0.381731E-02  0.426E-01    0.35       1.0  T
   5   -201.3424260 -0.590485E-02  0.361E-01    0.16       1.0  T
   6   -201.3431494 -0.723382E-03  0.339E-01    0.30       1.0  T
   7   -201.3463266 -0.317723E-02  0.290E-01    0.25       1.0  T
   8   -201.3504309 -0.410426E-02  0.175E-01    0.20       1.0  T
   9   -201.3515260 -0.109514E-02  0.917E-02    0.19       1.0  T
  10   -201.3513636  0.162468E-03  0.890E-02    0.18       1.0  T
  11   -201.3516715 -0.307968E-03  0.717E-02    0.18       1.0  T
  12   -201.3522994 -0.627902E-03  0.265E-02    0.19       1.0  T
  13   -201.3522862  0.132025E-04  0.256E-02    0.19       1.0  T
  14   -201.3522827  0.355060E-05  0.256E-02    0.19       1.0  T
  15   -201.3523079 -0.252417E-04  0.175E-02    0.19       1.0  T
  16   -201.3523277 -0.198173E-04  0.721E-03    0.19       1.5  T
  17   -201.3523303 -0.251715E-05  0.305E-03    0.19       3.6  T
  18   -201.3523301  0.155441E-06  0.328E-03    0.19       3.3  T
  19   -201.3523304 -0.318788E-06  0.228E-03    0.19       4.8  T
  20   -201.3523306 -0.127742E-06  0.142E-03    0.19       7.7  T
  21   -201.3523307 -0.110798E-06  0.113E-03    0.19       9.7  T
  22   -201.3523307 -0.669829E-07  0.487E-04    0.19      22.4  T
  23   -201.3523307 -0.103640E-07  0.171E-04    0.19      63.8  T
     SCC iter.                  ...        0 min,  0.585 sec
     gradient                   ...        0 min,  0.022 sec
 * total energy  :  -199.5685381 Eh     change       -0.3162059E-02 Eh
   gradient norm :     0.0215940 Eh/α   predicted    -0.4102603E-02 (  29.74%)
   displ. norm   :     0.8131071 α      lambda       -0.4067995E-02
   maximum displ.:     0.4247964 α      in ANC's #9, #8, #6, ...

   *** FAILED TO CONVERGE GEOMETRY OPTIMIZATION IN 42 ITERATIONS ***


 ANCopt (total)                0 d,  0 h,  0 min, 19.766 sec
 optimizer setup                ...        0 min,  0.001 sec (  0.005%)
 model hessian                  ...        0 min,  0.065 sec (  0.329%)
 ANC generation                 ...        0 min,  0.019 sec (  0.096%)
 coordinate transformation      ...        0 min,  0.006 sec (  0.030%)
 single point calculation       ...        0 min, 19.596 sec ( 99.140%)
 optimization log               ...        0 min,  0.053 sec (  0.268%)
 hessian update                 ...        0 min,  0.005 sec (  0.025%)
 rational function              ...        0 min,  0.017 sec (  0.086%)

================
 final structure:
================
84
 xtb: 6.7.1pre (5071a88)
O            1.27578436641420        2.02699703565365        7.87580591664012
C            0.63053527952909        0.86723062913099        8.30176559381379
C            1.30696527790898        0.33790754865124        9.58875852735327
N            2.70536708087653        0.03064580595805        9.39785322293341
C            3.62396065846865        1.00830633097887        9.95297068410866
C            4.96898262092263        0.37084440838607       10.16893107347039
C            6.09979888719962        0.89654980865460        9.55959070626275
C            7.33255858948167        0.30767709947364        9.76720511715815
F            8.41402468826350        0.83431477197114        9.16410517474143
C            7.48282016691174       -0.80582486708159       10.57351551026910
C            6.35857073199993       -1.33343913687067       11.18402572623659
C            5.11978290185541       -0.74951526633584       10.97755142187150
I            3.45506930064289       -1.61020944224224       11.94806542733257
C            3.01048197873518       -0.29938215688494        8.01100531308985
C            1.81154380449144       -0.99666129981500        7.38860290563531
O            0.69002417833819       -0.11642561251908        7.28501406116817
C           -0.83255675881039        1.15254807204282        8.64123320515970
C           -1.12186399888284        2.12864219835792        9.60935920845519
F           -0.14090360918845        2.90258086915648       10.09748924180098
C           -2.40962066532725        2.33058329983416       10.08212207544565
F           -2.64881335973259        3.28473870068435       10.98338620709068
C           -3.44982491313377        1.54075799072758        9.61379508950234
F           -4.69466260009262        1.76592469867806       10.06285920122087
C           -3.20795369984450        0.53143981915325        8.66683025418198
N           -4.18886955771514       -0.29422224787866        8.17862940904367
C           -5.31010862864540       -0.72843047643440        8.86236868082860
C           -5.31935860222063       -0.89958288264521       10.25205523496537
F           -4.17554386928456       -0.70873233932759       10.94103187145160
C           -6.44615559882310       -1.29236620272377       10.94118742893793
C           -7.60482682030441       -1.56533328627137       10.23392170770015
C           -7.61474125725313       -1.47677760066013        8.85214535393511
C           -6.47910372696903       -1.06923437059816        8.17477203390086
I           -6.43098313600307       -0.99223231444112        6.02583607260621
C           -1.90278316220679        0.40186064774012        8.17595726133910
F           -1.74193936525456       -0.53541828871698        7.18363803719359
H            0.76052667095049        2.44108585410823        7.16525079067815
H            1.20252093082226        1.06498031123391       10.38730792649862
H            0.76905525799005       -0.57003094695943        9.87938368747227
H            3.23357593323882        1.32356978429485       10.92651100901463
H            3.71821466022479        1.89799901410507        9.31557138268802
H            6.02348370195275        1.76316856790398        8.92069251154227
H            8.45874689952618       -1.24095643064561       10.72332335480457
H            6.45215651956994       -2.19946154278980       11.81987432830397
H            3.22569602207670        0.60367838800738        7.41855173165371
H            3.88554278304063       -0.95199178541521        7.99317998998803
H            1.52458008085476       -1.86788196941952        7.99294863006345
H            2.02823880818643       -1.30899278109304        6.35990139475486
H           -4.01051382665266       -0.70210447027383        7.26549924975646
H           -6.39497441809214       -1.39270607564529       12.01334845238921
H           -8.49501993028621       -1.86585152227360       10.76130227802129
H           -8.50900724857847       -1.71628478237814        8.30221073426139
Ti          -2.17542126892993       -2.50425912775853        4.24093894298219
Ti           0.21684162732500       -1.72958482763224        2.83170546815938
Ti           1.42737936640974       -3.46101090670926        0.73825219958505
Ti          -2.52698308194768       -0.11145357440968        2.66896076237789
Ti           2.26106005552879        0.48727109470344        3.08526630783051
Ti          -0.39620066278948        0.79965750958749        4.65021613407467
Ti          -2.33113889856064       -3.28943931140531        0.79971317315740
Ti          -0.72109107008968       -1.11298888053426       -0.69091860019584
Ti           1.44637880945105       -2.22810908030454       -2.15926701231502
Ti          -2.00579975564374        1.41406189741157       -0.17006407584894
Ti           2.29994135335194        0.10018713068686        0.09154181989648
Ti           0.59295746156858        1.39786129586653       -2.00385686499097
C           -3.75182231442589        1.24687628554961        1.75534829123005
C            4.09014675720382        0.05381593683333        1.11758072913373
C            0.47817261366789        2.03766495616357        1.23085608464908
C           -3.77325327668749        1.93156215349379        0.72166582343387
C            4.17786187166744        0.34854816736794        2.32264655983894
C           -0.70715117386659        2.41264705603407        0.94754538465773
C            1.72406020445742        1.63897807024961        1.49580433814680
O           -3.24700630879639       -1.79936457077419        2.98766067444712
O           -0.41354448456555       -2.19975104578351        4.39889563594982
O            0.15917683367986       -3.24381929181469        1.98337053577385
O           -0.92647396912999       -0.62289579423940        2.16850690860925
O            1.83009569752610       -1.20884111264283        2.66572718391143
O           -2.10745474220093        0.38823752737650        4.29112094074575
O            1.32148478119537        0.88137326676235        4.51753176379123
O           -1.08479150414864       -2.81970552117350       -0.36513462049929
O           -0.10183455600513       -1.31654234967555       -2.32698030085189
O            2.23190946666506       -2.91865254741182       -0.71401794157975
O           -2.19743074932811       -0.41525465317554       -0.11237230614490
O            0.68620057515929       -0.67014530482945        0.16127575326682
O           -1.12866500400338        1.46774248865493       -1.70348437478886
O            2.21391831905470        0.82135250706237       -1.48750472692032
 
 Bond Distances (Angstroems)
 ---------------------------
O1-C2=1.3939         O1-H36=0.9705        C2-O1=1.3939         C2-C3=1.5473         C2-O16=1.4159        C2-C17=1.5288        
C3-C2=1.5473         C3-N4=1.4444         C3-H37=1.0850        C3-H38=1.0946        N4-C3=1.4444         N4-C5=1.4518         
N4-C14=1.4579        C5-N4=1.4518         C5-C6=1.5040         C5-H39=1.0952        C5-H40=1.0985        C6-C5=1.5040         
C6-C7=1.3880         C6-C12=1.3899        C7-C6=1.3880         C7-C8=1.3819         C7-H41=1.0794        C8-C7=1.3819         
C8-F9=1.3456         C8-C10=1.3830        F9-C8=1.3456         C10-C8=1.3830        C10-C11=1.3838       C10-H42=1.0790       
C11-C10=1.3838       C11-C12=1.3850       C11-H43=1.0785       C12-C6=1.3899        C12-C11=1.3850       C12-I13=2.1104       
I13-C12=2.1104       C14-N4=1.4579        C14-C15=1.5202       C14-H44=1.1013       C14-H45=1.0918       C15-C14=1.5202       
C15-O16=1.4295       C15-H46=1.0985       C15-H47=1.0967       O16-C2=1.4159        O16-C15=1.4295       C17-C2=1.5288        
C17-C18=1.4049       C17-C34=1.3876       C18-C17=1.4049       C18-F19=1.3415       C18-C20=1.3866       F19-C18=1.3415       
C20-C18=1.3866       C20-F21=1.3341       C20-C22=1.3875       F21-C20=1.3341       C22-C20=1.3875       C22-F23=1.3424       
C22-C24=1.4050       F23-C22=1.3424       C24-C22=1.4050       C24-N25=1.3720       C24-C34=1.4004       N25-C24=1.3720       
N25-C26=1.3832       N25-H48=1.0159       C26-N25=1.3832       C26-C27=1.4002       C26-C32=1.3984       C27-C26=1.4002       
C27-F28=1.3489       C27-C29=1.3780       F28-C27=1.3489       C29-C27=1.3780       C29-C30=1.3846       C29-H49=1.0781       
C30-C29=1.3846       C30-C31=1.3846       C30-H50=1.0774       C31-C30=1.3846       C31-C32=1.3837       C31-H51=1.0768       
C32-C26=1.3984       C32-C31=1.3837       C32-I33=2.1509       I33-C32=2.1509       C34-C17=1.3876       C34-C24=1.4004       
C34-F35=1.3744       F35-C34=1.3744       H36-O1=0.9705        H37-C3=1.0850        H38-C3=1.0946        H39-C5=1.0952        
H40-C5=1.0985        H41-C7=1.0794        H42-C10=1.0790       H43-C11=1.0785       H44-C14=1.1013       H45-C14=1.0918       
H46-C15=1.0985       H47-C15=1.0967       H48-N25=1.0159       H49-C29=1.0781       H50-C30=1.0774       H51-C31=1.0768       
Ti52-Ti53=2.8825     Ti52-Ti55=2.8845     Ti52-Ti57=3.7748     Ti52-Ti58=3.5331     Ti52-O71=1.7933      Ti52-O72=1.7950      
Ti53-Ti52=2.8825     Ti53-Ti54=2.9742     Ti53-Ti55=3.1896     Ti53-Ti56=3.0261     Ti53-Ti57=3.1749     Ti53-Ti58=3.6131     
Ti53-Ti59=3.6971     Ti53-O72=1.7534      Ti53-O73=1.7366      Ti53-O74=1.7239      Ti53-O75=1.7033      Ti54-Ti53=2.9742     
Ti54-Ti58=3.7629     Ti54-Ti59=3.4888     Ti54-Ti60=3.1490     Ti54-Ti62=3.7231     Ti54-O73=1.7905      Ti54-O80=1.7466      
Ti55-Ti52=2.8845     Ti55-Ti53=3.1896     Ti55-Ti57=3.0489     Ti55-Ti58=3.6922     Ti55-Ti61=3.2648     Ti55-C64=2.0445      
Ti55-O71=1.8625      Ti55-O74=1.7532      Ti55-O76=1.7485      Ti56-Ti53=3.0261     Ti56-Ti57=3.0996     Ti56-Ti62=3.0189     
Ti56-C65=2.7213      Ti56-C68=2.0676      Ti56-C70=2.0350      Ti56-O75=1.7996      Ti56-O77=1.7577      Ti57-Ti52=3.7748     
Ti57-Ti53=3.1749     Ti57-Ti55=3.0489     Ti57-Ti56=3.0996     Ti57-O76=1.7963      Ti57-O77=1.7247      Ti58-Ti52=3.5331     
Ti58-Ti53=3.6131     Ti58-Ti54=3.7629     Ti58-Ti55=3.6922     Ti58-Ti59=3.0905     Ti58-O78=1.7694      Ti59-Ti53=3.6971     
Ti59-Ti54=3.4888     Ti59-Ti58=3.0905     Ti59-Ti60=2.8456     Ti59-Ti61=2.8823     Ti59-Ti62=3.3482     Ti59-Ti63=3.1233     
Ti59-O78=1.7752      Ti59-O79=1.7611      Ti59-O81=1.7324      Ti59-O82=1.7038      Ti60-Ti54=3.1490     Ti60-Ti59=2.8456     
Ti60-Ti62=3.3490     Ti60-Ti63=3.7283     Ti60-O79=1.8045      Ti60-O80=1.7840      Ti61-Ti55=3.2648     Ti61-Ti59=2.8823     
Ti61-Ti63=3.1807     Ti61-C64=2.6046      Ti61-C67=2.0462      Ti61-C69=1.9831      Ti61-O81=1.8402      Ti61-O83=1.7674      
Ti62-Ti54=3.7231     Ti62-Ti56=3.0189     Ti62-Ti59=3.3482     Ti62-Ti60=3.3490     Ti62-Ti63=2.9981     Ti62-C65=2.0639      
Ti62-C66=2.8932      Ti62-C70=2.1614      Ti62-O82=1.7895      Ti62-O84=1.7381      Ti63-Ti59=3.1233     Ti63-Ti60=3.7283     
Ti63-Ti61=3.1807     Ti63-Ti62=2.9981     Ti63-O83=1.7490      Ti63-O84=1.7962      C64-Ti55=2.0445      C64-Ti61=2.6046      
C64-C67=1.2401       C65-Ti56=2.7213      C65-Ti62=2.0639      C65-C68=1.2437       C66-Ti62=2.8932      C66-C69=1.2751       
C66-C70=1.3347       C67-Ti61=2.0462      C67-C64=1.2401       C68-Ti56=2.0676      C68-C65=1.2437       C69-Ti61=1.9831      
C69-C66=1.2751       C70-Ti56=2.0350      C70-Ti62=2.1614      C70-C66=1.3347       O71-Ti52=1.7933      O71-Ti55=1.8625      
O72-Ti52=1.7950      O72-Ti53=1.7534      O73-Ti53=1.7366      O73-Ti54=1.7905      O74-Ti53=1.7239      O74-Ti55=1.7532      
O75-Ti53=1.7033      O75-Ti56=1.7996      O76-Ti55=1.7485      O76-Ti57=1.7963      O77-Ti56=1.7577      O77-Ti57=1.7247      
O78-Ti58=1.7694      O78-Ti59=1.7752      O79-Ti59=1.7611      O79-Ti60=1.8045      O80-Ti54=1.7466      O80-Ti60=1.7840      
O81-Ti59=1.7324      O81-Ti61=1.8402      O82-Ti59=1.7038      O82-Ti62=1.7895      O83-Ti61=1.7674      O83-Ti63=1.7490      
O84-Ti62=1.7381      O84-Ti63=1.7962      
 C  H  Rav=1.0879 sigma=0.0092  Rmin=1.0768  Rmax=1.1013    14
 C  C  Rav=1.3926 sigma=0.0721  Rmin=1.2401  Rmax=1.5473    26
 N  H  Rav=1.0159 sigma=0.0000  Rmin=1.0159  Rmax=1.0159     1
 N  C  Rav=1.4219 sigma=0.0366  Rmin=1.3720  Rmax=1.4579     5
 O  H  Rav=0.9705 sigma=0.0000  Rmin=0.9705  Rmax=0.9705     1
 O  C  Rav=1.4131 sigma=0.0147  Rmin=1.3939  Rmax=1.4295     3
 F  C  Rav=1.3478 sigma=0.0127  Rmin=1.3341  Rmax=1.3744     6
 Ti C  Rav=2.2621 sigma=0.3220  Rmin=1.9831  Rmax=2.8932    10
 Ti O  Rav=1.7677 sigma=0.0367  Rmin=1.7033  Rmax=1.8625    28
 Ti Ti Rav=3.2694 sigma=0.3050  Rmin=2.8456  Rmax=3.7748    28
 I  C  Rav=2.1306 sigma=0.0202  Rmin=2.1104  Rmax=2.1509     2
 
 selected bond angles (degree)
 --------------------
H36-O1-C2=109.45               C3-C2-O1=109.66                O16-C2-O1=109.82               O16-C2-C3=109.95               
C17-C2-O1=110.83               C17-C2-C3=107.31               C17-C2-O16=109.23              N4-C3-C2=112.71                
H37-C3-C2=109.93               H37-C3-N4=109.45               H38-C3-C2=106.84               H38-C3-N4=109.54               
H38-C3-H37=108.25              C5-N4-C3=114.76                C14-N4-C3=112.12               C14-N4-C5=112.57               
C6-C5-N4=109.59                H39-C5-N4=107.95               H39-C5-C6=108.25               H40-C5-N4=112.20               
H40-C5-C6=110.48               H40-C5-H39=108.25              C7-C6-C5=120.33                C12-C6-C5=121.48               
C12-C6-C7=118.19               C8-C7-C6=119.96                H41-C7-C6=120.42               H41-C7-C8=119.61               
F9-C8-C7=118.87                C10-C8-C7=121.85               C10-C8-F9=119.28               C11-C10-C8=118.42              
H42-C10-C8=120.26              H42-C10-C11=121.32             
 
 selected dihedral angles (degree)
 ---------------------------------
C3-C2-O1-H36=189.79           O16-C2-O1-H36= 68.86          C17-C2-O1-H36=308.08          N4-C3-C2-O1=300.54            
N4-C3-C2-O16= 61.40           N4-C3-C2-C17=180.09           H37-C3-C2-O1= 62.94           H37-C3-C2-O16=183.79          
H37-C3-C2-C17=302.48          H38-C3-C2-O1=180.18           H38-C3-C2-O16=301.03          H38-C3-C2-C17= 59.73          
C5-N4-C3-C2=104.00            C5-N4-C3-H37=341.33           C5-N4-C3-H38=222.80           C14-N4-C3-C2=333.94           
C14-N4-C3-H37=211.27          C14-N4-C3-H38= 92.74          C6-C5-N4-C3=158.60            C6-C5-N4-C14=288.44           
H39-C5-N4-C3= 40.91           H39-C5-N4-C14=170.75          H40-C5-N4-C3=281.72           H40-C5-N4-C14= 51.56          
C7-C6-C5-N4=122.20            C7-C6-C5-H39=239.71           C7-C6-C5-H40=358.08           C12-C6-C5-N4=302.09           
C12-C6-C5-H39= 59.59          C12-C6-C5-H40=177.96          C8-C7-C6-C5=179.76            C8-C7-C6-C12=359.87           
H41-C7-C6-C5=359.61           H41-C7-C6-C12=179.72          F9-C8-C7-C6=179.91            F9-C8-C7-H41=  0.06           
C10-C8-C7-C6=  0.03           C10-C8-C7-H41=180.18          C11-C10-C8-C7=359.94          C11-C10-C8-F9=180.06          
H42-C10-C8-C7=180.42          H42-C10-C8-F9=  0.54          
 
 CMA Distance (Angstroems)
 ---------------------------
R(CMA):  8.0617
           -------------------------------------------------
          |                Final Singlepoint                |
           -------------------------------------------------

          ...................................................
          :                      SETUP                      :
          :.................................................:
          :  # basis functions                 372          :
          :  # atomic orbitals                 358          :
          :  # shells                          166          :
          :  # electrons                       346          :
          :  max. iterations                   500          :
          :  Hamiltonian                  GFN2-xTB          :
          :  restarted?                      false          :
          :  GBSA solvation                  false          :
          :  PC potential                    false          :
          :  electronic temp.          500.0000000     K    :
          :  accuracy                    1.0000000          :
          :  -> integral cutoff          0.2500000E+02      :
          :  -> integral neglect         0.1000000E-07      :
          :  -> SCF convergence          0.1000000E-05 Eh   :
          :  -> wf. convergence          0.1000000E-03 e    :
          :  Broyden damping             0.4000000          :
          :  net charge                          0          :
          :  unpaired electrons                  0          :
          ...................................................

 iter      E             dE          RMSdq      gap      omega  full diag
   1   -201.3481533 -0.201348E+03  0.339E-01    0.22       0.0  T
   2   -200.7817712  0.566382E+00  0.287E+00    0.02       1.0  T
   3   -201.3390301 -0.557259E+00  0.383E-01    0.18       1.0  T
   4   -201.3291274  0.990267E-02  0.468E-01    0.35       1.0  T
   5   -201.3430194 -0.138920E-01  0.277E-01    0.26       1.0  T
   6   -201.3443655 -0.134609E-02  0.249E-01    0.26       1.0  T
   7   -201.3475309 -0.316537E-02  0.190E-01    0.24       1.0  T
   8   -201.3475911 -0.602592E-04  0.174E-01    0.23       1.0  T
   9   -201.3491978 -0.160666E-02  0.858E-02    0.21       1.0  T
  10   -201.3496400 -0.442225E-03  0.223E-02    0.19       1.0  T
  11   -201.3495258  0.114190E-03  0.471E-02    0.18       1.0  T
  12   -201.3495707 -0.449250E-04  0.390E-02    0.19       1.0  T
  13   -201.3496189 -0.481261E-04  0.264E-02    0.19       1.0  T
  14   -201.3496567 -0.377987E-04  0.115E-02    0.19       1.0  T
  15   -201.3496627 -0.604956E-05  0.523E-03    0.19       2.1  T
  16   -201.3496608  0.192702E-05  0.746E-03    0.19       1.5  T
  17   -201.3496630 -0.216871E-05  0.406E-03    0.19       2.7  T
  18   -201.3496642 -0.128982E-05  0.103E-03    0.19      10.5  T
  19   -201.3496642  0.331669E-07  0.946E-04    0.19      11.5  T
  20   -201.3496643 -0.472014E-07  0.783E-04    0.19      13.9  T

   *** convergence criteria satisfied after 20 iterations ***

         #    Occupation            Energy/Eh            Energy/eV
      -------------------------------------------------------------
         1        2.0000           -0.8792997             -23.9270
       ...           ...                  ...                  ...
       167        2.0000           -0.3477312              -9.4622
       168        2.0000           -0.3397838              -9.2460
       169        2.0000           -0.3370249              -9.1709
       170        2.0000           -0.3242733              -8.8239
       171        2.0000           -0.3202975              -8.7157
       172        2.0000           -0.3125239              -8.5042
       173        1.7072           -0.2964114              -8.0658 (HOMO)
       174        0.1240           -0.2893185              -7.8728 (LUMO)
       175        0.0799           -0.2885851              -7.8528
       176        0.0764           -0.2885126              -7.8508
       177        0.0121           -0.2855396              -7.7699
       178        0.0003           -0.2796966              -7.6109
       ...           ...                  ...                  ...
       358                         13.0610570             355.4095
      -------------------------------------------------------------
                  HL-Gap            0.0070929 Eh            0.1930 eV
             Fermi-level           -0.2936196 Eh           -7.9898 eV

 SCC (total)                   0 d,  0 h,  0 min,  0.486 sec
 SCC setup                      ...        0 min,  0.001 sec (  0.206%)
 Dispersion                     ...        0 min,  0.000 sec (  0.000%)
 classical contributions        ...        0 min,  0.000 sec (  0.000%)
 integral evaluation            ...        0 min,  0.008 sec (  1.646%)
 iterations                     ...        0 min,  0.455 sec ( 93.621%)
 molecular gradient             ...        0 min,  0.020 sec (  4.115%)
 printout                       ...        0 min,  0.002 sec (  0.412%)

         :::::::::::::::::::::::::::::::::::::::::::::::::::::
         ::                     SUMMARY                     ::
         :::::::::::::::::::::::::::::::::::::::::::::::::::::
         :: total energy            -199.572005090164 Eh    ::
         :: gradient norm              0.021214365305 Eh/a0 ::
         :: HOMO-LUMO gap              0.193008463942 eV    ::
         ::.................................................::
         :: SCC energy              -201.346658729191 Eh    ::
         :: -> isotropic ES            1.050474578255 Eh    ::
         :: -> anisotropic ES         -0.459921840736 Eh    ::
         :: -> anisotropic XC         -0.074921303894 Eh    ::
         :: -> dispersion             -0.173361926197 Eh    ::
         :: repulsion energy           1.774653639027 Eh    ::
         :: add. restraining           0.000000000000 Eh    ::
         :: total charge              -0.000000000248 e     ::
         :::::::::::::::::::::::::::::::::::::::::::::::::::::

           -------------------------------------------------
          |                Property Printout                |
           -------------------------------------------------

    * Orbital Energies and Occupations

         #    Occupation            Energy/Eh            Energy/eV
      -------------------------------------------------------------
         1        2.0000           -0.8792997             -23.9270
       ...           ...                  ...                  ...
       161        2.0000           -0.3753762             -10.2145
       162        2.0000           -0.3739570             -10.1759
       163        2.0000           -0.3716587             -10.1133
       164        2.0000           -0.3636849              -9.8964
       165        2.0000           -0.3559589              -9.6861
       166        2.0000           -0.3507992              -9.5457
       167        2.0000           -0.3477312              -9.4622
       168        2.0000           -0.3397838              -9.2460
       169        2.0000           -0.3370249              -9.1709
       170        2.0000           -0.3242733              -8.8239
       171        2.0000           -0.3202975              -8.7157
       172        2.0000           -0.3125239              -8.5042
       173        1.7072           -0.2964114              -8.0658 (HOMO)
       174        0.1240           -0.2893185              -7.8728 (LUMO)
       175        0.0799           -0.2885851              -7.8528
       176        0.0764           -0.2885126              -7.8508
       177        0.0121           -0.2855396              -7.7699
       178        0.0003           -0.2796966              -7.6109
       179        0.0000           -0.2763963              -7.5211
       180        0.0000           -0.2737773              -7.4499
       181        0.0000           -0.2732412              -7.4353
       182        0.0000           -0.2678742              -7.2892
       183                         -0.2598340              -7.0704
       184                         -0.2597297              -7.0676
       ...                                ...                  ...
       358                         13.0610570             355.4095
      -------------------------------------------------------------
                  HL-Gap            0.0070929 Eh            0.1930 eV
             Fermi-level           -0.2936196 Eh           -7.9898 eV

     #   Z          covCN         q      C6AA      α(0)
     1   8 O        1.656    -0.422    21.278     6.227
     2   6 C        3.673     0.276    16.601     5.839
     3   6 C        3.761    -0.014    20.877     6.513
     4   7 N        2.779    -0.144    24.119     7.294
     5   6 C        3.779    -0.003    20.663     6.476
     6   6 C        3.089     0.007    27.759     8.636
     7   6 C        2.925    -0.059    29.463     8.902
     8   6 C        2.784     0.170    24.320     8.078
     9   9 F        0.787    -0.216    11.403     3.989
    10   6 C        2.918    -0.052    29.296     8.876
    11   6 C        3.079    -0.035    28.785     8.796
    12   6 C        2.960     0.045    26.977     8.519
    13  53 I        1.301    -0.122   381.001    33.695
    14   6 C        3.758    -0.007    20.749     6.494
    15   6 C        3.694     0.068    19.612     6.336
    16   8 O        1.707    -0.305    19.076     5.897
    17   6 C        2.961    -0.063    29.560     8.918
    18   6 C        2.787     0.134    25.051     8.198
    19   9 F        0.787    -0.175    10.984     3.915
    20   6 C        2.770     0.140    24.925     8.176
    21   9 F        0.787    -0.158    10.806     3.883
    22   6 C        2.782     0.136    25.016     8.192
    23   9 F        0.786    -0.174    10.970     3.912
    24   6 C        2.900     0.046    26.973     8.516
    25   7 N        2.725    -0.107    23.348     7.176
    26   6 C        3.020     0.052    26.818     8.495
    27   6 C        2.789     0.162    24.491     8.107
    28   9 F        0.787    -0.217    11.409     3.990
    29   6 C        2.915    -0.047    29.173     8.857
    30   6 C        2.925    -0.034    28.848     8.808
    31   6 C        3.006    -0.037    28.905     8.819
    32   6 C        2.958     0.032    27.292     8.569
    33  53 I        1.197    -0.098   379.212    33.616
    34   6 C        2.791     0.133    25.084     8.204
    35   9 F        0.787    -0.173    10.959     3.910
    36   1 H        0.804     0.322     0.659     1.275
    37   1 H        0.925     0.084     1.940     2.178
    38   1 H        0.924     0.062     2.172     2.305
    39   1 H        0.924     0.068     2.108     2.270
    40   1 H        0.923     0.045     2.384     2.415
    41   1 H        0.926     0.071     2.074     2.252
    42   1 H        0.926     0.070     2.086     2.258
    43   1 H        0.926     0.067     2.113     2.273
    44   1 H        0.923     0.060     2.201     2.320
    45   1 H        0.924     0.053     2.280     2.361
    46   1 H        0.923     0.066     2.132     2.283
    47   1 H        0.924     0.074     2.038     2.233
    48   1 H        0.863     0.205     1.080     1.627
    49   1 H        0.926     0.083     1.951     2.184
    50   1 H        0.926     0.071     2.072     2.251
    51   1 H        0.926     0.081     1.964     2.192
    52  22 Ti       3.439     1.001   103.115    24.783
    53  22 Ti       6.724     1.549    84.074    14.887
    54  22 Ti       3.273     1.049   102.626    24.736
    55  22 Ti       5.819     1.360    85.862    15.044
    56  22 Ti       5.660     1.118    88.238    15.251
    57  22 Ti       3.535     0.976   103.240    24.767
    58  22 Ti       1.971     0.999   202.503    34.842
    59  22 Ti       6.755     1.569    83.894    14.871
    60  22 Ti       3.418     1.010   103.033    24.776
    61  22 Ti       5.596     1.136    88.062    15.236
    62  22 Ti       5.695     1.182    87.602    15.196
    63  22 Ti       3.587     1.019   102.521    24.643
    64   6 C        2.262    -0.274    38.029     9.997
    65   6 C        2.106    -0.263    38.743    10.057
    66   6 C        2.236    -0.035    31.118     9.035
    67   6 C        1.839    -0.222    37.712     9.921
    68   6 C        1.905    -0.235    38.099     9.968
    69   6 C        1.818    -0.358    42.595    10.545
    70   6 C        2.628    -0.402    39.842    10.325
    71   8 O        1.504    -0.849    32.144     7.646
    72   8 O        1.459    -0.885    33.373     7.786
    73   8 O        1.529    -0.938    35.002     7.980
    74   8 O        1.499    -1.024    38.174     8.332
    75   8 O        1.479    -0.927    34.725     7.944
    76   8 O        1.476    -0.847    32.101     7.638
    77   8 O        1.453    -0.803    30.823     7.482
    78   8 O        1.501    -0.873    32.905     7.735
    79   8 O        1.499    -0.883    33.224     7.773
    80   8 O        1.454    -0.821    31.367     7.548
    81   8 O        1.506    -0.944    35.242     8.006
    82   8 O        1.520    -0.990    36.882     8.191
    83   8 O        1.507    -0.820    31.231     7.537
    84   8 O        1.453    -0.795    30.568     7.451

 Mol. C6AA /au·bohr⁶  :     205036.833122
 Mol. C8AA /au·bohr⁸  :    9546894.384980
 Mol. α(0) /au        :        765.436830


Wiberg/Mayer (AO) data.
largest (>0.10) Wiberg bond orders for each atom

 ---------------------------------------------------------------------------
     #   Z sym  total        # sym  WBO       # sym  WBO       # sym  WBO
 ---------------------------------------------------------------------------
     1   8 O    1.999 --     2 C    0.992    36 H    0.828
     2   6 C    3.922 --     1 O    0.992    17 C    0.952    16 O    0.946
                             3 C    0.938
     3   6 C    3.977 --     4 N    1.013    38 H    0.964    37 H    0.964
                             2 C    0.938
     4   7 N    3.170 --     3 C    1.013    14 C    0.998     5 C    0.994
     5   6 C    3.980 --     6 C    1.006     4 N    0.994    40 H    0.961
                            39 H    0.953
     6   6 C    3.988 --     7 C    1.411    12 C    1.393     5 C    1.006
                            10 C    0.105
     7   6 C    3.987 --     6 C    1.411     8 C    1.396    41 H    0.961
                            11 C    0.106
     8   6 C    3.891 --     7 C    1.396    10 C    1.391     9 F    0.966
     9   9 F    1.098 --     8 C    0.966
    10   6 C    3.988 --    11 C    1.436     8 C    1.391    42 H    0.964
                             6 C    0.105
    11   6 C    3.989 --    10 C    1.436    12 C    1.427    43 H    0.967
                             7 C    0.106
    12   6 C    3.958 --    11 C    1.427     6 C    1.393    13 I    0.970
    13  53 I    1.121 --    12 C    0.970
    14   6 C    3.982 --    15 C    1.004     4 N    0.998    45 H    0.968
                            44 H    0.951
    15   6 C    3.929 --    14 C    1.004    46 H    0.964    16 O    0.945
                            47 H    0.938
    16   8 O    2.211 --     2 C    0.946    15 C    0.945    57 Ti   0.164
    17   6 C    3.938 --    34 C    1.367    18 C    1.313     2 C    0.952
    18   6 C    3.864 --    20 C    1.348    17 C    1.313    19 F    0.988
    19   9 F    1.123 --    18 C    0.988
    20   6 C    3.897 --    18 C    1.348    22 C    1.342    21 F    1.004
    21   9 F    1.149 --    20 C    1.004
    22   6 C    3.842 --    20 C    1.342    24 C    1.278    23 F    0.989
    23   9 F    1.128 --    22 C    0.989
    24   6 C    3.958 --    34 C    1.306    22 C    1.278    25 N    1.156
    25   7 N    3.452 --    24 C    1.156    26 C    1.105    48 H    0.896
    26   6 C    3.961 --    32 C    1.336    27 C    1.309    25 N    1.105
    27   6 C    3.883 --    29 C    1.416    26 C    1.309    28 F    0.961
    28   9 F    1.095 --    27 C    0.961
    29   6 C    3.982 --    30 C    1.421    27 C    1.416    49 H    0.963
    30   6 C    3.973 --    31 C    1.428    29 C    1.421    50 H    0.965
    31   6 C    3.985 --    30 C    1.428    32 C    1.425    51 H    0.962
    32   6 C    3.932 --    31 C    1.425    26 C    1.336    33 I    0.978
    33  53 I    1.216 --    32 C    0.978
    34   6 C    3.830 --    17 C    1.367    24 C    1.306    35 F    0.910
    35   9 F    1.221 --    34 C    0.910    57 Ti   0.111
    36   1 H    0.895 --     1 O    0.828
    37   1 H    0.993 --     3 C    0.964
    38   1 H    0.995 --     3 C    0.964
    39   1 H    0.995 --     5 C    0.953
    40   1 H    0.997 --     5 C    0.961
    41   1 H    0.995 --     7 C    0.961
    42   1 H    0.995 --    10 C    0.964
    43   1 H    0.995 --    11 C    0.967
    44   1 H    0.996 --    14 C    0.951
    45   1 H    0.996 --    14 C    0.968
    46   1 H    0.995 --    15 C    0.964
    47   1 H    0.994 --    15 C    0.938
    48   1 H    0.957 --    25 N    0.896
    49   1 H    0.992 --    29 C    0.963
    50   1 H    0.995 --    30 C    0.965
    51   1 H    0.993 --    31 C    0.962
    52  22 Ti   2.843 --    71 O    0.829    72 O    0.795    58 Ti   0.338
                            55 Ti   0.197    53 Ti   0.197    76 O    0.107
    53  22 Ti   3.853 --    72 O    0.782    73 O    0.756    75 O    0.702
                            74 O    0.600    52 Ti   0.197    54 Ti   0.193
                            56 Ti   0.129    57 Ti   0.110
    54  22 Ti   2.669 --    80 O    0.887    73 O    0.636    60 Ti   0.291
                            53 Ti   0.193    58 Ti   0.179    78 O    0.102
    55  22 Ti   3.937 --    76 O    0.953    64 C    0.710    71 O    0.687
                            74 O    0.558    57 Ti   0.211    52 Ti   0.197
                            61 Ti   0.183
    56  22 Ti   4.098 --    77 O    0.840    70 C    0.821    68 C    0.722
                            75 O    0.649    62 Ti   0.271    57 Ti   0.209
                            69 C    0.144    65 C    0.136    53 Ti   0.129
    57  22 Ti   2.945 --    77 O    0.895    76 O    0.632    55 Ti   0.211
                            56 Ti   0.209    16 O    0.164    35 F    0.111
                            53 Ti   0.110
    58  22 Ti   2.389 --    78 O    0.920    52 Ti   0.338    59 Ti   0.207
                            71 O    0.193    54 Ti   0.179    73 O    0.153
                            81 O    0.121
    59  22 Ti   3.816 --    79 O    0.752    81 O    0.691    82 O    0.668
                            78 O    0.630    58 Ti   0.207    60 Ti   0.191
                            61 Ti   0.136    63 Ti   0.120
    60  22 Ti   2.712 --    80 O    0.841    79 O    0.791    54 Ti   0.291
                            59 Ti   0.191    63 Ti   0.160    62 Ti   0.153
    61  22 Ti   4.045 --    69 C    0.905    83 O    0.789    67 C    0.720
                            81 O    0.581    63 Ti   0.194    55 Ti   0.183
                            64 C    0.155    70 C    0.140    59 Ti   0.136
    62  22 Ti   4.093 --    84 O    0.947    65 C    0.685    70 C    0.647
                            82 O    0.510    56 Ti   0.271    63 Ti   0.215
                            60 Ti   0.153    69 C    0.126
    63  22 Ti   2.698 --    83 O    0.854    84 O    0.747    62 Ti   0.215
                            61 Ti   0.194    60 Ti   0.160    79 O    0.139
                            59 Ti   0.120
    64   6 C    3.832 --    67 C    2.741    55 Ti   0.710    61 Ti   0.155
    65   6 C    3.787 --    68 C    2.738    62 Ti   0.685    56 Ti   0.136
    66   6 C    3.975 --    69 C    2.047    70 C    1.578
    67   6 C    3.686 --    64 C    2.741    61 Ti   0.720
    68   6 C    3.734 --    65 C    2.738    56 Ti   0.722
    69   6 C    3.599 --    66 C    2.047    61 Ti   0.905    56 Ti   0.144
                            62 Ti   0.126
    70   6 C    3.613 --    66 C    1.578    56 Ti   0.821    62 Ti   0.647
                            61 Ti   0.140
    71   8 O    1.929 --    52 Ti   0.829    55 Ti   0.687    58 Ti   0.193
    72   8 O    1.881 --    52 Ti   0.795    53 Ti   0.782
    73   8 O    1.807 --    53 Ti   0.756    54 Ti   0.636    58 Ti   0.153
    74   8 O    1.691 --    53 Ti   0.600    55 Ti   0.558
    75   8 O    1.826 --    53 Ti   0.702    56 Ti   0.649
    76   8 O    1.937 --    55 Ti   0.953    57 Ti   0.632    52 Ti   0.107
    77   8 O    2.002 --    57 Ti   0.895    56 Ti   0.840
    78   8 O    1.895 --    58 Ti   0.920    59 Ti   0.630    54 Ti   0.102
    79   8 O    1.891 --    60 Ti   0.791    59 Ti   0.752    63 Ti   0.139
    80   8 O    1.980 --    54 Ti   0.887    60 Ti   0.841
    81   8 O    1.806 --    59 Ti   0.691    61 Ti   0.581    58 Ti   0.121
    82   8 O    1.743 --    59 Ti   0.668    62 Ti   0.510
    83   8 O    1.980 --    63 Ti   0.854    61 Ti   0.789
    84   8 O    2.015 --    62 Ti   0.947    63 Ti   0.747
 ---------------------------------------------------------------------------

Topologies differ in total number of bonds
Writing topology from bond orders to xtbtopo.mol

molecular dipole:
                 x           y           z       tot (Debye)
 q only:       -2.142      -4.531       1.695
   full:       -1.826      -3.857       0.123      10.853
molecular quadrupole (traceless):
                xx          xy          yy          xz          yz          zz
 q only:      -32.364      32.008       0.690     -59.773     -48.986      31.674
  q+dip:       -3.153      22.836      10.267      -6.275     -42.076      -7.114
   full:       -2.828      24.206      13.327      -8.304     -40.247     -10.500

           -------------------------------------------------
          |                Geometry Summary                 |
           -------------------------------------------------

      molecular mass/u    :     1602.6533164
   center of mass at/Å    :       -0.3769455      -0.4675553       4.8009505
  moments of inertia/u·Å² :        0.2321033E+05   0.3662651E+05   0.5198391E+05
rotational constants/cm⁻¹ :        0.7262986E-03   0.4602576E-03   0.3242856E-03

 * 82 selected distances

     #   Z          #   Z                                           value/Å
     1   8 O        2   6 C                                       1.3938603
     3   6 C        4   7 N                                       1.4444316
     4   7 N        5   6 C                                       1.4518230
     6   6 C        7   6 C                                       1.3879509
     7   6 C        8   6 C                                       1.3818725
     8   6 C       10   6 C                                       1.3829685
    10   6 C       11   6 C                                       1.3838485
     6   6 C       12   6 C                                       1.3898970
    11   6 C       12   6 C                                       1.3849889
    12   6 C       13  53 I                                       2.1104417
     4   7 N       14   6 C                                       1.4578618
    14   6 C       15   6 C                                       1.5202092
     2   6 C       16   8 O                                       1.4159458
    15   6 C       16   8 O                                       1.4294587
    17   6 C       18   6 C                                       1.4048939
    18   6 C       20   6 C                                       1.3865794
    20   6 C       21   9 F                                       1.3341301
    20   6 C       22   6 C                                       1.3875083
    22   6 C       24   6 C                                       1.4049796
    24   6 C       25   7 N                                       1.3719527
    25   7 N       26   6 C                                       1.3831896
    26   6 C       27   6 C                                       1.4002171
    27   6 C       29   6 C                                       1.3779890
    29   6 C       30   6 C                                       1.3846498
    30   6 C       31   6 C                                       1.3846468
    26   6 C       32   6 C                                       1.3983871
    31   6 C       32   6 C                                       1.3836904
    17   6 C       34   6 C                                       1.3875872
    24   6 C       34   6 C                                       1.4004348
     1   8 O       36   1 H                                       0.9704890 (min)
     3   6 C       37   1 H                                       1.0849999
     3   6 C       38   1 H                                       1.0946062
     5   6 C       39   1 H                                       1.0952499
     5   6 C       40   1 H                                       1.0985058
     7   6 C       41   1 H                                       1.0793717
    10   6 C       42   1 H                                       1.0789880
    11   6 C       43   1 H                                       1.0784511
    14   6 C       44   1 H                                       1.1012887
    14   6 C       45   1 H                                       1.0917640
    15   6 C       46   1 H                                       1.0984569
    15   6 C       47   1 H                                       1.0966926
    25   7 N       48   1 H                                       1.0158669
    29   6 C       49   1 H                                       1.0780617
    30   6 C       50   1 H                                       1.0774439
    31   6 C       51   1 H                                       1.0768025
    59  22 Ti      60  22 Ti                                      2.8456049
    59  22 Ti      61  22 Ti                                      2.8823173 (max)
    55  22 Ti      64   6 C                                       2.0444999
    64   6 C       67   6 C                                       1.2400620
    65   6 C       68   6 C                                       1.2436820
    61  22 Ti      69   6 C                                       1.9831067
    66   6 C       69   6 C                                       1.2750958
    56  22 Ti      70   6 C                                       2.0349909
    66   6 C       70   6 C                                       1.3346854
    52  22 Ti      71   8 O                                       1.7932869
    55  22 Ti      71   8 O                                       1.8625379
    52  22 Ti      72   8 O                                       1.7949613
    53  22 Ti      72   8 O                                       1.7534334
    53  22 Ti      73   8 O                                       1.7366358
    54  22 Ti      73   8 O                                       1.7904832
    53  22 Ti      74   8 O                                       1.7238805
    55  22 Ti      74   8 O                                       1.7531849
    53  22 Ti      75   8 O                                       1.7033238
    56  22 Ti      75   8 O                                       1.7995946
    55  22 Ti      76   8 O                                       1.7484563
    57  22 Ti      76   8 O                                       1.7962758
    56  22 Ti      77   8 O                                       1.7576982
    57  22 Ti      77   8 O                                       1.7247395
    58  22 Ti      78   8 O                                       1.7694357
    59  22 Ti      78   8 O                                       1.7751889
    59  22 Ti      79   8 O                                       1.7611392
    60  22 Ti      79   8 O                                       1.8044520
    54  22 Ti      80   8 O                                       1.7465710
    60  22 Ti      80   8 O                                       1.7839995
    59  22 Ti      81   8 O                                       1.7323765
    61  22 Ti      81   8 O                                       1.8402311
    59  22 Ti      82   8 O                                       1.7037652
    62  22 Ti      82   8 O                                       1.7895348
    61  22 Ti      83   8 O                                       1.7673781
    63  22 Ti      83   8 O                                       1.7490259
    62  22 Ti      84   8 O                                       1.7380644
    63  22 Ti      84   8 O                                       1.7962451

 * 11 distinct bonds (by element types)

   Z      Z             #   av. dist./Å        max./Å        min./Å
   1 H    6 C          14     1.0879059     1.1012887     1.0768025
   6 C    6 C          23     1.3750793     1.5202092     1.2400620
   1 H    7 N           1     1.0158669     1.0158669     1.0158669
   6 C    7 N           5     1.4218517     1.4578618     1.3719527
   1 H    8 O           1     0.9704890     0.9704890     0.9704890
   6 C    8 O           3     1.4130883     1.4294587     1.3938603
   6 C    9 F           1     1.3341301     1.3341301     1.3341301
   6 C   22 Ti          3     2.0208658     2.0444999     1.9831067
   8 O   22 Ti         28     1.7677107     1.8625379     1.7033238
  22 Ti  22 Ti          2     2.8639611     2.8823173     2.8456049
   6 C   53 I           1     2.1104417     2.1104417     2.1104417


optimized geometry written to: xtbopt.xyz


           -------------------------------------------------
          | TOTAL ENERGY             -199.572005090164 Eh   |
          | GRADIENT NORM               0.021214365305 Eh/α |
          | HOMO-LUMO GAP               0.193008463942 eV   |
           -------------------------------------------------

------------------------------------------------------------------------
 * finished run on 2026/08/31 at 21:49:38.127     
------------------------------------------------------------------------
 total:
 * wall-time:     0 d,  0 h,  0 min, 23.577 sec
 *  cpu-time:     0 d,  0 h,  3 min, 21.672 sec
 * ratio c/w:     8.554 speedup
 SCF:
 * wall-time:     0 d,  0 h,  0 min,  3.238 sec
 *  cpu-time:     0 d,  0 h,  0 min, 23.578 sec
 * ratio c/w:     7.282 speedup
 ANC optimizer:
 * wall-time:     0 d,  0 h,  0 min, 20.263 sec
 *  cpu-time:     0 d,  0 h,  2 min, 57.594 sec
 * ratio c/w:     8.764 speedup

normal termination of xtb
