51
 energy: -107.266601528696 gnorm: 0.003491035845 xtb: 6.7.1pre (5071a88)
O            1.30254795583610       -1.39125314507707        6.96013997407485
C            0.25093882402636       -0.97634994776792        7.77505719315281
C            0.28489598775069       -1.82787085621871        9.06872922117565
N           -0.18561374128841       -3.16326544403167        8.81920306961056
C            0.77584254909981       -4.03205924152152        8.16784630975802
C            0.33681586228249       -5.46681691965263        8.24864257169753
C            0.19047459885751       -6.21141845430920        7.08560752264322
C           -0.21018261949275       -7.53294858455778        7.15504012155596
F           -0.34425170442724       -8.23153588629646        6.01335175380949
C           -0.48099330089793       -8.14878276135967        8.36291871810226
C           -0.33907755907881       -7.41114493896130        9.52408098522742
C            0.06513101276412       -6.08828030093453        9.46273349322911
I            0.27404989113774       -5.03684129269071       11.28060144640693
C           -1.52784684197125       -3.20689004290624        8.25344049962252
C           -1.97534288423114       -1.81734184247700        7.78163739680697
O           -0.94195382535118       -1.18607071443672        7.05885834749547
C            0.44121772579416        0.52503184318584        8.08879524831158
C            1.69835487910985        0.97008416975381        8.53088656935959
F            2.63046308873777        0.07490735208202        8.87892181812387
C            1.94863814994504        2.30591025528045        8.59268171810351
F           -0.25732128094361        3.81409507907582        5.20267752734138
C            1.03389243342568        3.26592038114122        8.30196177213917
F            1.36450222365519        4.55618888688473        8.23064725156563
C           -0.29141060054283        2.87479822597694        8.00625435964275
N           -1.29645271187634        3.73521548805531        7.63726669357196
C           -1.32349955375655        5.09309895257048        7.81318729446793
C           -0.95243916526943        5.69310326497741        9.02747751906015
F           -0.62990142957465        4.89060526144001       10.05868901835142
C           -0.93921504078126        7.05708412912325        9.20368010581658
C           -1.32357160086772        7.87989091184385        8.15382732735702
C           -1.74326187781922        7.33033481275285        6.95834743532540
C           -1.74641914873726        5.95507886545890        6.78880434576480
I           -2.42869929332058        5.15155341239201        4.97800522836373
C           -0.52791896115868        1.49359842688214        7.89735982226990
F           -1.79465185147136        1.15336785061106        7.59628770466644
H            1.19772474733159       -0.98986925402371        6.08723346349409
H            1.31163844289161       -1.86551217515386        9.42872704664950
H           -0.34156976882396       -1.36155818398515        9.83332005953636
H            1.72797929180103       -3.91536305360552        8.69555922135673
H            0.94172607819680       -3.75415041207289        7.11798030440642
H            0.39311228591288       -5.76853964730970        6.12218929547895
H           -0.79250909068736       -9.18027796339732        8.38846359250755
H           -0.54093073339427       -7.87188500250796       10.47852515965121
H           -1.54364233842201       -3.89918322525713        7.40675380572778
H           -2.23035110399315       -3.57438324895026        9.01193512116399
H           -2.28533128017700       -1.19842975404384        8.63175445030278
H           -2.80991176150292       -1.89152722688891        7.08398599630832
H           -1.80851886465267        3.42200482539165        6.81101296356304
H           -0.63285747078268        7.46332771483680       10.15364608803038
H           -1.30321519927091        8.95067535583618        8.27404328531861
H           -2.05841842394840        7.96720105484087        6.14727576253655
