51
Frozen drug extracted from genuine optimized complex (angle 90 deg)
O      1.413755     -1.488659      6.933792
C      0.419077     -1.007895      7.737718
C      0.375970     -1.826663      9.061622
N     -0.171309     -3.155021      8.883114
C      0.723721     -4.063195      8.170358
C      0.180205     -5.462717      8.240932
C     -0.127486     -6.143668      7.068533
C     -0.656709     -7.419541      7.129459
F     -0.958225     -8.041199      5.971053
C     -0.890908     -8.059695      8.332954
C     -0.589923     -7.383940      9.502384
C     -0.066840     -6.101331      9.451535
I      0.346683     -5.119168     11.261476
C     -1.531345     -3.130645      8.337536
C     -1.907188     -1.739002      7.826935
O     -0.848903     -1.206157      7.020395
C      0.614411      0.494054      8.011065
C      1.880610      1.075740      7.901927
F      2.947902      0.213757      7.787138
C      2.130479      2.445592      7.719583
F      1.791379      4.731603      5.571930
C      1.039375      3.237216      8.085418
F      1.216912      4.589990      7.977665
C     -0.262414      2.781898      8.350983
N     -1.353086      3.560018      8.658004
C     -1.441446      4.940739      8.329507
C     -1.185591      5.907931      9.293732
F     -0.813234      5.523153     10.528623
C     -1.311655      7.255363      9.012392
C     -1.713321      7.636208      7.743658
C     -1.965940      6.686372      6.767341
C     -1.832010      5.334294      7.048620
I     -1.645518      3.690846      5.369147
C     -0.433443      1.402225      8.153195
F     -1.736567      1.045024      7.764651
H      3.365222      0.379735      5.712574
H      1.405355     -1.906244      9.414404
H     -0.213111     -1.302262      9.818278
H      1.691889     -4.017958      8.680221
H      0.872966     -3.770240      7.115082
H      0.019578     -5.663441      6.094121
H     -1.301624     -9.055883      8.351161
H     -0.764284     -7.857784     10.455644
H     -1.617905     -3.839271      7.486149
H     -2.231018     -3.428375      9.129904
H     -2.128309     -1.061164      8.658759
H     -2.786900     -1.777715      7.159362
H     -2.235795      3.087629      8.495820
H     -1.090346      7.979626      9.779525
H     -1.814827      8.684843      7.512985
H     -2.245644      6.968504      5.767689
