84
 energy: -199.618073859319 gnorm: 0.002674941793 xtb: 6.7.1pre (5071a88)
O           -1.67299616111468       -1.76254386102645        7.62340823314190
C           -0.92567969156822       -0.62261323442889        7.84552563482116
C           -1.36602673151092       -0.12229182698918        9.24569225025153
N           -2.76618466941411        0.24039668130273        9.26627295825885
C           -3.69416877104659       -0.84523985815291        9.53499769500900
C           -5.03928901074381       -0.26767303336270        9.87451042929672
C           -6.14071641766806       -0.54998242554175        9.07772390873733
C           -7.37393992823660       -0.00950440425030        9.39332915649366
F           -8.42889255333285       -0.29975704128077        8.61058948610292
C           -7.54959755990164        0.82369939813070       10.48347987005569
C           -6.45153336794364        1.11880632065714       11.27093385262643
C           -5.21458875563115        0.57712526182721       10.96507149615114
I           -3.58181886324091        1.07228701652721       12.20207040490674
C           -3.17540063364121        1.02765609510900        8.10731501712292
C           -1.96931107584206        1.50540080035016        7.31324316562069
O           -1.22243940713836        0.37148545990421        6.82461755220067
C            0.58432826546500       -0.87580428346354        7.75471722522741
C            1.13702648043023       -1.98148363342841        7.10296330997109
F            0.36619238697535       -2.89605640846531        6.40799135522664
C            2.50735177653264       -2.16916865450302        7.04915351190682
F            3.02121840413413       -3.11369081779274        6.21485968417639
C            3.36894502498498       -1.35230119264754        7.78784648431074
F            4.61239497444924       -1.76811941403563        8.08958217621060
C            2.91210067903001       -0.07697431626627        8.17887616437293
N            3.73374928835053        0.94127827568746        8.51786104392377
C            5.13091990034786        1.04195927610592        8.38828233840804
C            5.78330655282321        1.70882911142019        9.43380318583800
F            5.01986744834938        2.16059085446532       10.46205707402057
C            7.14150605216518        1.92277781794397        9.46069183362298
C            7.89728647142970        1.45351951858690        8.39689347278283
C            7.27334853030169        0.81322810686787        7.34296082038140
C            5.89697247174462        0.61257347652789        7.30292934639780
I            5.17338231586394       -0.57554187764319        5.38532243656590
C            1.51780946272453        0.09280181779829        8.15730551920988
F            1.06002288684315        1.35434000757058        8.45413062748698
H           -1.68109254867603       -1.99153243845579        6.63114021225682
H           -1.19818939452793       -0.93831605719990        9.94859619359768
H           -0.77933173347768        0.73796661824298        9.56642953264893
H           -3.31371190025978       -1.40353816752602       10.39489894428426
H           -3.78879867825339       -1.53631409021922        8.68062081205961
H           -6.04039369579252       -1.18832671826907        8.20963604796758
H           -8.52268585582386        1.23065088218651       10.70483176326190
H           -6.56220013305295        1.76978845031379       12.12421948090125
H           -3.80388787097684        0.41840141214615        7.40466050280777
H           -3.76060235115914        1.88918545057754        8.44777846369091
H           -1.30730977817447        2.14993044800014        7.90810229397949
H           -2.28167648250485        2.04998328756007        6.40858356361967
H            3.29336587076491        1.73489983949405        8.96869229956185
H            7.58464818772046        2.43528985083120       10.29909636274980
H            8.96572834868850        1.59636455004023        8.39512904176457
H            7.83441057617263        0.44492749651651        6.49814567167542
Ti          -3.06079062680753       -0.91813353777318        4.74879767707971
Ti          -0.29283958149556       -1.82281782792746        4.11214784573840
Ti           0.60305592603939       -4.10278908134780        2.20385119864231
Ti          -1.55450413688079        1.32520923091730        3.55417006189183
Ti           2.70305205643640       -0.75245208227545        4.34656440965457
Ti           0.91464476232174        1.61320348336376        5.18519156312133
Ti          -2.98619996943454       -2.24496589826098        1.82186147968637
Ti          -0.79185594539844       -1.09334169509736        0.49222744129252
Ti           0.82422873742255       -3.33326948824085       -0.72433752555199
Ti          -0.35503550440166        1.76563416631745        0.64355958772319
Ti           2.42593042331162       -1.55058183093392        1.48477892754602
Ti           1.72290207247983        0.03121574407264       -0.97303458855291
C           -1.87407138428929        2.86598687523176        2.19203199377978
C            3.94631172734644       -2.29496501717214        2.63807326399101
C            2.08870374892646        1.15483309339773        2.09296412410846
C           -1.50455328623152        3.36756108079031        1.11686216353501
C            4.62544119602178       -2.00378600675037        3.62594791095737
C            1.32403502814164        2.05740577618506        1.61213032464620
C            2.87331002704140        0.18836405312847        2.56216795229356
O           -3.13336553883362        0.70857884169924        4.15986504357348
O           -1.75117918467921       -2.02834055125132        5.10403711030026
O           -0.66303317636259       -3.13119879403220        2.97401489100129
O           -0.60626318432350       -0.22400797304989        3.52514629204990
O            1.40829615733378       -1.93238063031961        4.15508790172003
O           -0.65821097738988        2.21189002586944        4.72017437144889
O            2.15258580914852        0.41678646454155        5.45028199576772
O           -3.78821991247335       -3.62416030020496        1.74255530481583
O           -0.50107273438667       -2.14326704554667       -0.86866149182810
O            1.64221618780200       -3.95344481752806        0.79460912176953
O           -1.58996943698616        0.28918476209395        1.07697339397834
O            0.63081311712944       -1.28656051415068        1.42965453265547
O            0.20271178967340        0.89156239816524       -0.83127573324428
O            2.81950447868112       -1.09632573437284       -0.17921645286142
