      -----------------------------------------------------------      
     |                   =====================                   |     
     |                           x T B                           |     
     |                   =====================                   |     
     |                         S. Grimme                         |     
     |          Mulliken Center for Theoretical Chemistry        |     
     |                    University of Bonn                     |     
      -----------------------------------------------------------      

   * xtb version 6.7.1pre (5071a88) compiled by 'Marcel@Raven' on 2024-07-23

   xtb is free software: you can redistribute it and/or modify it under
   the terms of the GNU Lesser General Public License as published by
   the Free Software Foundation, either version 3 of the License, or
   (at your option) any later version.
   
   xtb is distributed in the hope that it will be useful,
   but WITHOUT ANY WARRANTY; without even the implied warranty of
   MERCHANTABILITY or FITNESS FOR A PARTICULAR PURPOSE.  See the
   GNU Lesser General Public License for more details.
   
   Cite this work as:
   * C. Bannwarth, E. Caldeweyher, S. Ehlert, A. Hansen, P. Pracht,
     J. Seibert, S. Spicher, S. Grimme, WIREs Comput. Mol. Sci., 2020, 11,
     e01493. DOI: 10.1002/wcms.1493
   
   for GFN2-xTB:
   * C. Bannwarth, S. Ehlert and S. Grimme., J. Chem. Theory Comput., 2019,
     15, 1652-1671. DOI: 10.1021/acs.jctc.8b01176
   for GFN1-xTB:
   * S. Grimme, C. Bannwarth, P. Shushkov, J. Chem. Theory Comput., 2017,
     13, 1989-2009. DOI: 10.1021/acs.jctc.7b00118
   for GFN0-xTB:
   * P. Pracht, E. Caldeweyher, S. Ehlert, S. Grimme, ChemRxiv, 2019, preprint.
     DOI: 10.26434/chemrxiv.8326202.v1
   for GFN-FF:
   * S. Spicher and S. Grimme, Angew. Chem. Int. Ed., 2020, 59, 15665-15673.
     DOI: 10.1002/anie.202004239
   
   for ALPB and GBSA implicit solvation:
   * S. Ehlert, M. Stahn, S. Spicher, S. Grimme, J. Chem. Theory Comput.,
     2021, 17, 4250-4261. DOI: 10.1021/acs.jctc.1c00471
   
   for ddCOSMO and CPCM-X implicit solvation:
   * M. Stahn, S. Ehlert, S. Grimme, J. Phys. Chem. A,
     2023, XX, XXXX-XXXX. DOI: 10.1021/acs.jpca.3c04382
   
   for DFT-D4:
   * E. Caldeweyher, C. Bannwarth and S. Grimme, J. Chem. Phys., 2017,
     147, 034112. DOI: 10.1063/1.4993215
   * E. Caldeweyher, S. Ehlert, A. Hansen, H. Neugebauer, S. Spicher,
     C. Bannwarth and S. Grimme, J. Chem. Phys., 2019, 150, 154122.
     DOI: 10.1063/1.5090222
   * E. Caldeweyher, J.-M. Mewes, S. Ehlert and S. Grimme, Phys. Chem. Chem. Phys.
     2020, 22, 8499-8512. DOI: 10.1039/D0CP00502A
   
   for sTDA-xTB:
   * S. Grimme and C. Bannwarth, J. Chem. Phys., 2016, 145, 054103.
     DOI: 10.1063/1.4959605
   
   in the mass-spec context:
   * V. Asgeirsson, C. Bauer and S. Grimme, Chem. Sci., 2017, 8, 4879.
     DOI: 10.1039/c7sc00601b
   * J. Koopman and S. Grimme, ACS Omega 2019, 4, 12, 15120-15133.
     DOI: 10.1021/acsomega.9b02011
   
   for metadynamics refer to:
   * S. Grimme, J. Chem. Theory Comput., 2019, 155, 2847-2862
     DOI: 10.1021/acs.jctc.9b00143
   
   for SPH calculations refer to:
   * S. Spicher and S. Grimme, J. Chem. Theory Comput., 2021, 17, 1701-1714
     DOI: 10.1021/acs.jctc.0c01306
   
   for ONIOM refer to:
   * C. Plett, A. Katbashev, S. Ehlert, S. Grimme, M. Bursch,
     Phys. Chem. Chem. Phys., 2023, 25, 17860-17868. DOI: 10.1039/D3CP02178E
   
   for DIPRO refer to:
   * J. Kohn, N. Gildemeister, S. Grimme, D. Fazzi, A. Hansen,
     J. Chem. Phys., 2023, just accepted.
   
   for PTB refer to:
   * S. Grimme, M. Mueller, A. Hansen, J. Chem. Phys., 2023, 158, 124111.
     DOI: 10.1063/5.0137838
   
   with help from (in alphabetical order)
   P. Atkinson, C. Bannwarth, F. Bohle, G. Brandenburg, E. Caldeweyher
   M. Checinski, S. Dohm, S. Ehlert, S. Ehrlich, I. Gerasimov, C. Hölzer
   A. Katbashev, J. Kohn, J. Koopman, C. Lavigne, S. Lehtola, F. März, M. Müller,
   F. Musil, H. Neugebauer, J. Pisarek, C. Plett, P. Pracht, F. Pultar,
   J. Seibert, P. Shushkov, S. Spicher, M. Stahn, M. Steiner, T. Strunk,
   J. Stückrath, T. Rose, and J. Unsleber
   
 * started run on 2026/08/31 at 21:57:10.739     
   ID    Z sym.   atoms
    1    8 O      1, 16, 71-84
    2    6 C      2, 3, 5-8, 10-12, 14, 15, 17, 18, 20, 22, 24, 26, 27,
                  29-32, 34, 64-70
    3    7 N      4, 25
    4    9 F      9, 19, 21, 23, 28, 35
    5   53 I      13, 33
    6    1 H      36-51
    7   22 Ti     52-63

           -------------------------------------------------
          |                Calculation Setup                |
           -------------------------------------------------

          program call               : "c:\Users\Andre\Proyectos doctorado\kras-pancreatic-gC3N4-ai\tools\xtb\xtb-6.7.1\bin\xtb.exe" "c:\Users\Andre\Proyectos doctorado\mxene-glioblastoma-qsar-ai\calculations\gbm\Cobimetinib\Cobimetinib_Ti12C7O14_clean_complex.xyz" --gfn 2 --sp --chrg 0 --uhf 0 --etemp 500 --acc 1.0 --iterations 500 --norestart
          coordinate file            : c:\Users\Andre\Proyectos doctorado\mxene-glioblastoma-qsar-ai\calculations\gbm\Cobimetinib\Cobimetinib_Ti12C7O14_clean_complex.xyz
          omp threads                :                    16


molecular fragmentation (1/2 indicates fragments):
111111111111111111111111111111111111111111111111111222222222222222222222
222222222222
# atoms in fragment 1/2:    51    33
 fragment masses (1/2) :      720.19      882.47
CMA distance (Bohr)    :  19.315
constraining FC (au)   :  0.0500

           -------------------------------------------------
          |                 G F N 2 - x T B                 |
           -------------------------------------------------

        Reference                      10.1021/acs.jctc.8b01176
      * Hamiltonian:
        H0-scaling (s, p, d)           1.850000    2.230000    2.230000
        zeta-weighting                 0.500000
      * Dispersion:
        s8                             2.700000
        a1                             0.520000
        a2                             5.000000
        s9                             5.000000
      * Repulsion:
        kExp                           1.500000    1.000000
        rExp                           1.000000
      * Coulomb:
        alpha                          2.000000
        third order                    shell-resolved
        anisotropic                    true
        a3                             3.000000
        a5                             4.000000
        cn-shift                       1.200000
        cn-exp                         4.000000
        max-rad                        5.000000


          ...................................................
          :                      SETUP                      :
          :.................................................:
          :  # basis functions                 372          :
          :  # atomic orbitals                 358          :
          :  # shells                          166          :
          :  # electrons                       346          :
          :  max. iterations                   500          :
          :  Hamiltonian                  GFN2-xTB          :
          :  restarted?                      false          :
          :  GBSA solvation                  false          :
          :  PC potential                    false          :
          :  electronic temp.          500.0000000     K    :
          :  accuracy                    1.0000000          :
          :  -> integral cutoff          0.2500000E+02      :
          :  -> integral neglect         0.1000000E-07      :
          :  -> SCF convergence          0.1000000E-05 Eh   :
          :  -> wf. convergence          0.1000000E-03 e    :
          :  Broyden damping             0.4000000          :
          :  net charge                          0          :
          :  unpaired electrons                  0          :
          ...................................................

 iter      E             dE          RMSdq      gap      omega  full diag
   1   -197.5991702 -0.197599E+03  0.141E+01    0.06       0.0  T
   2   -147.9726383  0.496265E+02  0.154E+01    0.08       1.0  T
   3    115.9206324  0.263893E+03  0.309E+01    0.04       1.0  T
   4   -147.6169200 -0.263538E+03  0.151E+01    0.05       1.0  T
   5    -68.5448973  0.790720E+02  0.203E+01    0.01       1.0  T
   6   -186.9347039 -0.118390E+03  0.125E+01    0.33       1.0  T
   7   -197.2648478 -0.103301E+02  0.829E+00    0.12       1.0  T
   8   -194.6991694  0.256568E+01  0.755E+00    0.00       1.0  T
   9   -198.3560107 -0.365684E+01  0.626E+00    0.03       1.0  T
  10   -192.0244451  0.633157E+01  0.623E+00    0.06       1.0  T
  11   -196.6021120 -0.457767E+01  0.712E+00    0.03       1.0  T
  12   -200.6442523 -0.404214E+01  0.520E+00    0.13       1.0  T
  13   -192.3490698  0.829518E+01  0.759E+00    0.11       1.0  T
  14   -198.1531666 -0.580410E+01  0.676E+00    0.10       1.0  T
  15   -196.5124753  0.164069E+01  0.702E+00    0.04       1.0  T
  16   -196.3381182  0.174357E+00  0.696E+00    0.03       1.0  T
  17   -196.8240036 -0.485885E+00  0.680E+00    0.02       1.0  T
  18   -194.4108139  0.241319E+01  0.728E+00    0.08       1.0  T
  19   -194.5823740 -0.171560E+00  0.722E+00    0.06       1.0  T
  20   -193.7182456  0.864128E+00  0.717E+00    0.19       1.0  T
  21   -192.6502727  0.106797E+01  0.701E+00    0.10       1.0  T
  22   -189.7838473  0.286643E+01  0.657E+00    0.00       1.0  T
  23   -192.5338042 -0.274996E+01  0.609E+00    0.13       1.0  T
  24   -190.9408983  0.159291E+01  0.630E+00    0.02       1.0  T
  25   -191.5922435 -0.651345E+00  0.599E+00    0.06       1.0  T
  26   -191.9286270 -0.336383E+00  0.581E+00    0.04       1.0  T
  27   -191.8692130  0.594139E-01  0.593E+00    0.34       1.0  T
  28   -194.7515858 -0.288237E+01  0.123E+01    0.09       1.0  T
  29   -194.9493750 -0.197789E+00  0.122E+01    0.13       1.0  T
  30   -195.3341360 -0.384761E+00  0.123E+01    0.16       1.0  T
  31   -195.3113236  0.228124E-01  0.121E+01    0.17       1.0  T
  32   -195.0763934  0.234930E+00  0.107E+01    0.13       1.0  T
  33   -195.8524513 -0.776058E+00  0.908E+00    0.05       1.0  T
  34   -197.5314764 -0.167903E+01  0.477E+00    0.04       1.0  T
  35   -198.3246305 -0.793154E+00  0.370E+00    0.10       1.0  T
  36   -198.7596014 -0.434971E+00  0.519E+00    0.03       1.0  T
  37   -198.4965576  0.263044E+00  0.339E+00    0.12       1.0  T
  38   -198.0794321  0.417125E+00  0.348E+00    0.03       1.0  T
  39   -198.3855329 -0.306101E+00  0.345E+00    0.02       1.0  T
  40   -198.1404960  0.245037E+00  0.342E+00    0.03       1.0  T
  41   -200.3276603 -0.218716E+01  0.267E+00    0.03       1.0  T
  42   -200.2137952  0.113865E+00  0.272E+00    0.02       1.0  T
  43   -200.6181882 -0.404393E+00  0.219E+00    0.03       1.0  T
  44   -200.8947840 -0.276596E+00  0.202E+00    0.06       1.0  T
  45   -200.8524590  0.423250E-01  0.202E+00    0.04       1.0  T
  46   -200.9548228 -0.102364E+00  0.188E+00    0.10       1.0  T
  47   -200.9205926  0.342303E-01  0.179E+00    0.07       1.0  T
  48   -200.9695239 -0.489314E-01  0.175E+00    0.11       1.0  T
  49   -200.7845869  0.184937E+00  0.185E+00    0.01       1.0  T
  50   -200.5910431  0.193544E+00  0.218E+00    0.05       1.0  T
  51   -200.6217119 -0.306689E-01  0.217E+00    0.04       1.0  T
  52   -200.8756531 -0.253941E+00  0.198E+00    0.05       1.0  T
  53   -200.9360846 -0.604315E-01  0.200E+00    0.07       1.0  T
  54   -201.0750179 -0.138933E+00  0.219E+00    0.22       1.0  T
  55   -201.0885630 -0.135451E-01  0.216E+00    0.26       1.0  T
  56   -201.0956644 -0.710140E-02  0.212E+00    0.30       1.0  T
  57   -201.1069007 -0.112364E-01  0.179E+00    0.48       1.0  T
  58   -201.1182556 -0.113548E-01  0.109E+00    0.82       1.0  T
  59   -201.1210470 -0.279138E-02  0.927E-01    0.99       1.0  T
  60   -201.1273434 -0.629641E-02  0.740E-01    1.05       1.0  T
  61   -201.1330354 -0.569201E-02  0.591E-01    1.02       1.0  T
  62   -201.1353568 -0.232138E-02  0.584E-01    0.99       1.0  T
  63   -201.1378916 -0.253485E-02  0.546E-01    0.96       1.0  T
  64   -201.1402545 -0.236290E-02  0.484E-01    0.93       1.0  T
  65   -201.1433070 -0.305245E-02  0.435E-01    0.90       1.0  T
  66   -201.1453500 -0.204303E-02  0.370E-01    0.88       1.0  T
  67   -201.1455326 -0.182634E-03  0.397E-01    0.87       1.0  T
  68   -201.1471326 -0.159997E-02  0.367E-01    0.84       1.0  T
  69   -201.1485352 -0.140259E-02  0.340E-01    0.81       1.0  T
  70   -201.1495650 -0.102975E-02  0.292E-01    0.81       1.0  T
  71   -201.1499788 -0.413864E-03  0.278E-01    0.80       1.0  T
  72   -201.1501315 -0.152646E-03  0.270E-01    0.80       1.0  T
  73   -201.1505676 -0.436161E-03  0.256E-01    0.80       1.0  T
  74   -201.1509806 -0.412996E-03  0.242E-01    0.79       1.0  T
  75   -201.1513731 -0.392464E-03  0.237E-01    0.78       1.0  T
  76   -201.1518152 -0.442142E-03  0.226E-01    0.77       1.0  T
  77   -201.1524678 -0.652547E-03  0.203E-01    0.75       1.0  T
  78   -201.1530758 -0.608016E-03  0.181E-01    0.72       1.0  T
  79   -201.1533534 -0.277587E-03  0.172E-01    0.70       1.0  T
  80   -201.1536307 -0.277367E-03  0.165E-01    0.69       1.0  T
  81   -201.1540132 -0.382498E-03  0.149E-01    0.66       1.0  T
  82   -201.1541659 -0.152676E-03  0.138E-01    0.65       1.0  T
  83   -201.1542754 -0.109439E-03  0.134E-01    0.67       1.0  T
  84   -201.1543720 -0.966046E-04  0.130E-01    0.68       1.0  T
  85   -201.1544814 -0.109478E-03  0.127E-01    0.70       1.0  T
  86   -201.1545861 -0.104638E-03  0.123E-01    0.70       1.0  T
  87   -201.1547242 -0.138132E-03  0.118E-01    0.70       1.0  T
  88   -201.1549243 -0.200072E-03  0.103E-01    0.69       1.0  T
  89   -201.1552320 -0.307697E-03  0.790E-02    0.67       1.0  T
  90   -201.1553876 -0.155657E-03  0.654E-02    0.65       1.0  T
  91   -201.1554386 -0.509306E-04  0.580E-02    0.64       1.0  T
  92   -201.1554644 -0.258331E-04  0.565E-02    0.64       1.0  T
  93   -201.1554838 -0.194444E-04  0.488E-02    0.62       1.0  T
  94   -201.1554979 -0.140486E-04  0.396E-02    0.61       1.0  T
  95   -201.1554980 -0.148948E-06  0.379E-02    0.60       1.0  T
  96   -201.1555092 -0.112088E-04  0.351E-02    0.61       1.0  T
  97   -201.1555287 -0.194379E-04  0.308E-02    0.62       1.0  T
  98   -201.1555388 -0.101484E-04  0.292E-02    0.62       1.0  T
  99   -201.1555475 -0.863048E-05  0.281E-02    0.62       1.0  T
 100   -201.1555588 -0.113565E-04  0.260E-02    0.63       1.0  T
 101   -201.1555725 -0.136777E-04  0.240E-02    0.63       1.0  T
 102   -201.1555796 -0.709606E-05  0.223E-02    0.63       1.0  T
 103   -201.1555863 -0.670691E-05  0.200E-02    0.63       1.0  T
 104   -201.1555917 -0.536662E-05  0.182E-02    0.63       1.0  T
 105   -201.1555967 -0.500433E-05  0.158E-02    0.63       1.0  T
 106   -201.1555999 -0.324084E-05  0.142E-02    0.63       1.0  T
 107   -201.1556043 -0.435821E-05  0.117E-02    0.62       1.0  T
 108   -201.1556070 -0.276824E-05  0.102E-02    0.62       1.1  T
 109   -201.1556075 -0.486583E-06  0.102E-02    0.62       1.1  T
 110   -201.1556074  0.136603E-06  0.103E-02    0.62       1.1  T
 111   -201.1556077 -0.309425E-06  0.101E-02    0.62       1.1  T
 112   -201.1556087 -0.100036E-05  0.961E-03    0.62       1.1  T
 113   -201.1556103 -0.163132E-05  0.828E-03    0.62       1.3  T
 114   -201.1556116 -0.124019E-05  0.688E-03    0.62       1.6  T
 115   -201.1556121 -0.558105E-06  0.609E-03    0.62       1.8  T
 116   -201.1556131 -0.959385E-06  0.477E-03    0.62       2.3  T
 117   -201.1556134 -0.331308E-06  0.413E-03    0.62       2.6  T
 118   -201.1556137 -0.253930E-06  0.349E-03    0.62       3.1  T
 119   -201.1556139 -0.204741E-06  0.298E-03    0.62       3.7  T
 120   -201.1556141 -0.231705E-06  0.241E-03    0.62       4.5  T
 121   -201.1556143 -0.158593E-06  0.191E-03    0.62       5.7  T
 122   -201.1556144 -0.134140E-06  0.127E-03    0.62       8.6  T
 123   -201.1556145 -0.597001E-07  0.795E-04    0.62      13.7  T
 124   -201.1556145 -0.183874E-07  0.579E-04    0.62      18.8  T

   *** convergence criteria satisfied after 124 iterations ***

         #    Occupation            Energy/Eh            Energy/eV
      -------------------------------------------------------------
         1        2.0000           -0.8514787             -23.1699
       ...           ...                  ...                  ...
       167        2.0000           -0.3572148              -9.7203
       168        2.0000           -0.3485775              -9.4853
       169        2.0000           -0.3481803              -9.4745
       170        2.0000           -0.3437923              -9.3551
       171        2.0000           -0.3364518              -9.1553
       172        2.0000           -0.3215382              -8.7495
       173        1.9976           -0.3069879              -8.3536 (HOMO)
       174        0.0009           -0.2842087              -7.7337 (LUMO)
       175        0.0006           -0.2835877              -7.7168
       176        0.0003           -0.2824816              -7.6867
       177        0.0003           -0.2822339              -7.6800
       178        0.0002           -0.2820641              -7.6754
       ...           ...                  ...                  ...
       358                         13.4062115             364.8016
      -------------------------------------------------------------
                  HL-Gap            0.0227792 Eh            0.6199 eV
             Fermi-level           -0.2963598 Eh           -8.0644 eV

 SCC (total)                   0 d,  0 h,  0 min, 41.846 sec
 SCC setup                      ...        0 min,  0.003 sec (  0.007%)
 Dispersion                     ...        0 min,  0.006 sec (  0.014%)
 classical contributions        ...        0 min,  0.001 sec (  0.002%)
 integral evaluation            ...        0 min,  0.015 sec (  0.036%)
 iterations                     ...        0 min, 41.745 sec ( 99.759%)
 molecular gradient             ...        0 min,  0.073 sec (  0.174%)
 printout                       ...        0 min,  0.003 sec (  0.007%)

         :::::::::::::::::::::::::::::::::::::::::::::::::::::
         ::                     SUMMARY                     ::
         :::::::::::::::::::::::::::::::::::::::::::::::::::::
         :: total energy            -199.432273129185 Eh    ::
         :: gradient norm              0.071373621418 Eh/a0 ::
         :: HOMO-LUMO gap              0.619852631480 eV    ::
         ::.................................................::
         :: SCC energy              -201.153534071489 Eh    ::
         :: -> isotropic ES            1.027922808516 Eh    ::
         :: -> anisotropic ES         -0.377458000687 Eh    ::
         :: -> anisotropic XC         -0.067363170871 Eh    ::
         :: -> dispersion             -0.158280662868 Eh    ::
         :: repulsion energy           1.721260942304 Eh    ::
         :: add. restraining           0.000000000000 Eh    ::
         :: total charge              -0.000000000009 e     ::
         :::::::::::::::::::::::::::::::::::::::::::::::::::::

           -------------------------------------------------
          |                Property Printout                |
           -------------------------------------------------

    * Orbital Energies and Occupations

         #    Occupation            Energy/Eh            Energy/eV
      -------------------------------------------------------------
         1        2.0000           -0.8514787             -23.1699
       ...           ...                  ...                  ...
       161        2.0000           -0.3850632             -10.4781
       162        2.0000           -0.3800556             -10.3418
       163        2.0000           -0.3786202             -10.3028
       164        2.0000           -0.3757465             -10.2246
       165        2.0000           -0.3679318             -10.0119
       166        2.0000           -0.3595906              -9.7850
       167        2.0000           -0.3572148              -9.7203
       168        2.0000           -0.3485775              -9.4853
       169        2.0000           -0.3481803              -9.4745
       170        2.0000           -0.3437923              -9.3551
       171        2.0000           -0.3364518              -9.1553
       172        2.0000           -0.3215382              -8.7495
       173        1.9976           -0.3069879              -8.3536 (HOMO)
       174        0.0009           -0.2842087              -7.7337 (LUMO)
       175        0.0006           -0.2835877              -7.7168
       176        0.0003           -0.2824816              -7.6867
       177        0.0003           -0.2822339              -7.6800
       178        0.0002           -0.2820641              -7.6754
       179        0.0000           -0.2785871              -7.5807
       180        0.0000           -0.2783877              -7.5753
       181        0.0000           -0.2736773              -7.4471
       182        0.0000           -0.2730558              -7.4302
       183        0.0000           -0.2726424              -7.4190
       184        0.0000           -0.2707229              -7.3667
       ...           ...                  ...                  ...
       358                         13.4062115             364.8016
      -------------------------------------------------------------
                  HL-Gap            0.0227792 Eh            0.6199 eV
             Fermi-level           -0.2963598 Eh           -8.0644 eV

     #   Z          covCN         q      C6AA      α(0)
     1   8 O        1.654    -0.442    21.682     6.286
     2   6 C        3.662     0.275    16.647     5.853
     3   6 C        3.741    -0.021    21.032     6.543
     4   7 N        2.721    -0.178    24.842     7.402
     5   6 C        3.751     0.010    20.476     6.453
     6   6 C        3.045     0.005    27.865     8.658
     7   6 C        2.917    -0.059    29.474     8.903
     8   6 C        2.772     0.171    24.311     8.075
     9   9 F        0.787    -0.211    11.350     3.980
    10   6 C        2.912    -0.051    29.260     8.870
    11   6 C        3.083    -0.034    28.748     8.790
    12   6 C        2.945     0.048    26.919     8.509
    13  53 I        1.224    -0.103   379.581    33.632
    14   6 C        3.743    -0.002    20.684     6.488
    15   6 C        3.688     0.059    19.776     6.365
    16   8 O        1.697    -0.323    19.403     5.947
    17   6 C        2.958    -0.036    28.892     8.816
    18   6 C        2.782     0.146    24.809     8.158
    19   9 F        0.787    -0.172    10.953     3.909
    20   6 C        2.771     0.137    24.985     8.186
    21   9 F        0.787    -0.165    10.882     3.897
    22   6 C        2.778     0.142    24.885     8.171
    23   9 F        0.787    -0.175    10.979     3.914
    24   6 C        2.891     0.042    27.062     8.529
    25   7 N        2.700    -0.124    23.700     7.230
    26   6 C        2.989     0.052    26.826     8.496
    27   6 C        2.777     0.160    24.534     8.113
    28   9 F        0.787    -0.213    11.367     3.982
    29   6 C        2.911    -0.048    29.196     8.860
    30   6 C        2.912    -0.035    28.873     8.811
    31   6 C        3.066    -0.038    28.878     8.812
    32   6 C        2.952     0.032    27.289     8.568
    33  53 I        1.232    -0.104   379.645    33.635
    34   6 C        2.786     0.140    24.935     8.179
    35   9 F        0.787    -0.189    11.124     3.940
    36   1 H        0.805     0.308     0.697     1.311
    37   1 H        0.924     0.066     2.127     2.281
    38   1 H        0.923     0.055     2.258     2.350
    39   1 H        0.924     0.064     2.156     2.296
    40   1 H        0.924     0.019     2.755     2.596
    41   1 H        0.925     0.065     2.147     2.291
    42   1 H        0.925     0.071     2.071     2.251
    43   1 H        0.925     0.069     2.092     2.262
    44   1 H        0.924     0.029     2.598     2.521
    45   1 H        0.924     0.050     2.317     2.381
    46   1 H        0.924     0.061     2.183     2.310
    47   1 H        0.924     0.075     2.031     2.229
    48   1 H        0.861     0.202     1.095     1.639
    49   1 H        0.925     0.074     2.043     2.235
    50   1 H        0.925     0.062     2.179     2.308
    51   1 H        0.925     0.070     2.084     2.258
    52  22 Ti       3.637     1.049   101.811    24.490
    53  22 Ti       6.855     1.552    84.048    14.884
    54  22 Ti       3.227     1.047   102.650    24.740
    55  22 Ti       5.860     1.378    85.686    15.029
    56  22 Ti       5.627     1.122    88.202    15.248
    57  22 Ti       3.541     1.036   102.515    24.677
    58  22 Ti       2.352     0.880   202.689    34.859
    59  22 Ti       6.011     1.348    85.977    15.054
    60  22 Ti       3.414     1.006   103.079    24.782
    61  22 Ti       5.519     1.093    88.487    15.272
    62  22 Ti       5.687     1.189    87.534    15.190
    63  22 Ti       3.581     1.024   102.498    24.645
    64   6 C        2.246    -0.259    37.701     9.948
    65   6 C        2.142    -0.256    38.365    10.012
    66   6 C        2.248    -0.019    30.617     8.965
    67   6 C        1.838    -0.211    37.355     9.874
    68   6 C        1.894    -0.225    37.758     9.924
    69   6 C        1.821    -0.348    42.208    10.497
    70   6 C        2.631    -0.404    39.935    10.337
    71   8 O        1.554    -0.849    32.047     7.638
    72   8 O        1.464    -0.880    33.203     7.767
    73   8 O        1.557    -0.956    35.615     8.052
    74   8 O        1.523    -1.005    37.426     8.252
    75   8 O        1.523    -0.913    34.172     7.885
    76   8 O        1.458    -0.824    31.443     7.558
    77   8 O        1.455    -0.796    30.601     7.455
    78   8 O        0.727    -0.637    27.112     6.977
    79   8 O        1.453    -0.865    32.720     7.709
    80   8 O        1.476    -0.800    30.688     7.468
    81   8 O        1.603    -0.946    35.194     8.007
    82   8 O        1.547    -0.968    36.036     8.099
    83   8 O        1.700    -0.817    30.985     7.515
    84   8 O        1.453    -0.782    30.192     7.405

 Mol. C6AA /au·bohr⁶  :     204685.981357
 Mol. C8AA /au·bohr⁸  :    9533110.641489
 Mol. α(0) /au        :        764.695839


Wiberg/Mayer (AO) data.
largest (>0.10) Wiberg bond orders for each atom

 ---------------------------------------------------------------------------
     #   Z sym  total        # sym  WBO       # sym  WBO       # sym  WBO
 ---------------------------------------------------------------------------
     1   8 O    1.971 --     2 C    0.979    36 H    0.879
     2   6 C    3.931 --     1 O    0.979    17 C    0.973    16 O    0.963
                             3 C    0.941
     3   6 C    3.979 --     4 N    1.000    37 H    0.969    38 H    0.969
                             2 C    0.941
     4   7 N    3.119 --     3 C    1.000    14 C    0.997     5 C    0.992
     5   6 C    3.983 --     6 C    1.005     4 N    0.992    40 H    0.960
                            39 H    0.958
     6   6 C    3.986 --     7 C    1.408    12 C    1.392     5 C    1.005
                            10 C    0.105
     7   6 C    3.986 --     6 C    1.408     8 C    1.395    41 H    0.963
                            11 C    0.108
     8   6 C    3.890 --     7 C    1.395    10 C    1.388     9 F    0.972
     9   9 F    1.107 --     8 C    0.972
    10   6 C    3.987 --    11 C    1.442     8 C    1.388    42 H    0.964
                             6 C    0.105
    11   6 C    3.987 --    10 C    1.442    12 C    1.416    43 H    0.967
                             7 C    0.108
    12   6 C    3.956 --    11 C    1.416     6 C    1.392    13 I    0.988
    13  53 I    1.115 --    12 C    0.988
    14   6 C    3.985 --    15 C    1.001     4 N    0.997    45 H    0.969
                            44 H    0.961
    15   6 C    3.939 --    14 C    1.001    16 O    0.970    46 H    0.966
                            47 H    0.926
    16   8 O    2.097 --    15 C    0.970     2 C    0.963
    17   6 C    3.981 --    34 C    1.382    18 C    1.347     2 C    0.973
    18   6 C    3.890 --    17 C    1.347    20 C    1.342    19 F    0.994
    19   9 F    1.133 --    18 C    0.994
    20   6 C    3.903 --    22 C    1.349    18 C    1.342    21 F    0.998
    21   9 F    1.140 --    20 C    0.998
    22   6 C    3.891 --    20 C    1.349    24 C    1.314    23 F    0.991
    23   9 F    1.134 --    22 C    0.991
    24   6 C    3.974 --    22 C    1.314    34 C    1.301    25 N    1.131
    25   7 N    3.428 --    24 C    1.131    26 C    1.097    48 H    0.915
    26   6 C    3.967 --    32 C    1.337    27 C    1.321    25 N    1.097
    27   6 C    3.881 --    29 C    1.400    26 C    1.321    28 F    0.967
    28   9 F    1.102 --    27 C    0.967
    29   6 C    3.986 --    30 C    1.431    27 C    1.400    49 H    0.965
    30   6 C    3.977 --    29 C    1.431    31 C    1.431    50 H    0.966
    31   6 C    3.986 --    30 C    1.431    32 C    1.420    51 H    0.966
    32   6 C    3.946 --    31 C    1.420    26 C    1.337    33 I    0.997
    33  53 I    1.149 --    32 C    0.997
    34   6 C    3.884 --    17 C    1.382    24 C    1.301    35 F    0.982
    35   9 F    1.123 --    34 C    0.982
    36   1 H    0.904 --     1 O    0.879
    37   1 H    0.996 --     3 C    0.969
    38   1 H    0.997 --     3 C    0.969
    39   1 H    0.995 --     5 C    0.958
    40   1 H    0.999 --     5 C    0.960
    41   1 H    0.996 --     7 C    0.963
    42   1 H    0.995 --    10 C    0.964
    43   1 H    0.995 --    11 C    0.967
    44   1 H    0.997 --    14 C    0.961
    45   1 H    0.997 --    14 C    0.969
    46   1 H    0.996 --    15 C    0.966
    47   1 H    0.993 --    15 C    0.926
    48   1 H    0.958 --    25 N    0.915
    49   1 H    0.993 --    29 C    0.965
    50   1 H    0.996 --    30 C    0.966
    51   1 H    0.995 --    31 C    0.966
    52  22 Ti   2.828 --    71 O    0.845    72 O    0.816    58 Ti   0.332
                            53 Ti   0.201    55 Ti   0.198
    53  22 Ti   3.852 --    72 O    0.751    75 O    0.745    73 O    0.688
                            74 O    0.611    52 Ti   0.201    54 Ti   0.187
                            56 Ti   0.140    57 Ti   0.132
    54  22 Ti   2.724 --    80 O    0.960    73 O    0.601    60 Ti   0.372
                            53 Ti   0.187    58 Ti   0.141    75 O    0.110
    55  22 Ti   3.922 --    76 O    0.934    64 C    0.720    71 O    0.704
                            74 O    0.568    57 Ti   0.209    52 Ti   0.198
                            61 Ti   0.178    81 O    0.124
    56  22 Ti   4.072 --    70 C    0.888    77 O    0.778    68 C    0.742
                            75 O    0.602    62 Ti   0.283    57 Ti   0.173
                            69 C    0.158    65 C    0.151    53 Ti   0.140
    57  22 Ti   2.706 --    77 O    0.966    76 O    0.708    55 Ti   0.209
                            56 Ti   0.173    53 Ti   0.132    72 O    0.122
    58  22 Ti   3.769 --    78 O    1.995    59 Ti   0.607    52 Ti   0.332
                            73 O    0.153    71 O    0.147    54 Ti   0.141
                            81 O    0.112
    59  22 Ti   4.018 --    81 O    0.802    79 O    0.752    82 O    0.716
                            58 Ti   0.607    83 O    0.196    60 Ti   0.166
                            63 Ti   0.148    61 Ti   0.141
    60  22 Ti   2.748 --    79 O    0.835    80 O    0.765    54 Ti   0.372
                            63 Ti   0.221    59 Ti   0.166    62 Ti   0.130
    61  22 Ti   4.016 --    69 C    1.060    67 C    0.725    83 O    0.614
                            81 O    0.441    70 C    0.235    63 Ti   0.199
                            55 Ti   0.178    64 C    0.155    59 Ti   0.141
    62  22 Ti   4.083 --    84 O    0.966    65 C    0.670    70 C    0.654
                            82 O    0.442    56 Ti   0.283    63 Ti   0.210
                            69 C    0.141    60 Ti   0.130    80 O    0.113
    63  22 Ti   2.793 --    83 O    0.901    84 O    0.735    60 Ti   0.221
                            62 Ti   0.210    61 Ti   0.199    59 Ti   0.148
    64   6 C    3.842 --    67 C    2.739    55 Ti   0.720    61 Ti   0.155
    65   6 C    3.782 --    68 C    2.732    62 Ti   0.670    56 Ti   0.151
    66   6 C    3.978 --    69 C    2.006    70 C    1.606
    67   6 C    3.704 --    64 C    2.739    61 Ti   0.725
    68   6 C    3.746 --    65 C    2.732    56 Ti   0.742
    69   6 C    3.767 --    66 C    2.006    61 Ti   1.060    56 Ti   0.158
                            62 Ti   0.141
    70   6 C    3.828 --    66 C    1.606    56 Ti   0.888    62 Ti   0.654
                            61 Ti   0.235
    71   8 O    1.932 --    52 Ti   0.845    55 Ti   0.704    58 Ti   0.147
    72   8 O    1.893 --    52 Ti   0.816    53 Ti   0.751    57 Ti   0.122
    73   8 O    1.783 --    53 Ti   0.688    54 Ti   0.601    58 Ti   0.153
    74   8 O    1.720 --    53 Ti   0.611    55 Ti   0.568
    75   8 O    1.846 --    53 Ti   0.745    56 Ti   0.602    54 Ti   0.110
    76   8 O    1.969 --    55 Ti   0.934    57 Ti   0.708
    77   8 O    2.018 --    57 Ti   0.966    56 Ti   0.778
    78   8 O    2.170 --    58 Ti   1.995
    79   8 O    1.910 --    60 Ti   0.835    59 Ti   0.752
    80   8 O    2.007 --    54 Ti   0.960    60 Ti   0.765    62 Ti   0.113
    81   8 O    1.799 --    59 Ti   0.802    61 Ti   0.441    55 Ti   0.124
                            58 Ti   0.112
    82   8 O    1.774 --    59 Ti   0.716    62 Ti   0.442
    83   8 O    1.986 --    63 Ti   0.901    61 Ti   0.614    59 Ti   0.196
    84   8 O    2.031 --    62 Ti   0.966    63 Ti   0.735
 ---------------------------------------------------------------------------

Topologies differ in total number of bonds
Writing topology from bond orders to xtbtopo.mol

molecular dipole:
                 x           y           z       tot (Debye)
 q only:        0.732       0.885      -0.465
   full:       -1.077       0.287      -0.158       2.860
molecular quadrupole (traceless):
                xx          xy          yy          xz          yz          zz
 q only:       -8.326       8.802     -20.967     -37.398      46.753      29.293
  q+dip:       24.827       6.201     -32.973     -11.868      20.653       8.146
   full:       24.753       8.065     -30.934     -12.210      22.791       6.180


           -------------------------------------------------
          | TOTAL ENERGY             -199.432273129185 Eh   |
          | GRADIENT NORM               0.071373621418 Eh/α |
          | HOMO-LUMO GAP               0.619852631480 eV   |
           -------------------------------------------------

------------------------------------------------------------------------
 * finished run on 2026/08/31 at 21:57:52.655     
------------------------------------------------------------------------
 total:
 * wall-time:     0 d,  0 h,  0 min, 41.913 sec
 *  cpu-time:     0 d,  0 h,  1 min, 40.484 sec
 * ratio c/w:     2.397 speedup
 SCF:
 * wall-time:     0 d,  0 h,  0 min, 41.848 sec
 *  cpu-time:     0 d,  0 h,  1 min, 40.266 sec
 * ratio c/w:     2.396 speedup

normal termination of xtb
