      -----------------------------------------------------------      
     |                   =====================                   |     
     |                           x T B                           |     
     |                   =====================                   |     
     |                         S. Grimme                         |     
     |          Mulliken Center for Theoretical Chemistry        |     
     |                    University of Bonn                     |     
      -----------------------------------------------------------      

   * xtb version 6.7.1pre (5071a88) compiled by 'Marcel@Raven' on 2024-07-23

   xtb is free software: you can redistribute it and/or modify it under
   the terms of the GNU Lesser General Public License as published by
   the Free Software Foundation, either version 3 of the License, or
   (at your option) any later version.
   
   xtb is distributed in the hope that it will be useful,
   but WITHOUT ANY WARRANTY; without even the implied warranty of
   MERCHANTABILITY or FITNESS FOR A PARTICULAR PURPOSE.  See the
   GNU Lesser General Public License for more details.
   
   Cite this work as:
   * C. Bannwarth, E. Caldeweyher, S. Ehlert, A. Hansen, P. Pracht,
     J. Seibert, S. Spicher, S. Grimme, WIREs Comput. Mol. Sci., 2020, 11,
     e01493. DOI: 10.1002/wcms.1493
   
   for GFN2-xTB:
   * C. Bannwarth, S. Ehlert and S. Grimme., J. Chem. Theory Comput., 2019,
     15, 1652-1671. DOI: 10.1021/acs.jctc.8b01176
   for GFN1-xTB:
   * S. Grimme, C. Bannwarth, P. Shushkov, J. Chem. Theory Comput., 2017,
     13, 1989-2009. DOI: 10.1021/acs.jctc.7b00118
   for GFN0-xTB:
   * P. Pracht, E. Caldeweyher, S. Ehlert, S. Grimme, ChemRxiv, 2019, preprint.
     DOI: 10.26434/chemrxiv.8326202.v1
   for GFN-FF:
   * S. Spicher and S. Grimme, Angew. Chem. Int. Ed., 2020, 59, 15665-15673.
     DOI: 10.1002/anie.202004239
   
   for ALPB and GBSA implicit solvation:
   * S. Ehlert, M. Stahn, S. Spicher, S. Grimme, J. Chem. Theory Comput.,
     2021, 17, 4250-4261. DOI: 10.1021/acs.jctc.1c00471
   
   for ddCOSMO and CPCM-X implicit solvation:
   * M. Stahn, S. Ehlert, S. Grimme, J. Phys. Chem. A,
     2023, XX, XXXX-XXXX. DOI: 10.1021/acs.jpca.3c04382
   
   for DFT-D4:
   * E. Caldeweyher, C. Bannwarth and S. Grimme, J. Chem. Phys., 2017,
     147, 034112. DOI: 10.1063/1.4993215
   * E. Caldeweyher, S. Ehlert, A. Hansen, H. Neugebauer, S. Spicher,
     C. Bannwarth and S. Grimme, J. Chem. Phys., 2019, 150, 154122.
     DOI: 10.1063/1.5090222
   * E. Caldeweyher, J.-M. Mewes, S. Ehlert and S. Grimme, Phys. Chem. Chem. Phys.
     2020, 22, 8499-8512. DOI: 10.1039/D0CP00502A
   
   for sTDA-xTB:
   * S. Grimme and C. Bannwarth, J. Chem. Phys., 2016, 145, 054103.
     DOI: 10.1063/1.4959605
   
   in the mass-spec context:
   * V. Asgeirsson, C. Bauer and S. Grimme, Chem. Sci., 2017, 8, 4879.
     DOI: 10.1039/c7sc00601b
   * J. Koopman and S. Grimme, ACS Omega 2019, 4, 12, 15120-15133.
     DOI: 10.1021/acsomega.9b02011
   
   for metadynamics refer to:
   * S. Grimme, J. Chem. Theory Comput., 2019, 155, 2847-2862
     DOI: 10.1021/acs.jctc.9b00143
   
   for SPH calculations refer to:
   * S. Spicher and S. Grimme, J. Chem. Theory Comput., 2021, 17, 1701-1714
     DOI: 10.1021/acs.jctc.0c01306
   
   for ONIOM refer to:
   * C. Plett, A. Katbashev, S. Ehlert, S. Grimme, M. Bursch,
     Phys. Chem. Chem. Phys., 2023, 25, 17860-17868. DOI: 10.1039/D3CP02178E
   
   for DIPRO refer to:
   * J. Kohn, N. Gildemeister, S. Grimme, D. Fazzi, A. Hansen,
     J. Chem. Phys., 2023, just accepted.
   
   for PTB refer to:
   * S. Grimme, M. Mueller, A. Hansen, J. Chem. Phys., 2023, 158, 124111.
     DOI: 10.1063/5.0137838
   
   with help from (in alphabetical order)
   P. Atkinson, C. Bannwarth, F. Bohle, G. Brandenburg, E. Caldeweyher
   M. Checinski, S. Dohm, S. Ehlert, S. Ehrlich, I. Gerasimov, C. Hölzer
   A. Katbashev, J. Kohn, J. Koopman, C. Lavigne, S. Lehtola, F. März, M. Müller,
   F. Musil, H. Neugebauer, J. Pisarek, C. Plett, P. Pracht, F. Pultar,
   J. Seibert, P. Shushkov, S. Spicher, M. Stahn, M. Steiner, T. Strunk,
   J. Stückrath, T. Rose, and J. Unsleber
   
 * started run on 2026/08/31 at 20:40:30.499     
   ID    Z sym.   atoms
    1    8 O      1, 16, 71-84
    2    6 C      2, 3, 5-8, 10-12, 14, 15, 17, 18, 20, 22, 24, 26, 27,
                  29-32, 34, 64-70
    3    7 N      4, 25
    4    9 F      9, 19, 21, 23, 28, 35
    5   53 I      13, 33
    6    1 H      36-51
    7   22 Ti     52-63

           -------------------------------------------------
          |                Calculation Setup                |
           -------------------------------------------------

          program call               : "c:\Users\Andre\Proyectos doctorado\kras-pancreatic-gC3N4-ai\tools\xtb\xtb-6.7.1\bin\xtb.exe" "c:\Users\Andre\Proyectos doctorado\mxene-glioblastoma-qsar-ai\calculations\gbm\Cobimetinib\Cobimetinib_Ti3C2O2_complex.xyz" --gfn 2 --sp --chrg 0 --uhf 0 --iterations 500 --norestart
          coordinate file            : c:\Users\Andre\Proyectos doctorado\mxene-glioblastoma-qsar-ai\calculations\gbm\Cobimetinib\Cobimetinib_Ti3C2O2_complex.xyz
          omp threads                :                    16


molecular fragmentation (1/2 indicates fragments):
111111111111111111111111111111111111111111111111111111111111111221221121
222222222222
# atoms in fragment 1/2:    67    17
 fragment masses (1/2) :     1346.62      256.04
CMA distance (Bohr)    :   5.077
constraining FC (au)   :  0.0500

           -------------------------------------------------
          |                 G F N 2 - x T B                 |
           -------------------------------------------------

        Reference                      10.1021/acs.jctc.8b01176
      * Hamiltonian:
        H0-scaling (s, p, d)           1.850000    2.230000    2.230000
        zeta-weighting                 0.500000
      * Dispersion:
        s8                             2.700000
        a1                             0.520000
        a2                             5.000000
        s9                             5.000000
      * Repulsion:
        kExp                           1.500000    1.000000
        rExp                           1.000000
      * Coulomb:
        alpha                          2.000000
        third order                    shell-resolved
        anisotropic                    true
        a3                             3.000000
        a5                             4.000000
        cn-shift                       1.200000
        cn-exp                         4.000000
        max-rad                        5.000000


          ...................................................
          :                      SETUP                      :
          :.................................................:
          :  # basis functions                 372          :
          :  # atomic orbitals                 358          :
          :  # shells                          166          :
          :  # electrons                       346          :
          :  max. iterations                   500          :
          :  Hamiltonian                  GFN2-xTB          :
          :  restarted?                      false          :
          :  GBSA solvation                  false          :
          :  PC potential                    false          :
          :  electronic temp.          300.0000000     K    :
          :  accuracy                    1.0000000          :
          :  -> integral cutoff          0.2500000E+02      :
          :  -> integral neglect         0.1000000E-07      :
          :  -> SCF convergence          0.1000000E-05 Eh   :
          :  -> wf. convergence          0.1000000E-03 e    :
          :  Broyden damping             0.4000000          :
          :  net charge                          0          :
          :  unpaired electrons                  0          :
          ...................................................

 iter      E             dE          RMSdq      gap      omega  full diag
   1   -195.3844260 -0.195384E+03  0.138E+01    0.03       0.0  T
   2   -136.2873209  0.590971E+02  0.195E+01    0.06       1.0  T
   3    -67.9687606  0.683186E+02  0.249E+01    0.04       1.0  T
   4   -188.4271834 -0.120458E+03  0.136E+01    0.09       1.0  T
   5   -190.9731002 -0.254592E+01  0.106E+01    0.08       1.0  T
   6   -187.6975668  0.327553E+01  0.104E+01    0.10       1.0  T
   7   -185.4193279  0.227824E+01  0.100E+01    0.11       1.0  T
   8   -197.4719635 -0.120526E+02  0.714E+00    0.09       1.0  T
   9   -195.2964227  0.217554E+01  0.709E+00    0.19       1.0  T
  10   -197.1897301 -0.189331E+01  0.669E+00    0.01       1.0  T
  11   -196.9454938  0.244236E+00  0.649E+00    0.32       1.0  T
  12   -195.9575673  0.987927E+00  0.564E+00    0.05       1.0  T
  13   -198.6302824 -0.267272E+01  0.465E+00    0.03       1.0  T
  14   -198.1408127  0.489470E+00  0.393E+00    0.05       1.0  T
  15   -198.9361159 -0.795303E+00  0.483E+00    0.15       1.0  T
  16   -198.9162335  0.198824E-01  0.470E+00    0.15       1.0  T
  17   -199.2502542 -0.334021E+00  0.408E+00    0.13       1.0  T
  18   -199.5464209 -0.296167E+00  0.320E+00    0.15       1.0  T
  19   -199.6057106 -0.592897E-01  0.296E+00    0.10       1.0  T
  20   -199.6204008 -0.146902E-01  0.299E+00    0.16       1.0  T
  21   -199.5692621  0.511387E-01  0.269E+00    0.09       1.0  T
  22   -199.7859815 -0.216719E+00  0.229E+00    0.05       1.0  T
  23   -199.7510651  0.349163E-01  0.269E+00    0.11       1.0  T
  24   -199.8728628 -0.121798E+00  0.171E+00    0.06       1.0  T
  25   -199.8847961 -0.119333E-01  0.128E+00    0.11       1.0  T
  26   -199.9035007 -0.187046E-01  0.154E+00    0.11       1.0  T
  27   -199.8667833  0.367174E-01  0.178E+00    0.10       1.0  T
  28   -199.9415546 -0.747713E-01  0.135E+00    0.11       1.0  T
  29   -199.8963513  0.452033E-01  0.150E+00    0.11       1.0  T
  30   -199.9783789 -0.820276E-01  0.685E-01    0.09       1.0  T
  31   -199.9858685 -0.748961E-02  0.458E-01    0.07       1.0  T
  32   -199.9945132 -0.864471E-02  0.289E-01    0.08       1.0  T
  33   -199.9972787 -0.276549E-02  0.285E-01    0.08       1.0  T
  34   -199.9998809 -0.260221E-02  0.237E-01    0.08       1.0  T
  35   -199.9992922  0.588781E-03  0.204E-01    0.08       1.0  T
  36   -199.9997017 -0.409516E-03  0.150E-01    0.08       1.0  T
  37   -200.0014178 -0.171610E-02  0.115E-01    0.08       1.0  T
  38   -200.0017518 -0.334031E-03  0.738E-02    0.08       1.0  T
  39   -200.0014483  0.303502E-03  0.116E-01    0.08       1.0  T
  40   -200.0018140 -0.365691E-03  0.419E-02    0.08       1.0  T
  41   -200.0016950  0.118941E-03  0.678E-02    0.08       1.0  T
  42   -200.0018216 -0.126577E-03  0.315E-02    0.08       1.0  T
  43   -200.0017561  0.655031E-04  0.588E-02    0.08       1.0  T
  44   -200.0018395 -0.833942E-04  0.283E-02    0.08       1.0  T
  45   -200.0018576 -0.180876E-04  0.257E-02    0.08       1.0  T
  46   -200.0018360  0.216510E-04  0.262E-02    0.08       1.0  T
  47   -200.0018511 -0.151695E-04  0.206E-02    0.08       1.0  T
  48   -200.0018591 -0.798624E-05  0.104E-02    0.08       1.1  T
  49   -200.0018620 -0.294023E-05  0.733E-03    0.08       1.5  T
  50   -200.0018634 -0.132027E-05  0.431E-03    0.08       2.5  T
  51   -200.0018641 -0.715488E-06  0.409E-03    0.08       2.7  T
  52   -200.0018642 -0.131718E-06  0.257E-03    0.08       4.2  T
  53   -200.0018644 -0.137333E-06  0.181E-03    0.08       6.0  T
  54   -200.0018642  0.137284E-06  0.240E-03    0.08       4.5  T
  55   -200.0018644 -0.200820E-06  0.160E-03    0.08       6.8  T
  56   -200.0018644 -0.278513E-08  0.147E-03    0.08       7.4  T
  57   -200.0018645 -0.416646E-07  0.857E-04    0.08      12.7  T
  58   -200.0018645 -0.116702E-07  0.775E-04    0.08      14.1  T

   *** convergence criteria satisfied after 58 iterations ***

         #    Occupation            Energy/Eh            Energy/eV
      -------------------------------------------------------------
         1        2.0000           -1.0066259             -27.3917
       ...           ...                  ...                  ...
       167        2.0000           -0.3962290             -10.7819
       168        2.0000           -0.3923332             -10.6759
       169        2.0000           -0.3918721             -10.6634
       170        1.9999           -0.3874490             -10.5430
       171        1.9976           -0.3846085             -10.4657
       172        1.8182           -0.3804071             -10.3514
       173        1.6922           -0.3798385             -10.3359 (HOMO)
       174        0.4393           -0.3770149             -10.2591 (LUMO)
       175        0.0523           -0.3747832             -10.1984
       176        0.0004           -0.3701941             -10.0735
       177        0.0001           -0.3684162             -10.0251
       178        0.0000           -0.3642601              -9.9120
       ...           ...                  ...                  ...
       358                         20.1160557             547.3857
      -------------------------------------------------------------
                  HL-Gap            0.0028237 Eh            0.0768 eV
             Fermi-level           -0.3782193 Eh          -10.2919 eV

 SCC (total)                   0 d,  0 h,  0 min,  1.675 sec
 SCC setup                      ...        0 min,  0.001 sec (  0.060%)
 Dispersion                     ...        0 min,  0.004 sec (  0.239%)
 classical contributions        ...        0 min,  0.000 sec (  0.000%)
 integral evaluation            ...        0 min,  0.010 sec (  0.597%)
 iterations                     ...        0 min,  1.632 sec ( 97.433%)
 molecular gradient             ...        0 min,  0.027 sec (  1.612%)
 printout                       ...        0 min,  0.001 sec (  0.060%)

         :::::::::::::::::::::::::::::::::::::::::::::::::::::
         ::                     SUMMARY                     ::
         :::::::::::::::::::::::::::::::::::::::::::::::::::::
         :: total energy            -194.028203444525 Eh    ::
         :: gradient norm              5.371898901375 Eh/a0 ::
         :: HOMO-LUMO gap              0.076836227561 eV    ::
         ::.................................................::
         :: SCC energy              -199.993318116978 Eh    ::
         :: -> isotropic ES            0.889574865930 Eh    ::
         :: -> anisotropic ES         -0.079903769679 Eh    ::
         :: -> anisotropic XC         -0.156592427341 Eh    ::
         :: -> dispersion             -0.192546230377 Eh    ::
         :: repulsion energy           5.965114672453 Eh    ::
         :: add. restraining           0.000000000000 Eh    ::
         :: total charge               0.000000000000 e     ::
         :::::::::::::::::::::::::::::::::::::::::::::::::::::

           -------------------------------------------------
          |                Property Printout                |
           -------------------------------------------------

    * Orbital Energies and Occupations

         #    Occupation            Energy/Eh            Energy/eV
      -------------------------------------------------------------
         1        2.0000           -1.0066259             -27.3917
       ...           ...                  ...                  ...
       161        2.0000           -0.4088191             -11.1245
       162        2.0000           -0.4080096             -11.1025
       163        2.0000           -0.4074725             -11.0879
       164        2.0000           -0.4042129             -10.9992
       165        2.0000           -0.4017699             -10.9327
       166        2.0000           -0.3991035             -10.8602
       167        2.0000           -0.3962290             -10.7819
       168        2.0000           -0.3923332             -10.6759
       169        2.0000           -0.3918721             -10.6634
       170        1.9999           -0.3874490             -10.5430
       171        1.9976           -0.3846085             -10.4657
       172        1.8182           -0.3804071             -10.3514
       173        1.6922           -0.3798385             -10.3359 (HOMO)
       174        0.4393           -0.3770149             -10.2591 (LUMO)
       175        0.0523           -0.3747832             -10.1984
       176        0.0004           -0.3701941             -10.0735
       177        0.0001           -0.3684162             -10.0251
       178        0.0000           -0.3642601              -9.9120
       179                         -0.3611826              -9.8283
       180                         -0.3536159              -9.6224
       181                         -0.3533413              -9.6149
       182                         -0.3482479              -9.4763
       183                         -0.3432486              -9.3403
       184                         -0.3426460              -9.3239
       ...                                ...                  ...
       358                         20.1160557             547.3857
      -------------------------------------------------------------
                  HL-Gap            0.0028237 Eh            0.0768 eV
             Fermi-level           -0.3782193 Eh          -10.2919 eV

     #   Z          covCN         q      C6AA      α(0)
     1   8 O        1.654    -0.435    21.546     6.266
     2   6 C        3.660     0.268    16.741     5.871
     3   6 C        3.743    -0.053    21.594     6.629
     4   7 N        2.721    -0.137    23.960     7.270
     5   6 C        3.754    -0.016    20.922     6.522
     6   6 C        3.045     0.015    27.631     8.621
     7   6 C        2.917    -0.058    29.437     8.897
     8   6 C        2.772     0.172    24.288     8.072
     9   9 F        0.787    -0.210    11.335     3.977
    10   6 C        2.912    -0.051    29.258     8.870
    11   6 C        3.083    -0.034    28.746     8.789
    12   6 C        2.945     0.058    26.709     8.476
    13  53 I        1.224    -0.049   375.547    33.453
    14   6 C        3.746    -0.017    20.954     6.530
    15   6 C        3.685     0.059    19.773     6.366
    16   8 O        1.696    -0.314    19.243     5.923
    17   6 C        2.957    -0.020    28.516     8.759
    18   6 C        2.781     0.156    24.603     8.124
    19   9 F        0.787    -0.147    10.698     3.864
    20   6 C        2.772     0.147    24.790     8.154
    21   9 F        0.787    -0.141    10.644     3.854
    22   6 C        2.779     0.156    24.616     8.126
    23   9 F        0.787    -0.151    10.743     3.872
    24   6 C        2.891     0.063    26.591     8.454
    25   7 N        2.819    -0.130    23.805     7.246
    26   6 C        2.998     0.079    26.220     8.400
    27   6 C        2.777     0.195    23.835     7.996
    28   9 F        0.787    -0.177    10.998     3.917
    29   6 C        2.911    -0.028    28.711     8.786
    30   6 C        2.912    -0.023    28.575     8.766
    31   6 C        3.066    -0.027    28.597     8.769
    32   6 C        2.952     0.016    27.665     8.627
    33  53 I        3.920     0.193   358.174    32.670
    34   6 C        2.788     0.106    25.649     8.296
    35   9 F        2.043     0.147     8.196     3.383
    36   1 H        0.804     0.339     0.615     1.232
    37   1 H        0.924     0.114     1.661     2.015
    38   1 H        0.923     0.121     1.609     1.984
    39   1 H        0.924     0.115     1.651     2.010
    40   1 H        0.923     0.030     2.586     2.515
    41   1 H        0.925     0.069     2.100     2.266
    42   1 H        0.925     0.075     2.027     2.227
    43   1 H        0.925     0.081     1.971     2.195
    44   1 H        0.924     0.050     2.318     2.381
    45   1 H        0.924     0.066     2.129     2.282
    46   1 H        0.924     0.053     2.279     2.361
    47   1 H        0.924     0.082     1.961     2.190
    48   1 H        1.318     0.339     0.600     1.209
    49   1 H        0.925     0.113     1.673     2.023
    50   1 H        0.925     0.101     1.779     2.086
    51   1 H        0.925     0.119     1.622     1.992
    52  22 Ti       4.151     0.773    91.595    16.223
    53  22 Ti       6.725     0.396    95.984    15.906
    54  22 Ti       5.330     0.627    93.393    15.690
    55  22 Ti       7.449     1.020    89.232    15.337
    56  22 Ti       7.716     0.946    89.997    15.402
    57  22 Ti       6.519     1.060    88.820    15.301
    58  22 Ti       4.151     0.808    91.220    16.190
    59  22 Ti       6.350     0.771    91.830    15.558
    60  22 Ti       4.697     0.775    91.786    15.555
    61  22 Ti       7.449     1.041    89.013    15.318
    62  22 Ti       7.450     1.059    88.830    15.302
    63  22 Ti       6.519     1.062    88.808    15.300
    64   6 C        5.128    -0.690    38.181     8.775
    65   6 C        5.129    -0.672    37.523     8.699
    66   6 C        5.649    -0.557    33.621     8.235
    67   6 C        2.445    -0.411    40.751    10.415
    68   6 C        3.152    -0.437    40.746    10.440
    69   6 C        2.445    -0.332    37.923    10.048
    70   6 C        2.445    -0.340    38.211    10.086
    71   8 O        0.728    -0.561    25.238     6.732
    72   8 O        1.609    -0.402    20.915     6.172
    73   8 O        1.250    -0.665    27.404     7.034
    74   8 O        0.729    -0.675    28.120     7.106
    75   8 O        0.778    -0.753    30.241     7.371
    76   8 O        0.753    -0.609    26.397     6.886
    77   8 O        0.753    -0.623    26.741     6.930
    78   8 O        0.728    -0.540    24.754     6.667
    79   8 O        0.729    -0.573    25.523     6.770
    80   8 O        0.728    -0.512    24.119     6.581
    81   8 O        0.729    -0.665    27.855     7.072
    82   8 O        0.729    -0.654    27.570     7.036
    83   8 O        0.753    -0.575    25.566     6.776
    84   8 O        0.753    -0.575    25.569     6.777

 Mol. C6AA /au·bohr⁶  :     193994.751518
 Mol. C8AA /au·bohr⁸  :    9109707.933864
 Mol. α(0) /au        :        683.254060


Wiberg/Mayer (AO) data.
largest (>0.10) Wiberg bond orders for each atom

 ---------------------------------------------------------------------------
     #   Z sym  total        # sym  WBO       # sym  WBO       # sym  WBO
 ---------------------------------------------------------------------------
     1   8 O    2.007 --     2 C    0.970    36 H    0.861
     2   6 C    3.929 --    16 O    0.981    17 C    0.970     1 O    0.970
                             3 C    0.925
     3   6 C    3.958 --     4 N    1.016     2 C    0.925    38 H    0.916
                            37 H    0.905
     4   7 N    3.145 --     3 C    1.016    14 C    0.992     5 C    0.988
     5   6 C    3.970 --     6 C    1.008     4 N    0.988    40 H    0.957
                            39 H    0.914
     6   6 C    3.985 --     7 C    1.405    12 C    1.391     5 C    1.008
                            10 C    0.105
     7   6 C    3.985 --     6 C    1.405     8 C    1.397    41 H    0.962
                            11 C    0.108
     8   6 C    3.892 --     7 C    1.397    10 C    1.388     9 F    0.972
     9   9 F    1.106 --     8 C    0.972
    10   6 C    3.987 --    11 C    1.442     8 C    1.388    42 H    0.963
                             6 C    0.105
    11   6 C    3.985 --    10 C    1.442    12 C    1.411    43 H    0.963
                             7 C    0.108
    12   6 C    3.950 --    11 C    1.411     6 C    1.391    13 I    0.988
    13  53 I    1.252 --    12 C    0.988
    14   6 C    3.977 --    15 C    1.004     4 N    0.992    45 H    0.967
                            44 H    0.962
    15   6 C    3.936 --    14 C    1.004    46 H    0.968    47 H    0.965
                            16 O    0.960
    16   8 O    2.083 --     2 C    0.981    15 C    0.960
    17   6 C    3.965 --    18 C    1.354    34 C    1.345     2 C    0.970
    18   6 C    3.895 --    17 C    1.354    20 C    1.322    19 F    1.010
    19   9 F    1.154 --    18 C    1.010
    20   6 C    3.902 --    22 C    1.355    18 C    1.322    21 F    1.015
    21   9 F    1.163 --    20 C    1.015
    22   6 C    3.892 --    20 C    1.355    24 C    1.293    23 F    1.005
    23   9 F    1.151 --    22 C    1.005
    24   6 C    3.966 --    22 C    1.293    34 C    1.281    25 N    1.138
    25   7 N    3.453 --    24 C    1.138    26 C    1.059    48 H    0.684
                            54 Ti   0.106
    26   6 C    3.961 --    27 C    1.294    32 C    1.291    25 N    1.059
    27   6 C    3.886 --    29 C    1.394    26 C    1.294    28 F    0.987
    28   9 F    1.142 --    27 C    0.987
    29   6 C    3.972 --    30 C    1.427    27 C    1.394    49 H    0.957
    30   6 C    3.966 --    31 C    1.431    29 C    1.427    50 H    0.958
    31   6 C    3.966 --    30 C    1.431    32 C    1.367    51 H    0.938
    32   6 C    3.886 --    31 C    1.367    26 C    1.291    33 I    0.838
    33  53 I    2.974 --    54 Ti   0.932    32 C    0.838    68 C    0.358
                            60 Ti   0.222    73 O    0.166
    34   6 C    3.700 --    17 C    1.345    24 C    1.281    35 F    0.776
    35   9 F    1.622 --    34 C    0.776    72 O    0.326    53 Ti   0.259
    36   1 H    0.884 --     1 O    0.861
    37   1 H    0.985 --     3 C    0.905
    38   1 H    0.979 --     3 C    0.916
    39   1 H    0.986 --     5 C    0.914
    40   1 H    0.993 --     5 C    0.957
    41   1 H    0.995 --     7 C    0.962
    42   1 H    0.994 --    10 C    0.963
    43   1 H    0.993 --    11 C    0.963
    44   1 H    0.992 --    14 C    0.962
    45   1 H    0.993 --    14 C    0.967
    46   1 H    0.996 --    15 C    0.968
    47   1 H    0.992 --    15 C    0.965
    48   1 H    0.885 --    25 N    0.684
    49   1 H    0.985 --    29 C    0.957
    50   1 H    0.987 --    30 C    0.958
    51   1 H    0.984 --    31 C    0.938
    52  22 Ti   4.022 --    71 O    1.999    58 Ti   0.576    53 Ti   0.330
                            64 C    0.277    55 Ti   0.205    67 C    0.172
    53  22 Ti   4.705 --    72 O    1.381    59 Ti   0.469    64 C    0.361
                            65 C    0.349    52 Ti   0.330    54 Ti   0.312
                            35 F    0.259    67 C    0.175    58 Ti   0.137
                            55 Ti   0.127    56 Ti   0.110    68 C    0.108
    54  22 Ti   4.575 --    73 O    1.656    33 I    0.932    60 Ti   0.474
                            65 C    0.350    53 Ti   0.312    56 Ti   0.198
                            68 C    0.149    25 N    0.106
    55  22 Ti   4.493 --    74 O    1.751    67 C    0.619    64 C    0.482
                            76 O    0.225    52 Ti   0.205    57 Ti   0.155
                            61 Ti   0.147    66 C    0.139    53 Ti   0.127
    56  22 Ti   4.614 --    75 O    1.643    68 C    0.684    65 C    0.528
                            77 O    0.216    54 Ti   0.198    62 Ti   0.155
                            66 C    0.125    57 Ti   0.125    53 Ti   0.110
    57  22 Ti   4.463 --    77 O    1.136    76 O    1.118    66 C    0.498
                            70 C    0.431    69 C    0.418    63 Ti   0.278
                            55 Ti   0.155    56 Ti   0.125
    58  22 Ti   4.076 --    78 O    2.021    52 Ti   0.576    59 Ti   0.337
                            64 C    0.297    67 C    0.212    61 Ti   0.203
                            53 Ti   0.137
    59  22 Ti   4.532 --    79 O    1.901    53 Ti   0.469    58 Ti   0.337
                            64 C    0.307    60 Ti   0.294    65 C    0.270
                            61 Ti   0.145    62 Ti   0.134    67 C    0.109
    60  22 Ti   3.980 --    80 O    2.079    54 Ti   0.474    59 Ti   0.294
                            65 C    0.259    33 I    0.222    62 Ti   0.175
                            68 C    0.125
    61  22 Ti   4.458 --    81 O    1.709    67 C    0.651    64 C    0.504
                            83 O    0.223    58 Ti   0.203    66 C    0.185
                            63 Ti   0.171    55 Ti   0.147    59 Ti   0.145
                            69 C    0.103
    62  22 Ti   4.445 --    82 O    1.739    68 C    0.621    65 C    0.490
                            84 O    0.228    66 C    0.183    60 Ti   0.175
                            63 Ti   0.169    56 Ti   0.155    59 Ti   0.134
                            70 C    0.103
    63  22 Ti   4.464 --    83 O    1.094    84 O    1.090    66 C    0.498
                            70 C    0.455    69 C    0.454    57 Ti   0.278
                            61 Ti   0.171    62 Ti   0.169
    64   6 C    3.654 --    67 C    0.858    61 Ti   0.504    55 Ti   0.482
                            53 Ti   0.361    59 Ti   0.307    58 Ti   0.297
                            52 Ti   0.277
    65   6 C    3.729 --    68 C    0.821    56 Ti   0.528    62 Ti   0.490
                            54 Ti   0.350    53 Ti   0.349    59 Ti   0.270
                            60 Ti   0.259
    66   6 C    3.799 --    69 C    0.815    70 C    0.814    63 Ti   0.498
                            57 Ti   0.498    61 Ti   0.185    62 Ti   0.183
                            55 Ti   0.139    56 Ti   0.125
    67   6 C    3.340 --    64 C    0.858    61 Ti   0.651    55 Ti   0.619
                            58 Ti   0.212    69 C    0.178    53 Ti   0.175
                            52 Ti   0.172    59 Ti   0.109
    68   6 C    3.443 --    65 C    0.821    56 Ti   0.684    62 Ti   0.621
                            33 I    0.358    54 Ti   0.149    70 C    0.140
                            60 Ti   0.125    53 Ti   0.108
    69   6 C    3.215 --    66 C    0.815    63 Ti   0.454    57 Ti   0.418
                            83 O    0.417    76 O    0.348    67 C    0.178
                            70 C    0.138    61 Ti   0.103
    70   6 C    3.188 --    66 C    0.814    63 Ti   0.455    57 Ti   0.431
                            84 O    0.414    77 O    0.346    68 C    0.140
                            69 C    0.138    62 Ti   0.103
    71   8 O    2.244 --    52 Ti   1.999
    72   8 O    2.191 --    53 Ti   1.381    35 F    0.326
    73   8 O    2.128 --    54 Ti   1.656    33 I    0.166
    74   8 O    2.111 --    55 Ti   1.751
    75   8 O    2.004 --    56 Ti   1.643
    76   8 O    2.111 --    57 Ti   1.118    69 C    0.348    55 Ti   0.225
                            83 O    0.124
    77   8 O    2.107 --    57 Ti   1.136    70 C    0.346    56 Ti   0.216
                            84 O    0.123
    78   8 O    2.264 --    58 Ti   2.021
    79   8 O    2.230 --    59 Ti   1.901
    80   8 O    2.303 --    60 Ti   2.079
    81   8 O    2.109 --    61 Ti   1.709
    82   8 O    2.129 --    62 Ti   1.739
    83   8 O    2.159 --    63 Ti   1.094    69 C    0.417    61 Ti   0.223
                            76 O    0.124
    84   8 O    2.152 --    63 Ti   1.090    70 C    0.414    62 Ti   0.228
                            77 O    0.123
 ---------------------------------------------------------------------------

Topologies differ in total number of bonds
Writing topology from bond orders to xtbtopo.mol

molecular dipole:
                 x           y           z       tot (Debye)
 q only:        2.265      -8.136       6.401
   full:        0.002      -4.255       4.258      15.301
molecular quadrupole (traceless):
                xx          xy          yy          xz          yz          zz
 q only:       81.500      21.528      16.279     -17.402      -6.454     -97.779
  q+dip:       18.121      27.925      75.057      -5.715     -15.650     -93.178
   full:       14.757      26.738      80.865      -4.662     -15.395     -95.622


           -------------------------------------------------
          | TOTAL ENERGY             -194.028203444525 Eh   |
          | GRADIENT NORM               5.371898901375 Eh/α |
          | HOMO-LUMO GAP               0.076836227561 eV   |
           -------------------------------------------------

------------------------------------------------------------------------
 * finished run on 2026/08/31 at 20:40:32.243     
------------------------------------------------------------------------
 total:
 * wall-time:     0 d,  0 h,  0 min,  1.742 sec
 *  cpu-time:     0 d,  0 h,  0 min, 14.812 sec
 * ratio c/w:     8.503 speedup
 SCF:
 * wall-time:     0 d,  0 h,  0 min,  1.677 sec
 *  cpu-time:     0 d,  0 h,  0 min, 14.391 sec
 * ratio c/w:     8.581 speedup

normal termination of xtb
