33
MXene frozen in true relaxed complex geometry
Ti          -1.78180437593977       -3.07275566881705        3.52564223549749
Ti           0.52793296325511       -1.70898661696782        2.52355907884917
Ti           1.83389265548537       -3.17514175916253        0.21937716952171
Ti          -2.24657879160627       -0.34792006416350        2.65265745723843
Ti           2.40980292008958        0.58897074874810        3.17688926801220
Ti          -0.15978367266558        0.24558918735286        4.77210636649985
Ti          -2.04767544300354       -3.15048210402194        0.16080786477816
Ti          -0.43913843019700       -0.83860564601710       -0.86035309909231
Ti           1.70937988395413       -1.70342055979660       -2.53220740726394
Ti          -1.77281272545839        1.57262769852777       -0.01831853167906
Ti           2.51760357348009        0.51048067939306        0.14711641086876
Ti           0.76722669214753        1.87183939174651       -1.89137726314025
C           -3.50714367117260        1.11773832676070        2.00581500051764
C            4.28071868951247        0.47761935950116        1.23267837312419
C            0.60158651492049        2.28312584651692        1.40318404741127
C           -3.51525404735226        1.86790325024609        1.02010700459721
C            4.34418173746656        0.67801549065133        2.45763902213922
C           -0.57225859722741        2.68389847355890        1.10259103207772
C            1.82888409836541        1.85367740796284        1.69799725524580
O           -2.89690990614266       -2.00632368373626        2.44442375033881
O           -0.11428569947661       -2.65092208184986        3.88980997006348
O            0.46426153630919       -3.02641221788393        1.38450211070606
O           -0.62334995461627       -0.51461320143128        2.05033598472416
O            2.09753278580191       -1.07957209286374        2.53227904462550
O           -1.82831369147913       -0.25695971941532        4.36963581279755
O            1.49377541796982        0.71199338182422        4.69051580691836
O           -0.77809866314858       -2.67706958292208       -0.84065364523224
O            0.14074121251597       -0.78790749132274       -2.52005854265278
O            2.62374157447387       -2.48735947249737       -1.16808494815486
O           -1.92091418224925       -0.32021313905525       -0.17241120378100
O            0.96812447501305       -0.39208462778678        0.03323875336507
O           -0.94008371024408        1.80332697167141       -1.57788073380934
O            2.41881634724794        1.35368871435487       -1.37510184738304
