      -----------------------------------------------------------      
     |                   =====================                   |     
     |                           x T B                           |     
     |                   =====================                   |     
     |                         S. Grimme                         |     
     |          Mulliken Center for Theoretical Chemistry        |     
     |                    University of Bonn                     |     
      -----------------------------------------------------------      

   * xtb version 6.7.1pre (5071a88) compiled by 'Marcel@Raven' on 2024-07-23

   xtb is free software: you can redistribute it and/or modify it under
   the terms of the GNU Lesser General Public License as published by
   the Free Software Foundation, either version 3 of the License, or
   (at your option) any later version.
   
   xtb is distributed in the hope that it will be useful,
   but WITHOUT ANY WARRANTY; without even the implied warranty of
   MERCHANTABILITY or FITNESS FOR A PARTICULAR PURPOSE.  See the
   GNU Lesser General Public License for more details.
   
   Cite this work as:
   * C. Bannwarth, E. Caldeweyher, S. Ehlert, A. Hansen, P. Pracht,
     J. Seibert, S. Spicher, S. Grimme, WIREs Comput. Mol. Sci., 2020, 11,
     e01493. DOI: 10.1002/wcms.1493
   
   for GFN2-xTB:
   * C. Bannwarth, S. Ehlert and S. Grimme., J. Chem. Theory Comput., 2019,
     15, 1652-1671. DOI: 10.1021/acs.jctc.8b01176
   for GFN1-xTB:
   * S. Grimme, C. Bannwarth, P. Shushkov, J. Chem. Theory Comput., 2017,
     13, 1989-2009. DOI: 10.1021/acs.jctc.7b00118
   for GFN0-xTB:
   * P. Pracht, E. Caldeweyher, S. Ehlert, S. Grimme, ChemRxiv, 2019, preprint.
     DOI: 10.26434/chemrxiv.8326202.v1
   for GFN-FF:
   * S. Spicher and S. Grimme, Angew. Chem. Int. Ed., 2020, 59, 15665-15673.
     DOI: 10.1002/anie.202004239
   
   for ALPB and GBSA implicit solvation:
   * S. Ehlert, M. Stahn, S. Spicher, S. Grimme, J. Chem. Theory Comput.,
     2021, 17, 4250-4261. DOI: 10.1021/acs.jctc.1c00471
   
   for ddCOSMO and CPCM-X implicit solvation:
   * M. Stahn, S. Ehlert, S. Grimme, J. Phys. Chem. A,
     2023, XX, XXXX-XXXX. DOI: 10.1021/acs.jpca.3c04382
   
   for DFT-D4:
   * E. Caldeweyher, C. Bannwarth and S. Grimme, J. Chem. Phys., 2017,
     147, 034112. DOI: 10.1063/1.4993215
   * E. Caldeweyher, S. Ehlert, A. Hansen, H. Neugebauer, S. Spicher,
     C. Bannwarth and S. Grimme, J. Chem. Phys., 2019, 150, 154122.
     DOI: 10.1063/1.5090222
   * E. Caldeweyher, J.-M. Mewes, S. Ehlert and S. Grimme, Phys. Chem. Chem. Phys.
     2020, 22, 8499-8512. DOI: 10.1039/D0CP00502A
   
   for sTDA-xTB:
   * S. Grimme and C. Bannwarth, J. Chem. Phys., 2016, 145, 054103.
     DOI: 10.1063/1.4959605
   
   in the mass-spec context:
   * V. Asgeirsson, C. Bauer and S. Grimme, Chem. Sci., 2017, 8, 4879.
     DOI: 10.1039/c7sc00601b
   * J. Koopman and S. Grimme, ACS Omega 2019, 4, 12, 15120-15133.
     DOI: 10.1021/acsomega.9b02011
   
   for metadynamics refer to:
   * S. Grimme, J. Chem. Theory Comput., 2019, 155, 2847-2862
     DOI: 10.1021/acs.jctc.9b00143
   
   for SPH calculations refer to:
   * S. Spicher and S. Grimme, J. Chem. Theory Comput., 2021, 17, 1701-1714
     DOI: 10.1021/acs.jctc.0c01306
   
   for ONIOM refer to:
   * C. Plett, A. Katbashev, S. Ehlert, S. Grimme, M. Bursch,
     Phys. Chem. Chem. Phys., 2023, 25, 17860-17868. DOI: 10.1039/D3CP02178E
   
   for DIPRO refer to:
   * J. Kohn, N. Gildemeister, S. Grimme, D. Fazzi, A. Hansen,
     J. Chem. Phys., 2023, just accepted.
   
   for PTB refer to:
   * S. Grimme, M. Mueller, A. Hansen, J. Chem. Phys., 2023, 158, 124111.
     DOI: 10.1063/5.0137838
   
   with help from (in alphabetical order)
   P. Atkinson, C. Bannwarth, F. Bohle, G. Brandenburg, E. Caldeweyher
   M. Checinski, S. Dohm, S. Ehlert, S. Ehrlich, I. Gerasimov, C. Hölzer
   A. Katbashev, J. Kohn, J. Koopman, C. Lavigne, S. Lehtola, F. März, M. Müller,
   F. Musil, H. Neugebauer, J. Pisarek, C. Plett, P. Pracht, F. Pultar,
   J. Seibert, P. Shushkov, S. Spicher, M. Stahn, M. Steiner, T. Strunk,
   J. Stückrath, T. Rose, and J. Unsleber
   
 * started run on 2026/09/01 at 17:05:06.735     
   ID    Z sym.   atoms
    1    8 O      1, 16, 71-84
    2    6 C      2, 3, 5-8, 10-12, 14, 15, 17, 18, 20, 22, 24, 26, 27,
                  29-32, 34, 64-70
    3    7 N      4, 25
    4    9 F      9, 19, 21, 23, 28, 35
    5   53 I      13, 33
    6    1 H      36-51
    7   22 Ti     52-63

           -------------------------------------------------
          |                Calculation Setup                |
           -------------------------------------------------

          program call               : "c:\Users\Andre\Proyectos doctorado\nano-qsar-ai-papers\kras-pancreatic-gC3N4-ai\tools\xtb\xtb-6.7.1\bin\xtb.exe" "c:\Users\Andre\Proyectos doctorado\nano-qsar-ai-papers\mxene-glioblastoma-qsar-ai\calculations\gbm\Cobimetinib\xtbopt.xyz" --gfn 2 --sp --chrg 0 --uhf 0 --norestart
          coordinate file            : c:\Users\Andre\Proyectos doctorado\nano-qsar-ai-papers\mxene-glioblastoma-qsar-ai\calculations\gbm\Cobimetinib\xtbopt.xyz
          omp threads                :                    16


molecular fragmentation (1/2 indicates fragments):
111111111111111111111111111111111111111111111111111222222222222222222222
222222222222
# atoms in fragment 1/2:    51    33
 fragment masses (1/2) :      720.19      882.47
CMA distance (Bohr)    :  15.690
constraining FC (au)   :  0.0500

           -------------------------------------------------
          |                 G F N 2 - x T B                 |
           -------------------------------------------------

        Reference                      10.1021/acs.jctc.8b01176
      * Hamiltonian:
        H0-scaling (s, p, d)           1.850000    2.230000    2.230000
        zeta-weighting                 0.500000
      * Dispersion:
        s8                             2.700000
        a1                             0.520000
        a2                             5.000000
        s9                             5.000000
      * Repulsion:
        kExp                           1.500000    1.000000
        rExp                           1.000000
      * Coulomb:
        alpha                          2.000000
        third order                    shell-resolved
        anisotropic                    true
        a3                             3.000000
        a5                             4.000000
        cn-shift                       1.200000
        cn-exp                         4.000000
        max-rad                        5.000000


          ...................................................
          :                      SETUP                      :
          :.................................................:
          :  # basis functions                 372          :
          :  # atomic orbitals                 358          :
          :  # shells                          166          :
          :  # electrons                       346          :
          :  max. iterations                   250          :
          :  Hamiltonian                  GFN2-xTB          :
          :  restarted?                      false          :
          :  GBSA solvation                  false          :
          :  PC potential                    false          :
          :  electronic temp.          300.0000000     K    :
          :  accuracy                    1.0000000          :
          :  -> integral cutoff          0.2500000E+02      :
          :  -> integral neglect         0.1000000E-07      :
          :  -> SCF convergence          0.1000000E-05 Eh   :
          :  -> wf. convergence          0.1000000E-03 e    :
          :  Broyden damping             0.4000000          :
          :  net charge                          0          :
          :  unpaired electrons                  0          :
          ...................................................

 iter      E             dE          RMSdq      gap      omega  full diag
   1   -196.8808468 -0.196881E+03  0.140E+01    0.03       0.0  T
   2   -125.8964068  0.709844E+02  0.171E+01    0.10       1.0  T
   3     73.7802754  0.199677E+03  0.300E+01    0.09       1.0  T
   4   -161.3433387 -0.235124E+03  0.157E+01    0.16       1.0  T
   5   -123.3043085  0.380390E+02  0.176E+01    0.01       1.0  T
   6   -187.3130800 -0.640088E+02  0.113E+01    0.09       1.0  T
   7   -191.6246519 -0.431157E+01  0.929E+00    0.10       1.0  T
   8   -199.9000555 -0.827540E+01  0.745E+00    0.03       1.0  T
   9   -200.7550655 -0.855010E+00  0.597E+00    0.71       1.0  T
  10   -199.0330329  0.172203E+01  0.804E+00    0.02       1.0  T
  11   -195.3703550  0.366268E+01  0.692E+00    0.36       1.0  T
  12   -200.1747630 -0.480441E+01  0.550E+00    0.08       1.0  T
  13   -194.1113563  0.606341E+01  0.645E+00    0.36       1.0  T
  14   -193.4171535  0.694203E+00  0.658E+00    0.09       1.0  T
  15   -196.6733706 -0.325622E+01  0.559E+00    0.06       1.0  T
  16   -190.4842915  0.618908E+01  0.714E+00    0.11       1.0  T
  17   -189.6268477  0.857444E+00  0.714E+00    0.18       1.0  T
  18   -191.5848168 -0.195797E+01  0.649E+00    0.00       1.0  T
  19   -189.2771356  0.230768E+01  0.688E+00    0.08       1.0  T
  20   -193.1587335 -0.388160E+01  0.586E+00    0.06       1.0  T
  21   -197.3969154 -0.423818E+01  0.460E+00    0.03       1.0  T
  22   -197.7550047 -0.358089E+00  0.422E+00    0.06       1.0  T
  23   -199.7061881 -0.195118E+01  0.352E+00    0.00       1.0  T
  24   -200.6927017 -0.986514E+00  0.340E+00    0.03       1.0  T
  25   -200.5729638  0.119738E+00  0.322E+00    0.06       1.0  T
  26   -200.7951445 -0.222181E+00  0.316E+00    0.01       1.0  T
  27   -200.0285884  0.766556E+00  0.297E+00    0.02       1.0  T
  28   -200.8290620 -0.800474E+00  0.291E+00    0.02       1.0  T
  29   -200.9546691 -0.125607E+00  0.289E+00    0.01       1.0  T
  30   -200.8757331  0.789360E-01  0.274E+00    0.02       1.0  T
  31   -201.0498415 -0.174108E+00  0.238E+00    0.02       1.0  T
  32   -201.1328247 -0.829832E-01  0.206E+00    0.07       1.0  T
  33   -200.9155768  0.217248E+00  0.201E+00    0.04       1.0  T
  34   -201.1892541 -0.273677E+00  0.159E+00    0.18       1.0  T
  35   -201.2018136 -0.125595E-01  0.145E+00    0.21       1.0  T
  36   -201.2167547 -0.149411E-01  0.129E+00    0.39       1.0  T
  37   -201.2302015 -0.134468E-01  0.109E+00    0.46       1.0  T
  38   -201.2464874 -0.162859E-01  0.951E-01    0.40       1.0  T
  39   -201.2567444 -0.102571E-01  0.867E-01    0.33       1.0  T
  40   -201.2636476 -0.690320E-02  0.796E-01    0.24       1.0  T
  41   -200.8541036  0.409544E+00  0.167E+00    0.09       1.0  T
  42   -200.8598886 -0.578503E-02  0.166E+00    0.09       1.0  T
  43   -200.9284393 -0.685507E-01  0.150E+00    0.07       1.0  T
  44   -201.1530386 -0.224599E+00  0.967E-01    0.03       1.0  T
  45   -201.2152706 -0.622320E-01  0.763E-01    0.04       1.0  T
  46   -201.2434167 -0.281460E-01  0.662E-01    0.05       1.0  T
  47   -201.2724937 -0.290770E-01  0.522E-01    0.06       1.0  T
  48   -201.2822027 -0.970903E-02  0.470E-01    0.07       1.0  T
  49   -201.2879671 -0.576437E-02  0.437E-01    0.08       1.0  T
  50   -201.2994238 -0.114567E-01  0.380E-01    0.12       1.0  T
  51   -201.2991255  0.298299E-03  0.371E-01    0.11       1.0  T
  52   -201.3002454 -0.111993E-02  0.349E-01    0.11       1.0  T
  53   -201.3005794 -0.333988E-03  0.325E-01    0.12       1.0  T
  54   -201.3004333  0.146132E-03  0.308E-01    0.13       1.0  T
  55   -201.3000732  0.360118E-03  0.300E-01    0.14       1.0  T
  56   -201.3005486 -0.475380E-03  0.246E-01    0.14       1.0  T
  57   -201.3017600 -0.121148E-02  0.210E-01    0.13       1.0  T
  58   -201.3020889 -0.328867E-03  0.197E-01    0.12       1.0  T
  59   -201.3020948 -0.586739E-05  0.191E-01    0.11       1.0  T
  60   -201.3021619 -0.671805E-04  0.179E-01    0.11       1.0  T
  61   -201.3022918 -0.129805E-03  0.163E-01    0.11       1.0  T
  62   -201.3027649 -0.473160E-03  0.135E-01    0.12       1.0  T
  63   -201.3030222 -0.257256E-03  0.117E-01    0.12       1.0  T
  64   -201.3031228 -0.100636E-03  0.105E-01    0.13       1.0  T
  65   -201.3032176 -0.948224E-04  0.914E-02    0.13       1.0  T
  66   -201.3033359 -0.118264E-03  0.733E-02    0.13       1.0  T
  67   -201.3033169  0.189909E-04  0.757E-02    0.13       1.0  T
  68   -201.3034129 -0.959986E-04  0.643E-02    0.13       1.0  T
  69   -201.3034606 -0.477008E-04  0.563E-02    0.12       1.0  T
  70   -201.3034644 -0.382439E-05  0.520E-02    0.12       1.0  T
  71   -201.3035166 -0.521911E-04  0.471E-02    0.12       1.0  T
  72   -201.3035619 -0.453193E-04  0.411E-02    0.12       1.0  T
  73   -201.3036177 -0.557989E-04  0.357E-02    0.12       1.0  T
  74   -201.3036389 -0.211435E-04  0.306E-02    0.12       1.0  T
  75   -201.3036631 -0.242292E-04  0.261E-02    0.13       1.0  T
  76   -201.3036841 -0.209830E-04  0.217E-02    0.13       1.0  T
  77   -201.3036936 -0.954582E-05  0.195E-02    0.13       1.0  T
  78   -201.3036910  0.261870E-05  0.193E-02    0.13       1.0  T
  79   -201.3036878  0.318715E-05  0.183E-02    0.13       1.0  T
  80   -201.3036936 -0.579280E-05  0.149E-02    0.13       1.0  T
  81   -201.3037034 -0.976046E-05  0.948E-03    0.13       1.2  T
  82   -201.3037052 -0.183401E-05  0.876E-03    0.13       1.2  T
  83   -201.3037062 -0.990768E-06  0.717E-03    0.13       1.5  T
  84   -201.3037069 -0.666030E-06  0.581E-03    0.13       1.9  T
  85   -201.3037075 -0.663711E-06  0.456E-03    0.13       2.4  T
  86   -201.3037079 -0.348728E-06  0.361E-03    0.13       3.0  T
  87   -201.3037084 -0.516850E-06  0.213E-03    0.13       5.1  T
  88   -201.3037085 -0.569914E-07  0.181E-03    0.13       6.0  T
  89   -201.3037085 -0.450268E-07  0.140E-03    0.13       7.8  T
  90   -201.3037086 -0.811826E-07  0.766E-04    0.13      14.2  T
  91   -201.3037086 -0.468222E-08  0.717E-04    0.13      15.2  T

   *** convergence criteria satisfied after 91 iterations ***

         #    Occupation            Energy/Eh            Energy/eV
      -------------------------------------------------------------
         1        2.0000           -0.8707170             -23.6934
       ...           ...                  ...                  ...
       167        2.0000           -0.3465757              -9.4308
       168        2.0000           -0.3393547              -9.2343
       169        2.0000           -0.3379801              -9.1969
       170        2.0000           -0.3242509              -8.8233
       171        2.0000           -0.3161490              -8.6029
       172        2.0000           -0.3079269              -8.3791
       173        1.7963           -0.2948234              -8.0226 (HOMO)
       174        0.1174           -0.2901190              -7.8945 (LUMO)
       175        0.0549           -0.2893654              -7.8740
       176        0.0283           -0.2887252              -7.8566
       177        0.0032           -0.2866345              -7.7997
       178        0.0000           -0.2804809              -7.6323
       ...           ...                  ...                  ...
       358                         13.5362942             368.3413
      -------------------------------------------------------------
                  HL-Gap            0.0047045 Eh            0.1280 eV
             Fermi-level           -0.2927556 Eh           -7.9663 eV

 SCC (total)                   0 d,  0 h,  0 min,  6.950 sec
 SCC setup                      ...        0 min,  0.002 sec (  0.029%)
 Dispersion                     ...        0 min,  0.006 sec (  0.086%)
 classical contributions        ...        0 min,  0.002 sec (  0.029%)
 integral evaluation            ...        0 min,  0.018 sec (  0.259%)
 iterations                     ...        0 min,  6.855 sec ( 98.633%)
 molecular gradient             ...        0 min,  0.063 sec (  0.906%)
 printout                       ...        0 min,  0.004 sec (  0.058%)

         :::::::::::::::::::::::::::::::::::::::::::::::::::::
         ::                     SUMMARY                     ::
         :::::::::::::::::::::::::::::::::::::::::::::::::::::
         :: total energy            -199.543114622413 Eh    ::
         :: gradient norm              0.042479336278 Eh/a0 ::
         :: HOMO-LUMO gap              0.128014838531 eV    ::
         ::.................................................::
         :: SCC energy              -201.300614974959 Eh    ::
         :: -> isotropic ES            1.048515721336 Eh    ::
         :: -> anisotropic ES         -0.450670189764 Eh    ::
         :: -> anisotropic XC         -0.071775060132 Eh    ::
         :: -> dispersion             -0.169615696424 Eh    ::
         :: repulsion energy           1.757500352546 Eh    ::
         :: add. restraining           0.000000000000 Eh    ::
         :: total charge              -0.000000000000 e     ::
         :::::::::::::::::::::::::::::::::::::::::::::::::::::

           -------------------------------------------------
          |                Property Printout                |
           -------------------------------------------------

    * Orbital Energies and Occupations

         #    Occupation            Energy/Eh            Energy/eV
      -------------------------------------------------------------
         1        2.0000           -0.8707170             -23.6934
       ...           ...                  ...                  ...
       161        2.0000           -0.3766538             -10.2493
       162        2.0000           -0.3717937             -10.1170
       163        2.0000           -0.3714006             -10.1063
       164        2.0000           -0.3660754              -9.9614
       165        2.0000           -0.3571854              -9.7195
       166        2.0000           -0.3537892              -9.6271
       167        2.0000           -0.3465757              -9.4308
       168        2.0000           -0.3393547              -9.2343
       169        2.0000           -0.3379801              -9.1969
       170        2.0000           -0.3242509              -8.8233
       171        2.0000           -0.3161490              -8.6029
       172        2.0000           -0.3079269              -8.3791
       173        1.7963           -0.2948234              -8.0226 (HOMO)
       174        0.1174           -0.2901190              -7.8945 (LUMO)
       175        0.0549           -0.2893654              -7.8740
       176        0.0283           -0.2887252              -7.8566
       177        0.0032           -0.2866345              -7.7997
       178        0.0000           -0.2804809              -7.6323
       179        0.0000           -0.2792623              -7.5991
       180                         -0.2762294              -7.5166
       181                         -0.2701475              -7.3511
       182                         -0.2677610              -7.2861
       183                         -0.2652890              -7.2189
       184                         -0.2647721              -7.2048
       ...                                ...                  ...
       358                         13.5362942             368.3413
      -------------------------------------------------------------
                  HL-Gap            0.0047045 Eh            0.1280 eV
             Fermi-level           -0.2927556 Eh           -7.9663 eV

     #   Z          covCN         q      C6AA      α(0)
     1   8 O        1.654    -0.426    21.353     6.238
     2   6 C        3.659     0.270    16.724     5.869
     3   6 C        3.749    -0.020    21.001     6.536
     4   7 N        2.813    -0.135    23.919     7.264
     5   6 C        3.769    -0.005    20.701     6.484
     6   6 C        3.081     0.007    27.782     8.641
     7   6 C        2.927    -0.060    29.489     8.906
     8   6 C        2.784     0.171    24.315     8.077
     9   9 F        0.787    -0.215    11.393     3.987
    10   6 C        2.918    -0.052    29.303     8.877
    11   6 C        3.084    -0.035    28.776     8.794
    12   6 C        2.959     0.044    27.005     8.524
    13  53 I        1.327    -0.123   381.085    33.699
    14   6 C        3.750    -0.011    20.840     6.511
    15   6 C        3.685     0.046    19.994     6.402
    16   8 O        1.702    -0.302    19.035     5.891
    17   6 C        2.958    -0.064    29.587     8.922
    18   6 C        2.784     0.135    25.030     8.195
    19   9 F        0.787    -0.183    11.063     3.929
    20   6 C        2.769     0.137    25.000     8.189
    21   9 F        0.787    -0.163    10.863     3.893
    22   6 C        2.783     0.132    25.104     8.207
    23   9 F        0.786    -0.180    11.028     3.923
    24   6 C        2.900     0.046    26.965     8.514
    25   7 N        2.718    -0.112    23.440     7.191
    26   6 C        3.029     0.054    26.758     8.485
    27   6 C        2.789     0.159    24.551     8.116
    28   9 F        0.787    -0.221    11.452     3.997
    29   6 C        2.915    -0.046    29.150     8.853
    30   6 C        2.923    -0.035    28.865     8.811
    31   6 C        3.036    -0.037    28.890     8.816
    32   6 C        2.961     0.031    27.302     8.570
    33  53 I        1.234    -0.117   380.633    33.679
    34   6 C        2.788     0.134    25.050     8.198
    35   9 F        0.786    -0.174    10.966     3.912
    36   1 H        0.804     0.335     0.626     1.242
    37   1 H        0.924     0.088     1.903     2.157
    38   1 H        0.923     0.070     2.091     2.261
    39   1 H        0.923     0.068     2.107     2.270
    40   1 H        0.923     0.042     2.427     2.436
    41   1 H        0.926     0.070     2.090     2.260
    42   1 H        0.926     0.070     2.084     2.258
    43   1 H        0.926     0.068     2.110     2.272
    44   1 H        0.920     0.059     2.210     2.325
    45   1 H        0.924     0.060     2.199     2.319
    46   1 H        0.923     0.079     1.994     2.208
    47   1 H        0.923     0.102     1.771     2.081
    48   1 H        0.862     0.203     1.091     1.636
    49   1 H        0.926     0.079     1.988     2.205
    50   1 H        0.926     0.067     2.123     2.278
    51   1 H        0.926     0.074     2.038     2.232
    52  22 Ti       3.563     0.992   102.947    24.714
    53  22 Ti       6.915     1.546    84.100    14.889
    54  22 Ti       3.256     1.039   102.747    24.751
    55  22 Ti       5.847     1.366    85.804    15.039
    56  22 Ti       5.702     1.104    88.376    15.263
    57  22 Ti       3.724     0.979   101.233    24.151
    58  22 Ti       2.173     1.013   202.127    34.809
    59  22 Ti       6.852     1.555    84.017    14.882
    60  22 Ti       3.199     1.013   103.053    24.789
    61  22 Ti       5.448     1.127    88.149    15.243
    62  22 Ti       5.376     1.181    87.609    15.196
    63  22 Ti       3.565     1.027   102.532    24.663
    64   6 C        2.130    -0.271    38.943    10.086
    65   6 C        2.131    -0.260    38.538    10.033
    66   6 C        2.264    -0.033    30.822     9.000
    67   6 C        1.855    -0.215    37.489     9.890
    68   6 C        1.891    -0.229    37.918     9.945
    69   6 C        1.818    -0.344    42.069    10.480
    70   6 C        2.628    -0.401    39.799    10.319
    71   8 O        1.570    -0.869    32.660     7.711
    72   8 O        1.458    -0.870    32.879     7.728
    73   8 O        1.511    -0.950    35.473     8.033
    74   8 O        1.503    -1.020    38.022     8.315
    75   8 O        1.477    -0.924    34.618     7.932
    76   8 O        1.468    -0.865    32.707     7.709
    77   8 O        1.453    -0.801    30.748     7.473
    78   8 O        1.484    -0.852    32.248     7.656
    79   8 O        1.505    -0.874    32.907     7.736
    80   8 O        1.452    -0.806    30.905     7.492
    81   8 O        1.522    -0.947    35.325     8.017
    82   8 O        1.527    -0.987    36.754     8.177
    83   8 O        1.516    -0.818    31.151     7.528
    84   8 O        1.452    -0.788    30.386     7.429

 Mol. C6AA /au·bohr⁶  :     204951.180564
 Mol. C8AA /au·bohr⁸  :    9546402.516461
 Mol. α(0) /au        :        764.618766


Wiberg/Mayer (AO) data.
largest (>0.10) Wiberg bond orders for each atom

 ---------------------------------------------------------------------------
     #   Z sym  total        # sym  WBO       # sym  WBO       # sym  WBO
 ---------------------------------------------------------------------------
     1   8 O    2.033 --     2 C    0.964    36 H    0.833    57 Ti   0.102
     2   6 C    3.914 --     1 O    0.964    17 C    0.963    16 O    0.947
                             3 C    0.942
     3   6 C    3.974 --     4 N    1.011    38 H    0.963    37 H    0.963
                             2 C    0.942
     4   7 N    3.189 --     3 C    1.011    14 C    1.004     5 C    0.997
     5   6 C    3.981 --     6 C    1.006     4 N    0.997    40 H    0.961
                            39 H    0.952
     6   6 C    3.988 --     7 C    1.413    12 C    1.392     5 C    1.006
                            10 C    0.105
     7   6 C    3.987 --     6 C    1.413     8 C    1.395    41 H    0.961
                            11 C    0.106
     8   6 C    3.891 --     7 C    1.395    10 C    1.390     9 F    0.968
     9   9 F    1.100 --     8 C    0.968
    10   6 C    3.988 --    11 C    1.437     8 C    1.390    42 H    0.964
                             6 C    0.105
    11   6 C    3.989 --    10 C    1.437    12 C    1.427    43 H    0.967
                             7 C    0.106
    12   6 C    3.959 --    11 C    1.427     6 C    1.392    13 I    0.970
    13  53 I    1.129 --    12 C    0.970
    14   6 C    3.980 --     4 N    1.004    15 C    1.003    45 H    0.967
                            44 H    0.924
    15   6 C    3.922 --    14 C    1.003    46 H    0.964    16 O    0.942
                            47 H    0.918
    16   8 O    2.192 --     2 C    0.947    15 C    0.942    57 Ti   0.145
    17   6 C    3.900 --    34 C    1.342    18 C    1.323     2 C    0.963
    18   6 C    3.866 --    20 C    1.356    17 C    1.323    19 F    0.982
    19   9 F    1.118 --    18 C    0.982
    20   6 C    3.882 --    18 C    1.356    22 C    1.327    21 F    0.999
    21   9 F    1.140 --    20 C    0.999
    22   6 C    3.816 --    20 C    1.327    24 C    1.283    23 F    0.985
    23   9 F    1.120 --    22 C    0.985
    24   6 C    3.964 --    34 C    1.322    22 C    1.283    25 N    1.144
    25   7 N    3.442 --    24 C    1.144    26 C    1.109    48 H    0.909
    26   6 C    3.966 --    32 C    1.341    27 C    1.307    25 N    1.109
    27   6 C    3.881 --    29 C    1.416    26 C    1.307    28 F    0.957
    28   9 F    1.092 --    27 C    0.957
    29   6 C    3.985 --    30 C    1.424    27 C    1.416    49 H    0.963
    30   6 C    3.978 --    31 C    1.428    29 C    1.424    50 H    0.966
    31   6 C    3.987 --    32 C    1.428    30 C    1.428    51 H    0.964
    32   6 C    3.940 --    31 C    1.428    26 C    1.341    33 I    0.978
    33  53 I    1.125 --    32 C    0.978
    34   6 C    3.820 --    17 C    1.342    24 C    1.322    35 F    0.927
    35   9 F    1.210 --    34 C    0.927    57 Ti   0.137
    36   1 H    0.887 --     1 O    0.833
    37   1 H    0.992 --     3 C    0.963
    38   1 H    0.994 --     3 C    0.963
    39   1 H    0.995 --     5 C    0.952
    40   1 H    0.997 --     5 C    0.961
    41   1 H    0.995 --     7 C    0.961
    42   1 H    0.995 --    10 C    0.964
    43   1 H    0.995 --    11 C    0.967
    44   1 H    0.997 --    14 C    0.924
    45   1 H    0.996 --    14 C    0.967
    46   1 H    0.993 --    15 C    0.964
    47   1 H    0.989 --    15 C    0.918
    48   1 H    0.957 --    25 N    0.909
    49   1 H    0.992 --    29 C    0.963
    50   1 H    0.996 --    30 C    0.966
    51   1 H    0.994 --    31 C    0.964
    52  22 Ti   2.846 --    72 O    0.918    71 O    0.692    58 Ti   0.421
                            53 Ti   0.203    55 Ti   0.191    76 O    0.114
                            57 Ti   0.107
    53  22 Ti   3.855 --    75 O    0.758    73 O    0.731    72 O    0.699
                            74 O    0.599    52 Ti   0.203    54 Ti   0.194
                            57 Ti   0.145    56 Ti   0.129
    54  22 Ti   2.699 --    80 O    0.953    73 O    0.602    60 Ti   0.313
                            53 Ti   0.194    58 Ti   0.153
    55  22 Ti   3.945 --    76 O    0.877    71 O    0.779    64 C    0.716
                            74 O    0.583    57 Ti   0.217    52 Ti   0.191
                            61 Ti   0.168
    56  22 Ti   4.111 --    70 C    0.855    77 O    0.832    68 C    0.731
                            75 O    0.614    62 Ti   0.276    57 Ti   0.222
                            69 C    0.153    65 C    0.143    53 Ti   0.129
    57  22 Ti   3.150 --    77 O    0.906    76 O    0.657    56 Ti   0.222
                            55 Ti   0.217    53 Ti   0.145    16 O    0.145
                            35 F    0.137    52 Ti   0.107     1 O    0.102
    58  22 Ti   2.602 --    78 O    1.068    52 Ti   0.421    59 Ti   0.222
                            71 O    0.215    54 Ti   0.153    81 O    0.150
                            73 O    0.139
    59  22 Ti   3.815 --    79 O    0.765    81 O    0.749    82 O    0.657
                            78 O    0.523    58 Ti   0.222    60 Ti   0.197
                            61 Ti   0.137    63 Ti   0.129    83 O    0.115
    60  22 Ti   2.679 --    80 O    0.817    79 O    0.792    54 Ti   0.313
                            59 Ti   0.197    63 Ti   0.171    62 Ti   0.114
    61  22 Ti   4.003 --    69 C    0.947    83 O    0.754    67 C    0.735
                            81 O    0.489    63 Ti   0.192    55 Ti   0.168
                            70 C    0.164    64 C    0.138    59 Ti   0.137
    62  22 Ti   4.084 --    84 O    0.962    65 C    0.685    70 C    0.657
                            82 O    0.502    56 Ti   0.276    63 Ti   0.215
                            69 C    0.134    60 Ti   0.114
    63  22 Ti   2.729 --    83 O    0.865    84 O    0.746    62 Ti   0.215
                            61 Ti   0.192    60 Ti   0.171    79 O    0.138
                            59 Ti   0.129
    64   6 C    3.821 --    67 C    2.750    55 Ti   0.716    61 Ti   0.138
    65   6 C    3.786 --    68 C    2.735    62 Ti   0.685    56 Ti   0.143
    66   6 C    3.977 --    69 C    2.039    70 C    1.581
    67   6 C    3.731 --    64 C    2.750    61 Ti   0.735
    68   6 C    3.733 --    65 C    2.735    56 Ti   0.731
    69   6 C    3.632 --    66 C    2.039    61 Ti   0.947    56 Ti   0.153
                            62 Ti   0.134
    70   6 C    3.679 --    66 C    1.581    56 Ti   0.855    62 Ti   0.657
                            61 Ti   0.164
    71   8 O    1.903 --    55 Ti   0.779    52 Ti   0.692    58 Ti   0.215
    72   8 O    1.905 --    52 Ti   0.918    53 Ti   0.699
    73   8 O    1.791 --    53 Ti   0.731    54 Ti   0.602    58 Ti   0.139
    74   8 O    1.697 --    53 Ti   0.599    55 Ti   0.583
    75   8 O    1.830 --    53 Ti   0.758    56 Ti   0.614
    76   8 O    1.911 --    55 Ti   0.877    57 Ti   0.657    52 Ti   0.114
    77   8 O    2.006 --    57 Ti   0.906    56 Ti   0.832
    78   8 O    1.932 --    58 Ti   1.068    59 Ti   0.523
    79   8 O    1.903 --    60 Ti   0.792    59 Ti   0.765    63 Ti   0.138
    80   8 O    1.998 --    54 Ti   0.953    60 Ti   0.817
    81   8 O    1.800 --    59 Ti   0.749    61 Ti   0.489    58 Ti   0.150
    82   8 O    1.750 --    59 Ti   0.657    62 Ti   0.502
    83   8 O    1.982 --    63 Ti   0.865    61 Ti   0.754    59 Ti   0.115
    84   8 O    2.022 --    62 Ti   0.962    63 Ti   0.746
 ---------------------------------------------------------------------------

Topologies differ in total number of bonds
Writing topology from bond orders to xtbtopo.mol

molecular dipole:
                 x           y           z       tot (Debye)
 q only:        0.415      -4.208       0.290
   full:       -1.070      -3.660      -0.151       9.700
molecular quadrupole (traceless):
                xx          xy          yy          xz          yz          zz
 q only:      -61.321      12.375      33.907      15.825     -22.464      27.414
  q+dip:      -22.746       1.616      27.818      31.938     -23.530      -5.072
   full:      -19.226       2.731      28.146      28.674     -22.054      -8.920


           -------------------------------------------------
          | TOTAL ENERGY             -199.543114622413 Eh   |
          | GRADIENT NORM               0.042479336278 Eh/α |
          | HOMO-LUMO GAP               0.128014838531 eV   |
           -------------------------------------------------

------------------------------------------------------------------------
 * finished run on 2026/09/01 at 17:05:13.757     
------------------------------------------------------------------------
 total:
 * wall-time:     0 d,  0 h,  0 min,  7.020 sec
 *  cpu-time:     0 d,  0 h,  0 min, 38.500 sec
 * ratio c/w:     5.484 speedup
 SCF:
 * wall-time:     0 d,  0 h,  0 min,  6.951 sec
 *  cpu-time:     0 d,  0 h,  0 min, 38.266 sec
 * ratio c/w:     5.505 speedup

