84
 energy: -199.923809355922 gnorm: 0.003675795411 xtb: 6.7.1pre (5071a88)
O            1.41375514038317       -1.48865852264396        6.93379163085744
C            0.41907710608969       -1.00789504367912        7.73771790906510
C            0.37596972597760       -1.82666251189938        9.06162208747633
N           -0.17130886022528       -3.15502144767033        8.88311443082970
C            0.72372103515307       -4.06319488130145        8.17035774389647
C            0.18020494814371       -5.46271711267169        8.24093184644196
C           -0.12748633634140       -6.14366750201434        7.06853323355550
C           -0.65670911309396       -7.41954074399535        7.12945879409761
F           -0.95822547116631       -8.04119884503615        5.97105345231868
C           -0.89090763778514       -8.05969543077037        8.33295351911548
C           -0.58992270415782       -7.38394009182130        9.50238402459789
C           -0.06683996820467       -6.10133139370203        9.45153520759797
I            0.34668309350525       -5.11916771325069       11.26147610608144
C           -1.53134492303327       -3.13064465202534        8.33753588712417
C           -1.90718795038059       -1.73900231225983        7.82693507522187
O           -0.84890273491105       -1.20615696993145        7.02039474473981
C            0.61441093880344        0.49405448741007        8.01106524412102
C            1.88061032116639        1.07573966345078        7.90192722436289
F            2.94790242557556        0.21375658676606        7.78713840550636
C            2.13047874047710        2.44559170583042        7.71958346940183
F            1.79137870371470        4.73160303173815        5.57193008425497
C            1.03937475555756        3.23721628575440        8.08541761091402
F            1.21691249142455        4.58998978584361        7.97766510016751
C           -0.26241431652971        2.78189799603425        8.35098270505370
N           -1.35308590609617        3.56001791707884        8.65800351079687
C           -1.44144576200143        4.94073869507007        8.32950739970889
C           -1.18559133166899        5.90793060671043        9.29373248066389
F           -0.81323390980194        5.52315292156407       10.52862295943126
C           -1.31165463301978        7.25536333293604        9.01239230363481
C           -1.71332055553357        7.63620841762340        7.74365750956964
C           -1.96594035464971        6.68637241475649        6.76734130818933
C           -1.83200967393580        5.33429374613641        7.04862020724298
I           -1.64551827282957        3.69084613350219        5.36914698102910
C           -0.43344325999264        1.40222481215563        8.15319524829581
F           -1.73656665488133        1.04502432230273        7.76465095754659
H            3.36522191298968        0.37973485942442        5.71257373641307
H            1.40535471780697       -1.90624370188098        9.41440430364863
H           -0.21311122313109       -1.30226216221746        9.81827771041025
H            1.69188934374289       -4.01795804972487        8.68022139944090
H            0.87296612279380       -3.77024038669087        7.11508173446908
H            0.01957751523822       -5.66344076019686        6.09412063762604
H           -1.30162377455952       -9.05588313601812        8.35116068988835
H           -0.76428439218592       -7.85778389087416       10.45564449291304
H           -1.61790500900510       -3.83927138457401        7.48614891246433
H           -2.23101822025850       -3.42837504681031        9.12990383820477
H           -2.12830939766046       -1.06116367686271        8.65875917587083
H           -2.78690025967106       -1.77771481631178        7.15936244285187
H           -2.23579526893287        3.08762916719158        8.49581975778686
H           -1.09034633893439        7.97962582820922        9.77952498260959
H           -1.81482716032084        8.68484262830399        7.51298533191231
H           -2.24564412972290        6.96850440179975        5.76768873315758
Ti          -0.94160707285106       -3.18617642832076        4.49976916663390
Ti           1.51265956259663       -1.34993998169951        5.17334244566936
Ti           3.90428013670124       -1.40752583139909        3.03449544406561
Ti          -2.74458246138724       -1.00886902624574        3.96990664000478
Ti           1.83763827066019        3.00743784113135        5.49066562382597
Ti          -0.76131730574233        0.95639614617971        5.08311911718596
Ti           1.85995000371150       -3.79503489311856        2.60571796048402
Ti           0.42079526861863       -0.80233643947179        1.89371317038929
Ti           2.69278840359086       -0.91890959457548        0.13766200564486
Ti          -1.78671723785379        1.18646440932403        1.86706748827358
Ti           2.69105857998518        1.58375072455014        2.58527473489489
Ti           0.87065460742802        2.01215686728859        0.25319992135750
C           -4.08055561072698       -0.05449219146217        2.75689137055684
C            4.20704227024664        2.40204911361961        3.64222452970726
C            0.14741031827276        2.63812795650919        3.23273329725550
C           -3.81799024371117        0.91990289143654        2.04098711054547
C            3.76900369346157        2.84064570726235        4.71814579644546
C           -1.13840321036931        2.25315121827339        3.40687965179806
C            1.35229734568672        3.04699490260767        3.25463736708655
O           -2.59716624751944       -2.68363614074598        4.15356234074304
O            0.66996197524002       -3.09452606645592        4.97934039151733
O            2.98144516630681       -2.04832331499053        4.32866797843265
O            0.11444655663757       -0.50015433872731        4.60406867763882
O            2.59981337588414        0.31912083886657        5.11051682884529
O           -2.39243986977276        0.27360622650867        5.01851764719440
O            0.49993011335329        1.88481896084852        5.65517255236111
O            0.76392186164498       -2.45773257364424        2.26580383307780
O            0.90730323737613       -0.83872102819414        0.21754720946198
O            3.94692428240181       -0.84286010843205        1.36930470340973
O           -1.26063422946271       -0.54348522185547        2.13153408139320
O            1.52102413594363        0.24995461650334        2.60463041868278
O           -0.84185510122962        1.71948586631153        0.54113422267624
O            2.53025789137901        1.91512733173579        0.84448399014133
