      -----------------------------------------------------------      
     |                   =====================                   |     
     |                           x T B                           |     
     |                   =====================                   |     
     |                         S. Grimme                         |     
     |          Mulliken Center for Theoretical Chemistry        |     
     |                    University of Bonn                     |     
      -----------------------------------------------------------      

   * xtb version 6.7.1pre (5071a88) compiled by 'Marcel@Raven' on 2024-07-23

   xtb is free software: you can redistribute it and/or modify it under
   the terms of the GNU Lesser General Public License as published by
   the Free Software Foundation, either version 3 of the License, or
   (at your option) any later version.
   
   xtb is distributed in the hope that it will be useful,
   but WITHOUT ANY WARRANTY; without even the implied warranty of
   MERCHANTABILITY or FITNESS FOR A PARTICULAR PURPOSE.  See the
   GNU Lesser General Public License for more details.
   
   Cite this work as:
   * C. Bannwarth, E. Caldeweyher, S. Ehlert, A. Hansen, P. Pracht,
     J. Seibert, S. Spicher, S. Grimme, WIREs Comput. Mol. Sci., 2020, 11,
     e01493. DOI: 10.1002/wcms.1493
   
   for GFN2-xTB:
   * C. Bannwarth, S. Ehlert and S. Grimme., J. Chem. Theory Comput., 2019,
     15, 1652-1671. DOI: 10.1021/acs.jctc.8b01176
   for GFN1-xTB:
   * S. Grimme, C. Bannwarth, P. Shushkov, J. Chem. Theory Comput., 2017,
     13, 1989-2009. DOI: 10.1021/acs.jctc.7b00118
   for GFN0-xTB:
   * P. Pracht, E. Caldeweyher, S. Ehlert, S. Grimme, ChemRxiv, 2019, preprint.
     DOI: 10.26434/chemrxiv.8326202.v1
   for GFN-FF:
   * S. Spicher and S. Grimme, Angew. Chem. Int. Ed., 2020, 59, 15665-15673.
     DOI: 10.1002/anie.202004239
   
   for ALPB and GBSA implicit solvation:
   * S. Ehlert, M. Stahn, S. Spicher, S. Grimme, J. Chem. Theory Comput.,
     2021, 17, 4250-4261. DOI: 10.1021/acs.jctc.1c00471
   
   for ddCOSMO and CPCM-X implicit solvation:
   * M. Stahn, S. Ehlert, S. Grimme, J. Phys. Chem. A,
     2023, XX, XXXX-XXXX. DOI: 10.1021/acs.jpca.3c04382
   
   for DFT-D4:
   * E. Caldeweyher, C. Bannwarth and S. Grimme, J. Chem. Phys., 2017,
     147, 034112. DOI: 10.1063/1.4993215
   * E. Caldeweyher, S. Ehlert, A. Hansen, H. Neugebauer, S. Spicher,
     C. Bannwarth and S. Grimme, J. Chem. Phys., 2019, 150, 154122.
     DOI: 10.1063/1.5090222
   * E. Caldeweyher, J.-M. Mewes, S. Ehlert and S. Grimme, Phys. Chem. Chem. Phys.
     2020, 22, 8499-8512. DOI: 10.1039/D0CP00502A
   
   for sTDA-xTB:
   * S. Grimme and C. Bannwarth, J. Chem. Phys., 2016, 145, 054103.
     DOI: 10.1063/1.4959605
   
   in the mass-spec context:
   * V. Asgeirsson, C. Bauer and S. Grimme, Chem. Sci., 2017, 8, 4879.
     DOI: 10.1039/c7sc00601b
   * J. Koopman and S. Grimme, ACS Omega 2019, 4, 12, 15120-15133.
     DOI: 10.1021/acsomega.9b02011
   
   for metadynamics refer to:
   * S. Grimme, J. Chem. Theory Comput., 2019, 155, 2847-2862
     DOI: 10.1021/acs.jctc.9b00143
   
   for SPH calculations refer to:
   * S. Spicher and S. Grimme, J. Chem. Theory Comput., 2021, 17, 1701-1714
     DOI: 10.1021/acs.jctc.0c01306
   
   for ONIOM refer to:
   * C. Plett, A. Katbashev, S. Ehlert, S. Grimme, M. Bursch,
     Phys. Chem. Chem. Phys., 2023, 25, 17860-17868. DOI: 10.1039/D3CP02178E
   
   for DIPRO refer to:
   * J. Kohn, N. Gildemeister, S. Grimme, D. Fazzi, A. Hansen,
     J. Chem. Phys., 2023, just accepted.
   
   for PTB refer to:
   * S. Grimme, M. Mueller, A. Hansen, J. Chem. Phys., 2023, 158, 124111.
     DOI: 10.1063/5.0137838
   
   with help from (in alphabetical order)
   P. Atkinson, C. Bannwarth, F. Bohle, G. Brandenburg, E. Caldeweyher
   M. Checinski, S. Dohm, S. Ehlert, S. Ehrlich, I. Gerasimov, C. Hölzer
   A. Katbashev, J. Kohn, J. Koopman, C. Lavigne, S. Lehtola, F. März, M. Müller,
   F. Musil, H. Neugebauer, J. Pisarek, C. Plett, P. Pracht, F. Pultar,
   J. Seibert, P. Shushkov, S. Spicher, M. Stahn, M. Steiner, T. Strunk,
   J. Stückrath, T. Rose, and J. Unsleber
   
 * started run on 2026/08/31 at 20:52:59.102     
   ID    Z sym.   atoms
    1    6 C      1-5, 7, 9-16, 18, 20, 21, 23, 24
    2    7 N      6, 17, 22, 25
    3    8 O      8, 19, 27, 28
    4    5 B      26
    5    1 H      29-53

           -------------------------------------------------
          |                Calculation Setup                |
           -------------------------------------------------

          program call               : "c:\Users\Andre\Proyectos doctorado\kras-pancreatic-gC3N4-ai\tools\xtb\xtb-6.7.1\bin\xtb.exe" "c:\Users\Andre\Proyectos doctorado\mxene-glioblastoma-qsar-ai\calculations\gbm\Bortezomib\Bortezomib_drug.xyz" --gfn 2 --sp --chrg 0 --uhf 0 --iterations 500 --norestart
          coordinate file            : c:\Users\Andre\Proyectos doctorado\mxene-glioblastoma-qsar-ai\calculations\gbm\Bortezomib\Bortezomib_drug.xyz
          omp threads                :                    16


           -------------------------------------------------
          |                 G F N 2 - x T B                 |
           -------------------------------------------------

        Reference                      10.1021/acs.jctc.8b01176
      * Hamiltonian:
        H0-scaling (s, p, d)           1.850000    2.230000    2.230000
        zeta-weighting                 0.500000
      * Dispersion:
        s8                             2.700000
        a1                             0.520000
        a2                             5.000000
        s9                             5.000000
      * Repulsion:
        kExp                           1.500000    1.000000
        rExp                           1.000000
      * Coulomb:
        alpha                          2.000000
        third order                    shell-resolved
        anisotropic                    true
        a3                             3.000000
        a5                             4.000000
        cn-shift                       1.200000
        cn-exp                         4.000000
        max-rad                        5.000000


          ...................................................
          :                      SETUP                      :
          :.................................................:
          :  # basis functions                 137          :
          :  # atomic orbitals                 137          :
          :  # shells                           81          :
          :  # electrons                       148          :
          :  max. iterations                   500          :
          :  Hamiltonian                  GFN2-xTB          :
          :  restarted?                      false          :
          :  GBSA solvation                  false          :
          :  PC potential                    false          :
          :  electronic temp.          300.0000000     K    :
          :  accuracy                    1.0000000          :
          :  -> integral cutoff          0.2500000E+02      :
          :  -> integral neglect         0.1000000E-07      :
          :  -> SCF convergence          0.1000000E-05 Eh   :
          :  -> wf. convergence          0.1000000E-03 e    :
          :  Broyden damping             0.4000000          :
          :  net charge                          0          :
          :  unpaired electrons                  0          :
          ...................................................

 iter      E             dE          RMSdq      gap      omega  full diag
   1    -83.2827272 -0.832827E+02  0.482E+00    2.01       0.0  T
   2    -83.5917703 -0.309043E+00  0.295E+00    1.81       1.0  T
   3    -83.6169068 -0.251365E-01  0.158E+00    1.87       1.0  T
   4    -83.6382226 -0.213158E-01  0.463E-01    1.72       1.0  T
   5    -83.6523156 -0.140930E-01  0.170E-01    1.72       1.0  T
   6    -83.6521809  0.134697E-03  0.883E-02    1.71       1.0  T
   7    -83.6524283 -0.247404E-03  0.299E-02    1.71       1.0  T
   8    -83.6524638 -0.354753E-04  0.107E-02    1.71       1.3  T
   9    -83.6524656 -0.178818E-05  0.510E-03    1.71       2.7  T
  10    -83.6524659 -0.328220E-06  0.201E-03    1.71       6.8  T
  11    -83.6524660 -0.126988E-06  0.723E-04    1.71      19.0  T
  12    -83.6524660 -0.976868E-08  0.315E-04    1.71      43.7  T

   *** convergence criteria satisfied after 12 iterations ***

         #    Occupation            Energy/Eh            Energy/eV
      -------------------------------------------------------------
         1        2.0000           -0.6956756             -18.9303
       ...           ...                  ...                  ...
        68        2.0000           -0.4163951             -11.3307
        69        2.0000           -0.4157954             -11.3144
        70        2.0000           -0.4092455             -11.1361
        71        2.0000           -0.4035428             -10.9810
        72        2.0000           -0.3983373             -10.8393
        73        2.0000           -0.3873861             -10.5413
        74        2.0000           -0.3625115              -9.8644 (HOMO)
        75                         -0.2995500              -8.1512 (LUMO)
        76                         -0.2759714              -7.5096
        77                         -0.2473068              -6.7296
        78                         -0.2408159              -6.5529
        79                         -0.2370849              -6.4514
       ...                                ...                  ...
       137                          0.6566239              17.8676
      -------------------------------------------------------------
                  HL-Gap            0.0629615 Eh            1.7133 eV
             Fermi-level           -0.3310307 Eh           -9.0078 eV

 SCC (total)                   0 d,  0 h,  0 min,  0.087 sec
 SCC setup                      ...        0 min,  0.001 sec (  1.150%)
 Dispersion                     ...        0 min,  0.001 sec (  1.149%)
 classical contributions        ...        0 min,  0.000 sec (  0.000%)
 integral evaluation            ...        0 min,  0.003 sec (  3.448%)
 iterations                     ...        0 min,  0.070 sec ( 80.460%)
 molecular gradient             ...        0 min,  0.007 sec (  8.046%)
 printout                       ...        0 min,  0.005 sec (  5.747%)

         :::::::::::::::::::::::::::::::::::::::::::::::::::::
         ::                     SUMMARY                     ::
         :::::::::::::::::::::::::::::::::::::::::::::::::::::
         :: total energy             -82.637589006314 Eh    ::
         :: gradient norm              0.230217798720 Eh/a0 ::
         :: HOMO-LUMO gap              1.713269867415 eV    ::
         ::.................................................::
         :: SCC energy               -83.651891004382 Eh    ::
         :: -> isotropic ES            0.172774849382 Eh    ::
         :: -> anisotropic ES          0.009841605368 Eh    ::
         :: -> anisotropic XC          0.046964426250 Eh    ::
         :: -> dispersion             -0.055435222177 Eh    ::
         :: repulsion energy           1.014301998068 Eh    ::
         :: add. restraining           0.000000000000 Eh    ::
         :: total charge               0.000000000000 e     ::
         :::::::::::::::::::::::::::::::::::::::::::::::::::::

           -------------------------------------------------
          |                Property Printout                |
           -------------------------------------------------

    * Orbital Energies and Occupations

         #    Occupation            Energy/Eh            Energy/eV
      -------------------------------------------------------------
         1        2.0000           -0.6956756             -18.9303
       ...           ...                  ...                  ...
        62        2.0000           -0.4395230             -11.9600
        63        2.0000           -0.4360547             -11.8657
        64        2.0000           -0.4296477             -11.6913
        65        2.0000           -0.4259062             -11.5895
        66        2.0000           -0.4225178             -11.4973
        67        2.0000           -0.4205430             -11.4436
        68        2.0000           -0.4163951             -11.3307
        69        2.0000           -0.4157954             -11.3144
        70        2.0000           -0.4092455             -11.1361
        71        2.0000           -0.4035428             -10.9810
        72        2.0000           -0.3983373             -10.8393
        73        2.0000           -0.3873861             -10.5413
        74        2.0000           -0.3625115              -9.8644 (HOMO)
        75                         -0.2995500              -8.1512 (LUMO)
        76                         -0.2759714              -7.5096
        77                         -0.2473068              -6.7296
        78                         -0.2408159              -6.5529
        79                         -0.2370849              -6.4514
        80                         -0.2294912              -6.2448
        81                         -0.2049540              -5.5771
        82                         -0.1242510              -3.3810
        83                         -0.1109440              -3.0189
        84                         -0.0596707              -1.6237
        85                         -0.0213213              -0.5802
       ...                                ...                  ...
       137                          0.6566239              17.8676
      -------------------------------------------------------------
                  HL-Gap            0.0629615 Eh            1.7133 eV
             Fermi-level           -0.3310307 Eh           -9.0078 eV

     #   Z          covCN         q      C6AA      α(0)
     1   6 C        3.755    -0.105    22.570     6.774
     2   6 C        3.855    -0.015    20.802     6.487
     3   6 C        3.760    -0.110    22.649     6.784
     4   6 C        3.822    -0.070    21.816     6.647
     5   6 C        3.711    -0.048    21.573     6.638
     6   7 N        2.684    -0.173    24.752     7.389
     7   6 C        2.766     0.246    22.872     7.832
     8   8 O        0.857    -0.452    22.749     6.395
     9   6 C        3.789     0.035    19.997     6.369
    10   6 C        3.825    -0.063    21.691     6.627
    11   6 C        2.976     0.011    27.763     8.643
    12   6 C        2.931    -0.041    29.023     8.835
    13   6 C        2.915    -0.034    28.856     8.809
    14   6 C        2.928    -0.035    28.860     8.810
    15   6 C        2.914    -0.032    28.796     8.799
    16   6 C        2.930    -0.040    29.004     8.832
    17   7 N        2.705    -0.169    24.664     7.376
    18   6 C        2.757     0.257    22.668     7.797
    19   8 O        0.857    -0.437    22.442     6.351
    20   6 C        2.925     0.072    26.387     8.424
    21   6 C        2.861     0.062    26.607     8.455
    22   7 N        1.850    -0.191    25.960     7.551
    23   6 C        2.858     0.057    26.717     8.472
    24   6 C        2.865     0.052    26.820     8.489
    25   7 N        1.843    -0.210    26.411     7.616
    26   5 B        2.465     0.453    17.390     7.405
    27   8 O        1.580    -0.475    22.418     6.389
    28   8 O        1.577    -0.502    22.979     6.469
    29   1 H        0.919     0.030     2.589     2.517
    30   1 H        0.923     0.027     2.637     2.539
    31   1 H        0.923     0.045     2.379     2.412
    32   1 H        0.922     0.043     2.413     2.429
    33   1 H        0.921     0.037     2.493     2.469
    34   1 H        0.921     0.036     2.501     2.473
    35   1 H        0.922     0.040     2.452     2.449
    36   1 H        0.924     0.047     2.353     2.399
    37   1 H        0.922     0.040     2.449     2.447
    38   1 H        0.922     0.079     1.992     2.207
    39   1 H        0.858     0.157     1.353     1.822
    40   1 H        0.924     0.091     1.873     2.140
    41   1 H        0.917     0.046     2.371     2.408
    42   1 H        0.921     0.055     2.264     2.353
    43   1 H        0.925     0.038     2.477     2.461
    44   1 H        0.925     0.037     2.490     2.468
    45   1 H        0.924     0.029     2.597     2.520
    46   1 H        0.925     0.038     2.472     2.458
    47   1 H        0.927     0.041     2.438     2.442
    48   1 H        0.858     0.200     1.104     1.646
    49   1 H        0.924     0.082     1.960     2.189
    50   1 H        0.925     0.052     2.297     2.370
    51   1 H        0.925     0.052     2.300     2.372
    52   1 H        0.799     0.310     0.694     1.309
    53   1 H        0.797     0.307     0.701     1.315

 Mol. C6AA /au·bohr⁶  :      30277.267811
 Mol. C8AA /au·bohr⁸  :     706513.872148
 Mol. α(0) /au        :        268.080537


Wiberg/Mayer (AO) data.
largest (>0.10) Wiberg bond orders for each atom

 ---------------------------------------------------------------------------
     #   Z sym  total        # sym  WBO       # sym  WBO       # sym  WBO
 ---------------------------------------------------------------------------
     1   6 C    3.996 --     2 C    1.015    31 H    0.984    29 H    0.983
                            30 H    0.981
     2   6 C    3.996 --     1 C    1.015     3 C    1.003     4 C    0.996
                            32 H    0.962
     3   6 C    3.995 --     2 C    1.003    33 H    0.989    35 H    0.984
                            34 H    0.984
     4   6 C    3.994 --     2 C    0.996     5 C    0.985    37 H    0.972
                            36 H    0.971
     5   6 C    3.942 --     4 C    0.985     6 N    0.972    26 B    0.952
                            38 H    0.940
     6   7 N    3.443 --     7 C    1.235     5 C    0.972    39 H    0.943
                             8 O    0.198
     7   6 C    3.951 --     8 O    1.644     6 N    1.235     9 C    0.984
     8   8 O    1.968 --     7 C    1.644     6 N    0.198
     9   6 C    3.972 --     7 C    0.984    17 N    0.981    10 C    0.950
                            40 H    0.943
    10   6 C    3.989 --    11 C    1.026    42 H    0.963    41 H    0.962
                             9 C    0.950
    11   6 C    3.990 --    16 C    1.426    12 C    1.382    10 C    1.026
                            14 C    0.110
    12   6 C    3.990 --    13 C    1.465    11 C    1.382    43 H    0.968
                            15 C    0.114
    13   6 C    3.992 --    12 C    1.465    14 C    1.425    44 H    0.969
                            16 C    0.106
    14   6 C    3.991 --    15 C    1.448    13 C    1.425    45 H    0.971
                            11 C    0.110
    15   6 C    3.991 --    14 C    1.448    16 C    1.433    46 H    0.971
                            12 C    0.114
    16   6 C    3.992 --    15 C    1.433    11 C    1.426    47 H    0.969
                            13 C    0.106
    17   7 N    3.447 --    18 C    1.226     9 C    0.981    48 H    0.924
                            19 O    0.213
    18   6 C    3.953 --    19 O    1.651    17 N    1.226    20 C    1.007
    19   8 O    1.994 --    18 C    1.651    17 N    0.213
    20   6 C    3.979 --    25 N    1.394    21 C    1.373    18 C    1.007
                            23 C    0.109
    21   6 C    3.968 --    22 N    1.438    20 C    1.373    49 H    0.955
                            24 C    0.117
    22   7 N    3.066 --    23 C    1.447    21 C    1.438    25 N    0.101
    23   6 C    3.977 --    22 N    1.447    24 C    1.403    50 H    0.961
                            20 C    0.109
    24   6 C    3.978 --    25 N    1.449    23 C    1.403    51 H    0.962
                            21 C    0.117
    25   7 N    3.060 --    24 C    1.449    20 C    1.394    22 N    0.101
    26   5 B    3.304 --    27 O    1.169    28 O    1.066     5 C    0.952
    27   8 O    2.135 --    26 B    1.169    52 H    0.883
    28   8 O    2.015 --    26 B    1.066    53 H    0.863
    29   1 H    0.999 --     1 C    0.983
    30   1 H    0.999 --     1 C    0.981
    31   1 H    0.998 --     1 C    0.984
    32   1 H    0.998 --     2 C    0.962
    33   1 H    0.999 --     3 C    0.989
    34   1 H    0.998 --     3 C    0.984
    35   1 H    0.998 --     3 C    0.984
    36   1 H    0.998 --     4 C    0.971
    37   1 H    0.998 --     4 C    0.972
    38   1 H    0.994 --     5 C    0.940
    39   1 H    0.975 --     6 N    0.943
    40   1 H    0.991 --     9 C    0.943
    41   1 H    0.998 --    10 C    0.962
    42   1 H    0.996 --    10 C    0.963
    43   1 H    0.999 --    12 C    0.968
    44   1 H    0.998 --    13 C    0.969
    45   1 H    0.999 --    14 C    0.971
    46   1 H    0.998 --    15 C    0.971
    47   1 H    0.998 --    16 C    0.969
    48   1 H    0.960 --    17 N    0.924
    49   1 H    0.993 --    21 C    0.955
    50   1 H    0.997 --    23 C    0.961
    51   1 H    0.997 --    24 C    0.962
    52   1 H    0.904 --    27 O    0.883
    53   1 H    0.905 --    28 O    0.863
 ---------------------------------------------------------------------------

Topologies differ in total number of bonds
Writing topology from bond orders to xtbtopo.mol

molecular dipole:
                 x           y           z       tot (Debye)
 q only:        0.031      -0.862       0.723
   full:        0.332      -0.836       0.926       3.282
molecular quadrupole (traceless):
                xx          xy          yy          xz          yz          zz
 q only:       -1.709      -3.080       7.803      12.919      12.092      -6.094
  q+dip:       -7.443      -2.543      12.494      12.420      18.280      -5.051
   full:       -3.779      -6.083      11.086      16.022      17.023      -7.307


           -------------------------------------------------
          | TOTAL ENERGY              -82.637589006314 Eh   |
          | GRADIENT NORM               0.230217798720 Eh/α |
          | HOMO-LUMO GAP               1.713269867415 eV   |
           -------------------------------------------------

------------------------------------------------------------------------
 * finished run on 2026/08/31 at 20:52:59.256     
------------------------------------------------------------------------
 total:
 * wall-time:     0 d,  0 h,  0 min,  0.153 sec
 *  cpu-time:     0 d,  0 h,  0 min,  0.906 sec
 * ratio c/w:     5.923 speedup
 SCF:
 * wall-time:     0 d,  0 h,  0 min,  0.087 sec
 *  cpu-time:     0 d,  0 h,  0 min,  0.625 sec
 * ratio c/w:     7.184 speedup

normal termination of xtb
