86
Drug@Ti12C7O14 non-overlapping complex
C     -4.645076      1.044199      9.980429
C     -4.389907     -0.273380      9.317490
C     -5.169105     -0.311096      8.019291
C     -2.935976     -0.483040      8.979594
C     -2.056285     -0.445854     10.210214
N     -0.684713     -0.656814      9.776021
C      0.330634      0.312302      9.995293
O     -0.048442      1.377168     10.593248
C      1.742171      0.132433      9.570049
C      2.485503     -0.839703     10.461890
C      1.931501     -2.187445     10.521016
C      1.011642     -2.459733     11.541729
C      0.461213     -3.713590     11.640441
C      0.828147     -4.688876     10.724515
C      1.736876     -4.438510      9.707410
C      2.283448     -3.170707      9.620058
N      2.367022      1.437893      9.900401
C      3.031314      2.204418      8.912499
O      3.081467      1.757849      7.750785
C      3.628439      3.487323      9.304334
C      4.273048      4.217301      8.315534
N      4.816192      5.391259      8.686887
C      4.751884      5.853596      9.938923
C      4.105021      5.112733     10.913230
N      3.552174      3.935298     10.572939
B     -2.512509     -1.540022     11.252855
O     -2.281281     -1.403161     12.688438
O     -3.209552     -2.720916     10.749324
H     -5.749620      1.082767     10.183891
H     -4.173934      1.142835     10.972226
H     -4.434104      1.892387      9.310981
H     -4.761991     -1.092342      9.964010
H     -5.613261     -1.319130      7.867282
H     -4.496953     -0.026007      7.181230
H     -5.970087      0.450804      8.043061
H     -2.645677      0.282211      8.255321
H     -2.846108     -1.488470      8.519249
H     -2.158652      0.539883     10.708763
H     -0.468073     -1.550044      9.283883
H      1.869804     -0.123258      8.512030
H      2.509867     -0.343152     11.478198
H      3.541770     -0.815236     10.112901
H      0.724835     -1.697992     12.257365
H     -0.253019     -3.929634     12.430807
H      0.407873     -5.700063     10.774646
H      2.010633     -5.214455      9.001385
H      2.982064     -2.949697      8.851525
H      2.270396      1.723424     10.899764
H      4.330727      3.846256      7.286652
H      5.190914      6.801789     10.237473
H      4.029485      5.449222     11.938656
H     -2.246786     -0.428666     12.905989
H     -2.534951     -3.464356     10.856879
Ti     -2.141866     -3.008818      2.119748
Ti      0.288991     -1.694759      1.432425
Ti      1.903098     -3.067749     -0.729322
Ti     -2.521502     -0.251928      1.303687
Ti      2.142050      0.499533      2.204434
Ti     -0.681448      0.189635      3.681230
Ti     -2.036770     -3.077740     -1.200512
Ti     -0.605340     -0.770900     -2.035132
Ti      1.945488     -1.587317     -3.412400
Ti     -1.878170      1.746573     -1.240030
Ti      2.412512      0.454231     -0.774247
Ti      0.817742      1.838452     -2.940004
C     -3.678414      1.281398      0.600737
C      4.128193      0.482847      0.387293
C      0.455479      2.267202      0.349695
C     -3.666709      2.118834     -0.313920
C      4.115962      0.632239      1.621354
C     -0.635167      2.741046     -0.118921
C      1.630072      1.780996      0.734224
O     -3.093456     -1.956907      1.037949
O     -0.487250     -2.605849      2.701203
O      0.314079     -2.888890      0.145001
O     -0.800785     -0.435934      0.971227
O      1.902865     -1.158331      1.469449
O     -2.322673     -0.113878      3.024800
O      1.013786      0.441598      3.568761
O     -1.772019     -4.587905     -1.652810
O      0.190605     -1.189189     -3.534030
O      2.831420     -2.170248     -1.918042
O     -2.054558     -0.224445     -1.337505
O      0.768511     -0.390574     -1.063664
O     -0.900039      1.649313     -2.818565
O      2.415313      1.357463     -2.264115
