86
Drug@Ti12C7O14 clean complex
C      3.664400     -2.310487      9.911650
C      3.730681     -1.180724      8.900111
C      4.648385     -1.624116      7.787149
C      4.258755      0.078838      9.554531
C      3.389179      0.518997     10.677155
N      2.028529      0.826774     10.352510
C      0.894709      0.250987     10.938881
O      0.941409     -0.638517     11.854006
C     -0.503183      0.640907     10.531227
C     -0.675292      0.423912      9.067818
C     -1.989879      0.756754      8.512443
C     -2.194464      2.059165      8.057344
C     -3.409359      2.387470      7.536800
C     -4.431826      1.477171      7.448293
C     -4.260517      0.184059      7.889170
C     -3.037456     -0.172550      8.420989
N     -1.466396     -0.118171     11.301591
C     -2.338167      0.445302     12.256536
O     -2.345021      1.695422     12.520055
C     -3.273810     -0.408143     12.982652
C     -4.145563      0.084074     13.923629
N     -5.002913     -0.729506     14.583336
C     -5.006825     -2.063014     14.313978
C     -4.128233     -2.588088     13.359609
N     -3.303062     -1.729154     12.740397
B      4.006727      1.878404     11.274227
O      3.410309      2.533065     12.455756
O      4.637731      2.774705     10.300690
H      3.506462     -3.257878      9.321598
H      2.764755     -2.236740     10.557566
H      4.609638     -2.458724     10.456277
H      2.681625     -1.066218      8.556713
H      5.412690     -0.823083      7.599203
H      5.236333     -2.514535      8.084193
H      4.047445     -1.837873      6.881230
H      5.227293     -0.264643     10.031151
H      4.575224      0.836298      8.841318
H      3.442029     -0.239508     11.486252
H      1.858388      1.558232      9.599965
H     -0.617070      1.688202     10.852654
H     -0.494519     -0.662814      8.858642
H      0.116737      0.936942      8.459865
H     -1.422162      2.811336      8.105131
H     -3.571819      3.402560      7.181057
H     -5.367835      1.801730      7.025279
H     -5.069206     -0.530179      7.818284
H     -2.879026     -1.183393      8.774812
H     -1.513811     -1.133033     11.137998
H     -4.106919      1.154051     14.105984
H     -5.686275     -2.726629     14.834282
H     -4.105718     -3.639542     13.123388
H      3.218642      1.842207     13.135870
H      4.038248      3.089700      9.607300
Ti     -2.141866     -3.008818      2.119748
Ti      0.288991     -1.694759      1.432425
Ti      1.903098     -3.067749     -0.729322
Ti     -2.521502     -0.251928      1.303687
Ti      2.142050      0.499533      2.204434
Ti     -0.681448      0.189635      3.681230
Ti     -2.036770     -3.077740     -1.200512
Ti     -0.605340     -0.770900     -2.035132
Ti      1.945488     -1.587317     -3.412400
Ti     -1.878170      1.746573     -1.240030
Ti      2.412512      0.454231     -0.774247
Ti      0.817742      1.838452     -2.940004
C     -3.678414      1.281398      0.600737
C      4.128193      0.482847      0.387293
C      0.455479      2.267202      0.349695
C     -3.666709      2.118834     -0.313920
C      4.115962      0.632239      1.621354
C     -0.635167      2.741046     -0.118921
C      1.630072      1.780996      0.734224
O     -3.093456     -1.956907      1.037949
O     -0.487250     -2.605849      2.701203
O      0.314079     -2.888890      0.145001
O     -0.800785     -0.435934      0.971227
O      1.902865     -1.158331      1.469449
O     -2.322673     -0.113878      3.024800
O      1.013786      0.441598      3.568761
O     -1.772019     -4.587905     -1.652810
O      0.190605     -1.189189     -3.534030
O      2.831420     -2.170248     -1.918042
O     -2.054558     -0.224445     -1.337505
O      0.768511     -0.390574     -1.063664
O     -0.900039      1.649313     -2.818565
O      2.415313      1.357463     -2.264115
