53
Bortezomib - ETKDG+MMFF conformer
C     -4.645076      1.044199      0.027995
C     -4.389907     -0.273380     -0.634944
C     -5.169105     -0.311096     -1.933143
C     -2.935976     -0.483040     -0.972840
C     -2.056285     -0.445854      0.257780
N     -0.684713     -0.656814     -0.176413
C      0.330634      0.312302      0.042859
O     -0.048442      1.377168      0.640814
C      1.742171      0.132433     -0.382385
C      2.485503     -0.839703      0.509456
C      1.931501     -2.187445      0.568582
C      1.011642     -2.459733      1.589295
C      0.461213     -3.713590      1.688007
C      0.828147     -4.688876      0.772081
C      1.736876     -4.438510     -0.245024
C      2.283448     -3.170707     -0.332376
N      2.367022      1.437893     -0.052033
C      3.031314      2.204418     -1.039935
O      3.081467      1.757849     -2.201649
C      3.628439      3.487323     -0.648100
C      4.273048      4.217301     -1.636900
N      4.816192      5.391259     -1.265547
C      4.751884      5.853596     -0.013511
C      4.105021      5.112733      0.960796
N      3.552174      3.935298      0.620505
B     -2.512509     -1.540022      1.300421
O     -2.281281     -1.403161      2.736004
O     -3.209552     -2.720916      0.796890
H     -5.749620      1.082767      0.231457
H     -4.173934      1.142835      1.019792
H     -4.434104      1.892387     -0.641453
H     -4.761991     -1.092342      0.011576
H     -5.613261     -1.319130     -2.085152
H     -4.496953     -0.026007     -2.771204
H     -5.970087      0.450804     -1.909373
H     -2.645677      0.282211     -1.697113
H     -2.846108     -1.488470     -1.433185
H     -2.158652      0.539883      0.756329
H     -0.468073     -1.550044     -0.668551
H      1.869804     -0.123258     -1.440404
H      2.509867     -0.343152      1.525764
H      3.541770     -0.815236      0.160467
H      0.724835     -1.697992      2.304931
H     -0.253019     -3.929634      2.478373
H      0.407873     -5.700063      0.822212
H      2.010633     -5.214455     -0.951049
H      2.982064     -2.949697     -1.100909
H      2.270396      1.723424      0.947330
H      4.330727      3.846256     -2.665782
H      5.190914      6.801789      0.285039
H      4.029485      5.449222      1.986222
H     -2.246786     -0.428666      2.953555
H     -2.534951     -3.464356      0.904445
