      -----------------------------------------------------------      
     |                   =====================                   |     
     |                           x T B                           |     
     |                   =====================                   |     
     |                         S. Grimme                         |     
     |          Mulliken Center for Theoretical Chemistry        |     
     |                    University of Bonn                     |     
      -----------------------------------------------------------      

   * xtb version 6.7.1pre (5071a88) compiled by 'Marcel@Raven' on 2024-07-23

   xtb is free software: you can redistribute it and/or modify it under
   the terms of the GNU Lesser General Public License as published by
   the Free Software Foundation, either version 3 of the License, or
   (at your option) any later version.
   
   xtb is distributed in the hope that it will be useful,
   but WITHOUT ANY WARRANTY; without even the implied warranty of
   MERCHANTABILITY or FITNESS FOR A PARTICULAR PURPOSE.  See the
   GNU Lesser General Public License for more details.
   
   Cite this work as:
   * C. Bannwarth, E. Caldeweyher, S. Ehlert, A. Hansen, P. Pracht,
     J. Seibert, S. Spicher, S. Grimme, WIREs Comput. Mol. Sci., 2020, 11,
     e01493. DOI: 10.1002/wcms.1493
   
   for GFN2-xTB:
   * C. Bannwarth, S. Ehlert and S. Grimme., J. Chem. Theory Comput., 2019,
     15, 1652-1671. DOI: 10.1021/acs.jctc.8b01176
   for GFN1-xTB:
   * S. Grimme, C. Bannwarth, P. Shushkov, J. Chem. Theory Comput., 2017,
     13, 1989-2009. DOI: 10.1021/acs.jctc.7b00118
   for GFN0-xTB:
   * P. Pracht, E. Caldeweyher, S. Ehlert, S. Grimme, ChemRxiv, 2019, preprint.
     DOI: 10.26434/chemrxiv.8326202.v1
   for GFN-FF:
   * S. Spicher and S. Grimme, Angew. Chem. Int. Ed., 2020, 59, 15665-15673.
     DOI: 10.1002/anie.202004239
   
   for ALPB and GBSA implicit solvation:
   * S. Ehlert, M. Stahn, S. Spicher, S. Grimme, J. Chem. Theory Comput.,
     2021, 17, 4250-4261. DOI: 10.1021/acs.jctc.1c00471
   
   for ddCOSMO and CPCM-X implicit solvation:
   * M. Stahn, S. Ehlert, S. Grimme, J. Phys. Chem. A,
     2023, XX, XXXX-XXXX. DOI: 10.1021/acs.jpca.3c04382
   
   for DFT-D4:
   * E. Caldeweyher, C. Bannwarth and S. Grimme, J. Chem. Phys., 2017,
     147, 034112. DOI: 10.1063/1.4993215
   * E. Caldeweyher, S. Ehlert, A. Hansen, H. Neugebauer, S. Spicher,
     C. Bannwarth and S. Grimme, J. Chem. Phys., 2019, 150, 154122.
     DOI: 10.1063/1.5090222
   * E. Caldeweyher, J.-M. Mewes, S. Ehlert and S. Grimme, Phys. Chem. Chem. Phys.
     2020, 22, 8499-8512. DOI: 10.1039/D0CP00502A
   
   for sTDA-xTB:
   * S. Grimme and C. Bannwarth, J. Chem. Phys., 2016, 145, 054103.
     DOI: 10.1063/1.4959605
   
   in the mass-spec context:
   * V. Asgeirsson, C. Bauer and S. Grimme, Chem. Sci., 2017, 8, 4879.
     DOI: 10.1039/c7sc00601b
   * J. Koopman and S. Grimme, ACS Omega 2019, 4, 12, 15120-15133.
     DOI: 10.1021/acsomega.9b02011
   
   for metadynamics refer to:
   * S. Grimme, J. Chem. Theory Comput., 2019, 155, 2847-2862
     DOI: 10.1021/acs.jctc.9b00143
   
   for SPH calculations refer to:
   * S. Spicher and S. Grimme, J. Chem. Theory Comput., 2021, 17, 1701-1714
     DOI: 10.1021/acs.jctc.0c01306
   
   for ONIOM refer to:
   * C. Plett, A. Katbashev, S. Ehlert, S. Grimme, M. Bursch,
     Phys. Chem. Chem. Phys., 2023, 25, 17860-17868. DOI: 10.1039/D3CP02178E
   
   for DIPRO refer to:
   * J. Kohn, N. Gildemeister, S. Grimme, D. Fazzi, A. Hansen,
     J. Chem. Phys., 2023, just accepted.
   
   for PTB refer to:
   * S. Grimme, M. Mueller, A. Hansen, J. Chem. Phys., 2023, 158, 124111.
     DOI: 10.1063/5.0137838
   
   with help from (in alphabetical order)
   P. Atkinson, C. Bannwarth, F. Bohle, G. Brandenburg, E. Caldeweyher
   M. Checinski, S. Dohm, S. Ehlert, S. Ehrlich, I. Gerasimov, C. Hölzer
   A. Katbashev, J. Kohn, J. Koopman, C. Lavigne, S. Lehtola, F. März, M. Müller,
   F. Musil, H. Neugebauer, J. Pisarek, C. Plett, P. Pracht, F. Pultar,
   J. Seibert, P. Shushkov, S. Spicher, M. Stahn, M. Steiner, T. Strunk,
   J. Stückrath, T. Rose, and J. Unsleber
   
 * started run on 2026/08/31 at 22:02:30.812     
   ID    Z sym.   atoms
    1    6 C      1-5, 7, 9-16, 18, 20, 21, 23, 24, 66-72
    2    7 N      6, 17, 22, 25
    3    8 O      8, 19, 27, 28, 73-86
    4    5 B      26
    5    1 H      29-53
    6   22 Ti     54-65

           -------------------------------------------------
          |                Calculation Setup                |
           -------------------------------------------------

          program call               : "c:\Users\Andre\Proyectos doctorado\kras-pancreatic-gC3N4-ai\tools\xtb\xtb-6.7.1\bin\xtb.exe" "c:\Users\Andre\Proyectos doctorado\mxene-glioblastoma-qsar-ai\calculations\gbm\Bortezomib\Bortezomib_Ti12C7O14_clean_complex.xyz" --gfn 2 --sp --chrg 0 --uhf 0 --etemp 500 --acc 1.0 --iterations 500 --norestart
          coordinate file            : c:\Users\Andre\Proyectos doctorado\mxene-glioblastoma-qsar-ai\calculations\gbm\Bortezomib\Bortezomib_Ti12C7O14_clean_complex.xyz
          omp threads                :                    16


molecular fragmentation (1/2 indicates fragments):
111111111111111111111111111111111111111111111111111112222222222222222222
22222222222222
# atoms in fragment 1/2:    53    33
 fragment masses (1/2) :      384.24      882.47
CMA distance (Bohr)    :  20.445
constraining FC (au)   :  0.0500

           -------------------------------------------------
          |                 G F N 2 - x T B                 |
           -------------------------------------------------

        Reference                      10.1021/acs.jctc.8b01176
      * Hamiltonian:
        H0-scaling (s, p, d)           1.850000    2.230000    2.230000
        zeta-weighting                 0.500000
      * Dispersion:
        s8                             2.700000
        a1                             0.520000
        a2                             5.000000
        s9                             5.000000
      * Repulsion:
        kExp                           1.500000    1.000000
        rExp                           1.000000
      * Coulomb:
        alpha                          2.000000
        third order                    shell-resolved
        anisotropic                    true
        a3                             3.000000
        a5                             4.000000
        cn-shift                       1.200000
        cn-exp                         4.000000
        max-rad                        5.000000


          ...................................................
          :                      SETUP                      :
          :.................................................:
          :  # basis functions                 341          :
          :  # atomic orbitals                 329          :
          :  # shells                          159          :
          :  # electrons                       308          :
          :  max. iterations                   500          :
          :  Hamiltonian                  GFN2-xTB          :
          :  restarted?                      false          :
          :  GBSA solvation                  false          :
          :  PC potential                    false          :
          :  electronic temp.          500.0000000     K    :
          :  accuracy                    1.0000000          :
          :  -> integral cutoff          0.2500000E+02      :
          :  -> integral neglect         0.1000000E-07      :
          :  -> SCF convergence          0.1000000E-05 Eh   :
          :  -> wf. convergence          0.1000000E-03 e    :
          :  Broyden damping             0.4000000          :
          :  net charge                          0          :
          :  unpaired electrons                  0          :
          ...................................................

 iter      E             dE          RMSdq      gap      omega  full diag
   1   -172.7238853 -0.172724E+03  0.137E+01    0.10       0.0  T
   2   -127.9842638  0.447396E+02  0.151E+01    0.14       1.0  T
   3    104.9644342  0.232949E+03  0.287E+01    0.01       1.0  T
   4   -132.0791187 -0.237044E+03  0.138E+01    0.06       1.0  T
   5   -115.0523746  0.170267E+02  0.149E+01    0.07       1.0  T
   6   -171.8424269 -0.567901E+02  0.813E+00    0.30       1.0  T
   7   -175.0281632 -0.318574E+01  0.605E+00    0.09       1.0  T
   8   -174.9116106  0.116553E+00  0.576E+00    0.29       1.0  T
   9   -172.1827069  0.272890E+01  0.614E+00    0.09       1.0  T
  10   -174.5033674 -0.232066E+01  0.530E+00    0.09       1.0  T
  11   -174.9018943 -0.398527E+00  0.515E+00    0.31       1.0  T
  12   -172.7052194  0.219667E+01  0.567E+00    0.18       1.0  T
  13   -174.3401212 -0.163490E+01  0.467E+00    0.16       1.0  T
  14   -173.8628403  0.477281E+00  0.467E+00    0.10       1.0  T
  15   -172.4903591  0.137248E+01  0.470E+00    0.33       1.0  T
  16   -174.8052283 -0.231487E+01  0.353E+00    0.10       1.0  T
  17   -174.9835724 -0.178344E+00  0.326E+00    0.15       1.0  T
  18   -172.6764583  0.230711E+01  0.414E+00    0.01       1.0  T
  19   -175.1280619 -0.245160E+01  0.353E+00    0.34       1.0  T
  20   -175.2906775 -0.162616E+00  0.310E+00    0.06       1.0  T
  21   -175.3719912 -0.813137E-01  0.294E+00    0.17       1.0  T
  22   -176.2426789 -0.870688E+00  0.217E+00    0.38       1.0  T
  23   -176.2467138 -0.403492E-02  0.208E+00    0.36       1.0  T
  24   -176.2529911 -0.627726E-02  0.192E+00    0.34       1.0  T
  25   -176.0950790  0.157912E+00  0.196E+00    0.08       1.0  T
  26   -176.2793298 -0.184251E+00  0.132E+00    0.29       1.0  T
  27   -176.3135935 -0.342637E-01  0.978E-01    0.40       1.0  T
  28   -176.3252953 -0.117018E-01  0.776E-01    0.54       1.0  T
  29   -176.3336280 -0.833276E-02  0.625E-01    0.66       1.0  T
  30   -176.3411437 -0.751563E-02  0.509E-01    0.83       1.0  T
  31   -176.3427492 -0.160551E-02  0.469E-01    0.89       1.0  T
  32   -176.3440063 -0.125714E-02  0.431E-01    0.87       1.0  T
  33   -176.3461363 -0.212993E-02  0.362E-01    0.80       1.0  T
  34   -176.3468281 -0.691812E-03  0.319E-01    0.78       1.0  T
  35   -176.3482054 -0.137729E-02  0.266E-01    0.76       1.0  T
  36   -176.3491249 -0.919570E-03  0.234E-01    0.73       1.0  T
  37   -176.3497908 -0.665892E-03  0.207E-01    0.73       1.0  T
  38   -176.3505341 -0.743291E-03  0.176E-01    0.70       1.0  T
  39   -176.3510387 -0.504590E-03  0.149E-01    0.62       1.0  T
  40   -176.3514197 -0.380982E-03  0.116E-01    0.57       1.0  T
  41   -176.3516162 -0.196539E-03  0.877E-02    0.53       1.0  T
  42   -176.3517235 -0.107296E-03  0.717E-02    0.52       1.0  T
  43   -176.3517892 -0.656587E-04  0.575E-02    0.50       1.0  T
  44   -176.3518251 -0.359614E-04  0.502E-02    0.49       1.0  T
  45   -176.3518751 -0.499514E-04  0.382E-02    0.48       1.0  T
  46   -176.3519032 -0.281057E-04  0.298E-02    0.46       1.0  T
  47   -176.3519256 -0.223852E-04  0.234E-02    0.45       1.0  T
  48   -176.3519441 -0.185235E-04  0.153E-02    0.44       1.0  T
  49   -176.3519514 -0.730071E-05  0.112E-02    0.43       1.0  T
  50   -176.3519534 -0.199472E-05  0.951E-03    0.43       1.1  T
  51   -176.3519557 -0.226675E-05  0.807E-03    0.43       1.3  T
  52   -176.3519563 -0.579602E-06  0.732E-03    0.43       1.5  T
  53   -176.3519569 -0.601682E-06  0.643E-03    0.43       1.7  T
  54   -176.3519575 -0.604251E-06  0.576E-03    0.43       1.9  T
  55   -176.3519577 -0.220231E-06  0.556E-03    0.43       1.9  T
  56   -176.3519582 -0.475566E-06  0.487E-03    0.43       2.2  T
  57   -176.3519588 -0.643530E-06  0.376E-03    0.43       2.9  T
  58   -176.3519595 -0.746962E-06  0.227E-03    0.42       4.8  T
  59   -176.3519598 -0.289109E-06  0.148E-03    0.42       7.3  T
  60   -176.3519599 -0.109315E-06  0.108E-03    0.42      10.0  T
  61   -176.3519600 -0.833760E-07  0.653E-04    0.42      16.5  T
  62   -176.3519601 -0.316133E-07  0.431E-04    0.42      25.0  T

   *** convergence criteria satisfied after 62 iterations ***

         #    Occupation            Energy/Eh            Energy/eV
      -------------------------------------------------------------
         1        2.0000           -0.8256066             -22.4659
       ...           ...                  ...                  ...
       148        2.0000           -0.3609727              -9.8226
       149        2.0000           -0.3566543              -9.7051
       150        2.0000           -0.3557166              -9.6795
       151        2.0000           -0.3498694              -9.5204
       152        2.0000           -0.3423270              -9.3152
       153        2.0000           -0.3282274              -8.9315
       154        1.9845           -0.3137134              -8.5366 (HOMO)
       155        0.0153           -0.2983288              -8.1179 (LUMO)
       156        0.0001           -0.2900691              -7.8932
       157        0.0000           -0.2890397              -7.8652
       158        0.0000           -0.2880978              -7.8395
       159        0.0000           -0.2880173              -7.8373
       ...           ...                  ...                  ...
       329                         13.3646471             363.6706
      -------------------------------------------------------------
                  HL-Gap            0.0153846 Eh            0.4186 eV
             Fermi-level           -0.3060302 Eh           -8.3275 eV

 SCC (total)                   0 d,  0 h,  0 min, 14.011 sec
 SCC setup                      ...        0 min,  0.035 sec (  0.250%)
 Dispersion                     ...        0 min,  0.081 sec (  0.578%)
 classical contributions        ...        0 min,  0.067 sec (  0.478%)
 integral evaluation            ...        0 min,  0.094 sec (  0.671%)
 iterations                     ...        0 min, 13.710 sec ( 97.852%)
 molecular gradient             ...        0 min,  0.022 sec (  0.157%)
 printout                       ...        0 min,  0.002 sec (  0.014%)

         :::::::::::::::::::::::::::::::::::::::::::::::::::::
         ::                     SUMMARY                     ::
         :::::::::::::::::::::::::::::::::::::::::::::::::::::
         :: total energy            -174.656796776935 Eh    ::
         :: gradient norm              0.253342100669 Eh/a0 ::
         :: HOMO-LUMO gap              0.418636677892 eV    ::
         ::.................................................::
         :: SCC energy              -176.348885174605 Eh    ::
         :: -> isotropic ES            1.080068273882 Eh    ::
         :: -> anisotropic ES         -0.372246566374 Eh    ::
         :: -> anisotropic XC         -0.018846929142 Eh    ::
         :: -> dispersion             -0.144135299543 Eh    ::
         :: repulsion energy           1.692088397670 Eh    ::
         :: add. restraining           0.000000000000 Eh    ::
         :: total charge              -0.000000001007 e     ::
         :::::::::::::::::::::::::::::::::::::::::::::::::::::

           -------------------------------------------------
          |                Property Printout                |
           -------------------------------------------------

    * Orbital Energies and Occupations

         #    Occupation            Energy/Eh            Energy/eV
      -------------------------------------------------------------
         1        2.0000           -0.8256066             -22.4659
       ...           ...                  ...                  ...
       142        2.0000           -0.3876076             -10.5473
       143        2.0000           -0.3865685             -10.5191
       144        2.0000           -0.3820412             -10.3959
       145        2.0000           -0.3736284             -10.1669
       146        2.0000           -0.3657746              -9.9532
       147        2.0000           -0.3635777              -9.8935
       148        2.0000           -0.3609727              -9.8226
       149        2.0000           -0.3566543              -9.7051
       150        2.0000           -0.3557166              -9.6795
       151        2.0000           -0.3498694              -9.5204
       152        2.0000           -0.3423270              -9.3152
       153        2.0000           -0.3282274              -8.9315
       154        1.9845           -0.3137134              -8.5366 (HOMO)
       155        0.0153           -0.2983288              -8.1179 (LUMO)
       156        0.0001           -0.2900691              -7.8932
       157        0.0000           -0.2890397              -7.8652
       158        0.0000           -0.2880978              -7.8395
       159        0.0000           -0.2880173              -7.8373
       160        0.0000           -0.2844066              -7.7391
       161                         -0.2793265              -7.6009
       162                         -0.2783662              -7.5747
       163                         -0.2763393              -7.5196
       164                         -0.2762010              -7.5158
       165                         -0.2754820              -7.4962
       ...                                ...                  ...
       329                         13.3646471             363.6706
      -------------------------------------------------------------
                  HL-Gap            0.0153846 Eh            0.4186 eV
             Fermi-level           -0.3060302 Eh           -8.3275 eV

     #   Z          covCN         q      C6AA      α(0)
     1   6 C        3.753    -0.113    22.726     6.798
     2   6 C        3.855    -0.011    20.733     6.476
     3   6 C        3.754    -0.117    22.790     6.807
     4   6 C        3.812    -0.078    21.970     6.672
     5   6 C        3.710    -0.046    21.531     6.631
     6   7 N        2.682    -0.158    24.421     7.339
     7   6 C        2.757     0.240    22.992     7.852
     8   8 O        0.857    -0.450    22.716     6.390
     9   6 C        3.793     0.037    19.962     6.363
    10   6 C        3.818    -0.070    21.826     6.649
    11   6 C        2.978     0.011    27.767     8.644
    12   6 C        2.927    -0.043    29.071     8.842
    13   6 C        2.929    -0.030    28.756     8.794
    14   6 C        2.930    -0.033    28.832     8.806
    15   6 C        2.918    -0.031    28.773     8.796
    16   6 C        2.927    -0.042    29.055     8.840
    17   7 N        2.686    -0.143    24.093     7.290
    18   6 C        2.754     0.251    22.782     7.816
    19   8 O        0.857    -0.447    22.646     6.380
    20   6 C        2.905     0.077    26.289     8.407
    21   6 C        2.871     0.064    26.572     8.450
    22   7 N        1.835    -0.192    25.973     7.552
    23   6 C        2.862     0.051    26.846     8.493
    24   6 C        2.847     0.051    26.858     8.494
    25   7 N        1.856    -0.219    26.629     7.648
    26   5 B        2.466     0.447    17.452     7.416
    27   8 O        1.580    -0.464    22.172     6.354
    28   8 O        1.584    -0.510    23.158     6.494
    29   1 H        0.918     0.029     2.595     2.519
    30   1 H        0.922     0.050     2.325     2.385
    31   1 H        0.923     0.037     2.496     2.470
    32   1 H        0.922     0.023     2.683     2.562
    33   1 H        0.919     0.037     2.493     2.470
    34   1 H        0.922     0.046     2.372     2.409
    35   1 H        0.922     0.036     2.505     2.475
    36   1 H        0.917     0.046     2.366     2.406
    37   1 H        0.925     0.049     2.336     2.390
    38   1 H        0.922     0.076     2.021     2.223
    39   1 H        0.855     0.160     1.333     1.809
    40   1 H        0.923     0.094     1.841     2.122
    41   1 H        0.919     0.047     2.357     2.401
    42   1 H        0.919     0.044     2.403     2.424
    43   1 H        0.926     0.040     2.449     2.447
    44   1 H        0.925     0.040     2.443     2.444
    45   1 H        0.926     0.042     2.418     2.432
    46   1 H        0.925     0.041     2.437     2.441
    47   1 H        0.925     0.037     2.491     2.468
    48   1 H        0.859     0.197     1.120     1.658
    49   1 H        0.925     0.081     1.969     2.195
    50   1 H        0.925     0.052     2.293     2.368
    51   1 H        0.926     0.053     2.283     2.363
    52   1 H        0.802     0.310     0.691     1.306
    53   1 H        0.804     0.312     0.687     1.302
    54  22 Ti       3.637     1.051   101.789    24.487
    55  22 Ti       6.855     1.552    84.051    14.885
    56  22 Ti       3.227     1.049   102.630    24.737
    57  22 Ti       5.860     1.380    85.674    15.028
    58  22 Ti       5.627     1.121    88.213    15.249
    59  22 Ti       3.541     1.036   102.523    24.678
    60  22 Ti       2.352     0.882   202.643    34.856
    61  22 Ti       6.011     1.349    85.968    15.053
    62  22 Ti       3.414     1.009   103.041    24.778
    63  22 Ti       5.519     1.099    88.431    15.268
    64  22 Ti       5.687     1.191    87.513    15.188
    65  22 Ti       3.581     1.027   102.461    24.641
    66   6 C        2.246    -0.258    37.654     9.942
    67   6 C        2.142    -0.254    38.303    10.004
    68   6 C        2.248    -0.020    30.619     8.966
    69   6 C        1.838    -0.210    37.312     9.868
    70   6 C        1.894    -0.224    37.747     9.923
    71   6 C        1.821    -0.346    42.151    10.490
    72   6 C        2.631    -0.404    39.932    10.336
    73   8 O        1.554    -0.848    32.026     7.635
    74   8 O        1.464    -0.882    33.240     7.771
    75   8 O        1.557    -0.956    35.610     8.051
    76   8 O        1.523    -1.006    37.470     8.256
    77   8 O        1.523    -0.912    34.156     7.883
    78   8 O        1.458    -0.822    31.388     7.551
    79   8 O        1.455    -0.798    30.673     7.464
    80   8 O        0.727    -0.635    27.075     6.973
    81   8 O        1.453    -0.864    32.706     7.708
    82   8 O        1.476    -0.800    30.675     7.467
    83   8 O        1.603    -0.946    35.205     8.008
    84   8 O        1.547    -0.969    36.079     8.104
    85   8 O        1.700    -0.817    30.983     7.515
    86   8 O        1.453    -0.781    30.173     7.403

 Mol. C6AA /au·bohr⁶  :     168819.161843
 Mol. C8AA /au·bohr⁸  :    7220364.164754
 Mol. α(0) /au        :        694.147331


Wiberg/Mayer (AO) data.
largest (>0.10) Wiberg bond orders for each atom

 ---------------------------------------------------------------------------
     #   Z sym  total        # sym  WBO       # sym  WBO       # sym  WBO
 ---------------------------------------------------------------------------
     1   6 C    3.993 --     2 C    1.008    29 H    0.984    31 H    0.984
                            30 H    0.983
     2   6 C    3.996 --     1 C    1.008     3 C    1.007     4 C    0.995
                            32 H    0.967
     3   6 C    3.993 --     2 C    1.007    35 H    0.988    33 H    0.984
                            34 H    0.983
     4   6 C    3.991 --     5 C    0.996     2 C    0.995    37 H    0.967
                            36 H    0.964
     5   6 C    3.943 --     4 C    0.996     6 N    0.978    38 H    0.946
                            26 B    0.931
     6   7 N    3.456 --     7 C    1.241     5 C    0.978    39 H    0.936
                             8 O    0.190
     7   6 C    3.952 --     8 O    1.650     6 N    1.241     9 C    0.959
     8   8 O    1.961 --     7 C    1.650     6 N    0.190
     9   6 C    3.976 --    17 N    1.002    10 C    0.971     7 C    0.959
                            40 H    0.930
    10   6 C    3.985 --    11 C    1.017     9 C    0.971    41 H    0.960
                            42 H    0.952
    11   6 C    3.988 --    16 C    1.406    12 C    1.397    10 C    1.017
                            14 C    0.115
    12   6 C    3.990 --    13 C    1.455    11 C    1.397    43 H    0.966
                            15 C    0.110
    13   6 C    3.992 --    12 C    1.455    14 C    1.431    44 H    0.968
                            16 C    0.109
    14   6 C    3.989 --    15 C    1.439    13 C    1.431    45 H    0.970
                            11 C    0.115
    15   6 C    3.990 --    16 C    1.446    14 C    1.439    46 H    0.969
                            12 C    0.110
    16   6 C    3.986 --    15 C    1.446    11 C    1.406    47 H    0.968
                            13 C    0.109
    17   7 N    3.466 --    18 C    1.235     9 C    1.002    48 H    0.929
                            19 O    0.205
    18   6 C    3.952 --    19 O    1.628    17 N    1.235    20 C    1.020
    19   8 O    1.968 --    18 C    1.628    17 N    0.205
    20   6 C    3.975 --    21 C    1.379    25 N    1.378    18 C    1.020
                            23 C    0.109
    21   6 C    3.969 --    22 N    1.441    20 C    1.379    49 H    0.955
                            24 C    0.113
    22   7 N    3.053 --    21 C    1.441    23 C    1.435    25 N    0.101
    23   6 C    3.970 --    22 N    1.435    24 C    1.402    50 H    0.964
                            20 C    0.109
    24   6 C    3.977 --    25 N    1.455    23 C    1.402    51 H    0.962
                            21 C    0.113
    25   7 N    3.054 --    24 C    1.455    20 C    1.378    22 N    0.101
    26   5 B    3.309 --    27 O    1.186    28 O    1.061     5 C    0.931
    27   8 O    2.154 --    26 B    1.186    52 H    0.885
    28   8 O    2.013 --    26 B    1.061    53 H    0.865
    29   1 H    0.999 --     1 C    0.984
    30   1 H    0.998 --     1 C    0.983
    31   1 H    0.999 --     1 C    0.984
    32   1 H    0.999 --     2 C    0.967
    33   1 H    0.998 --     3 C    0.984
    34   1 H    0.998 --     3 C    0.983
    35   1 H    0.997 --     3 C    0.988
    36   1 H    0.997 --     4 C    0.964
    37   1 H    0.998 --     4 C    0.967
    38   1 H    0.994 --     5 C    0.946
    39   1 H    0.974 --     6 N    0.936
    40   1 H    0.991 --     9 C    0.930
    41   1 H    0.997 --    10 C    0.960
    42   1 H    0.997 --    10 C    0.952
    43   1 H    0.998 --    12 C    0.966
    44   1 H    0.997 --    13 C    0.968
    45   1 H    0.998 --    14 C    0.970
    46   1 H    0.998 --    15 C    0.969
    47   1 H    0.998 --    16 C    0.968
    48   1 H    0.961 --    17 N    0.929
    49   1 H    0.993 --    21 C    0.955
    50   1 H    0.997 --    23 C    0.964
    51   1 H    0.997 --    24 C    0.962
    52   1 H    0.904 --    27 O    0.885
    53   1 H    0.903 --    28 O    0.865
    54  22 Ti   2.826 --    73 O    0.845    74 O    0.814    60 Ti   0.332
                            55 Ti   0.201    57 Ti   0.198
    55  22 Ti   3.852 --    74 O    0.751    77 O    0.747    75 O    0.689
                            76 O    0.607    54 Ti   0.201    56 Ti   0.188
                            58 Ti   0.139    59 Ti   0.133
    56  22 Ti   2.722 --    82 O    0.961    75 O    0.600    62 Ti   0.371
                            55 Ti   0.188    60 Ti   0.140    77 O    0.110
    57  22 Ti   3.921 --    78 O    0.938    66 C    0.719    73 O    0.705
                            76 O    0.566    59 Ti   0.208    54 Ti   0.198
                            63 Ti   0.178    83 O    0.124
    58  22 Ti   4.069 --    72 C    0.891    79 O    0.771    70 C    0.743
                            77 O    0.600    64 Ti   0.283    59 Ti   0.174
                            71 C    0.161    67 C    0.152    55 Ti   0.139
    59  22 Ti   2.659 --    79 O    0.972    78 O    0.708    57 Ti   0.208
                            58 Ti   0.174    55 Ti   0.133    74 O    0.122
    60  22 Ti   3.769 --    80 O    1.996    61 Ti   0.608    54 Ti   0.332
                            75 O    0.153    73 O    0.147    56 Ti   0.140
                            83 O    0.112
    61  22 Ti   4.016 --    83 O    0.800    81 O    0.753    84 O    0.715
                            60 Ti   0.608    85 O    0.195    62 Ti   0.167
                            65 Ti   0.148    63 Ti   0.141
    62  22 Ti   2.745 --    81 O    0.834    82 O    0.765    56 Ti   0.371
                            65 Ti   0.221    61 Ti   0.167    64 Ti   0.130
    63  22 Ti   4.006 --    71 C    1.052    69 C    0.727    85 O    0.616
                            83 O    0.443    72 C    0.227    65 Ti   0.200
                            57 Ti   0.178    66 C    0.156    61 Ti   0.141
    64  22 Ti   4.078 --    86 O    0.967    67 C    0.670    72 C    0.653
                            84 O    0.442    58 Ti   0.283    65 Ti   0.210
                            71 C    0.140    62 Ti   0.130    82 O    0.114
    65  22 Ti   2.790 --    85 O    0.899    86 O    0.734    62 Ti   0.221
                            64 Ti   0.210    63 Ti   0.200    61 Ti   0.148
    66   6 C    3.842 --    69 C    2.739    57 Ti   0.719    63 Ti   0.156
    67   6 C    3.781 --    70 C    2.732    64 Ti   0.670    58 Ti   0.152
    68   6 C    3.979 --    71 C    2.009    72 C    1.603
    69   6 C    3.706 --    66 C    2.739    63 Ti   0.727
    70   6 C    3.749 --    67 C    2.732    58 Ti   0.743
    71   6 C    3.760 --    68 C    2.009    63 Ti   1.052    58 Ti   0.161
                            64 Ti   0.140
    72   6 C    3.819 --    68 C    1.603    58 Ti   0.891    64 Ti   0.653
                            63 Ti   0.227
    73   8 O    1.933 --    54 Ti   0.845    57 Ti   0.705    60 Ti   0.147
    74   8 O    1.891 --    54 Ti   0.814    55 Ti   0.751    59 Ti   0.122
    75   8 O    1.783 --    55 Ti   0.689    56 Ti   0.600    60 Ti   0.153
    76   8 O    1.719 --    55 Ti   0.607    57 Ti   0.566
    77   8 O    1.847 --    55 Ti   0.747    58 Ti   0.600    56 Ti   0.110
    78   8 O    1.971 --    57 Ti   0.938    59 Ti   0.708
    79   8 O    2.012 --    59 Ti   0.972    58 Ti   0.771
    80   8 O    2.171 --    60 Ti   1.996
    81   8 O    1.911 --    62 Ti   0.834    61 Ti   0.753
    82   8 O    2.008 --    56 Ti   0.961    62 Ti   0.765    64 Ti   0.114
    83   8 O    1.798 --    61 Ti   0.800    63 Ti   0.443    57 Ti   0.124
                            60 Ti   0.112
    84   8 O    1.772 --    61 Ti   0.715    64 Ti   0.442
    85   8 O    1.986 --    65 Ti   0.899    63 Ti   0.616    61 Ti   0.195
    86   8 O    2.031 --    64 Ti   0.967    65 Ti   0.734
 ---------------------------------------------------------------------------

Topologies differ in total number of bonds
Writing topology from bond orders to xtbtopo.mol

molecular dipole:
                 x           y           z       tot (Debye)
 q only:        1.074      -1.887      -2.898
   full:       -0.302      -2.399      -2.446       8.742
molecular quadrupole (traceless):
                xx          xy          yy          xz          yz          zz
 q only:        9.080       0.834      30.792     -19.235     -48.098     -39.872
  q+dip:       26.888      -1.364      22.083      14.896     -79.303     -48.971
   full:       28.982      -0.892      20.120      16.160     -76.161     -49.102


           -------------------------------------------------
          | TOTAL ENERGY             -174.656796776935 Eh   |
          | GRADIENT NORM               0.253342100669 Eh/α |
          | HOMO-LUMO GAP               0.418636677892 eV   |
           -------------------------------------------------

------------------------------------------------------------------------
 * finished run on 2026/08/31 at 22:02:39.202     
------------------------------------------------------------------------
 total:
 * wall-time:     0 d,  0 h,  0 min, 14.289 sec
 *  cpu-time:     0 d,  0 h,  0 min, 51.828 sec
 * ratio c/w:     3.627 speedup
 SCF:
 * wall-time:     0 d,  0 h,  0 min, 14.013 sec
 *  cpu-time:     0 d,  0 h,  0 min, 50.391 sec
 * ratio c/w:     3.596 speedup

normal termination of xtb
