      -----------------------------------------------------------      
     |                   =====================                   |     
     |                           x T B                           |     
     |                   =====================                   |     
     |                         S. Grimme                         |     
     |          Mulliken Center for Theoretical Chemistry        |     
     |                    University of Bonn                     |     
      -----------------------------------------------------------      

   * xtb version 6.7.1pre (5071a88) compiled by 'Marcel@Raven' on 2024-07-23

   xtb is free software: you can redistribute it and/or modify it under
   the terms of the GNU Lesser General Public License as published by
   the Free Software Foundation, either version 3 of the License, or
   (at your option) any later version.
   
   xtb is distributed in the hope that it will be useful,
   but WITHOUT ANY WARRANTY; without even the implied warranty of
   MERCHANTABILITY or FITNESS FOR A PARTICULAR PURPOSE.  See the
   GNU Lesser General Public License for more details.
   
   Cite this work as:
   * C. Bannwarth, E. Caldeweyher, S. Ehlert, A. Hansen, P. Pracht,
     J. Seibert, S. Spicher, S. Grimme, WIREs Comput. Mol. Sci., 2020, 11,
     e01493. DOI: 10.1002/wcms.1493
   
   for GFN2-xTB:
   * C. Bannwarth, S. Ehlert and S. Grimme., J. Chem. Theory Comput., 2019,
     15, 1652-1671. DOI: 10.1021/acs.jctc.8b01176
   for GFN1-xTB:
   * S. Grimme, C. Bannwarth, P. Shushkov, J. Chem. Theory Comput., 2017,
     13, 1989-2009. DOI: 10.1021/acs.jctc.7b00118
   for GFN0-xTB:
   * P. Pracht, E. Caldeweyher, S. Ehlert, S. Grimme, ChemRxiv, 2019, preprint.
     DOI: 10.26434/chemrxiv.8326202.v1
   for GFN-FF:
   * S. Spicher and S. Grimme, Angew. Chem. Int. Ed., 2020, 59, 15665-15673.
     DOI: 10.1002/anie.202004239
   
   for ALPB and GBSA implicit solvation:
   * S. Ehlert, M. Stahn, S. Spicher, S. Grimme, J. Chem. Theory Comput.,
     2021, 17, 4250-4261. DOI: 10.1021/acs.jctc.1c00471
   
   for ddCOSMO and CPCM-X implicit solvation:
   * M. Stahn, S. Ehlert, S. Grimme, J. Phys. Chem. A,
     2023, XX, XXXX-XXXX. DOI: 10.1021/acs.jpca.3c04382
   
   for DFT-D4:
   * E. Caldeweyher, C. Bannwarth and S. Grimme, J. Chem. Phys., 2017,
     147, 034112. DOI: 10.1063/1.4993215
   * E. Caldeweyher, S. Ehlert, A. Hansen, H. Neugebauer, S. Spicher,
     C. Bannwarth and S. Grimme, J. Chem. Phys., 2019, 150, 154122.
     DOI: 10.1063/1.5090222
   * E. Caldeweyher, J.-M. Mewes, S. Ehlert and S. Grimme, Phys. Chem. Chem. Phys.
     2020, 22, 8499-8512. DOI: 10.1039/D0CP00502A
   
   for sTDA-xTB:
   * S. Grimme and C. Bannwarth, J. Chem. Phys., 2016, 145, 054103.
     DOI: 10.1063/1.4959605
   
   in the mass-spec context:
   * V. Asgeirsson, C. Bauer and S. Grimme, Chem. Sci., 2017, 8, 4879.
     DOI: 10.1039/c7sc00601b
   * J. Koopman and S. Grimme, ACS Omega 2019, 4, 12, 15120-15133.
     DOI: 10.1021/acsomega.9b02011
   
   for metadynamics refer to:
   * S. Grimme, J. Chem. Theory Comput., 2019, 155, 2847-2862
     DOI: 10.1021/acs.jctc.9b00143
   
   for SPH calculations refer to:
   * S. Spicher and S. Grimme, J. Chem. Theory Comput., 2021, 17, 1701-1714
     DOI: 10.1021/acs.jctc.0c01306
   
   for ONIOM refer to:
   * C. Plett, A. Katbashev, S. Ehlert, S. Grimme, M. Bursch,
     Phys. Chem. Chem. Phys., 2023, 25, 17860-17868. DOI: 10.1039/D3CP02178E
   
   for DIPRO refer to:
   * J. Kohn, N. Gildemeister, S. Grimme, D. Fazzi, A. Hansen,
     J. Chem. Phys., 2023, just accepted.
   
   for PTB refer to:
   * S. Grimme, M. Mueller, A. Hansen, J. Chem. Phys., 2023, 158, 124111.
     DOI: 10.1063/5.0137838
   
   with help from (in alphabetical order)
   P. Atkinson, C. Bannwarth, F. Bohle, G. Brandenburg, E. Caldeweyher
   M. Checinski, S. Dohm, S. Ehlert, S. Ehrlich, I. Gerasimov, C. Hölzer
   A. Katbashev, J. Kohn, J. Koopman, C. Lavigne, S. Lehtola, F. März, M. Müller,
   F. Musil, H. Neugebauer, J. Pisarek, C. Plett, P. Pracht, F. Pultar,
   J. Seibert, P. Shushkov, S. Spicher, M. Stahn, M. Steiner, T. Strunk,
   J. Stückrath, T. Rose, and J. Unsleber
   
 * started run on 2026/08/31 at 20:52:59.479     
   ID    Z sym.   atoms
    1    6 C      1-5, 7, 9-16, 18, 20, 21, 23, 24, 66-72
    2    7 N      6, 17, 22, 25
    3    8 O      8, 19, 27, 28, 73-86
    4    5 B      26
    5    1 H      29-53
    6   22 Ti     54-65

           -------------------------------------------------
          |                Calculation Setup                |
           -------------------------------------------------

          program call               : "c:\Users\Andre\Proyectos doctorado\kras-pancreatic-gC3N4-ai\tools\xtb\xtb-6.7.1\bin\xtb.exe" "c:\Users\Andre\Proyectos doctorado\mxene-glioblastoma-qsar-ai\calculations\gbm\Bortezomib\Bortezomib_Ti3C2O2_complex.xyz" --gfn 2 --sp --chrg 0 --uhf 0 --iterations 500 --norestart
          coordinate file            : c:\Users\Andre\Proyectos doctorado\mxene-glioblastoma-qsar-ai\calculations\gbm\Bortezomib\Bortezomib_Ti3C2O2_complex.xyz
          omp threads                :                    16


molecular fragmentation (1/2 indicates fragments):
111111111111111111111111111111111111111111111111111112222222222222222222
22222222222222
# atoms in fragment 1/2:    53    33
 fragment masses (1/2) :      384.24      882.47
CMA distance (Bohr)    :  10.645
constraining FC (au)   :  0.0500

           -------------------------------------------------
          |                 G F N 2 - x T B                 |
           -------------------------------------------------

        Reference                      10.1021/acs.jctc.8b01176
      * Hamiltonian:
        H0-scaling (s, p, d)           1.850000    2.230000    2.230000
        zeta-weighting                 0.500000
      * Dispersion:
        s8                             2.700000
        a1                             0.520000
        a2                             5.000000
        s9                             5.000000
      * Repulsion:
        kExp                           1.500000    1.000000
        rExp                           1.000000
      * Coulomb:
        alpha                          2.000000
        third order                    shell-resolved
        anisotropic                    true
        a3                             3.000000
        a5                             4.000000
        cn-shift                       1.200000
        cn-exp                         4.000000
        max-rad                        5.000000


          ...................................................
          :                      SETUP                      :
          :.................................................:
          :  # basis functions                 341          :
          :  # atomic orbitals                 329          :
          :  # shells                          159          :
          :  # electrons                       308          :
          :  max. iterations                   500          :
          :  Hamiltonian                  GFN2-xTB          :
          :  restarted?                      false          :
          :  GBSA solvation                  false          :
          :  PC potential                    false          :
          :  electronic temp.          300.0000000     K    :
          :  accuracy                    1.0000000          :
          :  -> integral cutoff          0.2500000E+02      :
          :  -> integral neglect         0.1000000E-07      :
          :  -> SCF convergence          0.1000000E-05 Eh   :
          :  -> wf. convergence          0.1000000E-03 e    :
          :  Broyden damping             0.4000000          :
          :  net charge                          0          :
          :  unpaired electrons                  0          :
          ...................................................

 iter      E             dE          RMSdq      gap      omega  full diag
   1   -171.1288125 -0.171129E+03  0.130E+01    0.04       0.0  T
   2   -116.5836033  0.545452E+02  0.171E+01    0.03       1.0  T
   3    -33.0216342  0.835620E+02  0.251E+01    0.10       1.0  T
   4   -164.9725020 -0.131951E+03  0.107E+01    0.09       1.0  T
   5   -167.7263557 -0.275385E+01  0.111E+01    0.07       1.0  T
   6   -166.6172951  0.110906E+01  0.866E+00    0.25       1.0  T
   7   -171.4917132 -0.487442E+01  0.786E+00    0.34       1.0  T
   8   -172.3358376 -0.844124E+00  0.737E+00    0.10       1.0  T
   9   -168.6636368  0.367220E+01  0.697E+00    0.09       1.0  T
  10   -173.6587994 -0.499516E+01  0.571E+00    0.18       1.0  T
  11   -170.8462195  0.281258E+01  0.577E+00    0.07       1.0  T
  12   -173.8560921 -0.300987E+01  0.475E+00    0.15       1.0  T
  13   -174.7216159 -0.865524E+00  0.394E+00    0.09       1.0  T
  14   -174.5615869  0.160029E+00  0.389E+00    0.05       1.0  T
  15   -174.9010740 -0.339487E+00  0.338E+00    0.14       1.0  T
  16   -175.0118701 -0.110796E+00  0.281E+00    0.06       1.0  T
  17   -174.8137675  0.198103E+00  0.225E+00    0.04       1.0  T
  18   -175.2871006 -0.473333E+00  0.195E+00    0.19       1.0  T
  19   -175.3432733 -0.561727E-01  0.166E+00    0.22       1.0  T
  20   -175.4080700 -0.647967E-01  0.121E+00    0.16       1.0  T
  21   -175.3765477  0.315222E-01  0.108E+00    0.18       1.0  T
  22   -175.4020175 -0.254698E-01  0.110E+00    0.15       1.0  T
  23   -175.4134130 -0.113955E-01  0.873E-01    0.12       1.0  T
  24   -175.4328843 -0.194713E-01  0.734E-01    0.12       1.0  T
  25   -175.4318918  0.992515E-03  0.709E-01    0.16       1.0  T
  26   -175.4479490 -0.160572E-01  0.601E-01    0.11       1.0  T
  27   -175.4609905 -0.130416E-01  0.507E-01    0.14       1.0  T
  28   -175.4619545 -0.963988E-03  0.485E-01    0.10       1.0  T
  29   -175.4685617 -0.660720E-02  0.400E-01    0.13       1.0  T
  30   -175.4714249 -0.286320E-02  0.343E-01    0.11       1.0  T
  31   -175.4746216 -0.319665E-02  0.281E-01    0.12       1.0  T
  32   -175.4761371 -0.151551E-02  0.242E-01    0.10       1.0  T
  33   -175.4778671 -0.173002E-02  0.218E-01    0.11       1.0  T
  34   -175.4773774  0.489754E-03  0.202E-01    0.10       1.0  T
  35   -175.4693166  0.806077E-02  0.264E-01    0.08       1.0  T
  36   -175.4730185 -0.370194E-02  0.231E-01    0.08       1.0  T
  37   -175.4693056  0.371289E-02  0.238E-01    0.08       1.0  T
  38   -175.4463387  0.229670E-01  0.385E-01    0.06       1.0  T
  39   -175.4668477 -0.205091E-01  0.243E-01    0.07       1.0  T
  40   -175.4808828 -0.140351E-01  0.578E-02    0.11       1.0  T
  41   -175.4793581  0.152466E-02  0.992E-02    0.10       1.0  T
  42   -175.4807531 -0.139499E-02  0.524E-02    0.11       1.0  T
  43   -175.4805038  0.249369E-03  0.600E-02    0.11       1.0  T
  44   -175.4806210 -0.117235E-03  0.499E-02    0.11       1.0  T
  45   -175.4809011 -0.280103E-03  0.320E-02    0.11       1.0  T
  46   -175.4810654 -0.164252E-03  0.141E-02    0.11       1.0  T
  47   -175.4810911 -0.257034E-04  0.668E-03    0.11       1.6  T
  48   -175.4810847  0.639465E-05  0.685E-03    0.11       1.6  T
  49   -175.4810893 -0.458155E-05  0.523E-03    0.11       2.1  T
  50   -175.4810938 -0.457861E-05  0.374E-03    0.11       2.9  T
  51   -175.4810916  0.222180E-05  0.478E-03    0.11       2.3  T
  52   -175.4810903  0.127331E-05  0.493E-03    0.11       2.2  T
  53   -175.4810919 -0.157481E-05  0.377E-03    0.11       2.9  T
  54   -175.4810931 -0.114908E-05  0.296E-03    0.11       3.6  T
  55   -175.4810936 -0.512986E-06  0.242E-03    0.11       4.5  T
  56   -175.4810944 -0.823056E-06  0.124E-03    0.11       8.7  T
  57   -175.4810947 -0.279135E-06  0.319E-04    0.11      33.8  T
  58   -175.4810947 -0.120653E-08  0.280E-04    0.11      38.5  T

   *** convergence criteria satisfied after 58 iterations ***

         #    Occupation            Energy/Eh            Energy/eV
      -------------------------------------------------------------
         1        2.0000           -0.9066113             -24.6701
       ...           ...                  ...                  ...
       148        2.0000           -0.3885732             -10.5736
       149        2.0000           -0.3860020             -10.5036
       150        2.0000           -0.3816252             -10.3846
       151        1.9911           -0.3764950             -10.2450
       152        1.9658           -0.3752085             -10.2099
       153        1.9168           -0.3743392             -10.1863
       154        1.7695           -0.3732947             -10.1579 (HOMO)
       155        0.2149           -0.3693467             -10.0504 (LUMO)
       156        0.1044           -0.3686040             -10.0302
       157        0.0375           -0.3675985             -10.0029
       158                         -0.3529529              -9.6043
       159                         -0.3513516              -9.5608
       ...                                ...                  ...
       329                         18.2592119             496.8584
      -------------------------------------------------------------
                  HL-Gap            0.0039480 Eh            0.1074 eV
             Fermi-level           -0.3713582 Eh          -10.1052 eV

 SCC (total)                   0 d,  0 h,  0 min,  1.555 sec
 SCC setup                      ...        0 min,  0.001 sec (  0.064%)
 Dispersion                     ...        0 min,  0.002 sec (  0.129%)
 classical contributions        ...        0 min,  0.001 sec (  0.064%)
 integral evaluation            ...        0 min,  0.010 sec (  0.643%)
 iterations                     ...        0 min,  1.513 sec ( 97.299%)
 molecular gradient             ...        0 min,  0.026 sec (  1.672%)
 printout                       ...        0 min,  0.002 sec (  0.129%)

         :::::::::::::::::::::::::::::::::::::::::::::::::::::
         ::                     SUMMARY                     ::
         :::::::::::::::::::::::::::::::::::::::::::::::::::::
         :: total energy            -169.650527652942 Eh    ::
         :: gradient norm              5.383502914072 Eh/a0 ::
         :: HOMO-LUMO gap              0.107429198798 eV    ::
         ::.................................................::
         :: SCC energy              -175.474110533685 Eh    ::
         :: -> isotropic ES            0.898628791648 Eh    ::
         :: -> anisotropic ES         -0.033989257716 Eh    ::
         :: -> anisotropic XC         -0.065167472008 Eh    ::
         :: -> dispersion             -0.166331971413 Eh    ::
         :: repulsion energy           5.823582880743 Eh    ::
         :: add. restraining           0.000000000000 Eh    ::
         :: total charge              -0.000000000000 e     ::
         :::::::::::::::::::::::::::::::::::::::::::::::::::::

           -------------------------------------------------
          |                Property Printout                |
           -------------------------------------------------

    * Orbital Energies and Occupations

         #    Occupation            Energy/Eh            Energy/eV
      -------------------------------------------------------------
         1        2.0000           -0.9066113             -24.6701
       ...           ...                  ...                  ...
       142        2.0000           -0.4023051             -10.9473
       143        2.0000           -0.3999654             -10.8836
       144        2.0000           -0.3991209             -10.8606
       145        2.0000           -0.3971790             -10.8078
       146        2.0000           -0.3914600             -10.6522
       147        2.0000           -0.3900097             -10.6127
       148        2.0000           -0.3885732             -10.5736
       149        2.0000           -0.3860020             -10.5036
       150        2.0000           -0.3816252             -10.3846
       151        1.9911           -0.3764950             -10.2450
       152        1.9658           -0.3752085             -10.2099
       153        1.9168           -0.3743392             -10.1863
       154        1.7695           -0.3732947             -10.1579 (HOMO)
       155        0.2149           -0.3693467             -10.0504 (LUMO)
       156        0.1044           -0.3686040             -10.0302
       157        0.0375           -0.3675985             -10.0029
       158                         -0.3529529              -9.6043
       159                         -0.3513516              -9.5608
       160                         -0.3468174              -9.4374
       161                         -0.3460191              -9.4157
       162                         -0.3385606              -9.2127
       163                         -0.3378797              -9.1942
       164                         -0.3371525              -9.1744
       165                         -0.3354109              -9.1270
       ...                                ...                  ...
       329                         18.2592119             496.8584
      -------------------------------------------------------------
                  HL-Gap            0.0039480 Eh            0.1074 eV
             Fermi-level           -0.3713582 Eh          -10.1052 eV

     #   Z          covCN         q      C6AA      α(0)
     1   6 C        3.755    -0.128    23.011     6.840
     2   6 C        3.855    -0.023    20.945     6.509
     3   6 C        3.760    -0.137    23.190     6.865
     4   6 C        3.822    -0.133    23.024     6.828
     5   6 C        3.711    -0.054    21.687     6.655
     6   7 N        2.684    -0.144    24.114     7.293
     7   6 C        2.766     0.251    22.788     7.818
     8   8 O        0.857    -0.433    22.343     6.337
     9   6 C        3.789    -0.013    20.812     6.497
    10   6 C        3.825    -0.083    22.058     6.683
    11   6 C        2.976     0.021    27.542     8.609
    12   6 C        2.931    -0.046    29.131     8.851
    13   6 C        2.915    -0.039    28.962     8.825
    14   6 C        2.928    -0.038    28.937     8.822
    15   6 C        2.914    -0.033    28.824     8.804
    16   6 C        2.930    -0.052    29.285     8.875
    17   7 N        2.705    -0.132    23.869     7.256
    18   6 C        2.757     0.253    22.745     7.810
    19   8 O        0.887    -0.284    19.492     5.920
    20   6 C        2.925     0.084    26.126     8.382
    21   6 C        2.861     0.061    26.638     8.460
    22   7 N        1.850    -0.166    25.388     7.468
    23   6 C        2.858     0.052    26.822     8.489
    24   6 C        2.865     0.050    26.870     8.497
    25   7 N        1.843    -0.185    25.812     7.530
    26   5 B        2.465     0.441    17.543     7.437
    27   8 O        1.580    -0.462    22.137     6.349
    28   8 O        1.577    -0.490    22.721     6.432
    29   1 H        0.919     0.041     2.432     2.439
    30   1 H        0.923     0.044     2.399     2.422
    31   1 H        0.923     0.069     2.099     2.265
    32   1 H        0.922     0.072     2.060     2.245
    33   1 H        0.921     0.075     2.033     2.230
    34   1 H        0.921     0.087     1.906     2.159
    35   1 H        0.922     0.078     2.004     2.214
    36   1 H        0.924     0.176     1.228     1.733
    37   1 H        0.922     0.149     1.399     1.850
    38   1 H        0.922     0.110     1.696     2.036
    39   1 H        0.858     0.194     1.139     1.672
    40   1 H        0.924     0.198     1.107     1.646
    41   1 H        0.917     0.060     2.202     2.321
    42   1 H        0.921     0.071     2.078     2.254
    43   1 H        0.925     0.048     2.343     2.394
    44   1 H        0.925     0.044     2.393     2.419
    45   1 H        0.924     0.035     2.515     2.480
    46   1 H        0.925     0.044     2.400     2.423
    47   1 H        0.927     0.110     1.694     2.035
    48   1 H        0.858     0.216     1.030     1.590
    49   1 H        0.924     0.099     1.795     2.095
    50   1 H        0.925     0.065     2.147     2.291
    51   1 H        0.925     0.066     2.134     2.285
    52   1 H        0.799     0.317     0.672     1.288
    53   1 H        0.797     0.318     0.670     1.287
    54  22 Ti       4.151     0.771    91.614    16.225
    55  22 Ti       6.350     0.729    92.283    15.597
    56  22 Ti       4.151     0.781    91.509    16.215
    57  22 Ti       7.450     1.012    89.317    15.344
    58  22 Ti       7.451     1.056    88.866    15.305
    59  22 Ti       6.519     1.073    88.696    15.290
    60  22 Ti       4.151     0.804    91.268    16.194
    61  22 Ti       6.350     0.766    91.888    15.563
    62  22 Ti       4.151     0.800    91.311    16.198
    63  22 Ti       7.449     1.065    88.772    15.297
    64  22 Ti       7.449     1.060    88.823    15.301
    65  22 Ti       6.519     1.075    88.672    15.288
    66   6 C        5.128    -0.730    39.701     8.948
    67   6 C        5.128    -0.735    39.865     8.967
    68   6 C        5.649    -0.572    34.126     8.296
    69   6 C        2.445    -0.418    41.005    10.448
    70   6 C        2.445    -0.409    40.683    10.407
    71   6 C        2.445    -0.339    38.175    10.081
    72   6 C        2.445    -0.339    38.187    10.083
    73   8 O        0.728    -0.546    24.899     6.687
    74   8 O        0.729    -0.597    26.114     6.848
    75   8 O        0.728    -0.557    25.157     6.721
    76   8 O        0.729    -0.667    27.914     7.080
    77   8 O        0.729    -0.675    28.114     7.105
    78   8 O        0.753    -0.595    26.056     6.841
    79   8 O        0.780    -0.578    25.618     6.784
    80   8 O        0.728    -0.543    24.827     6.677
    81   8 O        0.729    -0.585    25.817     6.809
    82   8 O        0.728    -0.544    24.857     6.681
    83   8 O        0.729    -0.666    27.888     7.077
    84   8 O        0.729    -0.667    27.892     7.077
    85   8 O        0.753    -0.577    25.622     6.784
    86   8 O        0.753    -0.577    25.622     6.784

 Mol. C6AA /au·bohr⁶  :     159337.396848
 Mol. C8AA /au·bohr⁸  :    6875559.283154
 Mol. α(0) /au        :        614.215142


Wiberg/Mayer (AO) data.
largest (>0.10) Wiberg bond orders for each atom

 ---------------------------------------------------------------------------
     #   Z sym  total        # sym  WBO       # sym  WBO       # sym  WBO
 ---------------------------------------------------------------------------
     1   6 C    3.979 --     2 C    1.009    29 H    0.982    30 H    0.979
                            31 H    0.978
     2   6 C    3.987 --     1 C    1.009     3 C    1.003     4 C    0.996
                            32 H    0.952
     3   6 C    3.973 --     2 C    1.003    35 H    0.976    33 H    0.940
                            34 H    0.896
     4   6 C    3.939 --     2 C    0.996     5 C    0.985    37 H    0.862
                            36 H    0.838
     5   6 C    3.908 --     4 C    0.985     6 N    0.979    26 B    0.928
                            38 H    0.924
     6   7 N    3.433 --     7 C    1.221     5 C    0.979    39 H    0.913
                             8 O    0.176
     7   6 C    3.944 --     8 O    1.640     6 N    1.221     9 C    0.987
     8   8 O    1.949 --     7 C    1.640     6 N    0.176
     9   6 C    3.938 --     7 C    0.987    17 N    0.980    10 C    0.942
                            40 H    0.827
    10   6 C    3.976 --    11 C    1.026    41 H    0.960    42 H    0.958
                             9 C    0.942
    11   6 C    3.984 --    16 C    1.419    12 C    1.379    10 C    1.026
                            14 C    0.109
    12   6 C    3.984 --    13 C    1.464    11 C    1.379    43 H    0.967
                            15 C    0.112
    13   6 C    3.988 --    12 C    1.464    14 C    1.423    44 H    0.968
                            16 C    0.105
    14   6 C    3.983 --    15 C    1.445    13 C    1.423    45 H    0.970
                            11 C    0.109
    15   6 C    3.984 --    14 C    1.445    16 C    1.423    46 H    0.955
                            12 C    0.112
    16   6 C    3.966 --    15 C    1.423    11 C    1.419    47 H    0.897
                            13 C    0.105
    17   7 N    3.388 --    18 C    1.220     9 C    0.980    48 H    0.917
                            19 O    0.157
    18   6 C    3.929 --    19 O    1.576    17 N    1.220    20 C    1.011
    19   8 O    2.180 --    18 C    1.576    17 N    0.157    58 Ti   0.156
                            79 O    0.107
    20   6 C    3.961 --    25 N    1.396    21 C    1.353    18 C    1.011
                            23 C    0.106
    21   6 C    3.949 --    22 N    1.448    20 C    1.353    49 H    0.947
                            24 C    0.119
    22   7 N    3.057 --    21 C    1.448    23 C    1.439
    23   6 C    3.956 --    22 N    1.439    24 C    1.401    50 H    0.958
                            20 C    0.106
    24   6 C    3.963 --    25 N    1.444    23 C    1.401    51 H    0.960
                            21 C    0.119
    25   7 N    3.051 --    24 C    1.444    20 C    1.396
    26   5 B    3.302 --    27 O    1.183    28 O    1.080     5 C    0.928
    27   8 O    2.145 --    26 B    1.183    52 H    0.878
    28   8 O    2.027 --    26 B    1.080    53 H    0.855
    29   1 H    0.998 --     1 C    0.982
    30   1 H    0.997 --     1 C    0.979
    31   1 H    0.995 --     1 C    0.978
    32   1 H    0.986 --     2 C    0.952
    33   1 H    0.991 --     3 C    0.940
    34   1 H    0.990 --     3 C    0.896
    35   1 H    0.991 --     3 C    0.976
    36   1 H    0.957 --     4 C    0.838
    37   1 H    0.966 --     4 C    0.862
    38   1 H    0.977 --     5 C    0.924
    39   1 H    0.962 --     6 N    0.913
    40   1 H    0.959 --     9 C    0.827
    41   1 H    0.995 --    10 C    0.960
    42   1 H    0.993 --    10 C    0.958
    43   1 H    0.997 --    12 C    0.967
    44   1 H    0.997 --    13 C    0.968
    45   1 H    0.997 --    14 C    0.970
    46   1 H    0.997 --    15 C    0.955
    47   1 H    0.981 --    16 C    0.897
    48   1 H    0.952 --    17 N    0.917
    49   1 H    0.986 --    21 C    0.947
    50   1 H    0.991 --    23 C    0.958
    51   1 H    0.992 --    24 C    0.960
    52   1 H    0.899 --    27 O    0.878
    53   1 H    0.898 --    28 O    0.855
    54  22 Ti   4.053 --    73 O    1.987    60 Ti   0.577    55 Ti   0.291
                            66 C    0.257    57 Ti   0.202    69 C    0.149
    55  22 Ti   4.420 --    74 O    1.894    61 Ti   0.378    56 Ti   0.314
                            54 Ti   0.291    67 C    0.256    66 C    0.248
                            57 Ti   0.123    58 Ti   0.115    62 Ti   0.113
                            60 Ti   0.109
    56  22 Ti   4.001 --    75 O    1.979    62 Ti   0.580    55 Ti   0.314
                            67 C    0.273    58 Ti   0.192    70 C    0.166
                            61 Ti   0.113
    57  22 Ti   4.482 --    76 O    1.716    69 C    0.639    66 C    0.501
                            78 O    0.214    54 Ti   0.202    63 Ti   0.151
                            59 Ti   0.135    55 Ti   0.123    68 C    0.118
    58  22 Ti   4.439 --    77 O    1.683    70 C    0.637    67 C    0.486
                            56 Ti   0.192    79 O    0.166    64 Ti   0.161
                            19 O    0.156    59 Ti   0.149    68 C    0.148
                            55 Ti   0.115
    59  22 Ti   4.424 --    78 O    1.141    79 O    0.998    68 C    0.503
                            71 C    0.444    72 C    0.414    65 Ti   0.275
                            58 Ti   0.149    57 Ti   0.135
    60  22 Ti   4.007 --    80 O    2.018    54 Ti   0.577    61 Ti   0.331
                            66 C    0.286    63 Ti   0.199    69 C    0.181
                            55 Ti   0.109
    61  22 Ti   4.467 --    81 O    1.892    55 Ti   0.378    62 Ti   0.336
                            60 Ti   0.331    67 C    0.275    66 C    0.273
                            64 Ti   0.144    63 Ti   0.139    56 Ti   0.113
    62  22 Ti   4.026 --    82 O    2.015    56 Ti   0.580    61 Ti   0.336
                            67 C    0.281    64 Ti   0.205    70 C    0.185
                            55 Ti   0.113
    63  22 Ti   4.417 --    83 O    1.722    69 C    0.650    66 C    0.515
                            85 O    0.215    60 Ti   0.199    68 C    0.168
                            65 Ti   0.161    57 Ti   0.151    61 Ti   0.139
    64  22 Ti   4.434 --    84 O    1.720    70 C    0.637    67 C    0.529
                            86 O    0.213    62 Ti   0.205    68 C    0.171
                            58 Ti   0.161    65 Ti   0.159    61 Ti   0.144
    65  22 Ti   4.449 --    85 O    1.114    86 O    1.096    68 C    0.508
                            71 C    0.428    72 C    0.422    59 Ti   0.275
                            63 Ti   0.161    64 Ti   0.159
    66   6 C    3.672 --    69 C    0.883    63 Ti   0.515    57 Ti   0.501
                            60 Ti   0.286    61 Ti   0.273    54 Ti   0.257
                            55 Ti   0.248
    67   6 C    3.665 --    70 C    0.890    64 Ti   0.529    58 Ti   0.486
                            62 Ti   0.281    61 Ti   0.275    56 Ti   0.273
                            55 Ti   0.256
    68   6 C    3.786 --    72 C    0.819    71 C    0.817    65 Ti   0.508
                            59 Ti   0.503    64 Ti   0.171    63 Ti   0.168
                            58 Ti   0.148    57 Ti   0.118
    69   6 C    3.290 --    66 C    0.883    63 Ti   0.650    57 Ti   0.639
                            71 C    0.248    60 Ti   0.181    54 Ti   0.149
    70   6 C    3.332 --    67 C    0.890    64 Ti   0.637    58 Ti   0.637
                            72 C    0.243    62 Ti   0.185    56 Ti   0.166
    71   6 C    3.301 --    68 C    0.817    59 Ti   0.444    65 Ti   0.428
                            85 O    0.395    78 O    0.359    69 C    0.248
                            72 C    0.118
    72   6 C    3.289 --    68 C    0.819    86 O    0.427    65 Ti   0.422
                            59 Ti   0.414    79 O    0.327    70 C    0.243
                            71 C    0.118
    73   8 O    2.260 --    54 Ti   1.987
    74   8 O    2.207 --    55 Ti   1.894
    75   8 O    2.250 --    56 Ti   1.979
    76   8 O    2.109 --    57 Ti   1.716
    77   8 O    2.122 --    58 Ti   1.683
    78   8 O    2.142 --    59 Ti   1.141    71 C    0.359    57 Ti   0.214
                            85 O    0.129
    79   8 O    2.045 --    59 Ti   0.998    72 C    0.327    58 Ti   0.166
                            86 O    0.107    19 O    0.107
    80   8 O    2.260 --    60 Ti   2.018
    81   8 O    2.220 --    61 Ti   1.892
    82   8 O    2.259 --    62 Ti   2.015
    83   8 O    2.110 --    63 Ti   1.722
    84   8 O    2.109 --    64 Ti   1.720
    85   8 O    2.150 --    65 Ti   1.114    71 C    0.395    63 Ti   0.215
                            78 O    0.129
    86   8 O    2.137 --    65 Ti   1.096    72 C    0.427    64 Ti   0.213
                            79 O    0.107
 ---------------------------------------------------------------------------

Topologies differ in total number of bonds
Writing topology from bond orders to xtbtopo.mol

molecular dipole:
                 x           y           z       tot (Debye)
 q only:        0.076      -8.543       7.855
   full:        1.029      -3.360       4.445      14.402
molecular quadrupole (traceless):
                xx          xy          yy          xz          yz          zz
 q only:       24.451      12.844      29.524      13.790       8.228     -53.975
  q+dip:       18.555      11.651      52.775      19.997      21.605     -71.330
   full:       21.024       8.249      58.284      24.325      19.779     -79.308


           -------------------------------------------------
          | TOTAL ENERGY             -169.650527652942 Eh   |
          | GRADIENT NORM               5.383502914072 Eh/α |
          | HOMO-LUMO GAP               0.107429198798 eV   |
           -------------------------------------------------

------------------------------------------------------------------------
 * finished run on 2026/08/31 at 20:53:01.099     
------------------------------------------------------------------------
 total:
 * wall-time:     0 d,  0 h,  0 min,  1.619 sec
 *  cpu-time:     0 d,  0 h,  0 min, 12.234 sec
 * ratio c/w:     7.557 speedup
 SCF:
 * wall-time:     0 d,  0 h,  0 min,  1.556 sec
 *  cpu-time:     0 d,  0 h,  0 min, 11.953 sec
 * ratio c/w:     7.682 speedup

normal termination of xtb
