
     Program PWSCF v.7.5 starts on 24Sep2026 at 20:23: 3 

     This program is part of the open-source Quantum ESPRESSO suite
     for quantum simulation of materials; please cite
         "P. Giannozzi et al., J. Phys.:Condens. Matter 21 395502 (2009);
         "P. Giannozzi et al., J. Phys.:Condens. Matter 29 465901 (2017);
         "P. Giannozzi et al., J. Chem. Phys. 152 154105 (2020);
          URL http://www.quantum-espresso.org", 
     in publications or presentations arising from this work. More details at
     http://www.quantum-espresso.org/quote

     Parallel version (MPI & OpenMP), running on      12 processor cores
     Number of MPI processes:                12
     Threads/MPI process:                     1

     MPI processes distributed on     1 nodes
     13481 MiB available memory on the printing compute node when the environment starts

     Reading input from pw.in

     Current dimensions of program PWSCF are:
     Max number of different atomic species (ntypx) = 10
     Max number of k-points (npk) =  40000
     Max angular momentum in pseudopotentials (lmaxx) =  4
     file C.pbe-n-kjpaw_psl.1.0.0.UPF: wavefunction(s)  2S 2P renormalized
     file O.pbe-n-kjpaw_psl.0.1.UPF: wavefunction(s)  2P renormalized

     gamma-point specific algorithms are used
     Found identity + ( -0.0000  0.2500  0.0000) symmetry
     This is a supercell, fractional translations are disabled
     Message from routine setup:
     using ibrav=0 with symmetry is DISCOURAGED, use correct ibrav instead

     R & G space division:  proc/nbgrp/npool/nimage =      12
     Subspace diagonalization in iterative solution of the eigenvalue problem:
     one sub-group per band group will be used
     ELPA distributed-memory algorithm (size of sub-group:  3*  3 procs)


     Parallelization info
     --------------------
     sticks:   dense  smooth     PW     G-vecs:    dense   smooth      PW
     Min        1201     601    149               257065    90906   11354
     Max        1204     604    152               257084    90928   11370
     Sum       14431    7243   1801              3084843  1090973  136361

     Using Slab Decomposition



     bravais-lattice index     =            0
     lattice parameter (alat)  =      22.9035  a.u.
     unit-cell volume          =   22835.6884 (a.u.)^3
     number of atoms/cell      =          112
     number of atomic types    =            3
     number of electrons       =       896.00
     number of Kohn-Sham states=          538
     kinetic-energy cutoff     =      50.0000  Ry
     charge density cutoff     =     400.0000  Ry
     scf convergence threshold =      1.0E-07
     mixing beta               =       0.3000
     number of iterations used =            8  plain     mixing
     energy convergence thresh.=      1.0E-04
     force convergence thresh. =      2.0E-03
     Exchange-correlation= SLA  PW   PBX  PBC
                           (   1   4   3   4   0   0   0)
     nstep                     =          200


     celldm(1)=  22.903481  celldm(2)=   0.000000  celldm(3)=   0.000000
     celldm(4)=   0.000000  celldm(5)=   0.000000  celldm(6)=   0.000000

     crystal axes: (cart. coord. in units of alat)
               a(1) = (   1.000000   0.000000   0.000000 )  
               a(2) = (   0.500000   0.866025   0.000000 )  
               a(3) = (   0.000000   0.000000   2.194719 )  

     reciprocal axes: (cart. coord. in units 2 pi/alat)
               b(1) = (  1.000000 -0.577350  0.000000 )  
               b(2) = (  0.000000  1.154701  0.000000 )  
               b(3) = (  0.000000  0.000000  0.455639 )  


     PseudoPot. # 1 for Ti read from file:
     /home/andres/pseudo/SSSP_1.3.0_PBE_efficiency/ti_pbe_v1.4.uspp.F.UPF
     MD5 check sum: 88a00a6731bd790ddea75d31a80cb452
     Pseudo is Ultrasoft + core correction, Zval = 12.0
     Generated by new atomic code, or converted to UPF format
     Using radial grid of  851 points,  6 beta functions with: 
                l(1) =   0
                l(2) =   0
                l(3) =   1
                l(4) =   1
                l(5) =   2
                l(6) =   2
     Q(r) pseudized with  6 coefficients,  rinner =    1.000   1.000   1.000
                                                       1.000   1.000

     PseudoPot. # 2 for C  read from file:
     /home/andres/pseudo/SSSP_1.3.0_PBE_efficiency/C.pbe-n-kjpaw_psl.1.0.0.UPF
     MD5 check sum: 5d2aebdfa2cae82b50a7e79e9516da0f
     Pseudo is Projector augmented-wave + core cor, Zval =  4.0
     Generated using "atomic" code by A. Dal Corso  v.5.1
     Shape of augmentation charge: PSQ
     Using radial grid of 1073 points,  4 beta functions with: 
                l(1) =   0
                l(2) =   0
                l(3) =   1
                l(4) =   1
     Q(r) pseudized with 0 coefficients 


     PseudoPot. # 3 for O  read from file:
     /home/andres/pseudo/SSSP_1.3.0_PBE_efficiency/O.pbe-n-kjpaw_psl.0.1.UPF
     MD5 check sum: 0234752ac141de4415c5fc33072bef88
     Pseudo is Projector augmented-wave + core cor, Zval =  6.0
     Generated using "atomic" code by A. Dal Corso  v.5.0.99 svn rev. 10869
     Shape of augmentation charge: BESSEL
     Using radial grid of 1095 points,  4 beta functions with: 
                l(1) =   0
                l(2) =   0
                l(3) =   1
                l(4) =   1
     Q(r) pseudized with 0 coefficients 


     atomic species   valence    mass     pseudopotential
     Ti               12.00    47.86700     Ti( 1.00)
     C                 4.00    12.01100     C ( 1.00)
     O                 6.00    15.99900     O ( 1.00)

     12 Sym. Ops., with inversion, found



   Cartesian axes

     site n.     atom                  positions (alat units)
         1        Ti     tau(   1) = (   0.0000000   0.0000000   1.0973597  )
         2        C      tau(   2) = (   0.1250000   0.0721688   1.1922442  )
         3        C      tau(   3) = (   0.2500000   0.1443375   1.0024752  )
         4        Ti     tau(   4) = (   0.2500000   0.1443375   1.2896040  )
         5        Ti     tau(   5) = (   0.1250000   0.0721688   0.9051155  )
         6        O      tau(   6) = (   0.0000000   0.0000000   1.3696370  )
         7        O      tau(   7) = (   0.0000000   0.0000000   0.8250825  )
         8        Ti     tau(   8) = (   0.1250000   0.2165064   1.0973597  )
         9        C      tau(   9) = (   0.2500000   0.2886752   1.1922442  )
        10        C      tau(  10) = (   0.3750000   0.3608439   1.0024752  )
        11        Ti     tau(  11) = (   0.3750000   0.3608439   1.2896040  )
        12        Ti     tau(  12) = (   0.2500000   0.2886752   0.9051155  )
        13        O      tau(  13) = (   0.1250000   0.2165064   1.3696370  )
        14        O      tau(  14) = (   0.1250000   0.2165064   0.8250825  )
        15        Ti     tau(  15) = (   0.2500000   0.4330127   1.0973597  )
        16        C      tau(  16) = (   0.3750000   0.5051815   1.1922442  )
        17        C      tau(  17) = (   0.5000000   0.5773502   1.0024752  )
        18        Ti     tau(  18) = (   0.5000000   0.5773502   1.2896040  )
        19        Ti     tau(  19) = (   0.3750000   0.5051815   0.9051155  )
        20        O      tau(  20) = (   0.2500000   0.4330127   1.3696370  )
        21        O      tau(  21) = (   0.2500000   0.4330127   0.8250825  )
        22        Ti     tau(  22) = (   0.3750000   0.6495191   1.0973597  )
        23        C      tau(  23) = (   0.5000000   0.7216879   1.1922442  )
        24        C      tau(  24) = (   0.6250000   0.7938566   1.0024752  )
        25        Ti     tau(  25) = (   0.6250000   0.7938566   1.2896040  )
        26        Ti     tau(  26) = (   0.5000000   0.7216879   0.9051155  )
        27        O      tau(  27) = (   0.3750000   0.6495191   1.3696370  )
        28        O      tau(  28) = (   0.3750000   0.6495191   0.8250825  )
        29        Ti     tau(  29) = (   0.2500000   0.0000000   1.0973597  )
        30        C      tau(  30) = (   0.3750000   0.0721688   1.1922442  )
        31        C      tau(  31) = (   0.5000000   0.1443375   1.0024752  )
        32        Ti     tau(  32) = (   0.5000000   0.1443375   1.2896040  )
        33        Ti     tau(  33) = (   0.3750000   0.0721688   0.9051155  )
        34        O      tau(  34) = (   0.2500000   0.0000000   1.3696370  )
        35        O      tau(  35) = (   0.2500000   0.0000000   0.8250825  )
        36        Ti     tau(  36) = (   0.3750000   0.2165064   1.0973597  )
        37        C      tau(  37) = (   0.5000000   0.2886752   1.1922442  )
        38        C      tau(  38) = (   0.6250000   0.3608439   1.0024752  )
        39        Ti     tau(  39) = (   0.6250000   0.3608439   1.2896040  )
        40        Ti     tau(  40) = (   0.5000000   0.2886752   0.9051155  )
        41        O      tau(  41) = (   0.3750000   0.2165064   1.3696370  )
        42        O      tau(  42) = (   0.3750000   0.2165064   0.8250825  )
        43        Ti     tau(  43) = (   0.5000000   0.4330127   1.0973597  )
        44        C      tau(  44) = (   0.6250000   0.5051815   1.1922442  )
        45        C      tau(  45) = (   0.7500000   0.5773502   1.0024752  )
        46        Ti     tau(  46) = (   0.7500000   0.5773502   1.2896040  )
        47        Ti     tau(  47) = (   0.6250000   0.5051815   0.9051155  )
        48        O      tau(  48) = (   0.5000000   0.4330127   1.3696370  )
        49        O      tau(  49) = (   0.5000000   0.4330127   0.8250825  )
        50        Ti     tau(  50) = (   0.6250000   0.6495191   1.0973597  )
        51        C      tau(  51) = (   0.7500000   0.7216879   1.1922442  )
        52        C      tau(  52) = (   0.8750000   0.7938566   1.0024752  )
        53        Ti     tau(  53) = (   0.8750000   0.7938566   1.2896040  )
        54        Ti     tau(  54) = (   0.7500000   0.7216879   0.9051155  )
        55        O      tau(  55) = (   0.6250000   0.6495191   1.3696370  )
        56        O      tau(  56) = (   0.6250000   0.6495191   0.8250825  )
        57        Ti     tau(  57) = (   0.5000000   0.0000000   1.0973597  )
        58        C      tau(  58) = (   0.6250000   0.0721688   1.1922442  )
        59        C      tau(  59) = (   0.7500000   0.1443375   1.0024752  )
        60        Ti     tau(  60) = (   0.7500000   0.1443375   1.2896040  )
        61        Ti     tau(  61) = (   0.6250000   0.0721688   0.9051155  )
        62        O      tau(  62) = (   0.5000000   0.0000000   1.3696370  )
        63        O      tau(  63) = (   0.5000000   0.0000000   0.8250825  )
        64        Ti     tau(  64) = (   0.6250000   0.2165064   1.0973597  )
        65        C      tau(  65) = (   0.7500000   0.2886752   1.1922442  )
        66        C      tau(  66) = (   0.8750000   0.3608439   1.0024752  )
        67        Ti     tau(  67) = (   0.8750000   0.3608439   1.2896040  )
        68        Ti     tau(  68) = (   0.7500000   0.2886752   0.9051155  )
        69        O      tau(  69) = (   0.6250000   0.2165064   1.3696370  )
        70        O      tau(  70) = (   0.6250000   0.2165064   0.8250825  )
        71        Ti     tau(  71) = (   0.7500000   0.4330127   1.0973597  )
        72        C      tau(  72) = (   0.8750000   0.5051815   1.1922442  )
        73        C      tau(  73) = (   1.0000000   0.5773502   1.0024752  )
        74        Ti     tau(  74) = (   1.0000000   0.5773502   1.2896040  )
        75        Ti     tau(  75) = (   0.8750000   0.5051815   0.9051155  )
        76        O      tau(  76) = (   0.7500000   0.4330127   1.3696370  )
        77        O      tau(  77) = (   0.7500000   0.4330127   0.8250825  )
        78        Ti     tau(  78) = (   0.8750000   0.6495191   1.0973597  )
        79        C      tau(  79) = (   1.0000000   0.7216879   1.1922442  )
        80        C      tau(  80) = (   1.1250000   0.7938566   1.0024752  )
        81        Ti     tau(  81) = (   1.1250000   0.7938566   1.2896040  )
        82        Ti     tau(  82) = (   1.0000000   0.7216879   0.9051155  )
        83        O      tau(  83) = (   0.8750000   0.6495191   1.3696370  )
        84        O      tau(  84) = (   0.8750000   0.6495191   0.8250825  )
        85        Ti     tau(  85) = (   0.7500000   0.0000000   1.0973597  )
        86        C      tau(  86) = (   0.8750000   0.0721688   1.1922442  )
        87        C      tau(  87) = (   1.0000000   0.1443375   1.0024752  )
        88        Ti     tau(  88) = (   1.0000000   0.1443375   1.2896040  )
        89        Ti     tau(  89) = (   0.8750000   0.0721688   0.9051155  )
        90        O      tau(  90) = (   0.7500000   0.0000000   1.3696370  )
        91        O      tau(  91) = (   0.7500000   0.0000000   0.8250825  )
        92        Ti     tau(  92) = (   0.8750000   0.2165064   1.0973597  )
        93        C      tau(  93) = (   1.0000000   0.2886752   1.1922442  )
        94        C      tau(  94) = (   1.1250000   0.3608439   1.0024752  )
        95        Ti     tau(  95) = (   1.1250000   0.3608439   1.2896040  )
        96        Ti     tau(  96) = (   1.0000000   0.2886752   0.9051155  )
        97        O      tau(  97) = (   0.8750000   0.2165064   1.3696370  )
        98        O      tau(  98) = (   0.8750000   0.2165064   0.8250825  )
        99        Ti     tau(  99) = (   1.0000000   0.4330127   1.0973597  )
       100        C      tau( 100) = (   1.1250000   0.5051815   1.1922442  )
       101        C      tau( 101) = (   1.2500000   0.5773502   1.0024752  )
       102        Ti     tau( 102) = (   1.2500000   0.5773502   1.2896040  )
       103        Ti     tau( 103) = (   1.1250000   0.5051815   0.9051155  )
       104        O      tau( 104) = (   1.0000000   0.4330127   1.3696370  )
       105        O      tau( 105) = (   1.0000000   0.4330127   0.8250825  )
       106        Ti     tau( 106) = (   1.1250000   0.6495191   1.0973597  )
       107        C      tau( 107) = (   1.2500000   0.7216879   1.1922442  )
       108        C      tau( 108) = (   1.3750000   0.7938566   1.0024752  )
       109        Ti     tau( 109) = (   1.3750000   0.7938566   1.2896040  )
       110        Ti     tau( 110) = (   1.2500000   0.7216879   0.9051155  )
       111        O      tau( 111) = (   1.1250000   0.6495191   1.3696370  )
       112        O      tau( 112) = (   1.1250000   0.6495191   0.8250825  )

     --------------------------------------------
     DFT-D3 Dispersion Correction (3-body terms):
     --------------------------------------------
       Reference C6 values for interpolation: 

         atom   Coordination number   C6
         C          0.000            98.23
         C          0.987            86.49
         C          1.998            58.72
         C          2.999            51.56
         C          3.984            36.41
         O          0.000            31.01
         O          0.993            25.63
         O          1.989            20.74
         Ti         0.000          2723.84
         Ti         1.830           604.00
         Ti         3.868           643.18

       Values used:

         atom   Coordination number  R0_AB[au]  C6      C8
         Ti        16.015            3.557    643.18  76289.64
         C          6.054            2.750     36.41   1053.14
         C          6.054            2.750     36.41   1053.14
         Ti        13.276            3.557    643.18  76289.64
         Ti        13.276            3.557    643.18  76289.64
         O          2.995            2.345     20.74    418.58
         O          2.995            2.345     20.74    418.58
         Ti        16.015            3.557    643.18  76289.64
         C          6.054            2.750     36.41   1053.14
         C          6.054            2.750     36.41   1053.14
         Ti        13.276            3.557    643.18  76289.64
         Ti        13.276            3.557    643.18  76289.64
         O          2.995            2.345     20.74    418.58
         O          2.995            2.345     20.74    418.58
         Ti        16.015            3.557    643.18  76289.64
         C          6.054            2.750     36.41   1053.14
         C          6.054            2.750     36.41   1053.14
         Ti        13.276            3.557    643.18  76289.64
         Ti        13.276            3.557    643.18  76289.64
         O          2.995            2.345     20.74    418.58
         O          2.995            2.345     20.74    418.58
         Ti        16.015            3.557    643.18  76289.64
         C          6.054            2.750     36.41   1053.14
         C          6.054            2.750     36.41   1053.14
         Ti        13.276            3.557    643.18  76289.64
         Ti        13.276            3.557    643.18  76289.64
         O          2.995            2.345     20.74    418.58
         O          2.995            2.345     20.74    418.58
         Ti        16.015            3.557    643.18  76289.64
         C          6.054            2.750     36.41   1053.14
         C          6.054            2.750     36.41   1053.14
         Ti        13.276            3.557    643.18  76289.64
         Ti        13.276            3.557    643.18  76289.64
         O          2.995            2.345     20.74    418.58
         O          2.995            2.345     20.74    418.58
         Ti        16.015            3.557    643.18  76289.64
         C          6.054            2.750     36.41   1053.14
         C          6.054            2.750     36.41   1053.14
         Ti        13.276            3.557    643.18  76289.64
         Ti        13.276            3.557    643.18  76289.64
         O          2.995            2.345     20.74    418.58
         O          2.995            2.345     20.74    418.58
         Ti        16.015            3.557    643.18  76289.64
         C          6.054            2.750     36.41   1053.14
         C          6.054            2.750     36.41   1053.14
         Ti        13.276            3.557    643.18  76289.64
         Ti        13.276            3.557    643.18  76289.64
         O          2.995            2.345     20.74    418.58
         O          2.995            2.345     20.74    418.58
         Ti        16.015            3.557    643.18  76289.64
         C          6.054            2.750     36.41   1053.14
         C          6.054            2.750     36.41   1053.14
         Ti        13.276            3.557    643.18  76289.64
         Ti        13.276            3.557    643.18  76289.64
         O          2.995            2.345     20.74    418.58
         O          2.995            2.345     20.74    418.58
         Ti        16.015            3.557    643.18  76289.64
         C          6.054            2.750     36.41   1053.14
         C          6.054            2.750     36.41   1053.14
         Ti        13.276            3.557    643.18  76289.64
         Ti        13.276            3.557    643.18  76289.64
         O          2.995            2.345     20.74    418.58
         O          2.995            2.345     20.74    418.58
         Ti        16.015            3.557    643.18  76289.64
         C          6.054            2.750     36.41   1053.14
         C          6.054            2.750     36.41   1053.14
         Ti        13.276            3.557    643.18  76289.64
         Ti        13.276            3.557    643.18  76289.64
         O          2.995            2.345     20.74    418.58
         O          2.995            2.345     20.74    418.58
         Ti        16.015            3.557    643.18  76289.64
         C          6.054            2.750     36.41   1053.14
         C          6.054            2.750     36.41   1053.14
         Ti        13.276            3.557    643.18  76289.64
         Ti        13.276            3.557    643.18  76289.64
         O          2.995            2.345     20.74    418.58
         O          2.995            2.345     20.74    418.58
         Ti        16.015            3.557    643.18  76289.64
         C          6.054            2.750     36.41   1053.14
         C          6.054            2.750     36.41   1053.14
         Ti        13.276            3.557    643.18  76289.64
         Ti        13.276            3.557    643.18  76289.64
         O          2.995            2.345     20.74    418.58
         O          2.995            2.345     20.74    418.58
         Ti        16.015            3.557    643.18  76289.64
         C          6.054            2.750     36.41   1053.14
         C          6.054            2.750     36.41   1053.14
         Ti        13.276            3.557    643.18  76289.64
         Ti        13.276            3.557    643.18  76289.64
         O          2.995            2.345     20.74    418.58
         O          2.995            2.345     20.74    418.58
         Ti        16.015            3.557    643.18  76289.64
         C          6.054            2.750     36.41   1053.14
         C          6.054            2.750     36.41   1053.14
         Ti        13.276            3.557    643.18  76289.64
         Ti        13.276            3.557    643.18  76289.64
         O          2.995            2.345     20.74    418.58
         O          2.995            2.345     20.74    418.58
         Ti        16.015            3.557    643.18  76289.64
         C          6.054            2.750     36.41   1053.14
         C          6.054            2.750     36.41   1053.14
         Ti        13.276            3.557    643.18  76289.64
         Ti        13.276            3.557    643.18  76289.64
         O          2.995            2.345     20.74    418.58
         O          2.995            2.345     20.74    418.58
         Ti        16.015            3.557    643.18  76289.64
         C          6.054            2.750     36.41   1053.14
         C          6.054            2.750     36.41   1053.14
         Ti        13.276            3.557    643.18  76289.64
         Ti        13.276            3.557    643.18  76289.64
         O          2.995            2.345     20.74    418.58
         O          2.995            2.345     20.74    418.58

         Molecular C6 ( Ry / a.u.^6 ) =   2352249.41


     number of k points=     1  Marzari-Vanderbilt smearing, width (Ry)=  0.0100
                       cart. coord. in units 2pi/alat
        k(    1) = (   0.0000000   0.0000000   0.0000000), wk =   2.0000000

     Dense  grid:  1542422 G-vectors     FFT dimensions: ( 150, 150, 324)

     Smooth grid:   545487 G-vectors     FFT dimensions: ( 108, 108, 240)

     Estimated max dynamical RAM per process >     917.53 MB

     Estimated total dynamical RAM >      10.75 GB

     Check: negative core charge=   -0.000004

     Initial potential from superposition of free atoms

     starting charge     847.9965, renormalised to     896.0000

     negative rho (up, down):  7.041E-02 0.000E+00
     Starting wfcs are  736 randomized atomic wfcs
     Checking if some PAW data can be deallocated... 

     total cpu time spent up to now is       35.3 secs

     per-process dynamical memory:   325.5 Mb

     Self-consistent Calculation

     iteration #  1     ecut=    50.00 Ry     beta= 0.30
     Davidson diagonalization with overlap
     ethr =  1.00E-02,  avg # of iterations =  4.0

     negative rho (up, down):  7.376E-02 0.000E+00

     total cpu time spent up to now is      117.8 secs

     total energy              =   -7607.65062179 Ry
     estimated scf accuracy    <     140.01431941 Ry

     iteration #  2     ecut=    50.00 Ry     beta= 0.30
     Davidson diagonalization with overlap
     ethr =  1.00E-02,  avg # of iterations =  6.0

     negative rho (up, down):  6.414E-02 0.000E+00

     total cpu time spent up to now is      225.2 secs

     total energy              =   -7595.84465169 Ry
     estimated scf accuracy    <     611.14885599 Ry

     iteration #  3     ecut=    50.00 Ry     beta= 0.30
     Davidson diagonalization with overlap
     ethr =  1.00E-02,  avg # of iterations =  5.0

     negative rho (up, down):  6.459E-02 0.000E+00

     total cpu time spent up to now is      313.3 secs

     total energy              =   -7658.10461244 Ry
     estimated scf accuracy    <      12.93579338 Ry

     iteration #  4     ecut=    50.00 Ry     beta= 0.30
     Davidson diagonalization with overlap
     ethr =  1.44E-03,  avg # of iterations =  7.0

     negative rho (up, down):  6.350E-02 0.000E+00

     total cpu time spent up to now is      388.7 secs

     total energy              =   -7656.92300698 Ry
     estimated scf accuracy    <       8.08033830 Ry

     iteration #  5     ecut=    50.00 Ry     beta= 0.30
     Davidson diagonalization with overlap
     ethr =  9.02E-04,  avg # of iterations =  2.0

     negative rho (up, down):  6.305E-02 0.000E+00

     total cpu time spent up to now is      463.5 secs

     total energy              =   -7657.05656453 Ry
     estimated scf accuracy    <       1.74102818 Ry

     iteration #  6     ecut=    50.00 Ry     beta= 0.30
     Davidson diagonalization with overlap
     ethr =  1.94E-04,  avg # of iterations = 15.0

     negative rho (up, down):  6.203E-02 0.000E+00

     total cpu time spent up to now is      580.8 secs

     total energy              =   -7657.35954078 Ry
     estimated scf accuracy    <       1.59134702 Ry

     iteration #  7     ecut=    50.00 Ry     beta= 0.30
     Davidson diagonalization with overlap
     ethr =  1.78E-04,  avg # of iterations =  2.0

     negative rho (up, down):  5.908E-02 0.000E+00

     total cpu time spent up to now is      650.8 secs

     total energy              =   -7657.24917503 Ry
     estimated scf accuracy    <       0.70083376 Ry

     iteration #  8     ecut=    50.00 Ry     beta= 0.30
     Davidson diagonalization with overlap
     c_bands:  1 eigenvalues not converged
     ethr =  7.82E-05,  avg # of iterations = 20.0

     negative rho (up, down):  5.783E-02 0.000E+00

     total cpu time spent up to now is      759.1 secs

     total energy              =   -7657.44692546 Ry
     estimated scf accuracy    <       0.42550943 Ry

     iteration #  9     ecut=    50.00 Ry     beta= 0.30
     Davidson diagonalization with overlap
     ethr =  4.75E-05,  avg # of iterations =  8.0

     negative rho (up, down):  5.730E-02 0.000E+00

     total cpu time spent up to now is      832.6 secs

     total energy              =   -7657.39356438 Ry
     estimated scf accuracy    <       0.51744402 Ry

     iteration # 10     ecut=    50.00 Ry     beta= 0.30
     Davidson diagonalization with overlap
     ethr =  4.75E-05,  avg # of iterations =  8.0

     negative rho (up, down):  5.735E-02 0.000E+00

     total cpu time spent up to now is      907.1 secs

     total energy              =   -7657.37708948 Ry
     estimated scf accuracy    <       0.12833895 Ry

     iteration # 11     ecut=    50.00 Ry     beta= 0.30
     Davidson diagonalization with overlap
     ethr =  1.43E-05,  avg # of iterations = 32.0

     negative rho (up, down):  5.718E-02 0.000E+00

     total cpu time spent up to now is     1082.6 secs

     total energy              =   -7657.40830721 Ry
     estimated scf accuracy    <       0.13412637 Ry

     iteration # 12     ecut=    50.00 Ry     beta= 0.30
     Davidson diagonalization with overlap
     ethr =  1.43E-05,  avg # of iterations =  2.0

     negative rho (up, down):  5.718E-02 0.000E+00

     total cpu time spent up to now is     1139.1 secs

     total energy              =   -7657.40451508 Ry
     estimated scf accuracy    <       0.02793854 Ry

     iteration # 13     ecut=    50.00 Ry     beta= 0.30
     Davidson diagonalization with overlap
     ethr =  3.12E-06,  avg # of iterations = 20.0

     negative rho (up, down):  5.717E-02 0.000E+00

     total cpu time spent up to now is     1264.3 secs

     total energy              =   -7657.41316994 Ry
     estimated scf accuracy    <       0.02696781 Ry

     iteration # 14     ecut=    50.00 Ry     beta= 0.30
     Davidson diagonalization with overlap
     ethr =  3.01E-06,  avg # of iterations =  1.0

     negative rho (up, down):  5.717E-02 0.000E+00

     total cpu time spent up to now is     1335.8 secs

     total energy              =   -7657.41305154 Ry
     estimated scf accuracy    <       0.00713971 Ry

     iteration # 15     ecut=    50.00 Ry     beta= 0.30
     Davidson diagonalization with overlap
     ethr =  7.97E-07,  avg # of iterations =  7.0

     negative rho (up, down):  5.717E-02 0.000E+00

     total cpu time spent up to now is     1427.7 secs

     total energy              =   -7657.41385268 Ry
     estimated scf accuracy    <       0.00044543 Ry

     iteration # 16     ecut=    50.00 Ry     beta= 0.30
     Davidson diagonalization with overlap
     ethr =  4.97E-08,  avg # of iterations = 17.0

     negative rho (up, down):  5.716E-02 0.000E+00

     total cpu time spent up to now is     1533.3 secs

     total energy              =   -7657.41402013 Ry
     estimated scf accuracy    <       0.00029253 Ry

     iteration # 17     ecut=    50.00 Ry     beta= 0.30
     Davidson diagonalization with overlap
     ethr =  3.26E-08,  avg # of iterations =  2.0

     negative rho (up, down):  5.716E-02 0.000E+00

     total cpu time spent up to now is     1605.4 secs

     total energy              =   -7657.41398913 Ry
     estimated scf accuracy    <       0.00028950 Ry

     iteration # 18     ecut=    50.00 Ry     beta= 0.30
     Davidson diagonalization with overlap
     ethr =  3.23E-08,  avg # of iterations =  2.0

     negative rho (up, down):  5.717E-02 0.000E+00

     total cpu time spent up to now is     1692.4 secs

     total energy              =   -7657.41401857 Ry
     estimated scf accuracy    <       0.00003670 Ry

     iteration # 19     ecut=    50.00 Ry     beta= 0.30
     Davidson diagonalization with overlap
     ethr =  4.10E-09,  avg # of iterations =  5.0

     negative rho (up, down):  5.717E-02 0.000E+00

     total cpu time spent up to now is     1777.7 secs

     total energy              =   -7657.41402353 Ry
     estimated scf accuracy    <       0.00000492 Ry

     iteration # 20     ecut=    50.00 Ry     beta= 0.30
     Davidson diagonalization with overlap
     ethr =  5.49E-10,  avg # of iterations =  5.0

     negative rho (up, down):  5.717E-02 0.000E+00

     total cpu time spent up to now is     1871.8 secs

     total energy              =   -7657.41402443 Ry
     estimated scf accuracy    <       0.00000188 Ry

     iteration # 21     ecut=    50.00 Ry     beta= 0.30
     Davidson diagonalization with overlap
     ethr =  2.10E-10,  avg # of iterations =  4.0

     negative rho (up, down):  5.717E-02 0.000E+00

     total cpu time spent up to now is     1954.3 secs

     total energy              =   -7657.41402448 Ry
     estimated scf accuracy    <       0.00000175 Ry

     iteration # 22     ecut=    50.00 Ry     beta= 0.30
     Davidson diagonalization with overlap
     ethr =  1.95E-10,  avg # of iterations =  2.0

     negative rho (up, down):  5.717E-02 0.000E+00

     total cpu time spent up to now is     2028.0 secs

     total energy              =   -7657.41402462 Ry
     estimated scf accuracy    <       0.00000053 Ry

     iteration # 23     ecut=    50.00 Ry     beta= 0.30
     Davidson diagonalization with overlap
     ethr =  5.95E-11,  avg # of iterations =  5.0

     negative rho (up, down):  5.717E-02 0.000E+00

     total cpu time spent up to now is     2114.0 secs

     total energy              =   -7657.41402471 Ry
     estimated scf accuracy    <       0.00000025 Ry

     iteration # 24     ecut=    50.00 Ry     beta= 0.30
     Davidson diagonalization with overlap
     ethr =  2.79E-11,  avg # of iterations =  2.0

     negative rho (up, down):  5.717E-02 0.000E+00

     total cpu time spent up to now is     2190.4 secs

     total energy              =   -7657.41402473 Ry
     estimated scf accuracy    <       0.00000017 Ry

     iteration # 25     ecut=    50.00 Ry     beta= 0.30
     Davidson diagonalization with overlap
     ethr =  1.90E-11,  avg # of iterations =  1.0

     negative rho (up, down):  5.717E-02 0.000E+00

     total cpu time spent up to now is     2253.0 secs

     End of self-consistent calculation

          k = 0.0000 0.0000 0.0000 ( 68181 PWs)   bands (ev):

   -57.2875 -57.2849 -57.2567 -57.2567 -57.2567 -57.2567 -57.2566 -57.2566
   -57.2552 -57.2552 -57.2552 -57.2552 -57.2552 -57.2552 -57.2257 -57.2257
   -57.2257 -57.2257 -57.2257 -57.2256 -57.2256 -57.2256 -57.2256 -57.2254
   -57.2254 -57.2254 -57.2254 -57.2254 -57.2253 -57.2253 -57.2253 -57.2253
   -56.4627 -56.4341 -56.4341 -56.4341 -56.4341 -56.4341 -56.4341 -56.4054
   -56.4054 -56.4054 -56.4054 -56.4053 -56.4053 -56.4053 -56.4053 -56.4053
   -33.8541 -33.8541 -33.8540 -33.8287 -33.8287 -33.8287 -33.7602 -33.7602
   -33.7602 -33.7602 -33.7602 -33.7602 -33.7382 -33.7382 -33.7382 -33.7382
   -33.7382 -33.7382 -33.6820 -33.6159 -33.6159 -33.6159 -33.6159 -33.6159
   -33.6159 -33.6019 -33.6019 -33.6019 -33.6019 -33.6019 -33.6018 -33.6006
   -33.5973 -33.5973 -33.5973 -33.5973 -33.5973 -33.5973 -33.5608 -33.5608
   -33.5608 -33.5608 -33.5608 -33.5608 -33.5509 -33.5509 -33.5509 -33.5509
   -33.5509 -33.5509 -33.5506 -33.5505 -33.5505 -33.5485 -33.5485 -33.5485
   -33.5485 -33.5485 -33.5485 -33.5160 -33.5159 -33.5159 -33.5159 -33.5159
   -33.5159 -33.5140 -33.5140 -33.5140 -33.5140 -33.5139 -33.5139 -33.4979
   -33.4979 -33.4978 -33.4534 -33.4534 -33.4534 -33.4467 -33.4466 -33.4466
   -33.4013 -33.4013 -33.4013 -33.4013 -33.4013 -33.4013 -33.3973 -33.3973
   -33.3973 -33.3973 -33.3973 -33.3972 -33.3485 -33.3485 -33.3474 -33.3474
   -32.9815 -32.9815 -32.9815 -32.9051 -32.9051 -32.9050 -32.9050 -32.9050
   -32.9050 -32.7877 -32.7877 -32.7877 -32.7877 -32.7877 -32.7877 -32.7862
   -32.7601 -32.7601 -32.7601 -32.7601 -32.7601 -32.7601 -32.7599 -32.7599
   -32.7599 -32.7599 -32.7599 -32.7598 -32.7500 -32.7500 -32.7500 -32.7400
   -32.7400 -32.7400 -32.7400 -32.7400 -32.7400 -32.6674 -32.6674 -32.6674
   -32.6197 -32.6197 -32.6196 -32.6196 -32.6196 -32.6196 -32.5714 -32.5714
   -18.2801 -18.2668 -18.0121 -18.0121 -18.0121 -18.0121 -18.0121 -18.0121
   -18.0089 -18.0089 -18.0089 -18.0089 -18.0089 -18.0089 -17.8073 -17.8073
   -17.8073 -17.8063 -17.8063 -17.8063 -17.7952 -17.7952 -17.7952 -17.7952
   -17.7952 -17.7952 -17.7949 -17.7949 -17.7949 -17.7949 -17.7949 -17.7949
   -12.2257 -11.3694 -11.3694 -11.3694 -11.3694 -11.3694 -11.3694 -10.4587
   -10.4587 -10.4587 -10.2180 -10.2180 -10.2180 -10.2180 -10.2180 -10.2180
   -10.1975 -10.1974 -10.1974 -10.1974 -10.1974 -10.1974 -10.1497 -10.1113
   -10.1113 -10.1113 -10.1113 -10.1113 -10.1113  -9.7212  -9.7212  -9.7212
    -6.3226  -6.3226  -6.3226  -5.9517  -5.4206  -5.4206  -5.4206  -5.3349
    -5.3349  -5.3349  -5.3349  -5.3349  -5.3349  -5.1061  -5.1061  -5.1061
    -5.1061  -5.1061  -5.1061  -5.0319  -5.0319  -5.0319  -5.0319  -5.0319
    -5.0319  -4.8949  -4.8949  -4.8949  -4.8949  -4.8949  -4.8949  -4.7139
    -4.7139  -4.7139  -4.7139  -4.7139  -4.7139  -4.6603  -4.6603  -4.6603
    -4.6603  -4.6603  -4.6603  -4.5258  -4.5258  -4.5209  -4.5209  -4.5208
    -4.5208  -4.5208  -4.5208  -4.3776  -4.3776  -4.3776  -4.3776  -4.3776
    -4.3776  -4.3730  -4.2961  -4.2961  -4.2961  -4.2819  -4.2819  -4.1015
    -4.1015  -4.1015  -4.1015  -4.1015  -4.1015  -4.0302  -4.0302  -4.0302
    -4.0171  -4.0171  -4.0171  -3.9772  -3.9772  -3.9772  -3.9772  -3.9772
    -3.9772  -3.8820  -3.8820  -3.8820  -3.8820  -3.8820  -3.8820  -3.8558
    -3.8558  -3.8558  -3.8558  -3.8558  -3.8558  -3.8423  -3.8423  -3.8423
    -3.8281  -3.8281  -3.8281  -3.8281  -3.8280  -3.8280  -3.5458  -3.5458
    -3.5458  -3.4104  -3.4104  -3.4104  -3.3838  -3.3838  -3.3838  -3.3838
    -3.3838  -3.3838  -3.3141  -3.3141  -3.3140  -3.3140  -3.3140  -3.3140
    -3.0591  -3.0591  -3.0591  -3.0098  -3.0098  -3.0098  -3.0098  -3.0098
    -3.0098  -2.9266  -2.9266  -2.9266  -2.9266  -2.9266  -2.9266  -2.6824
    -2.6823  -2.6823  -2.5606  -2.5606  -2.5606  -2.5606  -2.5606  -2.5606
    -2.5568  -2.5399  -2.5399  -2.5399  -2.5399  -2.5399  -2.5399  -2.3408
    -2.3408  -2.3408  -2.3408  -2.3408  -2.3408  -2.3370  -2.3370  -2.0734
    -2.0734  -2.0734  -2.0734  -2.0734  -2.0734  -1.8847  -1.8847  -1.8847
    -1.8847  -1.8847  -1.8847  -1.4577  -1.4577  -1.4577  -1.4577  -1.4577
    -1.4577  -1.3429  -1.3429  -1.3429  -1.1012  -1.1012  -1.1012  -1.1012
    -1.1012  -1.1012  -1.0050  -1.0050  -1.0050  -0.2641  -0.2641  -0.2641
    -0.0049   0.1282   0.1282   0.1282   0.1282   0.1282   0.1282   0.1432
     0.1432   0.4791   0.4791   1.2752   1.2752   1.3112   1.3112   1.3112
     1.3112   1.3112   1.3112   1.3719   1.3719   1.3719   1.3719   1.3719
     1.3719   1.4321   1.4508   1.4508   1.4508   1.5174   1.5174   1.5174
     1.5174   1.5174   1.5174   1.5831   1.5831   1.5831   1.5831   1.5831
     1.5831   2.0613   2.0613   2.0613   2.0613   2.0613   2.0613   2.3371
     2.3371   2.3371   2.3371   2.3371   2.3371   2.3968   2.3968   2.3968
     2.3968   2.3968   2.3968   2.4305   2.4305   2.4305   2.4386   2.4386
     2.4386   2.5372   2.5372   2.5372   2.5372   2.5372   2.5372   2.5498
     2.5498   2.5498   2.5603   2.5603   2.6036   2.6036   2.6036   2.6036
     2.6036   2.6036   2.6970   2.8867   2.8867   2.8867   2.8867   2.8868
     2.8868   2.9242

     the Fermi energy is    -0.1424 ev

!    total energy              =   -7657.41402471 Ry
     estimated scf accuracy    <       0.00000006 Ry
     smearing contrib. (-TS)   =       0.00351003 Ry
     internal energy E=F+TS    =   -7657.41753474 Ry

     The total energy is F=E-TS. E is the sum of the following terms:
     one-electron contribution =  -94963.72190044 Ry
     hartree contribution      =   47512.62501236 Ry
     xc contribution           =   -1256.57060598 Ry
     ewald contribution        =   41554.04334132 Ry
     DFT-D3 Dispersion         =      -1.45306221 Ry
     one-center paw contrib.   =    -502.34031979 Ry

     convergence has been achieved in  25 iterations

     negative rho (up, down):  5.717E-02 0.000E+00

     Forces acting on atoms (cartesian axes, Ry/au):

     atom    1 type  1   force =     0.00000000    0.00000000    0.00000000
     atom    2 type  2   force =    -0.00000002   -0.00000001   -0.00551988
     atom    3 type  2   force =     0.00000040    0.00000023    0.00551916
     atom    4 type  1   force =     0.00000299    0.00000173    0.11975346
     atom    5 type  1   force =    -0.00000103   -0.00000059   -0.11975310
     atom    6 type  3   force =     0.00000000    0.00000000   -0.01705181
     atom    7 type  3   force =     0.00000000    0.00000000    0.01705181
     atom    8 type  1   force =     0.00000162    0.00000280    0.00000000
     atom    9 type  2   force =    -0.00000001    0.00000045   -0.00552011
     atom   10 type  2   force =     0.00000051   -0.00000030    0.00551924
     atom   11 type  1   force =    -0.00000058    0.00000034    0.11975241
     atom   12 type  1   force =    -0.00000069    0.00000419   -0.11975161
     atom   13 type  3   force =     0.00000086    0.00000079   -0.01705393
     atom   14 type  3   force =     0.00000026    0.00000114    0.01705393
     atom   15 type  1   force =     0.00000000   -0.00000000    0.00000000
     atom   16 type  2   force =    -0.00000039   -0.00000022   -0.00552011
     atom   17 type  2   force =     0.00000000   -0.00000046    0.00551916
     atom   18 type  1   force =     0.00000000   -0.00000346    0.11975346
     atom   19 type  1   force =    -0.00000398   -0.00000150   -0.11975161
     atom   20 type  3   force =     0.00000040   -0.00000023   -0.01705495
     atom   21 type  3   force =    -0.00000040    0.00000023    0.01705495
     atom   22 type  1   force =    -0.00000162   -0.00000280    0.00000000
     atom   23 type  2   force =    -0.00000000    0.00000002   -0.00551988
     atom   24 type  2   force =    -0.00000002    0.00000001    0.00551988
     atom   25 type  1   force =    -0.00000103    0.00000059    0.11975310
     atom   26 type  1   force =     0.00000000    0.00000119   -0.11975310
     atom   27 type  3   force =    -0.00000026   -0.00000114   -0.01705393
     atom   28 type  3   force =    -0.00000086   -0.00000079    0.01705393
     atom   29 type  1   force =     0.00000324   -0.00000000    0.00000000
     atom   30 type  2   force =     0.00000038   -0.00000023   -0.00552011
     atom   31 type  2   force =     0.00000000    0.00000059    0.00551924
     atom   32 type  1   force =     0.00000000   -0.00000067    0.11975241
     atom   33 type  1   force =     0.00000329   -0.00000270   -0.11975161
     atom   34 type  3   force =     0.00000112    0.00000035   -0.01705393
     atom   35 type  3   force =     0.00000112   -0.00000035    0.01705393
     atom   36 type  1   force =     0.00000186    0.00000107    0.00000339
     atom   37 type  2   force =     0.00000000    0.00000000   -0.00552007
     atom   38 type  2   force =    -0.00000051   -0.00000030    0.00551924
     atom   39 type  1   force =     0.00000058    0.00000034    0.11975241
     atom   40 type  1   force =    -0.00000000   -0.00000000   -0.11975156
     atom   41 type  3   force =     0.00000056    0.00000032   -0.01705640
     atom   42 type  3   force =     0.00000016    0.00000009    0.01705398
     atom   43 type  1   force =     0.00000000   -0.00000214    0.00000339
     atom   44 type  2   force =     0.00000039   -0.00000022   -0.00552011
     atom   45 type  2   force =    -0.00000001   -0.00000045    0.00552011
     atom   46 type  1   force =    -0.00000069   -0.00000419    0.11975161
     atom   47 type  1   force =     0.00000398   -0.00000150   -0.11975161
     atom   48 type  3   force =     0.00000000   -0.00000065   -0.01705640
     atom   49 type  3   force =     0.00000000   -0.00000018    0.01705398
     atom   50 type  1   force =     0.00000162   -0.00000280    0.00000000
     atom   51 type  2   force =     0.00000040   -0.00000023   -0.00551916
     atom   52 type  2   force =     0.00000038    0.00000023    0.00552011
     atom   53 type  1   force =     0.00000329    0.00000270    0.11975161
     atom   54 type  1   force =     0.00000299   -0.00000173   -0.11975346
     atom   55 type  3   force =     0.00000026   -0.00000114   -0.01705393
     atom   56 type  3   force =     0.00000086   -0.00000079    0.01705393
     atom   57 type  1   force =     0.00000000   -0.00000000    0.00000000
     atom   58 type  2   force =    -0.00000038   -0.00000023   -0.00552011
     atom   59 type  2   force =    -0.00000040    0.00000023    0.00551916
     atom   60 type  1   force =    -0.00000299    0.00000173    0.11975346
     atom   61 type  1   force =    -0.00000329   -0.00000270   -0.11975161
     atom   62 type  3   force =     0.00000000    0.00000046   -0.01705495
     atom   63 type  3   force =     0.00000000   -0.00000046    0.01705495
     atom   64 type  1   force =    -0.00000186    0.00000107    0.00000339
     atom   65 type  2   force =     0.00000001    0.00000045   -0.00552011
     atom   66 type  2   force =    -0.00000039    0.00000022    0.00552011
     atom   67 type  1   force =    -0.00000398    0.00000150    0.11975161
     atom   68 type  1   force =     0.00000069    0.00000419   -0.11975161
     atom   69 type  3   force =    -0.00000056    0.00000032   -0.01705640
     atom   70 type  3   force =    -0.00000016    0.00000009    0.01705398
     atom   71 type  1   force =     0.00000000   -0.00000000    0.00000000
     atom   72 type  2   force =     0.00000051    0.00000030   -0.00551924
     atom   73 type  2   force =     0.00000000    0.00000000    0.00552007
     atom   74 type  1   force =     0.00000000    0.00000000    0.11975156
     atom   75 type  1   force =    -0.00000058   -0.00000034   -0.11975241
     atom   76 type  3   force =    -0.00000040   -0.00000023   -0.01705495
     atom   77 type  3   force =     0.00000040    0.00000023    0.01705495
     atom   78 type  1   force =     0.00000186   -0.00000107   -0.00000339
     atom   79 type  2   force =     0.00000000   -0.00000059   -0.00551924
     atom   80 type  2   force =    -0.00000038    0.00000023    0.00552011
     atom   81 type  1   force =    -0.00000329    0.00000270    0.11975161
     atom   82 type  1   force =     0.00000000    0.00000067   -0.11975241
     atom   83 type  3   force =     0.00000016   -0.00000009   -0.01705398
     atom   84 type  3   force =     0.00000056   -0.00000032    0.01705640
     atom   85 type  1   force =    -0.00000324    0.00000000   -0.00000000
     atom   86 type  2   force =     0.00000002   -0.00000001   -0.00551988
     atom   87 type  2   force =    -0.00000000   -0.00000002    0.00551988
     atom   88 type  1   force =     0.00000000   -0.00000119    0.11975310
     atom   89 type  1   force =     0.00000103   -0.00000059   -0.11975310
     atom   90 type  3   force =    -0.00000112    0.00000035   -0.01705393
     atom   91 type  3   force =    -0.00000112   -0.00000035    0.01705393
     atom   92 type  1   force =    -0.00000162    0.00000280    0.00000000
     atom   93 type  2   force =    -0.00000000    0.00000046   -0.00551916
     atom   94 type  2   force =     0.00000039    0.00000022    0.00552011
     atom   95 type  1   force =     0.00000398    0.00000150    0.11975161
     atom   96 type  1   force =     0.00000000    0.00000346   -0.11975346
     atom   97 type  3   force =    -0.00000086    0.00000079   -0.01705393
     atom   98 type  3   force =    -0.00000026    0.00000114    0.01705393
     atom   99 type  1   force =    -0.00000000    0.00000214   -0.00000339
     atom  100 type  2   force =    -0.00000051    0.00000030   -0.00551924
     atom  101 type  2   force =     0.00000001   -0.00000045    0.00552011
     atom  102 type  1   force =     0.00000069   -0.00000419    0.11975161
     atom  103 type  1   force =     0.00000058   -0.00000034   -0.11975241
     atom  104 type  3   force =     0.00000000    0.00000018   -0.01705398
     atom  105 type  3   force =    -0.00000000    0.00000065    0.01705640
     atom  106 type  1   force =    -0.00000186   -0.00000107   -0.00000339
     atom  107 type  2   force =    -0.00000040   -0.00000023   -0.00551916
     atom  108 type  2   force =     0.00000002    0.00000001    0.00551988
     atom  109 type  1   force =     0.00000103    0.00000059    0.11975310
     atom  110 type  1   force =    -0.00000299   -0.00000173   -0.11975346
     atom  111 type  3   force =    -0.00000016   -0.00000009   -0.01705398
     atom  112 type  3   force =    -0.00000056   -0.00000032    0.01705640

     Total force =     0.484346     Total SCF correction =     0.000767

     BFGS Geometry Optimization
     Energy error            =      8.9E+00 Ry
     Gradient error          =      1.2E-01 Ry/Bohr

     number of scf cycles    =   1
     number of bfgs steps    =   0

     energy             new  =   -7657.4140247129 Ry

     new trust radius        =       0.1197534551 bohr
     new conv_thr            =       0.0000001000 Ry


ATOMIC_POSITIONS (angstrom)
Ti               0.0000000000        0.0000000000       13.3000000000
C                1.5149999920        0.8746859954       14.4470790038
C                3.0300000000        1.7493710000       12.1500000000    0   0   0
Ti               3.0300015836        1.7493719143       15.6933707994
Ti               1.5150000000        0.8746860000       10.9700000000    0   0   0
O                0.0000000000        0.0000000000       16.5909765697
O                0.0000000000        0.0000000000       10.0000000000    0   0   0
Ti               1.5150008569        2.6240584841       13.3000000000
C                3.0299999956        3.4987432362       14.4470788840
C                4.5450000000        4.3734280000       12.1500000000    0   0   0
Ti               4.5449996923        4.3734281776       15.6933702449
Ti               3.0300000000        3.4987430000       10.9700000000    0   0   0
O                1.5150004566        2.6240574199       16.5909754466
O                1.5150000000        2.6240570000       10.0000000000    0   0   0
Ti               3.0300000000        5.2481140000       13.3000000000
C                4.5449997933        6.1227998857       14.4470788840
C                6.0600000000        6.9974850000       12.1500000000    0   0   0
Ti               6.0600000000        6.9974831714       15.6933707994
Ti               4.5450000000        6.1228000000       10.9700000000    0   0   0
O                3.0300002124        5.2481138773       16.5909749072
O                3.0300000000        5.2481140000       10.0000000000    0   0   0
Ti               4.5449991431        7.8721695159       13.3000000000
C                6.0600000000        8.7468570093       14.4470790038
C                7.5750000000        9.6215420000       12.1500000000    0   0   0
Ti               7.5749994553        9.6215423145       15.6933706104
Ti               6.0600000000        8.7468570000       10.9700000000    0   0   0
O                4.5449998646        7.8721703946       16.5909754466
O                4.5450000000        7.8721710000       10.0000000000    0   0   0
Ti               3.0300017137       -0.0000000000       13.3000000000
C                4.5450002023        0.8746858781       14.4470788840
C                6.0600000000        1.7493710000       12.1500000000    0   0   0
Ti               6.0600000000        1.7493706447       15.6933702449
Ti               4.5450000000        0.8746860000       10.9700000000    0   0   0
O                3.0300005920        0.0000001855       16.5909754466
O                3.0300000000        0.0000000000       10.0000000000    0   0   0
Ti               4.5450009827        2.6240575674       13.3000017916
C                6.0600000000        3.4987430000       14.4470789024
C                7.5750000000        4.3734280000       12.1500000000    0   0   0
Ti               7.5750003077        4.3734281776       15.6933702449
Ti               6.0600000000        3.4987430000       10.9700000000    0   0   0
O                4.5450002958        2.6240571708       16.5909741425
O                4.5450000000        2.6240570000       10.0000000000    0   0   0
Ti               6.0600000000        5.2481128652       13.3000017916
C                7.5750002067        6.1227998857       14.4470788840
C                9.0900000000        6.9974850000       12.1500000000    0   0   0
Ti               9.0899996341        6.9974827808       15.6933698207
Ti               7.5750000000        6.1228000000       10.9700000000    0   0   0
O                6.0600000000        5.2481136584       16.5909741425
O                6.0600000000        5.2481140000       10.0000000000    0   0   0
Ti               7.5750008569        7.8721695159       13.3000000000
C                9.0900002090        8.7468568793       14.4470793869
C               10.6050000000        9.6215420000       12.1500000000    0   0   0
Ti              10.6050017390        9.6215434265       15.6933698207
Ti               9.0900000000        8.7468570000       10.9700000000    0   0   0
O                7.5750001354        7.8721703946       16.5909754466
O                7.5750000000        7.8721710000       10.0000000000    0   0   0
--------------------------------------------------------------------------
MPI_ABORT was invoked on rank 0 in communicator MPI_COMM_WORLD
  Proc: [[12752,1],0]
  Errorcode: 1

NOTE: invoking MPI_ABORT causes Open MPI to kill all MPI processes.
You may or may not see output from other processes, depending on
exactly when Open MPI kills them.
--------------------------------------------------------------------------
Ti               6.0600000000       -0.0000000000       13.3000000000
C                7.5749997977        0.8746858781       14.4470788840
C                9.0900000000        1.7493710000       12.1500000000    0   0   0
Ti               9.0899984164        1.7493719143       15.6933707994
Ti               7.5750000000        0.8746860000       10.9700000000    0   0   0
O                6.0600000000        0.0000002453       16.5909749072
O                6.0600000000        0.0000000000       10.0000000000    0   0   0
Ti               7.5749990173        2.6240575674       13.3000017916
C                9.0900000044        3.4987432362       14.4470788840
C               10.6050000000        4.3734280000       12.1500000000    0   0   0
Ti              10.6049978952        4.3734287928       15.6933698207
Ti               9.0900000000        3.4987430000       10.9700000000    0   0   0
O                7.5749997042        2.6240571708       16.5909741425
O                7.5750000000        2.6240570000       10.0000000000    0   0   0
Ti               9.0900000000        5.2481140000       13.3000000000
C               10.6050002716        6.1228001568       14.4470793416
C               12.1200000000        6.9974850000       12.1500000000    0   0   0
Ti              12.1200000000        6.9974850000       15.6933697980
Ti              10.6050000000        6.1228000000       10.9700000000    0   0   0
O                9.0899997876        5.2481138773       16.5909749072
O                9.0900000000        5.2481140000       10.0000000000    0   0   0
Ti              10.6050009827        7.8721704326       13.2999982084
C               12.1200000000        8.7468566864       14.4470793416
C               13.6350000000        9.6215420000       12.1500000000    0   0   0
Ti              13.6349982610        9.6215434265       15.6933698207
Ti              12.1200000000        8.7468570000       10.9700000000    0   0   0
O               10.6050000823        7.8721709525       16.5909754228
O               10.6050000000        7.8721710000       10.0000000000    0   0   0
Ti               9.0899982863        0.0000000000       13.3000000000
C               10.6050000080        0.8746859954       14.4470790038
C               12.1200000000        1.7493710000       12.1500000000    0   0   0
Ti              12.1200000000        1.7493703710       15.6933706104
Ti              10.6050000000        0.8746860000       10.9700000000    0   0   0
O                9.0899994080        0.0000001855       16.5909754466
O                9.0900000000        0.0000000000       10.0000000000    0   0   0
Ti              10.6049991431        2.6240584841       13.3000000000
C               12.1200000000        3.4987432414       14.4470793869
C               13.6350000000        4.3734280000       12.1500000000    0   0   0
Ti              13.6350021048        4.3734287928       15.6933698207
Ti              12.1200000000        3.4987430000       10.9700000000    0   0   0
O               10.6049995434        2.6240574199       16.5909754466
O               10.6050000000        2.6240570000       10.0000000000    0   0   0
Ti              12.1200000000        5.2481151348       13.2999982084
C               13.6349997284        6.1228001568       14.4470793416
C               15.1500000000        6.9974850000       12.1500000000    0   0   0
Ti              15.1500003659        6.9974827808       15.6933698207
Ti              13.6350000000        6.1228000000       10.9700000000    0   0   0
O               12.1200000000        5.2481140950       16.5909754228
O               12.1200000000        5.2481140000       10.0000000000    0   0   0
Ti              13.6349990173        7.8721704326       13.2999982084
C               15.1499997910        8.7468568793       14.4470793869
C               16.6650000000        9.6215420000       12.1500000000    0   0   0
Ti              16.6650005447        9.6215423145       15.6933706104
Ti              15.1500000000        8.7468570000       10.9700000000    0   0   0
O               13.6349999177        7.8721709525       16.5909754228
O               13.6350000000        7.8721710000       10.0000000000    0   0   0



 %%%%%%%%%%%%%%%%%%%%%%%%%%%%%%%%%%%%%%%%%%%%%%%%%%%%%%%%%%%%%%%%%%%%%%%%%%%%%%
     Error in routine checkallsym (1):
     some of the original symmetry operations not satisfied
 %%%%%%%%%%%%%%%%%%%%%%%%%%%%%%%%%%%%%%%%%%%%%%%%%%%%%%%%%%%%%%%%%%%%%%%%%%%%%%

     stopping ...
--------------------------------------------------------------------------
prterun has exited due to process rank 0 with PID 0 on node Sircalch calling
"abort". This may have caused other processes in the application to be
terminated by signals sent by prterun (as reported here).
--------------------------------------------------------------------------
 