      -----------------------------------------------------------      
     |                   =====================                   |     
     |                           x T B                           |     
     |                   =====================                   |     
     |                         S. Grimme                         |     
     |          Mulliken Center for Theoretical Chemistry        |     
     |                    University of Bonn                     |     
      -----------------------------------------------------------      

   * xtb version 6.7.1pre (5071a88) compiled by 'Marcel@Raven' on 2024-07-23

   xtb is free software: you can redistribute it and/or modify it under
   the terms of the GNU Lesser General Public License as published by
   the Free Software Foundation, either version 3 of the License, or
   (at your option) any later version.
   
   xtb is distributed in the hope that it will be useful,
   but WITHOUT ANY WARRANTY; without even the implied warranty of
   MERCHANTABILITY or FITNESS FOR A PARTICULAR PURPOSE.  See the
   GNU Lesser General Public License for more details.
   
   Cite this work as:
   * C. Bannwarth, E. Caldeweyher, S. Ehlert, A. Hansen, P. Pracht,
     J. Seibert, S. Spicher, S. Grimme, WIREs Comput. Mol. Sci., 2020, 11,
     e01493. DOI: 10.1002/wcms.1493
   
   for GFN2-xTB:
   * C. Bannwarth, S. Ehlert and S. Grimme., J. Chem. Theory Comput., 2019,
     15, 1652-1671. DOI: 10.1021/acs.jctc.8b01176
   for GFN1-xTB:
   * S. Grimme, C. Bannwarth, P. Shushkov, J. Chem. Theory Comput., 2017,
     13, 1989-2009. DOI: 10.1021/acs.jctc.7b00118
   for GFN0-xTB:
   * P. Pracht, E. Caldeweyher, S. Ehlert, S. Grimme, ChemRxiv, 2019, preprint.
     DOI: 10.26434/chemrxiv.8326202.v1
   for GFN-FF:
   * S. Spicher and S. Grimme, Angew. Chem. Int. Ed., 2020, 59, 15665-15673.
     DOI: 10.1002/anie.202004239
   
   for ALPB and GBSA implicit solvation:
   * S. Ehlert, M. Stahn, S. Spicher, S. Grimme, J. Chem. Theory Comput.,
     2021, 17, 4250-4261. DOI: 10.1021/acs.jctc.1c00471
   
   for ddCOSMO and CPCM-X implicit solvation:
   * M. Stahn, S. Ehlert, S. Grimme, J. Phys. Chem. A,
     2023, XX, XXXX-XXXX. DOI: 10.1021/acs.jpca.3c04382
   
   for DFT-D4:
   * E. Caldeweyher, C. Bannwarth and S. Grimme, J. Chem. Phys., 2017,
     147, 034112. DOI: 10.1063/1.4993215
   * E. Caldeweyher, S. Ehlert, A. Hansen, H. Neugebauer, S. Spicher,
     C. Bannwarth and S. Grimme, J. Chem. Phys., 2019, 150, 154122.
     DOI: 10.1063/1.5090222
   * E. Caldeweyher, J.-M. Mewes, S. Ehlert and S. Grimme, Phys. Chem. Chem. Phys.
     2020, 22, 8499-8512. DOI: 10.1039/D0CP00502A
   
   for sTDA-xTB:
   * S. Grimme and C. Bannwarth, J. Chem. Phys., 2016, 145, 054103.
     DOI: 10.1063/1.4959605
   
   in the mass-spec context:
   * V. Asgeirsson, C. Bauer and S. Grimme, Chem. Sci., 2017, 8, 4879.
     DOI: 10.1039/c7sc00601b
   * J. Koopman and S. Grimme, ACS Omega 2019, 4, 12, 15120-15133.
     DOI: 10.1021/acsomega.9b02011
   
   for metadynamics refer to:
   * S. Grimme, J. Chem. Theory Comput., 2019, 155, 2847-2862
     DOI: 10.1021/acs.jctc.9b00143
   
   for SPH calculations refer to:
   * S. Spicher and S. Grimme, J. Chem. Theory Comput., 2021, 17, 1701-1714
     DOI: 10.1021/acs.jctc.0c01306
   
   for ONIOM refer to:
   * C. Plett, A. Katbashev, S. Ehlert, S. Grimme, M. Bursch,
     Phys. Chem. Chem. Phys., 2023, 25, 17860-17868. DOI: 10.1039/D3CP02178E
   
   for DIPRO refer to:
   * J. Kohn, N. Gildemeister, S. Grimme, D. Fazzi, A. Hansen,
     J. Chem. Phys., 2023, just accepted.
   
   for PTB refer to:
   * S. Grimme, M. Mueller, A. Hansen, J. Chem. Phys., 2023, 158, 124111.
     DOI: 10.1063/5.0137838
   
   with help from (in alphabetical order)
   P. Atkinson, C. Bannwarth, F. Bohle, G. Brandenburg, E. Caldeweyher
   M. Checinski, S. Dohm, S. Ehlert, S. Ehrlich, I. Gerasimov, C. Hölzer
   A. Katbashev, J. Kohn, J. Koopman, C. Lavigne, S. Lehtola, F. März, M. Müller,
   F. Musil, H. Neugebauer, J. Pisarek, C. Plett, P. Pracht, F. Pultar,
   J. Seibert, P. Shushkov, S. Spicher, M. Stahn, M. Steiner, T. Strunk,
   J. Stückrath, T. Rose, and J. Unsleber
   
 * started run on 2026/08/31 at 21:19:19.202     
   ID    Z sym.   atoms
    1    6 C      1-5, 7, 9-12, 17, 18, 20-23, 25, 27-31, 33, 34, 69-75
    2    7 N      6, 8, 13, 32
    3   16 S      14, 35
    4    8 O      15, 16, 76-89
    5    9 F      19, 24, 26
    6    1 H      36-56
    7   22 Ti     57-68

           -------------------------------------------------
          |                Calculation Setup                |
           -------------------------------------------------

          program call               : "c:\Users\Andre\Proyectos doctorado\kras-pancreatic-gC3N4-ai\tools\xtb\xtb-6.7.1\bin\xtb.exe" "c:\Users\Andre\Proyectos doctorado\mxene-glioblastoma-qsar-ai\calculations\gbm\Dabrafenib\Dabrafenib_Ti12C7O14_phys_complex.xyz" --gfn 2 --sp --chrg 0 --uhf 0 --etemp 300 --iterations 500 --norestart
          coordinate file            : c:\Users\Andre\Proyectos doctorado\mxene-glioblastoma-qsar-ai\calculations\gbm\Dabrafenib\Dabrafenib_Ti12C7O14_phys_complex.xyz
          omp threads                :                    16


molecular fragmentation (1/2 indicates fragments):
111111111111111111111111111111111111111111111111111111112222222222222222
22222222222222222
# atoms in fragment 1/2:    56    33
 fragment masses (1/2) :      518.57      882.47
CMA distance (Bohr)    :  18.498
constraining FC (au)   :  0.0500

           -------------------------------------------------
          |                 G F N 2 - x T B                 |
           -------------------------------------------------

        Reference                      10.1021/acs.jctc.8b01176
      * Hamiltonian:
        H0-scaling (s, p, d)           1.850000    2.230000    2.230000
        zeta-weighting                 0.500000
      * Dispersion:
        s8                             2.700000
        a1                             0.520000
        a2                             5.000000
        s9                             5.000000
      * Repulsion:
        kExp                           1.500000    1.000000
        rExp                           1.000000
      * Coulomb:
        alpha                          2.000000
        third order                    shell-resolved
        anisotropic                    true
        a3                             3.000000
        a5                             4.000000
        cn-shift                       1.200000
        cn-exp                         4.000000
        max-rad                        5.000000


          ...................................................
          :                      SETUP                      :
          :.................................................:
          :  # basis functions                 377          :
          :  # atomic orbitals                 363          :
          :  # shells                          171          :
          :  # electrons                       342          :
          :  max. iterations                   500          :
          :  Hamiltonian                  GFN2-xTB          :
          :  restarted?                      false          :
          :  GBSA solvation                  false          :
          :  PC potential                    false          :
          :  electronic temp.          300.0000000     K    :
          :  accuracy                    1.0000000          :
          :  -> integral cutoff          0.2500000E+02      :
          :  -> integral neglect         0.1000000E-07      :
          :  -> SCF convergence          0.1000000E-05 Eh   :
          :  -> wf. convergence          0.1000000E-03 e    :
          :  Broyden damping             0.4000000          :
          :  net charge                          0          :
          :  unpaired electrons                  0          :
          ...................................................

 iter      E             dE          RMSdq      gap      omega  full diag
   1   -192.3672946 -0.192367E+03  0.140E+01    0.00       0.0  T
   2   -109.8259811  0.825413E+02  0.168E+01    0.01       1.0  T
   3    359.2587232  0.469085E+03  0.340E+01    0.03       1.0  T
   4   -115.5725025 -0.474831E+03  0.190E+01    0.07       1.0  T
   5    146.1829106  0.261755E+03  0.257E+01    0.06       1.0  T
   6   -147.4912320 -0.293674E+03  0.151E+01    0.07       1.0  T
   7   -188.2270139 -0.407358E+02  0.101E+01    0.03       1.0  T
   8   -193.1627346 -0.493572E+01  0.918E+00    0.12       1.0  T
   9   -194.6205178 -0.145778E+01  0.869E+00    0.04       1.0  T
  10   -194.7724980 -0.151980E+00  0.866E+00    0.04       1.0  T
  11   -195.2817735 -0.509275E+00  0.845E+00    0.02       1.0  T
  12   -195.9161171 -0.634344E+00  0.830E+00    0.10       1.0  T
  13   -195.4074504  0.508667E+00  0.830E+00    0.17       1.0  T
  14   -196.0442836 -0.636833E+00  0.812E+00    0.05       1.0  T
  15   -195.7795533  0.264730E+00  0.794E+00    0.12       1.0  T
  16   -195.1556110  0.623942E+00  0.820E+00    0.08       1.0  T
  17   -198.2612452 -0.310563E+01  0.743E+00    0.21       1.0  T
  18   -194.8028257  0.345842E+01  0.808E+00    0.03       1.0  T
  19   -194.0390420  0.763784E+00  0.842E+00    0.15       1.0  T
  20   -195.5698428 -0.153080E+01  0.706E+00    0.19       1.0  T
  21   -191.3174499  0.425239E+01  0.748E+00    0.05       1.0  T
  22   -194.4734118 -0.315596E+01  0.709E+00    0.23       1.0  T
  23   -196.4837358 -0.201032E+01  0.624E+00    0.08       1.0  T
  24   -198.9270648 -0.244333E+01  0.577E+00    0.11       1.0  T
  25   -196.5542684  0.237280E+01  0.597E+00    0.09       1.0  T
  26   -197.1889621 -0.634694E+00  0.545E+00    0.03       1.0  T
  27   -200.3953526 -0.320639E+01  0.440E+00    0.07       1.0  T
  28   -200.7177851 -0.322432E+00  0.329E+00    0.14       1.0  T
  29   -200.1150628  0.602722E+00  0.370E+00    0.10       1.0  T
  30   -200.9449872 -0.829924E+00  0.291E+00    0.07       1.0  T
  31   -200.9575616 -0.125744E-01  0.283E+00    0.12       1.0  T
  32   -200.9833756 -0.258140E-01  0.262E+00    0.08       1.0  T
  33   -201.2203885 -0.237013E+00  0.231E+00    0.10       1.0  T
  34   -200.8494398  0.370949E+00  0.255E+00    0.20       1.0  T
  35   -201.0523305 -0.202891E+00  0.215E+00    0.10       1.0  T
  36   -200.3114650  0.740865E+00  0.298E+00    0.11       1.0  T
  37   -201.2972516 -0.985787E+00  0.173E+00    0.14       1.0  T
  38   -201.0034018  0.293850E+00  0.204E+00    0.01       1.0  T
  39   -201.2834637 -0.280062E+00  0.147E+00    0.05       1.0  T
  40   -201.4260787 -0.142615E+00  0.119E+00    0.04       1.0  T
  41   -201.4420542 -0.159755E-01  0.110E+00    0.05       1.0  T
  42   -201.4472746 -0.522037E-02  0.108E+00    0.06       1.0  T
  43   -201.4762031 -0.289285E-01  0.996E-01    0.04       1.0  T
  44   -201.5008080 -0.246049E-01  0.945E-01    0.02       1.0  T
  45   -201.4938100  0.699798E-02  0.957E-01    0.02       1.0  T
  46   -201.5036843 -0.987429E-02  0.762E-01    0.03       1.0  T
  47   -201.5042407 -0.556441E-03  0.733E-01    0.03       1.0  T
  48   -201.5074008 -0.316013E-02  0.646E-01    0.03       1.0  T
  49   -201.5184333 -0.110325E-01  0.542E-01    0.03       1.0  T
  50   -201.5224410 -0.400768E-02  0.500E-01    0.02       1.0  T
  51   -201.5243209 -0.187988E-02  0.451E-01    0.02       1.0  T
  52   -201.5345670 -0.102461E-01  0.392E-01    0.01       1.0  T
  53   -201.5373122 -0.274517E-02  0.387E-01    0.01       1.0  T
  54   -201.5399020 -0.258975E-02  0.355E-01    0.01       1.0  T
  55   -201.5422716 -0.236964E-02  0.314E-01    0.01       1.0  T
  56   -201.5433811 -0.110953E-02  0.301E-01    0.01       1.0  T
  57   -201.5449651 -0.158393E-02  0.256E-01    0.01       1.0  T
  58   -201.5459148 -0.949696E-03  0.234E-01    0.01       1.0  T
  59   -201.5465221 -0.607340E-03  0.212E-01    0.01       1.0  T
  60   -201.5472094 -0.687351E-03  0.195E-01    0.01       1.0  T
  61   -201.5474080 -0.198503E-03  0.193E-01    0.01       1.0  T
  62   -201.5479402 -0.532295E-03  0.172E-01    0.01       1.0  T
  63   -201.5485932 -0.652944E-03  0.149E-01    0.01       1.0  T
  64   -201.5492428 -0.649588E-03  0.123E-01    0.01       1.0  T
  65   -201.5493734 -0.130611E-03  0.113E-01    0.01       1.0  T
  66   -201.5500706 -0.697180E-03  0.670E-02    0.01       1.0  T
  67   -201.5501868 -0.116226E-03  0.463E-02    0.01       1.0  T
  68   -201.5503400 -0.153248E-03  0.313E-02    0.01       1.0  T
  69   -201.5503562 -0.161146E-04  0.290E-02    0.01       1.0  T
  70   -201.5503826 -0.264787E-04  0.233E-02    0.01       1.0  T
  71   -201.5503977 -0.150796E-04  0.180E-02    0.01       1.0  T
  72   -201.5504079 -0.101684E-04  0.137E-02    0.01       1.0  T
  73   -201.5504152 -0.728225E-05  0.928E-03    0.01       1.1  T
  74   -201.5504171 -0.194196E-05  0.829E-03    0.01       1.3  T
  75   -201.5504189 -0.176931E-05  0.686E-03    0.01       1.5  T
  76   -201.5504205 -0.159034E-05  0.507E-03    0.01       2.1  T
  77   -201.5504221 -0.163354E-05  0.340E-03    0.01       3.1  T
  78   -201.5504223 -0.220298E-06  0.265E-03    0.01       4.0  T
  79   -201.5504225 -0.221795E-06  0.243E-03    0.01       4.4  T
  80   -201.5504229 -0.307481E-06  0.191E-03    0.01       5.5  T
  81   -201.5504229 -0.105962E-07  0.210E-03    0.01       5.0  T
  82   -201.5504229 -0.480981E-09  0.173E-03    0.01       6.1  T
  83   -201.5504230 -0.158303E-06  0.109E-03    0.01       9.7  T
  84   -201.5504231 -0.835616E-07  0.519E-04    0.01      20.4  T
  85   -201.5504231 -0.107615E-07  0.351E-04    0.01      30.2  T

   *** convergence criteria satisfied after 85 iterations ***

         #    Occupation            Energy/Eh            Energy/eV
      -------------------------------------------------------------
         1        2.0000           -2.9289171             -79.6999
       ...           ...                  ...                  ...
       165        2.0000           -0.4534315             -12.3385
       166        2.0000           -0.4480378             -12.1917
       167        2.0000           -0.4423341             -12.0365
       168        1.9953           -0.4375649             -11.9067
       169        1.9114           -0.4347312             -11.8296
       170        1.8358           -0.4341064             -11.8126
       171        1.2349           -0.4322676             -11.7626 (HOMO)
       172        0.9928           -0.4317992             -11.7499 (LUMO)
       173        0.0298           -0.4278308             -11.6419
       174                         -0.3959073             -10.7732
       175                         -0.3915048             -10.6534
       176                         -0.3874596             -10.5433
       ...                                ...                  ...
       363                         13.2875103             361.5716
      -------------------------------------------------------------
                  HL-Gap            0.0004684 Eh            0.0127 eV
             Fermi-level           -0.4318128 Eh          -11.7502 eV

 SCC (total)                   0 d,  0 h,  0 min,  1.899 sec
 SCC setup                      ...        0 min,  0.000 sec (  0.000%)
 Dispersion                     ...        0 min,  0.002 sec (  0.105%)
 classical contributions        ...        0 min,  0.000 sec (  0.000%)
 integral evaluation            ...        0 min,  0.008 sec (  0.421%)
 iterations                     ...        0 min,  1.864 sec ( 98.157%)
 molecular gradient             ...        0 min,  0.022 sec (  1.159%)
 printout                       ...        0 min,  0.003 sec (  0.158%)

         :::::::::::::::::::::::::::::::::::::::::::::::::::::
         ::                     SUMMARY                     ::
         :::::::::::::::::::::::::::::::::::::::::::::::::::::
         :: total energy            -199.617239828004 Eh    ::
         :: gradient norm              0.656344567233 Eh/a0 ::
         :: HOMO-LUMO gap              0.012744865317 eV    ::
         ::.................................................::
         :: SCC energy              -201.546052128177 Eh    ::
         :: -> isotropic ES           -6.387029827913 Eh    ::
         :: -> anisotropic ES         -0.290541496246 Eh    ::
         :: -> anisotropic XC         -0.120591134411 Eh    ::
         :: -> dispersion             -0.161084628616 Eh    ::
         :: repulsion energy           1.928812300174 Eh    ::
         :: add. restraining           0.000000000000 Eh    ::
         :: total charge               0.000000000001 e     ::
         :::::::::::::::::::::::::::::::::::::::::::::::::::::

           -------------------------------------------------
          |                Property Printout                |
           -------------------------------------------------

    * Orbital Energies and Occupations

         #    Occupation            Energy/Eh            Energy/eV
      -------------------------------------------------------------
         1        2.0000           -2.9289171             -79.6999
       ...           ...                  ...                  ...
       159        2.0000           -0.4716433             -12.8341
       160        2.0000           -0.4705355             -12.8039
       161        2.0000           -0.4693014             -12.7703
       162        2.0000           -0.4643082             -12.6345
       163        2.0000           -0.4626730             -12.5900
       164        2.0000           -0.4552450             -12.3878
       165        2.0000           -0.4534315             -12.3385
       166        2.0000           -0.4480378             -12.1917
       167        2.0000           -0.4423341             -12.0365
       168        1.9953           -0.4375649             -11.9067
       169        1.9114           -0.4347312             -11.8296
       170        1.8358           -0.4341064             -11.8126
       171        1.2349           -0.4322676             -11.7626 (HOMO)
       172        0.9928           -0.4317992             -11.7499 (LUMO)
       173        0.0298           -0.4278308             -11.6419
       174                         -0.3959073             -10.7732
       175                         -0.3915048             -10.6534
       176                         -0.3874596             -10.5433
       177                         -0.3866889             -10.5223
       178                         -0.3839664             -10.4483
       179                         -0.3787976             -10.3076
       180                         -0.3764285             -10.2431
       181                         -0.3758263             -10.2268
       182                         -0.3745969             -10.1933
       ...                                ...                  ...
       363                         13.2875103             361.5716
      -------------------------------------------------------------
                  HL-Gap            0.0004684 Eh            0.0127 eV
             Fermi-level           -0.4318128 Eh          -11.7502 eV

     #   Z          covCN         q      C6AA      α(0)
     1   6 C        3.756    -0.119    22.831     6.813
     2   6 C        3.911     0.031    19.999     6.356
     3   6 C        3.755    -0.113    22.722     6.797
     4   6 C        3.755    -0.114    22.745     6.800
     5   6 C        3.005     0.106    25.648     8.308
     6   7 N        1.948    -0.280    28.086     7.859
     7   6 C        3.152     0.129    24.917     8.164
     8   7 N        2.696    -0.173    24.746     7.388
     9   6 C        2.902     0.060    26.650     8.465
    10   6 C        2.915    -0.051    29.272     8.872
    11   6 C        2.915    -0.043    29.058     8.839
    12   6 C        2.971     0.069    26.449     8.436
    13   7 N        2.687    -0.354    29.119     8.014
    14  16 S        3.787     1.216   100.673    16.887
    15   8 O        0.860    -0.584    25.738     6.802
    16   8 O        0.860    -0.567    25.325     6.747
    17   6 C        2.964    -0.129    31.293     9.176
    18   6 C        2.829     0.184    24.055     8.037
    19   9 F        0.787    -0.189    11.122     3.939
    20   6 C        2.915    -0.046    29.153     8.854
    21   6 C        2.912    -0.019    28.491     8.753
    22   6 C        2.916    -0.048    29.187     8.859
    23   6 C        2.825     0.183    24.076     8.040
    24   9 F        0.787    -0.182    11.049     3.926
    25   6 C        2.775     0.162    24.483     8.104
    26   9 F        0.787    -0.211    11.347     3.979
    27   6 C        2.916    -0.068    29.705     8.937
    28   6 C        2.972    -0.027    28.675     8.784
    29   6 C        3.023     0.030    27.313     8.573
    30   6 C        2.912    -0.044    29.099     8.846
    31   6 C        2.890     0.054    26.798     8.487
    32   7 N        1.830    -0.181    25.722     7.515
    33   6 C        2.890     0.057    26.725     8.476
    34   6 C        2.911    -0.038    28.940     8.821
    35  16 S        2.326     0.036   139.600    19.886
    36   1 H        0.924     0.055     2.262     2.352
    37   1 H        0.924     0.047     2.352     2.398
    38   1 H        0.924     0.051     2.312     2.378
    39   1 H        0.924     0.059     2.209     2.324
    40   1 H        0.924     0.045     2.386     2.416
    41   1 H        0.924     0.047     2.357     2.401
    42   1 H        0.924     0.047     2.355     2.400
    43   1 H        0.924     0.060     2.204     2.321
    44   1 H        0.924     0.043     2.410     2.428
    45   1 H        0.860     0.204     1.086     1.633
    46   1 H        0.925     0.073     2.053     2.241
    47   1 H        0.925     0.084     1.938     2.177
    48   1 H        0.862     0.216     1.029     1.589
    49   1 H        0.925     0.099     1.799     2.097
    50   1 H        0.925     0.090     1.878     2.143
    51   1 H        0.925     0.098     1.804     2.100
    52   1 H        0.925     0.088     1.902     2.157
    53   1 H        0.925     0.049     2.331     2.387
    54   1 H        0.925     0.061     2.188     2.313
    55   1 H        0.925     0.089     1.887     2.148
    56   1 H        0.925     0.057     2.231     2.336
    57  22 Ti       3.637     1.113   101.074    24.401
    58  22 Ti       6.855     1.473    84.785    14.950
    59  22 Ti       3.227     1.284    99.962    24.414
    60  22 Ti       5.860     1.363    85.835    15.042
    61  22 Ti       5.627     1.130    88.122    15.241
    62  22 Ti       3.541     1.065   102.186    24.637
    63  22 Ti       2.352     1.054   198.780    34.522
    64  22 Ti       6.011     1.197    87.453    15.183
    65  22 Ti       3.414    -5.732   276.868    40.615
    66  22 Ti       5.519     1.117    88.249    15.252
    67  22 Ti       5.687     1.272    86.713    15.119
    68  22 Ti       3.581     1.375    98.544    24.165
    69   6 C        2.246    -0.224    36.528     9.792
    70   6 C        2.142    -0.127    34.258     9.461
    71   6 C        2.248    -0.002    30.172     8.900
    72   6 C        1.838    -0.160    35.727     9.656
    73   6 C        1.894    -0.173    36.079     9.701
    74   6 C        1.821    -0.275    39.567    10.163
    75   6 C        2.631    -0.331    37.376    10.000
    76   8 O        1.554    -0.807    30.776     7.485
    77   8 O        1.464    -0.835    31.762     7.597
    78   8 O        1.557    -0.793    30.346     7.432
    79   8 O        1.523    -0.970    36.159     8.111
    80   8 O        1.523    -0.838    31.753     7.601
    81   8 O        1.458    -0.792    30.486     7.442
    82   8 O        1.455    -0.763    29.645     7.338
    83   8 O        0.727    -0.442    22.591     6.369
    84   8 O        1.453     0.960     6.536     3.446
    85   8 O        1.476     0.968     6.478     3.431
    86   8 O        1.603    -0.865    32.520     7.696
    87   8 O        1.547    -0.617    25.649     6.832
    88   8 O        1.700    -0.689    27.380     7.065
    89   8 O        1.453    -0.333    19.792     5.996

 Mol. C6AA /au·bohr⁶  :     199568.958448
 Mol. C8AA /au·bohr⁸  :    8760307.432586
 Mol. α(0) /au        :        763.330486


Wiberg/Mayer (AO) data.
largest (>0.10) Wiberg bond orders for each atom

 ---------------------------------------------------------------------------
     #   Z sym  total        # sym  WBO       # sym  WBO       # sym  WBO
 ---------------------------------------------------------------------------
     1   6 C    3.991 --     2 C    0.991    37 H    0.985    38 H    0.985
                            36 H    0.983
     2   6 C    3.982 --     1 C    0.991     5 C    0.990     3 C    0.981
                             4 C    0.980
     3   6 C    3.988 --    40 H    0.986    41 H    0.983     2 C    0.981
                            39 H    0.981
     4   6 C    3.987 --    44 H    0.986    42 H    0.983    43 H    0.980
                             2 C    0.980
     5   6 C    3.904 --     6 N    1.577    35 S    1.169     2 C    0.990
     6   7 N    3.066 --     5 C    1.577     7 C    1.211    35 S    0.143
     7   6 C    3.916 --    28 C    1.430     6 N    1.211     8 N    1.121
     8   7 N    3.266 --     7 C    1.121     9 C    1.007    45 H    0.902
     9   6 C    3.962 --    27 C    1.391    10 C    1.387     8 N    1.007
    10   6 C    3.974 --    11 C    1.449     9 C    1.387    46 H    0.965
    11   6 C    3.981 --    10 C    1.449    12 C    1.382    47 H    0.963
                            27 C    0.104
    12   6 C    3.968 --    11 C    1.382    25 C    1.338    13 N    1.059
    13   7 N    3.184 --    12 C    1.059    48 H    0.920    14 S    0.883
    14  16 S    4.939 --    16 O    1.610    15 O    1.594    13 N    0.883
                            17 C    0.770
    15   8 O    1.903 --    14 S    1.594    16 O    0.115
    16   8 O    1.922 --    14 S    1.610    15 O    0.115
    17   6 C    3.968 --    23 C    1.371    18 C    1.368    14 S    0.770
    18   6 C    3.898 --    20 C    1.391    17 C    1.368    19 F    0.989
    19   9 F    1.135 --    18 C    0.989
    20   6 C    3.981 --    21 C    1.436    18 C    1.391    49 H    0.961
    21   6 C    3.984 --    22 C    1.441    20 C    1.436    50 H    0.964
    22   6 C    3.981 --    21 C    1.441    23 C    1.383    51 H    0.961
    23   6 C    3.899 --    22 C    1.383    17 C    1.371    24 F    0.993
    24   9 F    1.143 --    23 C    0.993
    25   6 C    3.887 --    27 C    1.403    12 C    1.338    26 F    0.969
    26   9 F    1.106 --    25 C    0.969
    27   6 C    3.978 --    25 C    1.403     9 C    1.391    52 H    0.931
                            11 C    0.104
    28   6 C    3.848 --     7 C    1.430    35 S    1.168    29 C    1.030
    29   6 C    3.985 --    34 C    1.396    30 C    1.388    28 C    1.030
                            32 N    0.104
    30   6 C    3.973 --    31 C    1.439    29 C    1.388    53 H    0.965
                            33 C    0.110
    31   6 C    3.969 --    30 C    1.439    32 N    1.426    54 H    0.960
                            34 C    0.111
    32   7 N    3.020 --    33 C    1.428    31 C    1.426    29 C    0.104
    33   6 C    3.960 --    34 C    1.431    32 N    1.428    55 H    0.954
                            30 C    0.110
    34   6 C    3.971 --    33 C    1.431    29 C    1.396    56 H    0.966
                            31 C    0.111
    35  16 S    2.650 --     5 C    1.169    28 C    1.168     6 N    0.143
    36   1 H    0.997 --     1 C    0.983
    37   1 H    0.997 --     1 C    0.985
    38   1 H    0.997 --     1 C    0.985
    39   1 H    0.995 --     3 C    0.981
    40   1 H    0.998 --     3 C    0.986
    41   1 H    0.998 --     3 C    0.983
    42   1 H    0.998 --     4 C    0.983
    43   1 H    0.995 --     4 C    0.980
    44   1 H    0.998 --     4 C    0.986
    45   1 H    0.957 --     8 N    0.902
    46   1 H    0.994 --    10 C    0.965
    47   1 H    0.992 --    11 C    0.963
    48   1 H    0.953 --    13 N    0.920
    49   1 H    0.989 --    20 C    0.961
    50   1 H    0.991 --    21 C    0.964
    51   1 H    0.989 --    22 C    0.961
    52   1 H    0.990 --    27 C    0.931
    53   1 H    0.994 --    30 C    0.965
    54   1 H    0.992 --    31 C    0.960
    55   1 H    0.985 --    33 C    0.954
    56   1 H    0.995 --    34 C    0.966
    57  22 Ti   2.907 --    76 O    0.860    77 O    0.815    63 Ti   0.335
                            58 Ti   0.202    60 Ti   0.201
    58  22 Ti   3.981 --    77 O    0.776    80 O    0.776    78 O    0.678
                            79 O    0.646    57 Ti   0.202    59 Ti   0.184
                            61 Ti   0.152    62 Ti   0.150
    59  22 Ti   3.171 --    85 O    1.193    78 O    0.681    64 Ti   0.236
                            63 Ti   0.221    67 Ti   0.206    58 Ti   0.184
                            87 O    0.136    84 O    0.124    80 O    0.120
    60  22 Ti   3.943 --    81 O    0.963    69 C    0.721    76 O    0.693
                            79 O    0.572    57 Ti   0.201    66 Ti   0.194
                            62 Ti   0.192    86 O    0.131
    61  22 Ti   4.029 --    73 C    0.834    82 O    0.791    75 C    0.778
                            80 O    0.634    70 C    0.208    67 Ti   0.208
                            62 Ti   0.170    58 Ti   0.152
    62  22 Ti   2.725 --    82 O    0.970    81 O    0.692    60 Ti   0.192
                            61 Ti   0.170    58 Ti   0.150    77 O    0.119
    63  22 Ti   3.783 --    83 O    2.027    64 Ti   0.484    57 Ti   0.335
                            59 Ti   0.221    78 O    0.180    76 O    0.160
                            86 O    0.126
    64  22 Ti   4.301 --    84 O    1.045    87 O    0.942    86 O    0.690
                            63 Ti   0.484    68 Ti   0.282    59 Ti   0.236
                            88 O    0.178    67 Ti   0.130    66 Ti   0.120
    65  22 Ti  -1.275
    66  22 Ti   3.962 --    74 C    0.876    72 C    0.772    88 O    0.682
                            86 O    0.557    68 Ti   0.222    60 Ti   0.194
                            69 C    0.180    64 Ti   0.120    75 C    0.108
    67  22 Ti   4.041 --    89 O    1.230    70 C    0.614    87 O    0.545
                            75 C    0.445    68 Ti   0.309    61 Ti   0.208
                            59 Ti   0.206    85 O    0.183    64 Ti   0.130
    68  22 Ti   3.074 --    89 O    0.949    88 O    0.897    67 Ti   0.309
                            64 Ti   0.282    66 Ti   0.222    84 O    0.152
                            74 C    0.114    87 O    0.113
    69   6 C    3.844 --    72 C    2.721    60 Ti   0.721    66 Ti   0.180
    70   6 C    3.728 --    73 C    2.677    67 Ti   0.614    61 Ti   0.208
    71   6 C    3.960 --    74 C    1.946    75 C    1.661
    72   6 C    3.733 --    69 C    2.721    66 Ti   0.772
    73   6 C    3.768 --    70 C    2.677    61 Ti   0.834
    74   6 C    3.398 --    71 C    1.946    66 Ti   0.876    68 Ti   0.114
    75   6 C    3.436 --    71 C    1.661    61 Ti   0.778    67 Ti   0.445
                            66 Ti   0.108
    76   8 O    1.968 --    57 Ti   0.860    60 Ti   0.693    63 Ti   0.160
    77   8 O    1.944 --    57 Ti   0.815    58 Ti   0.776    62 Ti   0.119
    78   8 O    1.978 --    59 Ti   0.681    58 Ti   0.678    63 Ti   0.180
    79   8 O    1.768 --    58 Ti   0.646    60 Ti   0.572
    80   8 O    1.943 --    58 Ti   0.776    61 Ti   0.634    59 Ti   0.120
    81   8 O    2.000 --    60 Ti   0.963    62 Ti   0.692
    82   8 O    2.055 --    62 Ti   0.970    61 Ti   0.791
    83   8 O    2.324 --    63 Ti   2.027
    84   8 O    1.878 --    64 Ti   1.045    85 O    0.438    68 Ti   0.152
                            59 Ti   0.124
    85   8 O    1.984 --    59 Ti   1.193    84 O    0.438    67 Ti   0.183
    86   8 O    1.903 --    64 Ti   0.690    66 Ti   0.557    60 Ti   0.131
                            63 Ti   0.126
    87   8 O    2.232 --    64 Ti   0.942    67 Ti   0.545    59 Ti   0.136
                            68 Ti   0.113
    88   8 O    2.099 --    68 Ti   0.897    66 Ti   0.682    64 Ti   0.178
    89   8 O    2.513 --    67 Ti   1.230    68 Ti   0.949
 ---------------------------------------------------------------------------

Topologies differ in total number of bonds
Writing topology from bond orders to xtbtopo.mol

molecular dipole:
                 x           y           z       tot (Debye)
 q only:      -11.886       6.890      24.555
   full:      -13.008       6.410      23.939      71.141
molecular quadrupole (traceless):
                xx          xy          yy          xz          yz          zz
 q only:       10.786     101.646      71.922      83.308    -116.024     -82.707
  q+dip:        8.555      90.631      78.875     106.565    -161.975     -87.430
   full:        8.752      88.171      75.741     103.499    -154.736     -84.493


           -------------------------------------------------
          | TOTAL ENERGY             -199.617239828004 Eh   |
          | GRADIENT NORM               0.656344567233 Eh/α |
          | HOMO-LUMO GAP               0.012744865317 eV   |
           -------------------------------------------------

------------------------------------------------------------------------
 * finished run on 2026/08/31 at 21:19:21.145     
------------------------------------------------------------------------
 total:
 * wall-time:     0 d,  0 h,  0 min,  1.942 sec
 *  cpu-time:     0 d,  0 h,  0 min, 20.984 sec
 * ratio c/w:    10.806 speedup
 SCF:
 * wall-time:     0 d,  0 h,  0 min,  1.901 sec
 *  cpu-time:     0 d,  0 h,  0 min, 20.641 sec
 * ratio c/w:    10.858 speedup

normal termination of xtb
