89
Drug@Ti12C7O14 non-overlapping complex
C     -5.735202     -2.929145      8.436367
C     -5.566050     -1.803939      9.480710
C     -5.734012     -2.426452     10.878990
C     -6.673094     -0.761706      9.237750
C     -4.185019     -1.167795      9.335857
N     -3.290296     -1.542310      8.442408
C     -2.145960     -0.789218      8.563701
N     -1.143841     -1.098185      7.696713
C      0.222289     -1.167838      8.058464
C      0.719079     -2.283370      8.747259
C      2.056426     -2.332372      9.151328
C      2.906602     -1.263211      8.868808
N      4.246325     -1.304106      9.356245
S      4.604458     -0.423800     10.758347
O      3.383027     -0.321956     11.530357
O      5.781343     -1.051232     11.324205
C      5.096025      1.149914     10.192429
C      5.977976      1.256481      9.125299
F      6.487626      0.168406      8.531464
C      6.364058      2.508689      8.647589
C      5.868385      3.664993      9.249266
C      5.000902      3.557751     10.336098
C      4.625808      2.299911     10.807917
F      3.839401      2.245451     11.889498
C      2.405083     -0.148059      8.193040
F      3.201936      0.893685      7.915402
C      1.078661     -0.101559      7.775779
C     -2.167946      0.187666      9.542296
C     -1.192806      1.197972      9.932678
C     -1.175103      2.438492      9.292506
C     -0.219355      3.362792      9.677307
N      0.701227      3.134940     10.636796
C      0.662428      1.927138     11.243076
C     -0.255550      0.938253     10.932835
S     -3.676610      0.126821     10.359140
H     -6.720037     -3.403296      8.519225
H     -5.639097     -2.543964      7.414168
H     -4.979332     -3.712840      8.566712
H     -6.693663     -2.949149     10.965440
H     -4.938607     -3.151297     11.089000
H     -5.706594     -1.669244     11.670503
H     -6.664552      0.029294      9.995944
H     -7.665553     -1.226230      9.267046
H     -6.557922     -0.281005      8.259065
H     -1.391839     -1.942128      7.181230
H      0.056924     -3.110676      8.994397
H      2.413484     -3.194169      9.708285
H      4.734167     -2.198726      9.356357
H      7.048767      2.572754      7.806660
H      6.161476      4.644391      8.879054
H      4.612501      4.446695     10.826144
H      0.716158      0.776850      7.251963
H     -1.883980      2.679958      8.507994
H     -0.165795      4.340587      9.207740
H      1.416438      1.763256     12.008648
H     -0.221164     -0.014160     11.450776
Ti     -2.141866     -3.008818      2.119748
Ti      0.288991     -1.694759      1.432425
Ti      1.903098     -3.067749     -0.729322
Ti     -2.521502     -0.251928      1.303687
Ti      2.142050      0.499533      2.204434
Ti     -0.681448      0.189635      3.681230
Ti     -2.036770     -3.077740     -1.200512
Ti     -0.605340     -0.770900     -2.035132
Ti      1.945488     -1.587317     -3.412400
Ti     -1.878170      1.746573     -1.240030
Ti      2.412512      0.454231     -0.774247
Ti      0.817742      1.838452     -2.940004
C     -3.678414      1.281398      0.600737
C      4.128193      0.482847      0.387293
C      0.455479      2.267202      0.349695
C     -3.666709      2.118834     -0.313920
C      4.115962      0.632239      1.621354
C     -0.635167      2.741046     -0.118921
C      1.630072      1.780996      0.734224
O     -3.093456     -1.956907      1.037949
O     -0.487250     -2.605849      2.701203
O      0.314079     -2.888890      0.145001
O     -0.800785     -0.435934      0.971227
O      1.902865     -1.158331      1.469449
O     -2.322673     -0.113878      3.024800
O      1.013786      0.441598      3.568761
O     -1.772019     -4.587905     -1.652810
O      0.190605     -1.189189     -3.534030
O      2.831420     -2.170248     -1.918042
O     -2.054558     -0.224445     -1.337505
O      0.768511     -0.390574     -1.063664
O     -0.900039      1.649313     -2.818565
O      2.415313      1.357463     -2.264115
