      -----------------------------------------------------------      
     |                   =====================                   |     
     |                           x T B                           |     
     |                   =====================                   |     
     |                         S. Grimme                         |     
     |          Mulliken Center for Theoretical Chemistry        |     
     |                    University of Bonn                     |     
      -----------------------------------------------------------      

   * xtb version 6.7.1pre (5071a88) compiled by 'Marcel@Raven' on 2024-07-23

   xtb is free software: you can redistribute it and/or modify it under
   the terms of the GNU Lesser General Public License as published by
   the Free Software Foundation, either version 3 of the License, or
   (at your option) any later version.
   
   xtb is distributed in the hope that it will be useful,
   but WITHOUT ANY WARRANTY; without even the implied warranty of
   MERCHANTABILITY or FITNESS FOR A PARTICULAR PURPOSE.  See the
   GNU Lesser General Public License for more details.
   
   Cite this work as:
   * C. Bannwarth, E. Caldeweyher, S. Ehlert, A. Hansen, P. Pracht,
     J. Seibert, S. Spicher, S. Grimme, WIREs Comput. Mol. Sci., 2020, 11,
     e01493. DOI: 10.1002/wcms.1493
   
   for GFN2-xTB:
   * C. Bannwarth, S. Ehlert and S. Grimme., J. Chem. Theory Comput., 2019,
     15, 1652-1671. DOI: 10.1021/acs.jctc.8b01176
   for GFN1-xTB:
   * S. Grimme, C. Bannwarth, P. Shushkov, J. Chem. Theory Comput., 2017,
     13, 1989-2009. DOI: 10.1021/acs.jctc.7b00118
   for GFN0-xTB:
   * P. Pracht, E. Caldeweyher, S. Ehlert, S. Grimme, ChemRxiv, 2019, preprint.
     DOI: 10.26434/chemrxiv.8326202.v1
   for GFN-FF:
   * S. Spicher and S. Grimme, Angew. Chem. Int. Ed., 2020, 59, 15665-15673.
     DOI: 10.1002/anie.202004239
   
   for ALPB and GBSA implicit solvation:
   * S. Ehlert, M. Stahn, S. Spicher, S. Grimme, J. Chem. Theory Comput.,
     2021, 17, 4250-4261. DOI: 10.1021/acs.jctc.1c00471
   
   for ddCOSMO and CPCM-X implicit solvation:
   * M. Stahn, S. Ehlert, S. Grimme, J. Phys. Chem. A,
     2023, XX, XXXX-XXXX. DOI: 10.1021/acs.jpca.3c04382
   
   for DFT-D4:
   * E. Caldeweyher, C. Bannwarth and S. Grimme, J. Chem. Phys., 2017,
     147, 034112. DOI: 10.1063/1.4993215
   * E. Caldeweyher, S. Ehlert, A. Hansen, H. Neugebauer, S. Spicher,
     C. Bannwarth and S. Grimme, J. Chem. Phys., 2019, 150, 154122.
     DOI: 10.1063/1.5090222
   * E. Caldeweyher, J.-M. Mewes, S. Ehlert and S. Grimme, Phys. Chem. Chem. Phys.
     2020, 22, 8499-8512. DOI: 10.1039/D0CP00502A
   
   for sTDA-xTB:
   * S. Grimme and C. Bannwarth, J. Chem. Phys., 2016, 145, 054103.
     DOI: 10.1063/1.4959605
   
   in the mass-spec context:
   * V. Asgeirsson, C. Bauer and S. Grimme, Chem. Sci., 2017, 8, 4879.
     DOI: 10.1039/c7sc00601b
   * J. Koopman and S. Grimme, ACS Omega 2019, 4, 12, 15120-15133.
     DOI: 10.1021/acsomega.9b02011
   
   for metadynamics refer to:
   * S. Grimme, J. Chem. Theory Comput., 2019, 155, 2847-2862
     DOI: 10.1021/acs.jctc.9b00143
   
   for SPH calculations refer to:
   * S. Spicher and S. Grimme, J. Chem. Theory Comput., 2021, 17, 1701-1714
     DOI: 10.1021/acs.jctc.0c01306
   
   for ONIOM refer to:
   * C. Plett, A. Katbashev, S. Ehlert, S. Grimme, M. Bursch,
     Phys. Chem. Chem. Phys., 2023, 25, 17860-17868. DOI: 10.1039/D3CP02178E
   
   for DIPRO refer to:
   * J. Kohn, N. Gildemeister, S. Grimme, D. Fazzi, A. Hansen,
     J. Chem. Phys., 2023, just accepted.
   
   for PTB refer to:
   * S. Grimme, M. Mueller, A. Hansen, J. Chem. Phys., 2023, 158, 124111.
     DOI: 10.1063/5.0137838
   
   with help from (in alphabetical order)
   P. Atkinson, C. Bannwarth, F. Bohle, G. Brandenburg, E. Caldeweyher
   M. Checinski, S. Dohm, S. Ehlert, S. Ehrlich, I. Gerasimov, C. Hölzer
   A. Katbashev, J. Kohn, J. Koopman, C. Lavigne, S. Lehtola, F. März, M. Müller,
   F. Musil, H. Neugebauer, J. Pisarek, C. Plett, P. Pracht, F. Pultar,
   J. Seibert, P. Shushkov, S. Spicher, M. Stahn, M. Steiner, T. Strunk,
   J. Stückrath, T. Rose, and J. Unsleber
   
 * started run on 2026/08/31 at 21:31:40.179     
   ID    Z sym.   atoms
    1    6 C      1-5, 7, 9, 15, 16, 18-21, 23, 24, 26, 28, 29, 31, 32, 62-68
    2    7 N      6, 8, 10, 14, 25, 27
    3   16 S      11
    4    8 O      12, 13, 69-82
    5    9 F      17, 22, 30
    6    1 H      33-49
    7   22 Ti     50-61

           -------------------------------------------------
          |                Calculation Setup                |
           -------------------------------------------------

          program call               : "c:\Users\Andre\Proyectos doctorado\kras-pancreatic-gC3N4-ai\tools\xtb\xtb-6.7.1\bin\xtb.exe" "c:\Users\Andre\Proyectos doctorado\mxene-glioblastoma-qsar-ai\calculations\gbm\Dabrafenib\Dabrafenib_Ti12C7O14_clean_complex.xyz" --sp --gfn 2 --chrg 0 --uhf 0 --etemp 300
          coordinate file            : c:\Users\Andre\Proyectos doctorado\mxene-glioblastoma-qsar-ai\calculations\gbm\Dabrafenib\Dabrafenib_Ti12C7O14_clean_complex.xyz
          omp threads                :                    16


molecular fragmentation (1/2 indicates fragments):
111111111111111111111111111111111111111111111111122222222222222222222222
2222222222
# atoms in fragment 1/2:    49    33
 fragment masses (1/2) :      462.45      882.47
CMA distance (Bohr)    :  21.014
constraining FC (au)   :  0.0500

           -------------------------------------------------
          |                 G F N 2 - x T B                 |
           -------------------------------------------------

        Reference                      10.1021/acs.jctc.8b01176
      * Hamiltonian:
        H0-scaling (s, p, d)           1.850000    2.230000    2.230000
        zeta-weighting                 0.500000
      * Dispersion:
        s8                             2.700000
        a1                             0.520000
        a2                             5.000000
        s9                             5.000000
      * Repulsion:
        kExp                           1.500000    1.000000
        rExp                           1.000000
      * Coulomb:
        alpha                          2.000000
        third order                    shell-resolved
        anisotropic                    true
        a3                             3.000000
        a5                             4.000000
        cn-shift                       1.200000
        cn-exp                         4.000000
        max-rad                        5.000000


          ...................................................
          :                      SETUP                      :
          :.................................................:
          :  # basis functions                 355          :
          :  # atomic orbitals                 342          :
          :  # shells                          160          :
          :  # electrons                       326          :
          :  max. iterations                   250          :
          :  Hamiltonian                  GFN2-xTB          :
          :  restarted?                      false          :
          :  GBSA solvation                  false          :
          :  PC potential                    false          :
          :  electronic temp.          300.0000000     K    :
          :  accuracy                    1.0000000          :
          :  -> integral cutoff          0.2500000E+02      :
          :  -> integral neglect         0.1000000E-07      :
          :  -> SCF convergence          0.1000000E-05 Eh   :
          :  -> wf. convergence          0.1000000E-03 e    :
          :  Broyden damping             0.4000000          :
          :  net charge                          0          :
          :  unpaired electrons                  0          :
          ...................................................

 iter      E             dE          RMSdq      gap      omega  full diag
   1   -185.1181567 -0.185118E+03  0.140E+01    0.12       0.0  T
   2   -143.9367966  0.411814E+02  0.151E+01    0.13       1.0  T
   3     35.7779389  0.179715E+03  0.287E+01    0.02       1.0  T
   4   -147.0530342 -0.182831E+03  0.135E+01    0.11       1.0  T
   5     29.2558396  0.176309E+03  0.213E+01    0.07       1.0  T
   6   -186.1555588 -0.215411E+03  0.795E+00    0.05       1.0  T
   7   -185.9351946  0.220364E+00  0.571E+00    0.04       1.0  T
   8   -183.1488964  0.278630E+01  0.770E+00    0.14       1.0  T
   9   -183.9745267 -0.825630E+00  0.708E+00    0.05       1.0  T
  10   -182.8526702  0.112186E+01  0.725E+00    0.15       1.0  T
  11   -183.1231952 -0.270525E+00  0.701E+00    0.12       1.0  T
  12   -185.7996147 -0.267642E+01  0.571E+00    0.07       1.0  T
  13   -183.6245341  0.217508E+01  0.557E+00    0.11       1.0  T
  14   -185.5114885 -0.188695E+01  0.510E+00    0.09       1.0  T
  15   -183.2361498  0.227534E+01  0.495E+00    0.17       1.0  T
  16   -185.4601959 -0.222405E+01  0.446E+00    0.23       1.0  T
  17   -183.3113148  0.214888E+01  0.463E+00    0.05       1.0  T
  18   -185.8912508 -0.257994E+01  0.416E+00    0.20       1.0  T
  19   -185.9823348 -0.910840E-01  0.386E+00    0.01       1.0  T
  20   -188.1757683 -0.219343E+01  0.382E+00    0.06       1.0  T
  21   -188.1264096  0.493587E-01  0.367E+00    0.01       1.0  T
  22   -187.7452862  0.381123E+00  0.375E+00    0.11       1.0  T
  23   -187.8317821 -0.864959E-01  0.366E+00    0.08       1.0  T
  24   -188.1354146 -0.303632E+00  0.330E+00    0.09       1.0  T
  25   -185.1262729  0.300914E+01  0.355E+00    0.00       1.0  T
  26   -187.5808109 -0.245454E+01  0.290E+00    0.19       1.0  T
  27   -187.5708112  0.999972E-02  0.245E+00    0.09       1.0  T
  28   -187.7205867 -0.149776E+00  0.245E+00    0.13       1.0  T
  29   -187.8000938 -0.795071E-01  0.226E+00    0.11       1.0  T
  30   -188.0240395 -0.223946E+00  0.193E+00    0.05       1.0  T
  31   -188.3735920 -0.349552E+00  0.160E+00    0.12       1.0  T
  32   -188.3846252 -0.110332E-01  0.146E+00    0.13       1.0  T
  33   -188.4004762 -0.158510E-01  0.119E+00    0.23       1.0  T
  34   -188.4075258 -0.704958E-02  0.103E+00    0.43       1.0  T
  35   -188.4076637 -0.137871E-03  0.984E-01    0.64       1.0  T
  36   -188.4096699 -0.200621E-02  0.967E-01    0.79       1.0  T
  37   -188.4115868 -0.191690E-02  0.900E-01    0.96       1.0  T
  38   -188.4140086 -0.242181E-02  0.833E-01    1.09       1.0  T
  39   -188.4161771 -0.216854E-02  0.762E-01    1.09       1.0  T
  40   -188.4212179 -0.504078E-02  0.641E-01    1.06       1.0  T
  41   -188.4279049 -0.668703E-02  0.516E-01    1.00       1.0  T
  42   -188.4305989 -0.269396E-02  0.454E-01    0.99       1.0  T
  43   -188.4316266 -0.102769E-02  0.436E-01    0.98       1.0  T
  44   -188.4352491 -0.362255E-02  0.385E-01    0.94       1.0  T
  45   -188.4369817 -0.173260E-02  0.345E-01    0.92       1.0  T
  46   -188.4393170 -0.233530E-02  0.286E-01    0.89       1.0  T
  47   -188.4415217 -0.220467E-02  0.245E-01    0.85       1.0  T
  48   -188.4422844 -0.762722E-03  0.225E-01    0.83       1.0  T
  49   -188.4428110 -0.526599E-03  0.206E-01    0.82       1.0  T
  50   -188.4433464 -0.535390E-03  0.192E-01    0.81       1.0  T
  51   -188.4441519 -0.805476E-03  0.165E-01    0.78       1.0  T
  52   -188.4449753 -0.823436E-03  0.133E-01    0.75       1.0  T
  53   -188.4455953 -0.620039E-03  0.104E-01    0.72       1.0  T
  54   -188.4458658 -0.270482E-03  0.898E-02    0.70       1.0  T
  55   -188.4461056 -0.239778E-03  0.755E-02    0.68       1.0  T
  56   -188.4462045 -0.988598E-04  0.695E-02    0.64       1.0  T
  57   -188.4463514 -0.146936E-03  0.595E-02    0.56       1.0  T
  58   -188.4464515 -0.100140E-03  0.524E-02    0.50       1.0  T
  59   -188.4465973 -0.145791E-03  0.381E-02    0.40       1.0  T
  60   -188.4467084 -0.111116E-03  0.246E-02    0.32       1.0  T
  61   -188.4467592 -0.507264E-04  0.177E-02    0.29       1.0  T
  62   -188.4467933 -0.341629E-04  0.122E-02    0.26       1.0  T
  63   -188.4468033 -0.998200E-05  0.102E-02    0.26       1.1  T
  64   -188.4468114 -0.807516E-05  0.836E-03    0.25       1.3  T
  65   -188.4468151 -0.372562E-05  0.728E-03    0.24       1.5  T
  66   -188.4468177 -0.256979E-05  0.658E-03    0.24       1.7  T
  67   -188.4468124  0.529977E-05  0.860E-03    0.22       1.3  T
  68   -188.4468170 -0.463840E-05  0.536E-03    0.23       2.1  T
  69   -188.4468195 -0.242920E-05  0.313E-03    0.23       3.5  T
  70   -188.4468189  0.595882E-06  0.362E-03    0.23       3.1  T
  71   -188.4468193 -0.421777E-06  0.309E-03    0.23       3.6  T
  72   -188.4468192  0.120299E-06  0.306E-03    0.23       3.6  T
  73   -188.4468200 -0.885074E-06  0.188E-03    0.23       5.9  T
  74   -188.4468202 -0.142138E-06  0.144E-03    0.23       7.7  T
  75   -188.4468204 -0.185671E-06  0.969E-04    0.23      11.4  T
  76   -188.4468203  0.246645E-07  0.862E-04    0.23      12.8  T

   *** convergence criteria satisfied after 76 iterations ***

         #    Occupation            Energy/Eh            Energy/eV
      -------------------------------------------------------------
         1        2.0000           -0.8339682             -22.6934
       ...           ...                  ...                  ...
       157        2.0000           -0.3645441              -9.9197
       158        2.0000           -0.3575423              -9.7292
       159        2.0000           -0.3561752              -9.6920
       160        2.0000           -0.3514463              -9.5633
       161        2.0000           -0.3435426              -9.3483
       162        2.0000           -0.3291207              -8.9558
       163        1.9783           -0.3147032              -8.5635 (HOMO)
       164        0.0217           -0.3061278              -8.3302 (LUMO)
       165        0.0000           -0.2956860              -8.0460
       166                         -0.2921250              -7.9491
       167                         -0.2904036              -7.9023
       168                         -0.2901993              -7.8967
       ...                                ...                  ...
       342                         13.3645677             363.6684
      -------------------------------------------------------------
                  HL-Gap            0.0085754 Eh            0.2333 eV
             Fermi-level           -0.3104155 Eh           -8.4468 eV

 SCC (total)                   0 d,  0 h,  0 min,  1.623 sec
 SCC setup                      ...        0 min,  0.000 sec (  0.000%)
 Dispersion                     ...        0 min,  0.001 sec (  0.062%)
 classical contributions        ...        0 min,  0.001 sec (  0.062%)
 integral evaluation            ...        0 min,  0.008 sec (  0.493%)
 iterations                     ...        0 min,  1.592 sec ( 98.090%)
 molecular gradient             ...        0 min,  0.019 sec (  1.171%)
 printout                       ...        0 min,  0.002 sec (  0.123%)

         :::::::::::::::::::::::::::::::::::::::::::::::::::::
         ::                     SUMMARY                     ::
         :::::::::::::::::::::::::::::::::::::::::::::::::::::
         :: total energy            -186.677362482467 Eh    ::
         :: gradient norm              0.123367664276 Eh/a0 ::
         :: HOMO-LUMO gap              0.233348469368 eV    ::
         ::.................................................::
         :: SCC energy              -188.443540688472 Eh    ::
         :: -> isotropic ES            1.041135828188 Eh    ::
         :: -> anisotropic ES         -0.385412646135 Eh    ::
         :: -> anisotropic XC         -0.027797120219 Eh    ::
         :: -> dispersion             -0.152215061525 Eh    ::
         :: repulsion energy           1.766178206005 Eh    ::
         :: add. restraining           0.000000000000 Eh    ::
         :: total charge              -0.000000000004 e     ::
         :::::::::::::::::::::::::::::::::::::::::::::::::::::

           -------------------------------------------------
          |                Property Printout                |
           -------------------------------------------------

    * Orbital Energies and Occupations

         #    Occupation            Energy/Eh            Energy/eV
      -------------------------------------------------------------
         1        2.0000           -0.8339682             -22.6934
       ...           ...                  ...                  ...
       151        2.0000           -0.3923072             -10.6752
       152        2.0000           -0.3892572             -10.5922
       153        2.0000           -0.3877566             -10.5514
       154        2.0000           -0.3833514             -10.4315
       155        2.0000           -0.3750330             -10.2052
       156        2.0000           -0.3668362              -9.9821
       157        2.0000           -0.3645441              -9.9197
       158        2.0000           -0.3575423              -9.7292
       159        2.0000           -0.3561752              -9.6920
       160        2.0000           -0.3514463              -9.5633
       161        2.0000           -0.3435426              -9.3483
       162        2.0000           -0.3291207              -8.9558
       163        1.9783           -0.3147032              -8.5635 (HOMO)
       164        0.0217           -0.3061278              -8.3302 (LUMO)
       165        0.0000           -0.2956860              -8.0460
       166                         -0.2921250              -7.9491
       167                         -0.2904036              -7.9023
       168                         -0.2901993              -7.8967
       169                         -0.2893221              -7.8729
       170                         -0.2857269              -7.7750
       171                         -0.2823472              -7.6831
       172                         -0.2807104              -7.6385
       173                         -0.2795447              -7.6068
       174                         -0.2776786              -7.5560
       ...                                ...                  ...
       342                         13.3645677             363.6684
      -------------------------------------------------------------
                  HL-Gap            0.0085754 Eh            0.2333 eV
             Fermi-level           -0.3104155 Eh           -8.4468 eV

     #   Z          covCN         q      C6AA      α(0)
     1   6 C        3.755    -0.114    22.740     6.799
     2   6 C        3.901     0.027    20.068     6.368
     3   6 C        3.757    -0.108    22.618     6.781
     4   6 C        3.755    -0.114    22.747     6.801
     5   6 C        2.979     0.211    23.536     7.958
     6   7 N        1.839    -0.274    27.949     7.835
     7   6 C        3.005     0.209    23.565     7.963
     8   7 N        1.880    -0.263    27.692     7.801
     9   6 C        3.030     0.115    25.436     8.273
    10   7 N        1.875    -0.248    27.318     7.748
    11  16 S        3.740     1.157   102.250    17.019
    12   8 O        0.860    -0.555    25.035     6.708
    13   8 O        0.860    -0.568    25.349     6.750
    14   7 N        2.686    -0.322    28.285     7.899
    15   6 C        2.937     0.051    26.856     8.499
    16   6 C        2.777     0.158    24.576     8.120
    17   9 F        0.787    -0.218    11.420     3.992
    18   6 C        2.913    -0.054    29.329     8.880
    19   6 C        2.913    -0.038    28.944     8.822
    20   6 C        2.911    -0.053    29.323     8.880
    21   6 C        2.782     0.154    24.655     8.133
    22   9 F        0.787    -0.209    11.331     3.976
    23   6 C        3.079    -0.029    28.636     8.773
    24   6 C        3.000     0.012    27.725     8.637
    25   7 N        2.786    -0.084    22.875     7.103
    26   6 C        3.086     0.123    25.220     8.232
    27   7 N        1.828    -0.236    27.022     7.703
    28   6 C        2.925     0.029    27.351     8.576
    29   6 C        2.767     0.159    24.550     8.115
    30   9 F        0.787    -0.211    11.350     3.980
    31   6 C        2.923    -0.038    28.950     8.823
    32   6 C        3.094    -0.008    28.102     8.688
    33   1 H        0.924     0.050     2.322     2.383
    34   1 H        0.924     0.049     2.333     2.389
    35   1 H        0.924     0.042     2.417     2.431
    36   1 H        0.924     0.042     2.421     2.433
    37   1 H        0.924     0.055     2.259     2.350
    38   1 H        0.924     0.051     2.312     2.378
    39   1 H        0.924     0.043     2.415     2.430
    40   1 H        0.924     0.059     2.206     2.323
    41   1 H        0.924     0.049     2.338     2.391
    42   1 H        0.861     0.225     0.989     1.558
    43   1 H        0.925     0.078     1.996     2.209
    44   1 H        0.925     0.070     2.083     2.257
    45   1 H        0.925     0.081     1.968     2.194
    46   1 H        0.925     0.084     1.941     2.179
    47   1 H        0.860     0.197     1.121     1.658
    48   1 H        0.925     0.078     2.000     2.211
    49   1 H        0.925     0.082     1.954     2.186
    50  22 Ti       3.637     1.049   101.810    24.490
    51  22 Ti       6.855     1.552    84.050    14.885
    52  22 Ti       3.227     1.050   102.619    24.736
    53  22 Ti       5.860     1.380    85.670    15.027
    54  22 Ti       5.627     1.123    88.191    15.247
    55  22 Ti       3.541     1.035   102.528    24.678
    56  22 Ti       2.352     0.882   202.637    34.855
    57  22 Ti       6.011     1.350    85.961    15.053
    58  22 Ti       3.414     1.011   103.025    24.776
    59  22 Ti       5.519     1.099    88.428    15.267
    60  22 Ti       5.687     1.191    87.511    15.188
    61  22 Ti       3.581     1.028   102.448    24.639
    62   6 C        2.246    -0.258    37.645     9.941
    63   6 C        2.142    -0.254    38.302    10.004
    64   6 C        2.248    -0.019    30.610     8.964
    65   6 C        1.838    -0.208    37.270     9.862
    66   6 C        1.894    -0.224    37.740     9.922
    67   6 C        1.821    -0.345    42.115    10.485
    68   6 C        2.631    -0.403    39.893    10.331
    69   8 O        1.554    -0.847    31.998     7.632
    70   8 O        1.464    -0.881    33.225     7.769
    71   8 O        1.557    -0.955    35.580     8.048
    72   8 O        1.523    -1.007    37.486     8.258
    73   8 O        1.523    -0.912    34.147     7.882
    74   8 O        1.458    -0.822    31.385     7.551
    75   8 O        1.455    -0.799    30.701     7.468
    76   8 O        0.727    -0.634    27.049     6.969
    77   8 O        1.453    -0.864    32.685     7.705
    78   8 O        1.476    -0.799    30.661     7.465
    79   8 O        1.603    -0.946    35.198     8.007
    80   8 O        1.547    -0.970    36.093     8.105
    81   8 O        1.700    -0.817    30.963     7.513
    82   8 O        1.453    -0.781    30.157     7.401

 Mol. C6AA /au·bohr⁶  :     179141.330947
 Mol. C8AA /au·bohr⁸  :    7710232.351845
 Mol. α(0) /au        :        714.719243


Wiberg/Mayer (AO) data.
largest (>0.10) Wiberg bond orders for each atom

 ---------------------------------------------------------------------------
     #   Z sym  total        # sym  WBO       # sym  WBO       # sym  WBO
 ---------------------------------------------------------------------------
     1   6 C    3.992 --     2 C    0.992    35 H    0.986    33 H    0.985
                            34 H    0.984
     2   6 C    3.985 --     1 C    0.992     4 C    0.991     5 C    0.977
                             3 C    0.971
     3   6 C    3.991 --    36 H    0.986    38 H    0.985    37 H    0.980
                             2 C    0.971
     4   6 C    3.991 --     2 C    0.991    39 H    0.986    41 H    0.984
                            40 H    0.983
     5   6 C    3.935 --     6 N    1.412    10 N    1.355     2 C    0.977
     6   7 N    3.045 --     5 C    1.412     7 C    1.349
     7   6 C    3.953 --     6 N    1.349     8 N    1.331    23 C    1.099
     8   7 N    3.058 --     9 C    1.433     7 C    1.331
     9   6 C    3.955 --     8 N    1.433    10 N    1.422    11 S    0.715
    10   7 N    3.053 --     9 C    1.422     5 C    1.355
    11  16 S    4.921 --    12 O    1.612    13 O    1.604    14 N    0.902
                             9 C    0.715
    12   8 O    1.932 --    11 S    1.612    13 O    0.116
    13   8 O    1.919 --    11 S    1.604    12 O    0.116
    14   7 N    3.271 --    15 C    1.083    42 H    0.919    11 S    0.902
    15   6 C    3.966 --    16 C    1.335    21 C    1.327    14 N    1.083
    16   6 C    3.881 --    18 C    1.397    15 C    1.335    17 F    0.963
    17   9 F    1.103 --    16 C    0.963
    18   6 C    3.984 --    19 C    1.436    16 C    1.397    43 H    0.965
    19   6 C    3.983 --    18 C    1.436    20 C    1.431    44 H    0.968
    20   6 C    3.984 --    19 C    1.431    21 C    1.405    45 H    0.964
    21   6 C    3.886 --    20 C    1.405    15 C    1.327    22 F    0.968
    22   9 F    1.106 --    21 C    0.968
    23   6 C    3.972 --    24 C    1.486    32 C    1.177     7 C    1.099
    24   6 C    3.942 --    23 C    1.486    25 N    1.253    46 H    0.964
    25   7 N    3.575 --    24 C    1.253    26 C    1.169    47 H    0.931
    26   6 C    3.960 --    27 N    1.341    32 C    1.251    25 N    1.169
    27   7 N    3.042 --    28 C    1.444    26 C    1.341    31 C    0.115
    28   6 C    3.972 --    27 N    1.444    29 C    1.359    48 H    0.959
    29   6 C    3.887 --    31 C    1.425    28 C    1.359    30 F    0.969
    30   9 F    1.101 --    29 C    0.969
    31   6 C    3.983 --    29 C    1.425    32 C    1.343    49 H    0.962
                            27 N    0.115
    32   6 C    3.985 --    31 C    1.343    26 C    1.251    23 C    1.177
    33   1 H    0.998 --     1 C    0.985
    34   1 H    0.997 --     1 C    0.984
    35   1 H    0.998 --     1 C    0.986
    36   1 H    0.998 --     3 C    0.986
    37   1 H    0.995 --     3 C    0.980
    38   1 H    0.997 --     3 C    0.985
    39   1 H    0.998 --     4 C    0.986
    40   1 H    0.996 --     4 C    0.983
    41   1 H    0.997 --     4 C    0.984
    42   1 H    0.949 --    14 N    0.919
    43   1 H    0.993 --    18 C    0.965
    44   1 H    0.995 --    19 C    0.968
    45   1 H    0.993 --    20 C    0.964
    46   1 H    0.992 --    24 C    0.964
    47   1 H    0.960 --    25 N    0.931
    48   1 H    0.993 --    28 C    0.959
    49   1 H    0.993 --    31 C    0.962
    50  22 Ti   2.825 --    69 O    0.844    70 O    0.815    56 Ti   0.330
                            51 Ti   0.201    53 Ti   0.198    55 Ti   0.101
    51  22 Ti   3.852 --    70 O    0.752    73 O    0.746    71 O    0.692
                            72 O    0.606    50 Ti   0.201    52 Ti   0.188
                            54 Ti   0.139    55 Ti   0.134
    52  22 Ti   2.721 --    78 O    0.962    71 O    0.598    58 Ti   0.371
                            51 Ti   0.188    56 Ti   0.140    73 O    0.110
    53  22 Ti   3.919 --    74 O    0.932    62 C    0.721    69 O    0.707
                            72 O    0.563    55 Ti   0.212    50 Ti   0.198
                            59 Ti   0.177    79 O    0.125
    54  22 Ti   4.070 --    68 C    0.889    75 O    0.773    66 C    0.743
                            73 O    0.603    60 Ti   0.283    55 Ti   0.173
                            67 C    0.158    63 C    0.152    51 Ti   0.139
    55  22 Ti   2.666 --    75 O    0.970    74 O    0.714    53 Ti   0.212
                            54 Ti   0.173    51 Ti   0.134    70 O    0.121
                            50 Ti   0.101
    56  22 Ti   3.766 --    76 O    1.997    57 Ti   0.607    50 Ti   0.330
                            71 O    0.152    69 O    0.147    52 Ti   0.140
                            79 O    0.112
    57  22 Ti   4.015 --    79 O    0.800    77 O    0.754    80 O    0.714
                            56 Ti   0.607    81 O    0.195    58 Ti   0.167
                            61 Ti   0.148    59 Ti   0.141
    58  22 Ti   2.744 --    77 O    0.834    78 O    0.764    52 Ti   0.371
                            61 Ti   0.221    57 Ti   0.167    60 Ti   0.130
    59  22 Ti   4.004 --    67 C    1.052    65 C    0.726    81 O    0.617
                            79 O    0.442    68 C    0.228    61 Ti   0.200
                            53 Ti   0.177    62 C    0.155    57 Ti   0.141
    60  22 Ti   4.078 --    82 O    0.968    63 C    0.670    68 C    0.651
                            80 O    0.442    54 Ti   0.283    61 Ti   0.210
                            67 C    0.140    58 Ti   0.130    78 O    0.114
    61  22 Ti   2.789 --    81 O    0.899    82 O    0.734    58 Ti   0.221
                            60 Ti   0.210    59 Ti   0.200    57 Ti   0.148
    62   6 C    3.843 --    65 C    2.739    53 Ti   0.721    59 Ti   0.155
    63   6 C    3.782 --    66 C    2.732    60 Ti   0.670    54 Ti   0.152
    64   6 C    3.979 --    67 C    2.008    68 C    1.604
    65   6 C    3.705 --    62 C    2.739    59 Ti   0.726
    66   6 C    3.748 --    63 C    2.732    54 Ti   0.743
    67   6 C    3.757 --    64 C    2.008    59 Ti   1.052    54 Ti   0.158
                            60 Ti   0.140
    68   6 C    3.816 --    64 C    1.604    54 Ti   0.889    60 Ti   0.651
                            59 Ti   0.228
    69   8 O    1.935 --    50 Ti   0.844    53 Ti   0.707    56 Ti   0.147
    70   8 O    1.892 --    50 Ti   0.815    51 Ti   0.752    55 Ti   0.121
    71   8 O    1.784 --    51 Ti   0.692    52 Ti   0.598    56 Ti   0.152
    72   8 O    1.719 --    51 Ti   0.606    53 Ti   0.563
    73   8 O    1.848 --    51 Ti   0.746    54 Ti   0.603    52 Ti   0.110
    74   8 O    1.971 --    53 Ti   0.932    55 Ti   0.714
    75   8 O    2.012 --    55 Ti   0.970    54 Ti   0.773
    76   8 O    2.173 --    56 Ti   1.997
    77   8 O    1.911 --    58 Ti   0.834    57 Ti   0.754
    78   8 O    2.008 --    52 Ti   0.962    58 Ti   0.764    60 Ti   0.114
    79   8 O    1.799 --    57 Ti   0.800    59 Ti   0.442    53 Ti   0.125
                            56 Ti   0.112
    80   8 O    1.772 --    57 Ti   0.714    60 Ti   0.442
    81   8 O    1.987 --    61 Ti   0.899    59 Ti   0.617    57 Ti   0.195
    82   8 O    2.032 --    60 Ti   0.968    61 Ti   0.734
 ---------------------------------------------------------------------------

Topologies differ in total number of bonds
Writing topology from bond orders to xtbtopo.mol

molecular dipole:
                 x           y           z       tot (Debye)
 q only:       -0.807      -2.007      -4.183
   full:       -1.940      -2.091      -3.171      10.841
molecular quadrupole (traceless):
                xx          xy          yy          xz          yz          zz
 q only:       47.287       9.100      55.957     -86.156     -45.960    -103.245
  q+dip:       57.188       5.153      33.303     -52.568     -56.777     -90.490
   full:       60.975       4.946      32.588     -55.049     -52.983     -93.563


           -------------------------------------------------
          | TOTAL ENERGY             -186.677362482467 Eh   |
          | GRADIENT NORM               0.123367664276 Eh/α |
          | HOMO-LUMO GAP               0.233348469368 eV   |
           -------------------------------------------------
########################################################################
[WARNING] Runtime exception occurred
-2- restart_readRestart: Dimension missmatch in restart file.
-1- restart_readRestart: Number of electron missmatch in restart file.
########################################################################

------------------------------------------------------------------------
 * finished run on 2026/08/31 at 21:31:41.852     
------------------------------------------------------------------------
 total:
 * wall-time:     0 d,  0 h,  0 min,  1.672 sec
 *  cpu-time:     0 d,  0 h,  0 min, 16.906 sec
 * ratio c/w:    10.111 speedup
 SCF:
 * wall-time:     0 d,  0 h,  0 min,  1.624 sec
 *  cpu-time:     0 d,  0 h,  0 min, 16.500 sec
 * ratio c/w:    10.160 speedup

