      -----------------------------------------------------------      
     |                   =====================                   |     
     |                           x T B                           |     
     |                   =====================                   |     
     |                         S. Grimme                         |     
     |          Mulliken Center for Theoretical Chemistry        |     
     |                    University of Bonn                     |     
      -----------------------------------------------------------      

   * xtb version 6.7.1pre (5071a88) compiled by 'Marcel@Raven' on 2024-07-23

   xtb is free software: you can redistribute it and/or modify it under
   the terms of the GNU Lesser General Public License as published by
   the Free Software Foundation, either version 3 of the License, or
   (at your option) any later version.
   
   xtb is distributed in the hope that it will be useful,
   but WITHOUT ANY WARRANTY; without even the implied warranty of
   MERCHANTABILITY or FITNESS FOR A PARTICULAR PURPOSE.  See the
   GNU Lesser General Public License for more details.
   
   Cite this work as:
   * C. Bannwarth, E. Caldeweyher, S. Ehlert, A. Hansen, P. Pracht,
     J. Seibert, S. Spicher, S. Grimme, WIREs Comput. Mol. Sci., 2020, 11,
     e01493. DOI: 10.1002/wcms.1493
   
   for GFN2-xTB:
   * C. Bannwarth, S. Ehlert and S. Grimme., J. Chem. Theory Comput., 2019,
     15, 1652-1671. DOI: 10.1021/acs.jctc.8b01176
   for GFN1-xTB:
   * S. Grimme, C. Bannwarth, P. Shushkov, J. Chem. Theory Comput., 2017,
     13, 1989-2009. DOI: 10.1021/acs.jctc.7b00118
   for GFN0-xTB:
   * P. Pracht, E. Caldeweyher, S. Ehlert, S. Grimme, ChemRxiv, 2019, preprint.
     DOI: 10.26434/chemrxiv.8326202.v1
   for GFN-FF:
   * S. Spicher and S. Grimme, Angew. Chem. Int. Ed., 2020, 59, 15665-15673.
     DOI: 10.1002/anie.202004239
   
   for ALPB and GBSA implicit solvation:
   * S. Ehlert, M. Stahn, S. Spicher, S. Grimme, J. Chem. Theory Comput.,
     2021, 17, 4250-4261. DOI: 10.1021/acs.jctc.1c00471
   
   for ddCOSMO and CPCM-X implicit solvation:
   * M. Stahn, S. Ehlert, S. Grimme, J. Phys. Chem. A,
     2023, XX, XXXX-XXXX. DOI: 10.1021/acs.jpca.3c04382
   
   for DFT-D4:
   * E. Caldeweyher, C. Bannwarth and S. Grimme, J. Chem. Phys., 2017,
     147, 034112. DOI: 10.1063/1.4993215
   * E. Caldeweyher, S. Ehlert, A. Hansen, H. Neugebauer, S. Spicher,
     C. Bannwarth and S. Grimme, J. Chem. Phys., 2019, 150, 154122.
     DOI: 10.1063/1.5090222
   * E. Caldeweyher, J.-M. Mewes, S. Ehlert and S. Grimme, Phys. Chem. Chem. Phys.
     2020, 22, 8499-8512. DOI: 10.1039/D0CP00502A
   
   for sTDA-xTB:
   * S. Grimme and C. Bannwarth, J. Chem. Phys., 2016, 145, 054103.
     DOI: 10.1063/1.4959605
   
   in the mass-spec context:
   * V. Asgeirsson, C. Bauer and S. Grimme, Chem. Sci., 2017, 8, 4879.
     DOI: 10.1039/c7sc00601b
   * J. Koopman and S. Grimme, ACS Omega 2019, 4, 12, 15120-15133.
     DOI: 10.1021/acsomega.9b02011
   
   for metadynamics refer to:
   * S. Grimme, J. Chem. Theory Comput., 2019, 155, 2847-2862
     DOI: 10.1021/acs.jctc.9b00143
   
   for SPH calculations refer to:
   * S. Spicher and S. Grimme, J. Chem. Theory Comput., 2021, 17, 1701-1714
     DOI: 10.1021/acs.jctc.0c01306
   
   for ONIOM refer to:
   * C. Plett, A. Katbashev, S. Ehlert, S. Grimme, M. Bursch,
     Phys. Chem. Chem. Phys., 2023, 25, 17860-17868. DOI: 10.1039/D3CP02178E
   
   for DIPRO refer to:
   * J. Kohn, N. Gildemeister, S. Grimme, D. Fazzi, A. Hansen,
     J. Chem. Phys., 2023, just accepted.
   
   for PTB refer to:
   * S. Grimme, M. Mueller, A. Hansen, J. Chem. Phys., 2023, 158, 124111.
     DOI: 10.1063/5.0137838
   
   with help from (in alphabetical order)
   P. Atkinson, C. Bannwarth, F. Bohle, G. Brandenburg, E. Caldeweyher
   M. Checinski, S. Dohm, S. Ehlert, S. Ehrlich, I. Gerasimov, C. Hölzer
   A. Katbashev, J. Kohn, J. Koopman, C. Lavigne, S. Lehtola, F. März, M. Müller,
   F. Musil, H. Neugebauer, J. Pisarek, C. Plett, P. Pracht, F. Pultar,
   J. Seibert, P. Shushkov, S. Spicher, M. Stahn, M. Steiner, T. Strunk,
   J. Stückrath, T. Rose, and J. Unsleber
   
 * started run on 2026/08/31 at 20:41:48.993     
   ID    Z sym.   atoms
    1    6 C      1-5, 7, 9-12, 17, 18, 20-23, 25, 27-31, 33, 34, 69-75
    2    7 N      6, 8, 13, 32
    3   16 S      14, 35
    4    8 O      15, 16, 76-89
    5    9 F      19, 24, 26
    6    1 H      36-56
    7   22 Ti     57-68

           -------------------------------------------------
          |                Calculation Setup                |
           -------------------------------------------------

          program call               : "c:\Users\Andre\Proyectos doctorado\kras-pancreatic-gC3N4-ai\tools\xtb\xtb-6.7.1\bin\xtb.exe" "c:\Users\Andre\Proyectos doctorado\mxene-glioblastoma-qsar-ai\calculations\gbm\Dabrafenib\Dabrafenib_Ti3C2O2_complex.xyz" --gfn 2 --sp --chrg 0 --uhf 0 --iterations 500 --norestart
          coordinate file            : c:\Users\Andre\Proyectos doctorado\mxene-glioblastoma-qsar-ai\calculations\gbm\Dabrafenib\Dabrafenib_Ti3C2O2_complex.xyz
          omp threads                :                    16


molecular fragmentation (1/2 indicates fragments):
111111111111111111111111111111111111111111111111111111111111111111112212
21122221222222222
# atoms in fragment 1/2:    72    17
 fragment masses (1/2) :     1145.01      256.04
CMA distance (Bohr)    :   5.258
constraining FC (au)   :  0.0500

           -------------------------------------------------
          |                 G F N 2 - x T B                 |
           -------------------------------------------------

        Reference                      10.1021/acs.jctc.8b01176
      * Hamiltonian:
        H0-scaling (s, p, d)           1.850000    2.230000    2.230000
        zeta-weighting                 0.500000
      * Dispersion:
        s8                             2.700000
        a1                             0.520000
        a2                             5.000000
        s9                             5.000000
      * Repulsion:
        kExp                           1.500000    1.000000
        rExp                           1.000000
      * Coulomb:
        alpha                          2.000000
        third order                    shell-resolved
        anisotropic                    true
        a3                             3.000000
        a5                             4.000000
        cn-shift                       1.200000
        cn-exp                         4.000000
        max-rad                        5.000000


          ...................................................
          :                      SETUP                      :
          :.................................................:
          :  # basis functions                 377          :
          :  # atomic orbitals                 363          :
          :  # shells                          171          :
          :  # electrons                       342          :
          :  max. iterations                   500          :
          :  Hamiltonian                  GFN2-xTB          :
          :  restarted?                      false          :
          :  GBSA solvation                  false          :
          :  PC potential                    false          :
          :  electronic temp.          300.0000000     K    :
          :  accuracy                    1.0000000          :
          :  -> integral cutoff          0.2500000E+02      :
          :  -> integral neglect         0.1000000E-07      :
          :  -> SCF convergence          0.1000000E-05 Eh   :
          :  -> wf. convergence          0.1000000E-03 e    :
          :  Broyden damping             0.4000000          :
          :  net charge                          0          :
          :  unpaired electrons                  0          :
          ...................................................

 iter      E             dE          RMSdq      gap      omega  full diag
   1   -190.5545781 -0.190555E+03  0.126E+01    0.06       0.0  T
   2   -123.6128794  0.669417E+02  0.199E+01    0.05       1.0  T
   3    -90.6581602  0.329547E+02  0.218E+01    0.12       1.0  T
   4   -181.7984295 -0.911403E+02  0.110E+01    0.05       1.0  T
   5   -188.4113659 -0.661294E+01  0.104E+01    0.32       1.0  T
   6   -187.0152014  0.139616E+01  0.849E+00    0.04       1.0  T
   7   -186.3260270  0.689174E+00  0.788E+00    0.12       1.0  T
   8   -184.1691142  0.215691E+01  0.987E+00    0.09       1.0  T
   9   -188.5950517 -0.442594E+01  0.722E+00    0.09       1.0  T
  10   -191.0898053 -0.249475E+01  0.530E+00    0.22       1.0  T
  11   -193.4171289 -0.232732E+01  0.490E+00    0.15       1.0  T
  12   -194.7952838 -0.137815E+01  0.380E+00    0.07       1.0  T
  13   -194.8651523 -0.698685E-01  0.351E+00    0.01       1.0  T
  14   -194.8971792 -0.320269E-01  0.336E+00    0.09       1.0  T
  15   -194.9785799 -0.814006E-01  0.328E+00    0.08       1.0  T
  16   -195.0969153 -0.118335E+00  0.288E+00    0.06       1.0  T
  17   -195.1384056 -0.414903E-01  0.257E+00    0.11       1.0  T
  18   -195.0148994  0.123506E+00  0.224E+00    0.07       1.0  T
  19   -195.2901898 -0.275290E+00  0.188E+00    0.10       1.0  T
  20   -195.2671494  0.230404E-01  0.157E+00    0.06       1.0  T
  21   -195.1855079  0.816415E-01  0.152E+00    0.11       1.0  T
  22   -195.2993430 -0.113835E+00  0.106E+00    0.09       1.0  T
  23   -195.3479315 -0.485885E-01  0.927E-01    0.08       1.0  T
  24   -195.3513418 -0.341032E-02  0.911E-01    0.07       1.0  T
  25   -195.3742032 -0.228613E-01  0.862E-01    0.06       1.0  T
  26   -195.3714593  0.274383E-02  0.864E-01    0.06       1.0  T
  27   -195.4006305 -0.291712E-01  0.678E-01    0.05       1.0  T
  28   -195.4094515 -0.882098E-02  0.496E-01    0.04       1.0  T
  29   -195.4179860 -0.853449E-02  0.475E-01    0.03       1.0  T
  30   -195.4291885 -0.112025E-01  0.365E-01    0.03       1.0  T
  31   -195.4342688 -0.508028E-02  0.312E-01    0.04       1.0  T
  32   -195.4377210 -0.345215E-02  0.252E-01    0.03       1.0  T
  33   -195.4382303 -0.509323E-03  0.193E-01    0.02       1.0  T
  34   -195.4401133 -0.188299E-02  0.156E-01    0.02       1.0  T
  35   -195.4385567  0.155655E-02  0.190E-01    0.01       1.0  T
  36   -195.4403408 -0.178407E-02  0.127E-01    0.02       1.0  T
  37   -195.4408972 -0.556431E-03  0.105E-01    0.02       1.0  T
  38   -195.4411779 -0.280654E-03  0.605E-02    0.02       1.0  T
  39   -195.4410724  0.105475E-03  0.620E-02    0.02       1.0  T
  40   -195.4411710 -0.985686E-04  0.413E-02    0.02       1.0  T
  41   -195.4412274 -0.564314E-04  0.355E-02    0.02       1.0  T
  42   -195.4412626 -0.352333E-04  0.234E-02    0.02       1.0  T
  43   -195.4412830 -0.203762E-04  0.198E-02    0.02       1.0  T
  44   -195.4412930 -0.999952E-05  0.159E-02    0.02       1.0  T
  45   -195.4412971 -0.414940E-05  0.119E-02    0.02       1.0  T
  46   -195.4412982 -0.100859E-05  0.112E-02    0.02       1.0  T
  47   -195.4413036 -0.547460E-05  0.667E-03    0.02       1.6  T
  48   -195.4413036  0.130382E-07  0.590E-03    0.02       1.8  T
  49   -195.4413065 -0.283353E-05  0.378E-03    0.02       2.8  T
  50   -195.4413049  0.156085E-05  0.546E-03    0.02       1.9  T
  51   -195.4413067 -0.179782E-05  0.170E-03    0.02       6.2  T
  52   -195.4413068 -0.802977E-07  0.180E-03    0.02       5.9  T
  53   -195.4413069 -0.983004E-07  0.121E-03    0.02       8.8  T
  54   -195.4413069 -0.286652E-07  0.757E-04    0.02      14.0  T
  55   -195.4413069 -0.112159E-07  0.443E-04    0.02      24.0  T

   *** convergence criteria satisfied after 55 iterations ***

         #    Occupation            Energy/Eh            Energy/eV
      -------------------------------------------------------------
         1        2.0000           -0.9205386             -25.0491
       ...           ...                  ...                  ...
       165        2.0000           -0.3892375             -10.5917
       166        2.0000           -0.3890772             -10.5873
       167        2.0000           -0.3831546             -10.4262
       168        2.0000           -0.3806309             -10.3575
       169        1.9999           -0.3776019             -10.2751
       170        1.8728           -0.3704201             -10.0796
       171        1.2406           -0.3683310             -10.0228 (HOMO)
       172        0.7899           -0.3674595              -9.9991 (LUMO)
       173        0.0946           -0.3650114              -9.9325
       174        0.0021           -0.3613563              -9.8330
       175        0.0000           -0.3548207              -9.6552
       176                         -0.3489838              -9.4963
       ...                                ...                  ...
       363                         18.4000760             500.6916
      -------------------------------------------------------------
                  HL-Gap            0.0008716 Eh            0.0237 eV
             Fermi-level           -0.3678647 Eh          -10.0101 eV

 SCC (total)                   0 d,  0 h,  0 min,  1.550 sec
 SCC setup                      ...        0 min,  0.001 sec (  0.065%)
 Dispersion                     ...        0 min,  0.001 sec (  0.065%)
 classical contributions        ...        0 min,  0.000 sec (  0.000%)
 integral evaluation            ...        0 min,  0.011 sec (  0.710%)
 iterations                     ...        0 min,  1.509 sec ( 97.355%)
 molecular gradient             ...        0 min,  0.026 sec (  1.677%)
 printout                       ...        0 min,  0.002 sec (  0.129%)

         :::::::::::::::::::::::::::::::::::::::::::::::::::::
         ::                     SUMMARY                     ::
         :::::::::::::::::::::::::::::::::::::::::::::::::::::
         :: total energy            -189.355665032164 Eh    ::
         :: gradient norm              5.365619559194 Eh/a0 ::
         :: HOMO-LUMO gap              0.023716784802 eV    ::
         ::.................................................::
         :: SCC energy              -195.432192999042 Eh    ::
         :: -> isotropic ES            0.858239662401 Eh    ::
         :: -> anisotropic ES         -0.033223585223 Eh    ::
         :: -> anisotropic XC         -0.065880617535 Eh    ::
         :: -> dispersion             -0.195753967922 Eh    ::
         :: repulsion energy           6.076527966879 Eh    ::
         :: add. restraining           0.000000000000 Eh    ::
         :: total charge               0.000000000002 e     ::
         :::::::::::::::::::::::::::::::::::::::::::::::::::::

           -------------------------------------------------
          |                Property Printout                |
           -------------------------------------------------

    * Orbital Energies and Occupations

         #    Occupation            Energy/Eh            Energy/eV
      -------------------------------------------------------------
         1        2.0000           -0.9205386             -25.0491
       ...           ...                  ...                  ...
       159        2.0000           -0.4053510             -11.0302
       160        2.0000           -0.4030153             -10.9666
       161        2.0000           -0.4002791             -10.8921
       162        2.0000           -0.3978606             -10.8263
       163        2.0000           -0.3951432             -10.7524
       164        2.0000           -0.3902951             -10.6205
       165        2.0000           -0.3892375             -10.5917
       166        2.0000           -0.3890772             -10.5873
       167        2.0000           -0.3831546             -10.4262
       168        2.0000           -0.3806309             -10.3575
       169        1.9999           -0.3776019             -10.2751
       170        1.8728           -0.3704201             -10.0796
       171        1.2406           -0.3683310             -10.0228 (HOMO)
       172        0.7899           -0.3674595              -9.9991 (LUMO)
       173        0.0946           -0.3650114              -9.9325
       174        0.0021           -0.3613563              -9.8330
       175        0.0000           -0.3548207              -9.6552
       176                         -0.3489838              -9.4963
       177                         -0.3467337              -9.4351
       178                         -0.3463672              -9.4251
       179                         -0.3409360              -9.2773
       180                         -0.3400618              -9.2536
       181                         -0.3376634              -9.1883
       182                         -0.3360671              -9.1449
       ...                                ...                  ...
       363                         18.4000760             500.6916
      -------------------------------------------------------------
                  HL-Gap            0.0008716 Eh            0.0237 eV
             Fermi-level           -0.3678647 Eh          -10.0101 eV

     #   Z          covCN         q      C6AA      α(0)
     1   6 C        3.756    -0.132    23.087     6.851
     2   6 C        3.911     0.033    19.957     6.350
     3   6 C        3.755    -0.126    22.964     6.833
     4   6 C        3.755    -0.126    22.970     6.834
     5   6 C        3.005     0.089    25.998     8.364
     6   7 N        1.952    -0.195    26.024     7.565
     7   6 C        3.155     0.099    25.532     8.263
     8   7 N        3.685     0.060    20.188     6.673
     9   6 C        2.965     0.012    27.753     8.641
    10   6 C        2.916    -0.026    28.661     8.779
    11   6 C        2.915    -0.051    29.275     8.872
    12   6 C        2.971     0.078    26.260     8.406
    13   7 N        2.687    -0.347    28.918     7.987
    14  16 S        3.787     1.209   100.849    16.902
    15   8 O        0.860    -0.578    25.591     6.783
    16   8 O        0.860    -0.564    25.252     6.737
    17   6 C        2.964    -0.130    31.312     9.178
    18   6 C        2.829     0.183    24.072     8.040
    19   9 F        0.787    -0.193    11.159     3.946
    20   6 C        2.915    -0.046    29.142     8.852
    21   6 C        2.912    -0.018    28.452     8.747
    22   6 C        2.916    -0.045    29.128     8.850
    23   6 C        2.825     0.186    24.026     8.032
    24   9 F        0.787    -0.179    11.023     3.922
    25   6 C        3.065     0.166    24.358     8.093
    26   9 F        0.787    -0.151    10.740     3.871
    27   6 C        4.326     0.075    19.246     6.230
    28   6 C        2.972    -0.009    28.243     8.717
    29   6 C        3.023     0.019    27.562     8.612
    30   6 C        2.912    -0.042    29.044     8.837
    31   6 C        2.890     0.063    26.584     8.453
    32   7 N        1.830    -0.203    26.228     7.589
    33   6 C        2.890     0.051    26.853     8.496
    34   6 C        2.911    -0.049    29.215     8.863
    35  16 S        2.326     0.103   136.931    19.695
    36   1 H        0.924     0.070     2.087     2.259
    37   1 H        0.924     0.081     1.965     2.192
    38   1 H        0.924     0.077     2.007     2.215
    39   1 H        0.924     0.064     2.151     2.294
    40   1 H        0.924     0.052     2.291     2.367
    41   1 H        0.924     0.055     2.253     2.347
    42   1 H        0.924     0.056     2.248     2.345
    43   1 H        0.924     0.064     2.156     2.296
    44   1 H        0.924     0.054     2.273     2.358
    45   1 H        0.884     0.330     0.628     1.241
    46   1 H        0.925     0.111     1.691     2.034
    47   1 H        0.925     0.105     1.736     2.060
    48   1 H        0.862     0.226     0.981     1.551
    49   1 H        0.925     0.096     1.820     2.110
    50   1 H        0.925     0.090     1.878     2.143
    51   1 H        0.925     0.101     1.777     2.085
    52   1 H        1.278     0.292     0.728     1.332
    53   1 H        0.925     0.107     1.724     2.053
    54   1 H        0.925     0.069     2.098     2.265
    55   1 H        0.925     0.081     1.968     2.194
    56   1 H        0.925     0.051     2.312     2.378
    57  22 Ti       4.155     0.718    92.187    16.242
    58  22 Ti       6.408     0.577    93.945    15.736
    59  22 Ti       4.151     0.759    91.740    16.236
    60  22 Ti       7.720     0.883    90.652    15.458
    61  22 Ti       8.186     0.702    92.572    15.621
    62  22 Ti       6.519     1.012    89.314    15.344
    63  22 Ti       4.151     0.786    91.461    16.211
    64  22 Ti       6.350     0.749    92.065    15.578
    65  22 Ti       4.151     0.778    91.546    16.219
    66  22 Ti       7.449     1.037    89.053    15.321
    67  22 Ti       7.449     1.045    88.971    15.314
    68  22 Ti       6.519     1.057    88.850    15.304
    69   6 C        5.128    -0.692    38.256     8.784
    70   6 C        5.128    -0.674    37.593     8.708
    71   6 C        5.649    -0.545    33.256     8.190
    72   6 C        2.445    -0.405    40.548    10.390
    73   6 C        2.445    -0.394    40.124    10.335
    74   6 C        2.445    -0.334    38.010    10.059
    75   6 C        2.445    -0.329    37.838    10.036
    76   8 O        0.731    -0.567    25.382     6.751
    77   8 O        0.771    -0.662    27.737     7.059
    78   8 O        0.728    -0.583    25.782     6.804
    79   8 O        1.430    -0.590    25.173     6.760
    80   8 O        2.052    -0.388    20.563     6.124
    81   8 O        0.753    -0.667    27.884     7.077
    82   8 O        0.753    -0.678    28.188     7.115
    83   8 O        0.728    -0.532    24.574     6.643
    84   8 O        0.729    -0.562    25.280     6.738
    85   8 O        0.728    -0.528    24.479     6.630
    86   8 O        0.729    -0.643    27.273     6.998
    87   8 O        0.729    -0.638    27.136     6.981
    88   8 O        0.753    -0.574    25.539     6.773
    89   8 O        0.753    -0.572    25.488     6.766

 Mol. C6AA /au·bohr⁶  :     193403.412945
 Mol. C8AA /au·bohr⁸  :    8295319.320094
 Mol. α(0) /au        :        682.284241


Wiberg/Mayer (AO) data.
largest (>0.10) Wiberg bond orders for each atom

 ---------------------------------------------------------------------------
     #   Z sym  total        # sym  WBO       # sym  WBO       # sym  WBO
 ---------------------------------------------------------------------------
     1   6 C    3.967 --     2 C    0.992    36 H    0.981    38 H    0.964
                            37 H    0.918
     2   6 C    3.981 --     1 C    0.992     5 C    0.986     4 C    0.982
                             3 C    0.981
     3   6 C    3.986 --    40 H    0.985    41 H    0.982     2 C    0.981
                            39 H    0.981
     4   6 C    3.985 --    44 H    0.983    42 H    0.982     2 C    0.982
                            43 H    0.980
     5   6 C    3.935 --     6 N    1.578    35 S    1.177     2 C    0.986
     6   7 N    3.189 --     5 C    1.578     7 C    1.197    35 S    0.133
                            57 Ti   0.100
     7   6 C    3.930 --    28 C    1.445     6 N    1.197     8 N    1.052
     8   7 N    3.637 --     7 C    1.052     9 C    1.006    45 H    0.740
                            79 O    0.316    60 Ti   0.117
     9   6 C    3.825 --    10 C    1.332    27 C    1.051     8 N    1.006
    10   6 C    3.958 --    11 C    1.449     9 C    1.332    46 H    0.941
    11   6 C    3.862 --    10 C    1.449    12 C    1.243    47 H    0.954
    12   6 C    3.961 --    25 C    1.449    11 C    1.243    13 N    1.055
    13   7 N    3.184 --    12 C    1.055    48 H    0.911    14 S    0.884
    14  16 S    4.932 --    16 O    1.606    15 O    1.595    13 N    0.884
                            17 C    0.768
    15   8 O    1.905 --    14 S    1.595    16 O    0.117
    16   8 O    1.921 --    14 S    1.606    15 O    0.117
    17   6 C    3.968 --    23 C    1.372    18 C    1.368    14 S    0.768
    18   6 C    3.895 --    20 C    1.392    17 C    1.368    19 F    0.985
    19   9 F    1.129 --    18 C    0.985
    20   6 C    3.981 --    21 C    1.435    18 C    1.392    49 H    0.961
    21   6 C    3.984 --    22 C    1.443    20 C    1.435    50 H    0.964
    22   6 C    3.981 --    21 C    1.443    23 C    1.382    51 H    0.960
    23   6 C    3.901 --    22 C    1.382    17 C    1.372    24 F    0.996
    24   9 F    1.146 --    23 C    0.996
    25   6 C    3.800 --    12 C    1.449    27 C    1.015    26 F    0.947
    26   9 F    1.193 --    25 C    0.947    61 Ti   0.102
    27   6 C    3.848 --     9 C    1.051    25 C    1.015    80 O    0.799
                            52 H    0.660    61 Ti   0.147
    28   6 C    3.899 --     7 C    1.445    35 S    1.189    29 C    1.031
    29   6 C    3.983 --    34 C    1.390    30 C    1.386    28 C    1.031
                            32 N    0.104
    30   6 C    3.973 --    31 C    1.424    29 C    1.386    53 H    0.923
                            33 C    0.113
    31   6 C    3.975 --    32 N    1.434    30 C    1.424    54 H    0.950
                            34 C    0.112
    32   7 N    3.044 --    31 C    1.434    33 C    1.430    29 C    0.104
    33   6 C    3.971 --    34 C    1.436    32 N    1.430    55 H    0.958
                            30 C    0.113
    34   6 C    3.983 --    33 C    1.436    29 C    1.390    56 H    0.967
                            31 C    0.112
    35  16 S    2.680 --    28 C    1.189     5 C    1.177     6 N    0.133
    36   1 H    0.994 --     1 C    0.981
    37   1 H    0.991 --     1 C    0.918
    38   1 H    0.993 --     1 C    0.964
    39   1 H    0.995 --     3 C    0.981
    40   1 H    0.997 --     3 C    0.985
    41   1 H    0.997 --     3 C    0.982
    42   1 H    0.997 --     4 C    0.982
    43   1 H    0.995 --     4 C    0.980
    44   1 H    0.997 --     4 C    0.983
    45   1 H    0.889 --     8 N    0.740
    46   1 H    0.986 --    10 C    0.941
    47   1 H    0.987 --    11 C    0.954
    48   1 H    0.947 --    13 N    0.911
    49   1 H    0.990 --    20 C    0.961
    50   1 H    0.991 --    21 C    0.964
    51   1 H    0.989 --    22 C    0.960
    52   1 H    0.903 --    27 C    0.660
    53   1 H    0.987 --    30 C    0.923
    54   1 H    0.993 --    31 C    0.950
    55   1 H    0.991 --    33 C    0.958
    56   1 H    0.997 --    34 C    0.967
    57  22 Ti   4.094 --    76 O    1.958    63 Ti   0.556    58 Ti   0.313
                            69 C    0.232    60 Ti   0.202    72 C    0.173
                             6 N    0.100
    58  22 Ti   4.508 --    77 O    1.753    64 Ti   0.386    59 Ti   0.335
                            57 Ti   0.313    69 C    0.235    70 C    0.234
                            60 Ti   0.136    61 Ti   0.128    73 C    0.116
                            65 Ti   0.102    63 Ti   0.101
    59  22 Ti   3.950 --    78 O    1.985    65 Ti   0.573    58 Ti   0.335
                            70 C    0.262    61 Ti   0.223    73 C    0.161
    60  22 Ti   4.662 --    79 O    1.312    72 C    0.781    69 C    0.671
                            66 Ti   0.217    81 O    0.208    57 Ti   0.202
                            71 C    0.170    62 Ti   0.160    58 Ti   0.136
                             8 N    0.117
    61  22 Ti   4.898 --    80 O    1.162    73 C    0.835    70 C    0.768
                            67 Ti   0.236    59 Ti   0.223    82 O    0.163
                            27 C    0.147    71 C    0.147    62 Ti   0.142
                            58 Ti   0.128    26 F    0.102
    62  22 Ti   4.525 --    82 O    1.147    81 O    1.104    71 C    0.495
                            74 C    0.411    75 C    0.403    68 Ti   0.256
                            60 Ti   0.160    61 Ti   0.142
    63  22 Ti   3.994 --    83 O    2.027    57 Ti   0.556    64 Ti   0.374
                            69 C    0.259    66 Ti   0.195    72 C    0.178
                            58 Ti   0.101
    64  22 Ti   4.411 --    84 O    1.920    58 Ti   0.386    63 Ti   0.374
                            65 Ti   0.318    69 C    0.271    70 C    0.233
                            66 Ti   0.132    67 Ti   0.115
    65  22 Ti   3.964 --    85 O    2.040    59 Ti   0.573    64 Ti   0.318
                            70 C    0.274    67 Ti   0.187    73 C    0.177
                            58 Ti   0.102
    66  22 Ti   4.443 --    86 O    1.751    72 C    0.638    69 C    0.511
                            88 O    0.222    60 Ti   0.217    63 Ti   0.195
                            71 C    0.160    68 Ti   0.149    64 Ti   0.132
    67  22 Ti   4.435 --    87 O    1.767    73 C    0.603    70 C    0.488
                            61 Ti   0.236    89 O    0.230    65 Ti   0.187
                            71 C    0.169    68 Ti   0.156    64 Ti   0.115
    68  22 Ti   4.452 --    88 O    1.094    89 O    1.076    71 C    0.508
                            74 C    0.470    75 C    0.460    62 Ti   0.256
                            67 Ti   0.156    66 Ti   0.149
    69   6 C    3.674 --    72 C    0.834    60 Ti   0.671    66 Ti   0.511
                            64 Ti   0.271    63 Ti   0.259    58 Ti   0.235
                            57 Ti   0.232
    70   6 C    3.682 --    73 C    0.809    61 Ti   0.768    67 Ti   0.488
                            65 Ti   0.274    59 Ti   0.262    58 Ti   0.234
                            64 Ti   0.233
    71   6 C    3.805 --    75 C    0.811    74 C    0.801    68 Ti   0.508
                            62 Ti   0.495    60 Ti   0.170    67 Ti   0.169
                            66 Ti   0.160    61 Ti   0.147
    72   6 C    3.301 --    69 C    0.834    60 Ti   0.781    66 Ti   0.638
                            63 Ti   0.178    57 Ti   0.173    74 C    0.171
    73   6 C    3.287 --    61 Ti   0.835    70 C    0.809    67 Ti   0.603
                            65 Ti   0.177    75 C    0.175    59 Ti   0.161
                            58 Ti   0.116
    74   6 C    3.201 --    71 C    0.801    68 Ti   0.470    88 O    0.421
                            62 Ti   0.411    81 O    0.323    72 C    0.171
                            75 C    0.120
    75   6 C    3.206 --    71 C    0.811    68 Ti   0.460    89 O    0.436
                            62 Ti   0.403    82 O    0.314    73 C    0.175
                            74 C    0.120
    76   8 O    2.232 --    57 Ti   1.958
    77   8 O    2.121 --    58 Ti   1.753
    78   8 O    2.213 --    59 Ti   1.985
    79   8 O    2.194 --    60 Ti   1.312     8 N    0.316
    80   8 O    2.408 --    61 Ti   1.162    27 C    0.799
    81   8 O    2.050 --    62 Ti   1.104    74 C    0.323    60 Ti   0.208
                            88 O    0.111
    82   8 O    2.032 --    62 Ti   1.147    75 C    0.314    61 Ti   0.163
                            89 O    0.113
    83   8 O    2.271 --    63 Ti   2.027
    84   8 O    2.242 --    64 Ti   1.920
    85   8 O    2.276 --    65 Ti   2.040
    86   8 O    2.135 --    66 Ti   1.751
    87   8 O    2.142 --    67 Ti   1.767
    88   8 O    2.146 --    68 Ti   1.094    74 C    0.421    66 Ti   0.222
                            81 O    0.111
    89   8 O    2.154 --    68 Ti   1.076    75 C    0.436    67 Ti   0.230
                            82 O    0.113
 ---------------------------------------------------------------------------

Topologies differ in total number of bonds
Writing topology from bond orders to xtbtopo.mol

molecular dipole:
                 x           y           z       tot (Debye)
 q only:       -2.461      -8.522       7.974
   full:       -1.861      -2.940       5.269      16.050
molecular quadrupole (traceless):
                xx          xy          yy          xz          yz          zz
 q only:       45.046      44.153      32.317     -57.453      -0.762     -77.364
  q+dip:       48.229      33.365      54.274     -51.632      -7.375    -102.503
   full:       46.853      32.286      58.364     -51.506      -6.316    -105.217


           -------------------------------------------------
          | TOTAL ENERGY             -189.355665032164 Eh   |
          | GRADIENT NORM               5.365619559194 Eh/α |
          | HOMO-LUMO GAP               0.023716784802 eV   |
           -------------------------------------------------

------------------------------------------------------------------------
 * finished run on 2026/08/31 at 20:41:50.611     
------------------------------------------------------------------------
 total:
 * wall-time:     0 d,  0 h,  0 min,  1.617 sec
 *  cpu-time:     0 d,  0 h,  0 min, 12.891 sec
 * ratio c/w:     7.972 speedup
 SCF:
 * wall-time:     0 d,  0 h,  0 min,  1.552 sec
 *  cpu-time:     0 d,  0 h,  0 min, 12.562 sec
 * ratio c/w:     8.094 speedup

normal termination of xtb
