      -----------------------------------------------------------      
     |                   =====================                   |     
     |                           x T B                           |     
     |                   =====================                   |     
     |                         S. Grimme                         |     
     |          Mulliken Center for Theoretical Chemistry        |     
     |                    University of Bonn                     |     
      -----------------------------------------------------------      

   * xtb version 6.7.1pre (5071a88) compiled by 'Marcel@Raven' on 2024-07-23

   xtb is free software: you can redistribute it and/or modify it under
   the terms of the GNU Lesser General Public License as published by
   the Free Software Foundation, either version 3 of the License, or
   (at your option) any later version.
   
   xtb is distributed in the hope that it will be useful,
   but WITHOUT ANY WARRANTY; without even the implied warranty of
   MERCHANTABILITY or FITNESS FOR A PARTICULAR PURPOSE.  See the
   GNU Lesser General Public License for more details.
   
   Cite this work as:
   * C. Bannwarth, E. Caldeweyher, S. Ehlert, A. Hansen, P. Pracht,
     J. Seibert, S. Spicher, S. Grimme, WIREs Comput. Mol. Sci., 2020, 11,
     e01493. DOI: 10.1002/wcms.1493
   
   for GFN2-xTB:
   * C. Bannwarth, S. Ehlert and S. Grimme., J. Chem. Theory Comput., 2019,
     15, 1652-1671. DOI: 10.1021/acs.jctc.8b01176
   for GFN1-xTB:
   * S. Grimme, C. Bannwarth, P. Shushkov, J. Chem. Theory Comput., 2017,
     13, 1989-2009. DOI: 10.1021/acs.jctc.7b00118
   for GFN0-xTB:
   * P. Pracht, E. Caldeweyher, S. Ehlert, S. Grimme, ChemRxiv, 2019, preprint.
     DOI: 10.26434/chemrxiv.8326202.v1
   for GFN-FF:
   * S. Spicher and S. Grimme, Angew. Chem. Int. Ed., 2020, 59, 15665-15673.
     DOI: 10.1002/anie.202004239
   
   for ALPB and GBSA implicit solvation:
   * S. Ehlert, M. Stahn, S. Spicher, S. Grimme, J. Chem. Theory Comput.,
     2021, 17, 4250-4261. DOI: 10.1021/acs.jctc.1c00471
   
   for ddCOSMO and CPCM-X implicit solvation:
   * M. Stahn, S. Ehlert, S. Grimme, J. Phys. Chem. A,
     2023, XX, XXXX-XXXX. DOI: 10.1021/acs.jpca.3c04382
   
   for DFT-D4:
   * E. Caldeweyher, C. Bannwarth and S. Grimme, J. Chem. Phys., 2017,
     147, 034112. DOI: 10.1063/1.4993215
   * E. Caldeweyher, S. Ehlert, A. Hansen, H. Neugebauer, S. Spicher,
     C. Bannwarth and S. Grimme, J. Chem. Phys., 2019, 150, 154122.
     DOI: 10.1063/1.5090222
   * E. Caldeweyher, J.-M. Mewes, S. Ehlert and S. Grimme, Phys. Chem. Chem. Phys.
     2020, 22, 8499-8512. DOI: 10.1039/D0CP00502A
   
   for sTDA-xTB:
   * S. Grimme and C. Bannwarth, J. Chem. Phys., 2016, 145, 054103.
     DOI: 10.1063/1.4959605
   
   in the mass-spec context:
   * V. Asgeirsson, C. Bauer and S. Grimme, Chem. Sci., 2017, 8, 4879.
     DOI: 10.1039/c7sc00601b
   * J. Koopman and S. Grimme, ACS Omega 2019, 4, 12, 15120-15133.
     DOI: 10.1021/acsomega.9b02011
   
   for metadynamics refer to:
   * S. Grimme, J. Chem. Theory Comput., 2019, 155, 2847-2862
     DOI: 10.1021/acs.jctc.9b00143
   
   for SPH calculations refer to:
   * S. Spicher and S. Grimme, J. Chem. Theory Comput., 2021, 17, 1701-1714
     DOI: 10.1021/acs.jctc.0c01306
   
   for ONIOM refer to:
   * C. Plett, A. Katbashev, S. Ehlert, S. Grimme, M. Bursch,
     Phys. Chem. Chem. Phys., 2023, 25, 17860-17868. DOI: 10.1039/D3CP02178E
   
   for DIPRO refer to:
   * J. Kohn, N. Gildemeister, S. Grimme, D. Fazzi, A. Hansen,
     J. Chem. Phys., 2023, just accepted.
   
   for PTB refer to:
   * S. Grimme, M. Mueller, A. Hansen, J. Chem. Phys., 2023, 158, 124111.
     DOI: 10.1063/5.0137838
   
   with help from (in alphabetical order)
   P. Atkinson, C. Bannwarth, F. Bohle, G. Brandenburg, E. Caldeweyher
   M. Checinski, S. Dohm, S. Ehlert, S. Ehrlich, I. Gerasimov, C. Hölzer
   A. Katbashev, J. Kohn, J. Koopman, C. Lavigne, S. Lehtola, F. März, M. Müller,
   F. Musil, H. Neugebauer, J. Pisarek, C. Plett, P. Pracht, F. Pultar,
   J. Seibert, P. Shushkov, S. Spicher, M. Stahn, M. Steiner, T. Strunk,
   J. Stückrath, T. Rose, and J. Unsleber
   
 * started run on 2026/08/31 at 21:57:53.166     
   ID    Z sym.   atoms
    1    6 C      1-5, 7, 9, 15, 16, 18-21, 23, 24, 26, 28, 29, 31, 32, 62-68
    2    7 N      6, 8, 10, 14, 25, 27
    3   16 S      11
    4    8 O      12, 13, 69-82
    5    9 F      17, 22, 30
    6    1 H      33-49
    7   22 Ti     50-61

           -------------------------------------------------
          |                Calculation Setup                |
           -------------------------------------------------

          program call               : "c:\Users\Andre\Proyectos doctorado\kras-pancreatic-gC3N4-ai\tools\xtb\xtb-6.7.1\bin\xtb.exe" "c:\Users\Andre\Proyectos doctorado\mxene-glioblastoma-qsar-ai\calculations\gbm\Dabrafenib\Dabrafenib_Ti12C7O14_clean_complex.xyz" --gfn 2 --sp --chrg 0 --uhf 0 --etemp 500 --acc 1.0 --iterations 500 --norestart
          coordinate file            : c:\Users\Andre\Proyectos doctorado\mxene-glioblastoma-qsar-ai\calculations\gbm\Dabrafenib\Dabrafenib_Ti12C7O14_clean_complex.xyz
          omp threads                :                    16


molecular fragmentation (1/2 indicates fragments):
111111111111111111111111111111111111111111111111122222222222222222222222
2222222222
# atoms in fragment 1/2:    49    33
 fragment masses (1/2) :      462.45      882.47
CMA distance (Bohr)    :  19.184
constraining FC (au)   :  0.0500

           -------------------------------------------------
          |                 G F N 2 - x T B                 |
           -------------------------------------------------

        Reference                      10.1021/acs.jctc.8b01176
      * Hamiltonian:
        H0-scaling (s, p, d)           1.850000    2.230000    2.230000
        zeta-weighting                 0.500000
      * Dispersion:
        s8                             2.700000
        a1                             0.520000
        a2                             5.000000
        s9                             5.000000
      * Repulsion:
        kExp                           1.500000    1.000000
        rExp                           1.000000
      * Coulomb:
        alpha                          2.000000
        third order                    shell-resolved
        anisotropic                    true
        a3                             3.000000
        a5                             4.000000
        cn-shift                       1.200000
        cn-exp                         4.000000
        max-rad                        5.000000


          ...................................................
          :                      SETUP                      :
          :.................................................:
          :  # basis functions                 355          :
          :  # atomic orbitals                 342          :
          :  # shells                          160          :
          :  # electrons                       326          :
          :  max. iterations                   500          :
          :  Hamiltonian                  GFN2-xTB          :
          :  restarted?                      false          :
          :  GBSA solvation                  false          :
          :  PC potential                    false          :
          :  electronic temp.          500.0000000     K    :
          :  accuracy                    1.0000000          :
          :  -> integral cutoff          0.2500000E+02      :
          :  -> integral neglect         0.1000000E-07      :
          :  -> SCF convergence          0.1000000E-05 Eh   :
          :  -> wf. convergence          0.1000000E-03 e    :
          :  Broyden damping             0.4000000          :
          :  net charge                          0          :
          :  unpaired electrons                  0          :
          ...................................................

 iter      E             dE          RMSdq      gap      omega  full diag
   1   -185.2421499 -0.185242E+03  0.139E+01    0.12       0.0  T
   2   -147.6904808  0.375517E+02  0.143E+01    0.05       1.0  T
   3     35.9316017  0.183622E+03  0.288E+01    0.10       1.0  T
   4   -145.7461429 -0.181678E+03  0.138E+01    0.01       1.0  T
   5    -62.5745941  0.831715E+02  0.184E+01    0.06       1.0  T
   6   -187.0928959 -0.124518E+03  0.702E+00    0.05       1.0  T
   7   -185.0547645  0.203813E+01  0.678E+00    0.37       1.0  T
   8   -187.6198324 -0.256507E+01  0.563E+00    0.09       1.0  T
   9   -186.4737205  0.114611E+01  0.560E+00    0.06       1.0  T
  10   -179.9656586  0.650806E+01  0.635E+00    0.08       1.0  T
  11   -183.0812930 -0.311563E+01  0.556E+00    0.05       1.0  T
  12   -187.0270475 -0.394575E+01  0.435E+00    0.19       1.0  T
  13   -186.9017176  0.125330E+00  0.356E+00    0.04       1.0  T
  14   -187.2112243 -0.309507E+00  0.304E+00    0.17       1.0  T
  15   -187.5691362 -0.357912E+00  0.257E+00    0.16       1.0  T
  16   -188.0256195 -0.456483E+00  0.250E+00    0.02       1.0  T
  17   -188.1536839 -0.128064E+00  0.248E+00    0.04       1.0  T
  18   -188.1687264 -0.150424E-01  0.257E+00    0.10       1.0  T
  19   -188.1747559 -0.602958E-02  0.246E+00    0.04       1.0  T
  20   -188.1991233 -0.243674E-01  0.241E+00    0.06       1.0  T
  21   -187.8350511  0.364072E+00  0.238E+00    0.13       1.0  T
  22   -188.2007246 -0.365674E+00  0.173E+00    0.01       1.0  T
  23   -188.3529071 -0.152183E+00  0.159E+00    0.12       1.0  T
  24   -188.3984919 -0.455848E-01  0.120E+00    0.18       1.0  T
  25   -188.4163763 -0.178844E-01  0.106E+00    0.28       1.0  T
  26   -188.4236469 -0.727060E-02  0.972E-01    0.34       1.0  T
  27   -188.4305773 -0.693041E-02  0.861E-01    0.47       1.0  T
  28   -188.4413163 -0.107390E-01  0.574E-01    0.71       1.0  T
  29   -188.4446089 -0.329265E-02  0.467E-01    0.65       1.0  T
  30   -188.4480755 -0.346655E-02  0.357E-01    0.62       1.0  T
  31   -188.4499383 -0.186283E-02  0.295E-01    0.63       1.0  T
  32   -188.4510658 -0.112750E-02  0.257E-01    0.65       1.0  T
  33   -188.4525006 -0.143476E-02  0.191E-01    0.66       1.0  T
  34   -188.4530905 -0.589905E-03  0.159E-01    0.69       1.0  T
  35   -188.4533481 -0.257641E-03  0.129E-01    0.67       1.0  T
  36   -188.4536791 -0.331021E-03  0.102E-01    0.66       1.0  T
  37   -188.4539132 -0.234030E-03  0.869E-02    0.65       1.0  T
  38   -188.4540173 -0.104165E-03  0.787E-02    0.66       1.0  T
  39   -188.4542103 -0.192974E-03  0.618E-02    0.65       1.0  T
  40   -188.4544083 -0.197988E-03  0.544E-02    0.56       1.0  T
  41   -188.4545438 -0.135533E-03  0.461E-02    0.49       1.0  T
  42   -188.4546078 -0.639547E-04  0.403E-02    0.46       1.0  T
  43   -188.4546428 -0.350375E-04  0.347E-02    0.44       1.0  T
  44   -188.4546526 -0.981958E-05  0.323E-02    0.44       1.0  T
  45   -188.4546734 -0.207436E-04  0.295E-02    0.43       1.0  T
  46   -188.4547016 -0.281781E-04  0.259E-02    0.41       1.0  T
  47   -188.4547388 -0.371811E-04  0.202E-02    0.39       1.0  T
  48   -188.4547464 -0.764716E-05  0.186E-02    0.39       1.0  T
  49   -188.4547606 -0.141768E-04  0.149E-02    0.38       1.0  T
  50   -188.4547748 -0.142683E-04  0.110E-02    0.37       1.0  T
  51   -188.4547787 -0.387920E-05  0.788E-03    0.36       1.4  T
  52   -188.4547826 -0.387956E-05  0.364E-03    0.35       3.0  T
  53   -188.4547829 -0.324494E-06  0.214E-03    0.36       5.2  T
  54   -188.4547831 -0.208476E-06  0.153E-03    0.35       7.2  T
  55   -188.4547832 -0.490266E-07  0.106E-03    0.35      10.4  T
  56   -188.4547832 -0.193113E-07  0.106E-03    0.35      10.4  T
  57   -188.4547832 -0.168975E-07  0.859E-04    0.35      12.9  T
  58   -188.4547832 -0.292336E-07  0.618E-04    0.35      17.9  T

   *** convergence criteria satisfied after 58 iterations ***

         #    Occupation            Energy/Eh            Energy/eV
      -------------------------------------------------------------
         1        2.0000           -0.8363257             -22.7576
       ...           ...                  ...                  ...
       157        2.0000           -0.3655590              -9.9474
       158        2.0000           -0.3576607              -9.7324
       159        2.0000           -0.3571805              -9.7194
       160        2.0000           -0.3523368              -9.5876
       161        2.0000           -0.3444854              -9.3739
       162        2.0000           -0.3302755              -8.9873
       163        1.9675           -0.3159125              -8.5964 (HOMO)
       164        0.0323           -0.3029085              -8.2426 (LUMO)
       165        0.0001           -0.2929176              -7.9707
       166        0.0000           -0.2924428              -7.9578
       167        0.0000           -0.2911977              -7.9239
       168        0.0000           -0.2910430              -7.9197
       ...           ...                  ...                  ...
       342                         13.3613420             363.5806
      -------------------------------------------------------------
                  HL-Gap            0.0130040 Eh            0.3539 eV
             Fermi-level           -0.3094143 Eh           -8.4196 eV

 SCC (total)                   0 d,  0 h,  0 min, 14.180 sec
 SCC setup                      ...        0 min,  0.003 sec (  0.021%)
 Dispersion                     ...        0 min,  0.003 sec (  0.021%)
 classical contributions        ...        0 min,  0.000 sec (  0.000%)
 integral evaluation            ...        0 min,  0.013 sec (  0.092%)
 iterations                     ...        0 min, 14.092 sec ( 99.379%)
 molecular gradient             ...        0 min,  0.061 sec (  0.430%)
 printout                       ...        0 min,  0.008 sec (  0.056%)

         :::::::::::::::::::::::::::::::::::::::::::::::::::::
         ::                     SUMMARY                     ::
         :::::::::::::::::::::::::::::::::::::::::::::::::::::
         :: total energy            -186.685914565170 Eh    ::
         :: gradient norm              0.122908186479 Eh/a0 ::
         :: HOMO-LUMO gap              0.353855906218 eV    ::
         ::.................................................::
         :: SCC energy              -188.451775158961 Eh    ::
         :: -> isotropic ES            1.042790716943 Eh    ::
         :: -> anisotropic ES         -0.389828222130 Eh    ::
         :: -> anisotropic XC         -0.028121997941 Eh    ::
         :: -> dispersion             -0.152633243996 Eh    ::
         :: repulsion energy           1.765860593792 Eh    ::
         :: add. restraining           0.000000000000 Eh    ::
         :: total charge              -0.000000000309 e     ::
         :::::::::::::::::::::::::::::::::::::::::::::::::::::

           -------------------------------------------------
          |                Property Printout                |
           -------------------------------------------------

    * Orbital Energies and Occupations

         #    Occupation            Energy/Eh            Energy/eV
      -------------------------------------------------------------
         1        2.0000           -0.8363257             -22.7576
       ...           ...                  ...                  ...
       151        2.0000           -0.3932558             -10.7010
       152        2.0000           -0.3886521             -10.5758
       153        2.0000           -0.3879940             -10.5579
       154        2.0000           -0.3843628             -10.4590
       155        2.0000           -0.3762646             -10.2387
       156        2.0000           -0.3678637             -10.0101
       157        2.0000           -0.3655590              -9.9474
       158        2.0000           -0.3576607              -9.7324
       159        2.0000           -0.3571805              -9.7194
       160        2.0000           -0.3523368              -9.5876
       161        2.0000           -0.3444854              -9.3739
       162        2.0000           -0.3302755              -8.9873
       163        1.9675           -0.3159125              -8.5964 (HOMO)
       164        0.0323           -0.3029085              -8.2426 (LUMO)
       165        0.0001           -0.2929176              -7.9707
       166        0.0000           -0.2924428              -7.9578
       167        0.0000           -0.2911977              -7.9239
       168        0.0000           -0.2910430              -7.9197
       169        0.0000           -0.2901652              -7.8958
       170        0.0000           -0.2867179              -7.8020
       171                         -0.2815958              -7.6626
       172                         -0.2804560              -7.6316
       173                         -0.2785897              -7.5808
       174                         -0.2784416              -7.5768
       ...                                ...                  ...
       342                         13.3613420             363.5806
      -------------------------------------------------------------
                  HL-Gap            0.0130040 Eh            0.3539 eV
             Fermi-level           -0.3094143 Eh           -8.4196 eV

     #   Z          covCN         q      C6AA      α(0)
     1   6 C        3.755    -0.116    22.769     6.804
     2   6 C        3.901     0.026    20.077     6.369
     3   6 C        3.756    -0.114    22.735     6.798
     4   6 C        3.755    -0.125    22.959     6.832
     5   6 C        2.978     0.208    23.604     7.969
     6   7 N        1.839    -0.275    27.987     7.840
     7   6 C        3.007     0.207    23.602     7.969
     8   7 N        1.883    -0.246    27.258     7.740
     9   6 C        3.031     0.111    25.519     8.286
    10   7 N        1.874    -0.263    27.696     7.801
    11  16 S        3.749     1.163   102.105    17.007
    12   8 O        0.860    -0.559    25.130     6.721
    13   8 O        0.860    -0.569    25.358     6.752
    14   7 N        2.685    -0.325    28.369     7.910
    15   6 C        2.945     0.051    26.853     8.499
    16   6 C        2.777     0.159    24.550     8.115
    17   9 F        0.787    -0.219    11.429     3.993
    18   6 C        2.913    -0.053    29.328     8.880
    19   6 C        2.913    -0.037    28.928     8.820
    20   6 C        2.911    -0.054    29.345     8.883
    21   6 C        2.781     0.153    24.660     8.134
    22   9 F        0.787    -0.210    11.338     3.978
    23   6 C        3.079    -0.030    28.652     8.776
    24   6 C        3.000     0.010    27.779     8.646
    25   7 N        2.786    -0.082    22.840     7.098
    26   6 C        3.087     0.126    25.157     8.222
    27   7 N        1.828    -0.240    27.111     7.716
    28   6 C        2.925     0.033    27.264     8.563
    29   6 C        2.767     0.160    24.521     8.110
    30   9 F        0.787    -0.210    11.335     3.977
    31   6 C        2.923    -0.036    28.886     8.814
    32   6 C        3.093    -0.007    28.086     8.686
    33   1 H        0.924     0.058     2.222     2.331
    34   1 H        0.924     0.052     2.300     2.372
    35   1 H        0.924     0.045     2.386     2.415
    36   1 H        0.924     0.043     2.408     2.427
    37   1 H        0.924     0.055     2.265     2.353
    38   1 H        0.924     0.056     2.246     2.344
    39   1 H        0.924     0.052     2.291     2.367
    40   1 H        0.924     0.053     2.280     2.361
    41   1 H        0.924     0.052     2.300     2.372
    42   1 H        0.861     0.223     0.996     1.563
    43   1 H        0.925     0.081     1.966     2.193
    44   1 H        0.925     0.071     2.079     2.255
    45   1 H        0.925     0.079     1.984     2.203
    46   1 H        0.925     0.082     1.956     2.187
    47   1 H        0.860     0.195     1.130     1.665
    48   1 H        0.925     0.072     2.065     2.247
    49   1 H        0.925     0.092     1.858     2.131
    50  22 Ti       3.637     1.052   101.775    24.486
    51  22 Ti       6.855     1.553    84.038    14.883
    52  22 Ti       3.227     1.050   102.617    24.736
    53  22 Ti       5.860     1.381    85.662    15.027
    54  22 Ti       5.627     1.126    88.162    15.244
    55  22 Ti       3.541     1.034   102.535    24.679
    56  22 Ti       2.352     0.883   202.619    34.853
    57  22 Ti       6.011     1.350    85.958    15.053
    58  22 Ti       3.414     1.011   103.023    24.776
    59  22 Ti       5.519     1.100    88.416    15.266
    60  22 Ti       5.687     1.192    87.503    15.187
    61  22 Ti       3.581     1.028   102.443    24.639
    62   6 C        2.246    -0.259    37.685     9.946
    63   6 C        2.142    -0.255    38.319    10.006
    64   6 C        2.248    -0.019    30.597     8.962
    65   6 C        1.838    -0.208    37.274     9.863
    66   6 C        1.894    -0.225    37.762     9.925
    67   6 C        1.821    -0.345    42.096    10.483
    68   6 C        2.631    -0.403    39.878    10.329
    69   8 O        1.554    -0.849    32.069     7.640
    70   8 O        1.464    -0.881    33.230     7.770
    71   8 O        1.557    -0.957    35.629     8.053
    72   8 O        1.523    -1.009    37.549     8.265
    73   8 O        1.523    -0.914    34.221     7.890
    74   8 O        1.458    -0.825    31.466     7.560
    75   8 O        1.455    -0.799    30.700     7.468
    76   8 O        0.727    -0.635    27.064     6.971
    77   8 O        1.453    -0.864    32.701     7.707
    78   8 O        1.476    -0.800    30.680     7.467
    79   8 O        1.603    -0.946    35.203     8.008
    80   8 O        1.547    -0.970    36.114     8.107
    81   8 O        1.700    -0.817    30.980     7.515
    82   8 O        1.453    -0.781    30.172     7.403

 Mol. C6AA /au·bohr⁶  :     179121.274093
 Mol. C8AA /au·bohr⁸  :    7710136.521519
 Mol. α(0) /au        :        714.663151


Wiberg/Mayer (AO) data.
largest (>0.10) Wiberg bond orders for each atom

 ---------------------------------------------------------------------------
     #   Z sym  total        # sym  WBO       # sym  WBO       # sym  WBO
 ---------------------------------------------------------------------------
     1   6 C    3.990 --    35 H    0.986     2 C    0.985    33 H    0.983
                            34 H    0.983
     2   6 C    3.986 --     4 C    0.997     1 C    0.985     5 C    0.976
                             3 C    0.975
     3   6 C    3.978 --    37 H    0.984    38 H    0.980     2 C    0.975
                            36 H    0.972
     4   6 C    3.978 --     2 C    0.997    40 H    0.985    41 H    0.983
                            39 H    0.972
     5   6 C    3.939 --     6 N    1.418    10 N    1.357     2 C    0.976
     6   7 N    3.038 --     5 C    1.418     7 C    1.336
     7   6 C    3.946 --     6 N    1.336     8 N    1.332    23 C    1.103
     8   7 N    3.068 --     9 C    1.440     7 C    1.332
     9   6 C    3.947 --     8 N    1.440    10 N    1.410    11 S    0.715
    10   7 N    3.038 --     9 C    1.410     5 C    1.357
    11  16 S    4.912 --    12 O    1.610    13 O    1.603    14 N    0.896
                             9 C    0.715
    12   8 O    1.927 --    11 S    1.610    13 O    0.115
    13   8 O    1.917 --    11 S    1.603    12 O    0.115
    14   7 N    3.259 --    15 C    1.081    42 H    0.919    11 S    0.896
    15   6 C    3.967 --    16 C    1.336    21 C    1.330    14 N    1.081
    16   6 C    3.880 --    18 C    1.398    15 C    1.336    17 F    0.962
    17   9 F    1.102 --    16 C    0.962
    18   6 C    3.983 --    19 C    1.435    16 C    1.398    43 H    0.964
    19   6 C    3.982 --    18 C    1.435    20 C    1.431    44 H    0.968
    20   6 C    3.984 --    19 C    1.431    21 C    1.404    45 H    0.964
    21   6 C    3.886 --    20 C    1.404    15 C    1.330    22 F    0.968
    22   9 F    1.105 --    21 C    0.968
    23   6 C    3.969 --    24 C    1.479    32 C    1.175     7 C    1.103
    24   6 C    3.944 --    23 C    1.479    25 N    1.258    46 H    0.959
    25   7 N    3.573 --    24 C    1.258    26 C    1.168    47 H    0.933
    26   6 C    3.960 --    27 N    1.345    32 C    1.254    25 N    1.168
    27   7 N    3.034 --    28 C    1.444    26 C    1.345    31 C    0.115
    28   6 C    3.977 --    27 N    1.444    29 C    1.361    48 H    0.961
    29   6 C    3.887 --    31 C    1.424    28 C    1.361    30 F    0.970
    30   9 F    1.103 --    29 C    0.970
    31   6 C    3.982 --    29 C    1.424    32 C    1.345    49 H    0.961
                            27 N    0.115
    32   6 C    3.986 --    31 C    1.345    26 C    1.254    23 C    1.175
    33   1 H    0.997 --     1 C    0.983
    34   1 H    0.997 --     1 C    0.983
    35   1 H    0.998 --     1 C    0.986
    36   1 H    0.998 --     3 C    0.972
    37   1 H    0.997 --     3 C    0.984
    38   1 H    0.996 --     3 C    0.980
    39   1 H    0.997 --     4 C    0.972
    40   1 H    0.997 --     4 C    0.985
    41   1 H    0.996 --     4 C    0.983
    42   1 H    0.950 --    14 N    0.919
    43   1 H    0.993 --    18 C    0.964
    44   1 H    0.995 --    19 C    0.968
    45   1 H    0.993 --    20 C    0.964
    46   1 H    0.992 --    24 C    0.959
    47   1 H    0.961 --    25 N    0.933
    48   1 H    0.994 --    28 C    0.961
    49   1 H    0.991 --    31 C    0.961
    50  22 Ti   2.820 --    69 O    0.842    70 O    0.813    56 Ti   0.328
                            51 Ti   0.200    53 Ti   0.196    55 Ti   0.103
    51  22 Ti   3.850 --    70 O    0.751    73 O    0.743    71 O    0.691
                            72 O    0.606    50 Ti   0.200    52 Ti   0.188
                            54 Ti   0.138    55 Ti   0.138
    52  22 Ti   2.720 --    78 O    0.962    71 O    0.598    58 Ti   0.371
                            51 Ti   0.188    56 Ti   0.140    73 O    0.110
    53  22 Ti   3.917 --    74 O    0.936    62 C    0.721    69 O    0.705
                            72 O    0.563    55 Ti   0.210    50 Ti   0.196
                            59 Ti   0.178    79 O    0.124
    54  22 Ti   4.065 --    68 C    0.887    75 O    0.777    66 C    0.742
                            73 O    0.601    60 Ti   0.283    55 Ti   0.173
                            67 C    0.157    63 C    0.152    51 Ti   0.138
    55  22 Ti   2.658 --    75 O    0.963    74 O    0.706    53 Ti   0.210
                            54 Ti   0.173    51 Ti   0.138    70 O    0.122
                            50 Ti   0.103
    56  22 Ti   3.766 --    76 O    1.997    57 Ti   0.608    50 Ti   0.328
                            71 O    0.153    69 O    0.147    52 Ti   0.140
                            79 O    0.112
    57  22 Ti   4.014 --    79 O    0.800    77 O    0.753    80 O    0.713
                            56 Ti   0.608    81 O    0.195    58 Ti   0.166
                            61 Ti   0.148    59 Ti   0.141
    58  22 Ti   2.744 --    77 O    0.834    78 O    0.764    52 Ti   0.371
                            61 Ti   0.221    57 Ti   0.166    60 Ti   0.130
    59  22 Ti   4.002 --    67 C    1.051    65 C    0.726    81 O    0.616
                            79 O    0.443    68 C    0.226    61 Ti   0.200
                            53 Ti   0.178    62 C    0.155    57 Ti   0.141
    60  22 Ti   4.076 --    82 O    0.968    63 C    0.670    68 C    0.650
                            80 O    0.442    54 Ti   0.283    61 Ti   0.211
                            67 C    0.139    58 Ti   0.130    78 O    0.114
    61  22 Ti   2.789 --    81 O    0.899    82 O    0.733    58 Ti   0.221
                            60 Ti   0.211    59 Ti   0.200    57 Ti   0.148
    62   6 C    3.843 --    65 C    2.739    53 Ti   0.721    59 Ti   0.155
    63   6 C    3.782 --    66 C    2.732    60 Ti   0.670    54 Ti   0.152
    64   6 C    3.979 --    67 C    2.009    68 C    1.606
    65   6 C    3.705 --    62 C    2.739    59 Ti   0.726
    66   6 C    3.747 --    63 C    2.732    54 Ti   0.742
    67   6 C    3.751 --    64 C    2.009    59 Ti   1.051    54 Ti   0.157
                            60 Ti   0.139
    68   6 C    3.809 --    64 C    1.606    54 Ti   0.887    60 Ti   0.650
                            59 Ti   0.226
    69   8 O    1.931 --    50 Ti   0.842    53 Ti   0.705    56 Ti   0.147
    70   8 O    1.891 --    50 Ti   0.813    51 Ti   0.751    55 Ti   0.122
    71   8 O    1.782 --    51 Ti   0.691    52 Ti   0.598    56 Ti   0.153
    72   8 O    1.716 --    51 Ti   0.606    53 Ti   0.563
    73   8 O    1.845 --    51 Ti   0.743    54 Ti   0.601    52 Ti   0.110
    74   8 O    1.966 --    53 Ti   0.936    55 Ti   0.706
    75   8 O    2.010 --    55 Ti   0.963    54 Ti   0.777
    76   8 O    2.172 --    56 Ti   1.997
    77   8 O    1.911 --    58 Ti   0.834    57 Ti   0.753
    78   8 O    2.007 --    52 Ti   0.962    58 Ti   0.764    60 Ti   0.114
    79   8 O    1.798 --    57 Ti   0.800    59 Ti   0.443    53 Ti   0.124
                            56 Ti   0.112
    80   8 O    1.771 --    57 Ti   0.713    60 Ti   0.442
    81   8 O    1.986 --    61 Ti   0.899    59 Ti   0.616    57 Ti   0.195
    82   8 O    2.031 --    60 Ti   0.968    61 Ti   0.733
 ---------------------------------------------------------------------------

Topologies differ in total number of bonds
Writing topology from bond orders to xtbtopo.mol

molecular dipole:
                 x           y           z       tot (Debye)
 q only:        0.524      -2.827      -4.369
   full:       -0.504      -3.020      -3.558      11.930
molecular quadrupole (traceless):
                xx          xy          yy          xz          yz          zz
 q only:       60.292       0.080      42.142     -31.323     -66.770    -102.434
  q+dip:       70.676      -2.063      19.484       6.589     -85.749     -90.159
   full:       72.820       1.330      20.189       2.759     -83.003     -93.009


           -------------------------------------------------
          | TOTAL ENERGY             -186.685914565170 Eh   |
          | GRADIENT NORM               0.122908186479 Eh/α |
          | HOMO-LUMO GAP               0.353855906218 eV   |
           -------------------------------------------------

------------------------------------------------------------------------
 * finished run on 2026/08/31 at 21:58:07.409     
------------------------------------------------------------------------
 total:
 * wall-time:     0 d,  0 h,  0 min, 14.240 sec
 *  cpu-time:     0 d,  0 h,  0 min, 29.516 sec
 * ratio c/w:     2.073 speedup
 SCF:
 * wall-time:     0 d,  0 h,  0 min, 14.181 sec
 *  cpu-time:     0 d,  0 h,  0 min, 29.391 sec
 * ratio c/w:     2.073 speedup

normal termination of xtb
