49
Dabrafenib conformer
C     -0.175577     -4.162602      0.297793
C     -0.359850     -3.107452     -0.809086
C      0.918563     -3.026466     -1.660272
C     -1.529647     -3.555330     -1.707597
C     -0.616517     -1.736383     -0.187144
N     -1.583880     -0.970064     -0.701287
C     -1.741028      0.244748     -0.157939
N     -1.018778      0.739262      0.835081
C     -0.082058     -0.111482      1.251153
N      0.182146     -1.345693      0.802507
S      0.998073      0.498404      2.551739
O      1.285370      1.904500      2.337214
O      0.445192      0.040567      3.814157
N      2.446657     -0.363944      2.372551
C      3.496140      0.154654      1.544168
C      3.301269      0.680622      0.264900
F      2.076059      0.750174     -0.272756
C      4.377429      1.128893     -0.503166
C      5.677226      1.038763     -0.004965
C      5.894108      0.489860      1.257524
C      4.808820      0.047488      2.012433
F      5.038272     -0.490771      3.220917
C     -2.789927      1.095184     -0.706883
C     -3.684651      0.672088     -1.680450
N     -4.534151      1.706808     -1.968577
C     -4.211942      2.794974     -1.208748
N     -4.864805      3.972072     -1.265694
C     -4.350892      4.893229     -0.414222
C     -3.275122      4.690482      0.435847
F     -2.852367      5.679157      1.234417
C     -2.634036      3.457052      0.457409
C     -3.124369      2.456746     -0.404460
H      0.690404     -3.941300      0.932598
H     -0.018551     -5.159904     -0.129030
H     -1.056550     -4.211717      0.948665
H      0.819879     -2.278151     -2.455664
H      1.789171     -2.746407     -1.055294
H      1.140845     -3.989774     -2.133224
H     -1.680609     -2.867808     -2.548255
H     -2.469314     -3.602737     -1.144577
H     -1.345063     -4.549927     -2.129877
H      2.721926     -0.815794      3.245545
H      4.191255      1.542148     -1.490632
H      6.516628      1.388568     -0.601544
H      6.899123      0.401593      1.659635
H     -3.784965     -0.279189     -2.187715
H     -5.291200      1.696665     -2.636690
H     -4.849008      5.858444     -0.427647
H     -1.789698      3.289753      1.117143
