89
Drug@Ti3C2O2 complex
C     -5.735202     -2.929145      4.395806
C     -5.566050     -1.803939      5.440149
C     -5.734012     -2.426452      6.838429
C     -6.673094     -0.761706      5.197189
C     -4.185019     -1.167795      5.295296
N     -3.290296     -1.542310      4.401847
C     -2.145960     -0.789218      4.523140
N     -1.143841     -1.098185      3.656152
C      0.222289     -1.167838      4.017903
C      0.719079     -2.283370      4.706698
C      2.056426     -2.332372      5.110767
C      2.906602     -1.263211      4.828247
N      4.246325     -1.304106      5.315684
S      4.604458     -0.423800      6.717786
O      3.383027     -0.321956      7.489796
O      5.781343     -1.051232      7.283644
C      5.096025      1.149914      6.151868
C      5.977976      1.256481      5.084738
F      6.487626      0.168406      4.490903
C      6.364058      2.508689      4.607028
C      5.868385      3.664993      5.208705
C      5.000902      3.557751      6.295537
C      4.625808      2.299911      6.767356
F      3.839401      2.245451      7.848937
C      2.405083     -0.148059      4.152479
F      3.201936      0.893685      3.874841
C      1.078661     -0.101559      3.735218
C     -2.167946      0.187666      5.501735
C     -1.192806      1.197972      5.892117
C     -1.175103      2.438492      5.251945
C     -0.219355      3.362792      5.636746
N      0.701227      3.134940      6.596235
C      0.662428      1.927138      7.202515
C     -0.255550      0.938253      6.892274
S     -3.676610      0.126821      6.318579
H     -6.720037     -3.403296      4.478664
H     -5.639097     -2.543964      3.373607
H     -4.979332     -3.712840      4.526151
H     -6.693663     -2.949149      6.924879
H     -4.938607     -3.151297      7.048439
H     -5.706594     -1.669244      7.629942
H     -6.664552      0.029294      5.955383
H     -7.665553     -1.226230      5.226485
H     -6.557922     -0.281005      4.218504
H     -1.391839     -1.942128      3.140669
H      0.056924     -3.110676      4.953836
H      2.413484     -3.194169      5.667724
H      4.734167     -2.198726      5.315796
H      7.048767      2.572754      3.766099
H      6.161476      4.644391      4.838493
H      4.612501      4.446695      6.785583
H      0.716158      0.776850      3.211402
H     -1.883980      2.679958      4.467433
H     -0.165795      4.340587      5.167179
H      1.416438      1.763256      7.968087
H     -0.221164     -0.014160      7.410215
Ti     -3.000000     -2.600000      1.250000
Ti      0.000000     -2.600000      1.250000
Ti      3.000000     -2.600000      1.250000
Ti     -1.500000      0.000000      1.250000
Ti      1.500000      0.000000      1.250000
Ti      0.000000      2.600000      1.250000
Ti     -3.000000     -2.600000     -1.250000
Ti      0.000000     -2.600000     -1.250000
Ti      3.000000     -2.600000     -1.250000
Ti     -1.500000      0.000000     -1.250000
Ti      1.500000      0.000000     -1.250000
Ti      0.000000      2.600000     -1.250000
C     -1.500000     -1.300000      0.000000
C      1.500000     -1.300000      0.000000
C      0.000000      1.300000      0.000000
C     -3.000000      0.000000      0.000000
C      3.000000      0.000000      0.000000
C     -1.500000      2.600000      0.000000
C      1.500000      2.600000      0.000000
O     -3.000000     -2.600000      2.450000
O      0.000000     -2.600000      2.450000
O      3.000000     -2.600000      2.450000
O     -1.500000      0.000000      2.450000
O      1.500000      0.000000      2.450000
O     -1.500000      2.600000      2.450000
O      1.500000      2.600000      2.450000
O     -3.000000     -2.600000     -2.450000
O      0.000000     -2.600000     -2.450000
O      3.000000     -2.600000     -2.450000
O     -1.500000      0.000000     -2.450000
O      1.500000      0.000000     -2.450000
O     -1.500000      2.600000     -2.450000
O      1.500000      2.600000     -2.450000
