103
Drug@Ti12C7O14 non-overlapping complex
C     -4.888624      0.542230     16.555342
C     -4.185648      1.462472     15.881238
C     -3.018890      1.190354     14.992871
O     -2.178599      2.071575     14.862035
N     -3.058551     -0.029992     14.374081
C     -2.132801     -0.600070     13.474148
C     -0.935988      0.004047     13.082553
C     -0.073531     -0.631665     12.178283
N      1.145456     -0.079578     11.746789
C      1.853252      1.080421     12.026543
N      1.402468      1.986327     12.902997
C      2.148449      3.083046     13.110766
C      3.343468      3.310241     12.482470
C      3.742460      2.327057     11.607404
C      4.989111      2.446083     10.863222
C      5.099486      2.055657      9.541627
N      6.373550      2.314608      9.119656
C      6.868684      2.043608      7.788744
C      7.116459      2.860815     10.144514
C      8.456660      3.279705     10.184514
C      8.954438      3.783985     11.388474
C      8.146657      3.862471     12.517246
C      6.812326      3.444144     12.467321
C      6.274187      2.943261     11.260261
N      3.009856      1.218850     11.362112
C     -0.438386     -1.902208     11.667702
O      0.467126     -2.453530     10.786187
C      0.147021     -3.719573     10.225802
C     -1.633438     -2.512149     12.062033
C     -2.492473     -1.870094     12.964003
N     -3.720430     -2.453601     13.409330
C     -3.442238     -3.611694     14.270916
C     -4.668168     -2.746140     12.304671
C     -5.238409     -1.451752     11.670522
N     -6.264264     -1.604085     10.620485
C     -5.752247     -2.275791      9.430568
C     -7.485611     -2.237323     11.104881
H     -5.702089      0.850295     17.205106
H     -4.665607     -0.517991     16.512850
H     -4.401777      2.519511     16.004990
H     -3.868197     -0.627470     14.507475
H     -0.670873      0.975870     13.480671
H      1.651659     -0.651023     11.082678
H      1.734241      3.794667     13.818676
H      3.910737      4.212679     12.655734
H      4.362225      1.620063      8.878715
H      7.699858      1.338020      7.865768
H      7.199570      2.985787      7.344403
H      6.070612      1.609161      7.181230
H      9.097463      3.212050      9.311328
H      9.990014      4.111292     11.444127
H      8.554539      4.246180     13.449054
H      6.203762      3.496688     13.365007
H     -0.776051     -3.670273      9.638882
H      0.957952     -3.998515      9.546096
H      0.084315     -4.489736     11.001502
H     -1.908721     -3.489040     11.686113
H     -3.022452     -4.452516     13.706978
H     -4.372181     -3.950895     14.740392
H     -2.753750     -3.344871     15.081304
H     -4.206008     -3.387436     11.545691
H     -5.502392     -3.317414     12.728948
H     -4.416744     -0.856899     11.251781
H     -5.655945     -0.824970     12.470121
H     -4.853519     -1.773010      9.056586
H     -6.491750     -2.235167      8.622901
H     -5.509798     -3.328089      9.613349
H     -8.270113     -2.182025     10.341728
H     -7.871082     -1.714636     11.987172
H     -7.340712     -3.291994     11.361883
Ti     -2.141866     -3.008818      2.119748
Ti      0.288991     -1.694759      1.432425
Ti      1.903098     -3.067749     -0.729322
Ti     -2.521502     -0.251928      1.303687
Ti      2.142050      0.499533      2.204434
Ti     -0.681448      0.189635      3.681230
Ti     -2.036770     -3.077740     -1.200512
Ti     -0.605340     -0.770900     -2.035132
Ti      1.945488     -1.587317     -3.412400
Ti     -1.878170      1.746573     -1.240030
Ti      2.412512      0.454231     -0.774247
Ti      0.817742      1.838452     -2.940004
C     -3.678414      1.281398      0.600737
C      4.128193      0.482847      0.387293
C      0.455479      2.267202      0.349695
C     -3.666709      2.118834     -0.313920
C      4.115962      0.632239      1.621354
C     -0.635167      2.741046     -0.118921
C      1.630072      1.780996      0.734224
O     -3.093456     -1.956907      1.037949
O     -0.487250     -2.605849      2.701203
O      0.314079     -2.888890      0.145001
O     -0.800785     -0.435934      0.971227
O      1.902865     -1.158331      1.469449
O     -2.322673     -0.113878      3.024800
O      1.013786      0.441598      3.568761
O     -1.772019     -4.587905     -1.652810
O      0.190605     -1.189189     -3.534030
O      2.831420     -2.170248     -1.918042
O     -2.054558     -0.224445     -1.337505
O      0.768511     -0.390574     -1.063664
O     -0.900039      1.649313     -2.818565
O      2.415313      1.357463     -2.264115
