      -----------------------------------------------------------      
     |                   =====================                   |     
     |                           x T B                           |     
     |                   =====================                   |     
     |                         S. Grimme                         |     
     |          Mulliken Center for Theoretical Chemistry        |     
     |                    University of Bonn                     |     
      -----------------------------------------------------------      

   * xtb version 6.7.1pre (5071a88) compiled by 'Marcel@Raven' on 2024-07-23

   xtb is free software: you can redistribute it and/or modify it under
   the terms of the GNU Lesser General Public License as published by
   the Free Software Foundation, either version 3 of the License, or
   (at your option) any later version.
   
   xtb is distributed in the hope that it will be useful,
   but WITHOUT ANY WARRANTY; without even the implied warranty of
   MERCHANTABILITY or FITNESS FOR A PARTICULAR PURPOSE.  See the
   GNU Lesser General Public License for more details.
   
   Cite this work as:
   * C. Bannwarth, E. Caldeweyher, S. Ehlert, A. Hansen, P. Pracht,
     J. Seibert, S. Spicher, S. Grimme, WIREs Comput. Mol. Sci., 2020, 11,
     e01493. DOI: 10.1002/wcms.1493
   
   for GFN2-xTB:
   * C. Bannwarth, S. Ehlert and S. Grimme., J. Chem. Theory Comput., 2019,
     15, 1652-1671. DOI: 10.1021/acs.jctc.8b01176
   for GFN1-xTB:
   * S. Grimme, C. Bannwarth, P. Shushkov, J. Chem. Theory Comput., 2017,
     13, 1989-2009. DOI: 10.1021/acs.jctc.7b00118
   for GFN0-xTB:
   * P. Pracht, E. Caldeweyher, S. Ehlert, S. Grimme, ChemRxiv, 2019, preprint.
     DOI: 10.26434/chemrxiv.8326202.v1
   for GFN-FF:
   * S. Spicher and S. Grimme, Angew. Chem. Int. Ed., 2020, 59, 15665-15673.
     DOI: 10.1002/anie.202004239
   
   for ALPB and GBSA implicit solvation:
   * S. Ehlert, M. Stahn, S. Spicher, S. Grimme, J. Chem. Theory Comput.,
     2021, 17, 4250-4261. DOI: 10.1021/acs.jctc.1c00471
   
   for ddCOSMO and CPCM-X implicit solvation:
   * M. Stahn, S. Ehlert, S. Grimme, J. Phys. Chem. A,
     2023, XX, XXXX-XXXX. DOI: 10.1021/acs.jpca.3c04382
   
   for DFT-D4:
   * E. Caldeweyher, C. Bannwarth and S. Grimme, J. Chem. Phys., 2017,
     147, 034112. DOI: 10.1063/1.4993215
   * E. Caldeweyher, S. Ehlert, A. Hansen, H. Neugebauer, S. Spicher,
     C. Bannwarth and S. Grimme, J. Chem. Phys., 2019, 150, 154122.
     DOI: 10.1063/1.5090222
   * E. Caldeweyher, J.-M. Mewes, S. Ehlert and S. Grimme, Phys. Chem. Chem. Phys.
     2020, 22, 8499-8512. DOI: 10.1039/D0CP00502A
   
   for sTDA-xTB:
   * S. Grimme and C. Bannwarth, J. Chem. Phys., 2016, 145, 054103.
     DOI: 10.1063/1.4959605
   
   in the mass-spec context:
   * V. Asgeirsson, C. Bauer and S. Grimme, Chem. Sci., 2017, 8, 4879.
     DOI: 10.1039/c7sc00601b
   * J. Koopman and S. Grimme, ACS Omega 2019, 4, 12, 15120-15133.
     DOI: 10.1021/acsomega.9b02011
   
   for metadynamics refer to:
   * S. Grimme, J. Chem. Theory Comput., 2019, 155, 2847-2862
     DOI: 10.1021/acs.jctc.9b00143
   
   for SPH calculations refer to:
   * S. Spicher and S. Grimme, J. Chem. Theory Comput., 2021, 17, 1701-1714
     DOI: 10.1021/acs.jctc.0c01306
   
   for ONIOM refer to:
   * C. Plett, A. Katbashev, S. Ehlert, S. Grimme, M. Bursch,
     Phys. Chem. Chem. Phys., 2023, 25, 17860-17868. DOI: 10.1039/D3CP02178E
   
   for DIPRO refer to:
   * J. Kohn, N. Gildemeister, S. Grimme, D. Fazzi, A. Hansen,
     J. Chem. Phys., 2023, just accepted.
   
   for PTB refer to:
   * S. Grimme, M. Mueller, A. Hansen, J. Chem. Phys., 2023, 158, 124111.
     DOI: 10.1063/5.0137838
   
   with help from (in alphabetical order)
   P. Atkinson, C. Bannwarth, F. Bohle, G. Brandenburg, E. Caldeweyher
   M. Checinski, S. Dohm, S. Ehlert, S. Ehrlich, I. Gerasimov, C. Hölzer
   A. Katbashev, J. Kohn, J. Koopman, C. Lavigne, S. Lehtola, F. März, M. Müller,
   F. Musil, H. Neugebauer, J. Pisarek, C. Plett, P. Pracht, F. Pultar,
   J. Seibert, P. Shushkov, S. Spicher, M. Stahn, M. Steiner, T. Strunk,
   J. Stückrath, T. Rose, and J. Unsleber
   
 * started run on 2026/08/31 at 21:54:23.520     
   ID    Z sym.   atoms
    1    6 C      1-3, 6-8, 10, 12-16, 18-24, 26, 28-30, 32-34, 36, 37, 83-89
    2    8 O      4, 27, 90-103
    3    7 N      5, 9, 11, 17, 25, 31, 35
    4    1 H      38-70
    5   22 Ti     71-82

           -------------------------------------------------
          |                Calculation Setup                |
           -------------------------------------------------

          program call               : "c:\Users\Andre\Proyectos doctorado\kras-pancreatic-gC3N4-ai\tools\xtb\xtb-6.7.1\bin\xtb.exe" "c:\Users\Andre\Proyectos doctorado\mxene-glioblastoma-qsar-ai\calculations\gbm\Osimertinib\Osimertinib_opt_orient_0deg.xyz" --opt vloose --gfn 2 --chrg 0 --uhf 0 --etemp 500 --acc 1.0 --iterations 500 --cycles 25 --norestart
          coordinate file            : c:\Users\Andre\Proyectos doctorado\mxene-glioblastoma-qsar-ai\calculations\gbm\Osimertinib\Osimertinib_opt_orient_0deg.xyz
          omp threads                :                    16


molecular fragmentation (1/2 indicates fragments):
111111111111111111111111111111111111111111111111111111111111111111111122
2222222222222222222222222222222
# atoms in fragment 1/2:    70    33
 fragment masses (1/2) :      499.61      882.47
CMA distance (Bohr)    :  19.085
constraining FC (au)   :  0.0500

           -------------------------------------------------
          |                 G F N 2 - x T B                 |
           -------------------------------------------------

        Reference                      10.1021/acs.jctc.8b01176
      * Hamiltonian:
        H0-scaling (s, p, d)           1.850000    2.230000    2.230000
        zeta-weighting                 0.500000
      * Dispersion:
        s8                             2.700000
        a1                             0.520000
        a2                             5.000000
        s9                             5.000000
      * Repulsion:
        kExp                           1.500000    1.000000
        rExp                           1.000000
      * Coulomb:
        alpha                          2.000000
        third order                    shell-resolved
        anisotropic                    true
        a3                             3.000000
        a5                             4.000000
        cn-shift                       1.200000
        cn-exp                         4.000000
        max-rad                        5.000000


          ...................................................
          :                      SETUP                      :
          :.................................................:
          :  # basis functions                 385          :
          :  # atomic orbitals                 373          :
          :  # shells                          185          :
          :  # electrons                       352          :
          :  max. iterations                   500          :
          :  Hamiltonian                  GFN2-xTB          :
          :  restarted?                      false          :
          :  GBSA solvation                  false          :
          :  PC potential                    false          :
          :  electronic temp.          500.0000000     K    :
          :  accuracy                    1.0000000          :
          :  -> integral cutoff          0.2500000E+02      :
          :  -> integral neglect         0.1000000E-07      :
          :  -> SCF convergence          0.1000000E-05 Eh   :
          :  -> wf. convergence          0.1000000E-03 e    :
          :  Broyden damping             0.4000000          :
          :  net charge                          0          :
          :  unpaired electrons                  0          :
          ...................................................

 iter      E             dE          RMSdq      gap      omega  full diag
   1   -195.3290729 -0.195329E+03  0.128E+01    0.01       0.0  T
   2   -139.5980430  0.557310E+02  0.148E+01    0.06       1.0  T
   3     90.6499595  0.230248E+03  0.274E+01    0.04       1.0  T
   4   -148.8376300 -0.239488E+03  0.137E+01    0.22       1.0  T
   5    -18.1319884  0.130706E+03  0.193E+01    0.01       1.0  T
   6   -196.4850166 -0.178353E+03  0.912E+00    0.05       1.0  T
   7   -195.3506451  0.113437E+01  0.757E+00    0.16       1.0  T
   8   -195.9267641 -0.576119E+00  0.611E+00    0.04       1.0  T
   9   -195.4488901  0.477874E+00  0.552E+00    0.01       1.0  T
  10   -193.4176610  0.203123E+01  0.551E+00    0.05       1.0  T
  11   -194.3136913 -0.896030E+00  0.668E+00    0.12       1.0  T
  12   -194.7178710 -0.404180E+00  0.674E+00    0.04       1.0  T
  13   -194.1470546  0.570816E+00  0.661E+00    0.10       1.0  T
  14   -195.6564684 -0.150941E+01  0.628E+00    0.01       1.0  T
  15   -196.1363928 -0.479924E+00  0.589E+00    0.08       1.0  T
  16   -192.9428089  0.319358E+01  0.596E+00    0.03       1.0  T
  17   -194.6748193 -0.173201E+01  0.508E+00    0.17       1.0  T
  18   -195.9792872 -0.130447E+01  0.461E+00    0.04       1.0  T
  19   -194.5576044  0.142168E+01  0.479E+00    0.19       1.0  T
  20   -196.5416275 -0.198402E+01  0.442E+00    0.17       1.0  T
  21   -195.1553861  0.138624E+01  0.425E+00    0.11       1.0  T
  22   -198.1870821 -0.303170E+01  0.347E+00    0.09       1.0  T
  23   -194.2390463  0.394804E+01  0.433E+00    0.09       1.0  T
  24   -196.4330813 -0.219404E+01  0.364E+00    0.04       1.0  T
  25   -195.2054241  0.122766E+01  0.697E+00    0.02       1.0  T
  26   -195.7780349 -0.572611E+00  0.674E+00    0.11       1.0  T
  27   -196.1671321 -0.389097E+00  0.519E+00    0.02       1.0  T
  28   -198.4746650 -0.230753E+01  0.299E+00    0.15       1.0  T
  29   -199.2942700 -0.819605E+00  0.249E+00    0.06       1.0  T
  30   -198.7873739  0.506896E+00  0.236E+00    0.04       1.0  T
  31   -199.4243025 -0.636929E+00  0.213E+00    0.22       1.0  T
  32   -199.4358237 -0.115212E-01  0.187E+00    0.23       1.0  T
  33   -199.4540244 -0.182007E-01  0.175E+00    0.29       1.0  T
  34   -199.4770948 -0.230704E-01  0.156E+00    0.34       1.0  T
  35   -199.4987815 -0.216868E-01  0.132E+00    0.45       1.0  T
  36   -199.5019746 -0.319306E-02  0.130E+00    0.49       1.0  T
  37   -199.5019401  0.344892E-04  0.130E+00    0.48       1.0  T
  38   -199.4998208  0.211924E-02  0.123E+00    0.49       1.0  T
  39   -199.5140158 -0.141950E-01  0.113E+00    0.52       1.0  T
  40   -199.5293846 -0.153688E-01  0.974E-01    0.53       1.0  T
  41   -199.5405921 -0.112075E-01  0.842E-01    0.49       1.0  T
  42   -199.5480203 -0.742819E-02  0.770E-01    0.36       1.0  T
  43   -199.5514790 -0.345877E-02  0.687E-01    0.31       1.0  T
  44   -199.5591652 -0.768615E-02  0.612E-01    0.28       1.0  T
  45   -199.5629509 -0.378566E-02  0.556E-01    0.28       1.0  T
  46   -199.5666636 -0.371279E-02  0.523E-01    0.33       1.0  T
  47   -199.5708675 -0.420384E-02  0.487E-01    0.36       1.0  T
  48   -199.5722694 -0.140186E-02  0.473E-01    0.39       1.0  T
  49   -199.5745652 -0.229583E-02  0.436E-01    0.43       1.0  T
  50   -199.5760329 -0.146767E-02  0.417E-01    0.47       1.0  T
  51   -199.5793564 -0.332358E-02  0.369E-01    0.56       1.0  T
  52   -199.5822949 -0.293849E-02  0.304E-01    0.44       1.0  T
  53   -199.5832219 -0.926991E-03  0.291E-01    0.39       1.0  T
  54   -199.5841869 -0.965026E-03  0.277E-01    0.37       1.0  T
  55   -199.5854411 -0.125415E-02  0.252E-01    0.39       1.0  T
  56   -199.5857960 -0.354862E-03  0.241E-01    0.40       1.0  T
  57   -199.5861665 -0.370575E-03  0.225E-01    0.41       1.0  T
  58   -199.5871631 -0.996538E-03  0.159E-01    0.55       1.0  T
  59   -199.5874705 -0.307391E-03  0.135E-01    0.59       1.0  T
  60   -199.5882502 -0.779746E-03  0.796E-02    0.60       1.0  T
  61   -199.5883702 -0.120003E-03  0.655E-02    0.65       1.0  T
  62   -199.5884263 -0.561408E-04  0.617E-02    0.67       1.0  T
  63   -199.5884510 -0.246264E-04  0.616E-02    0.67       1.0  T
  64   -199.5885464 -0.954547E-04  0.487E-02    0.66       1.0  T
  65   -199.5885760 -0.295801E-04  0.425E-02    0.66       1.0  T
  66   -199.5886235 -0.474906E-04  0.253E-02    0.64       1.0  T
  67   -199.5886543 -0.307770E-04  0.138E-02    0.63       1.0  T
  68   -199.5886625 -0.820336E-05  0.104E-02    0.63       1.0  T
  69   -199.5886643 -0.181671E-05  0.900E-03    0.63       1.1  T
  70   -199.5886660 -0.168114E-05  0.741E-03    0.62       1.3  T
  71   -199.5886676 -0.159171E-05  0.574E-03    0.62       1.7  T
  72   -199.5886684 -0.865921E-06  0.448E-03    0.62       2.2  T
  73   -199.5886687 -0.301856E-06  0.420E-03    0.62       2.3  T
  74   -199.5886692 -0.418866E-06  0.328E-03    0.62       3.0  T
  75   -199.5886693 -0.148173E-06  0.268E-03    0.62       3.7  T
  76   -199.5886694 -0.565952E-07  0.221E-03    0.62       4.5  T
  77   -199.5886694 -0.377866E-07  0.202E-03    0.61       4.9  T
  78   -199.5886695 -0.113112E-06  0.164E-03    0.62       6.0  T
  79   -199.5886696 -0.767390E-07  0.134E-03    0.62       7.4  T
  80   -199.5886696 -0.596542E-07  0.103E-03    0.62       9.6  T
  81   -199.5886697 -0.492938E-07  0.748E-04    0.62      13.2  T
  82   -199.5886697 -0.273165E-07  0.627E-04    0.62      15.7  T

   *** convergence criteria satisfied after 82 iterations ***

         #    Occupation            Energy/Eh            Energy/eV
      -------------------------------------------------------------
         1        2.0000           -0.8182286             -22.2651
       ...           ...                  ...                  ...
       170        2.0000           -0.3452846              -9.3957
       171        2.0000           -0.3430051              -9.3336
       172        2.0000           -0.3374972              -9.1838
       173        2.0000           -0.3364118              -9.1542
       174        2.0000           -0.3351035              -9.1186
       175        2.0000           -0.3210233              -8.7355
       176        1.9978           -0.3064173              -8.3380 (HOMO)
       177        0.0011           -0.2837453              -7.7211 (LUMO)
       178        0.0008           -0.2832553              -7.7078
       179        0.0002           -0.2814071              -7.6575
       180        0.0001           -0.2797978              -7.6137
       181        0.0000           -0.2776030              -7.5540
       ...           ...                  ...                  ...
       373                         13.3282929             362.6813
      -------------------------------------------------------------
                  HL-Gap            0.0226720 Eh            0.6169 eV
             Fermi-level           -0.2956571 Eh           -8.0452 eV

 SCC (total)                   0 d,  0 h,  0 min,  2.731 sec
 SCC setup                      ...        0 min,  0.001 sec (  0.037%)
 Dispersion                     ...        0 min,  0.003 sec (  0.110%)
 classical contributions        ...        0 min,  0.000 sec (  0.000%)
 integral evaluation            ...        0 min,  0.010 sec (  0.366%)
 iterations                     ...        0 min,  2.688 sec ( 98.425%)
 molecular gradient             ...        0 min,  0.027 sec (  0.989%)
 printout                       ...        0 min,  0.002 sec (  0.073%)

         :::::::::::::::::::::::::::::::::::::::::::::::::::::
         ::                     SUMMARY                     ::
         :::::::::::::::::::::::::::::::::::::::::::::::::::::
         :: total energy            -197.420836431269 Eh    ::
         :: gradient norm              0.094015809013 Eh/a0 ::
         :: HOMO-LUMO gap              0.616937168625 eV    ::
         ::.................................................::
         :: SCC energy              -199.586122515412 Eh    ::
         :: -> isotropic ES            0.997194447255 Eh    ::
         :: -> anisotropic ES         -0.364471654158 Eh    ::
         :: -> anisotropic XC         -0.001083195384 Eh    ::
         :: -> dispersion             -0.168335954500 Eh    ::
         :: repulsion energy           2.165286084144 Eh    ::
         :: add. restraining           0.000000000000 Eh    ::
         :: total charge              -0.000000000002 e     ::
         :::::::::::::::::::::::::::::::::::::::::::::::::::::

      ----------------------------------------------------------- 
     |                   =====================                   |
     |                        A N C O P T                        |
     |                   =====================                   |
     |               Approximate Normal Coordinate               |
     |                Rational Function Optimizer                |
      ----------------------------------------------------------- 
      ----------------------------------------------------------- 
     |                   =====================                   |
     |                        A N C O P T                        |
     |                   =====================                   |
     |               Approximate Normal Coordinate               |
     |                Rational Function Optimizer                |
      ----------------------------------------------------------- 

          ...................................................
          :                      SETUP                      :
          :.................................................:
          :   optimization level            normal          :
          :   max. optcycles                    25          :
          :   ANC micro-cycles                  20          :
          :   degrees of freedom               303          :
          :.................................................:
          :   RF solver                   davidson          :
          :   write xtbopt.log                true          :
          :   linear?                        false          :
          :   energy convergence         0.5000000E-05 Eh   :
          :   grad. convergence          0.1000000E-02 Eh/α :
          :   maxmium RF displ.          1.0000000          :
          :   Hlow (freq-cutoff)         0.1000000E-01      :
          :   Hmax (freq-cutoff)         5.0000000          :
          :   S6 in model hess.         20.0000000          :
          ...................................................

generating ANC from exact Hessian ...
Using Lindh-Hessian (1995)
 Shifting diagonal of input Hessian by   1.791464538626363E-002
 Lowest  eigenvalues of input Hessian
    0.010000    0.017284    0.017392    0.017428    0.017902    0.000000
    0.000000    0.000000    0.000000    0.000000    0.000000    0.017922
    0.017923    0.017975    0.018052    0.018086    0.018233    0.018289
 Highest eigenvalues
    2.117609    2.126430    2.205807    2.240884    2.262054    2.345284
 

........................................................................
.............................. CYCLE    1 ..............................
........................................................................

 iter      E             dE          RMSdq      gap      omega  full diag
   1   -199.5886697 -0.199589E+03  0.615E-04    0.62       0.0  T
   2   -199.5886697 -0.127453E-07  0.971E-04    0.62      10.1  T
   3   -199.5886698 -0.797283E-08  0.749E-04    0.62      13.2  T
     SCC iter.                  ...        0 min,  0.082 sec
     gradient                   ...        0 min,  0.023 sec
 * total energy  :  -197.4208365 Eh     change       -0.2924989E-07 Eh
   gradient norm :     0.0940166 Eh/α   predicted     0.0000000E+00 (-100.00%)
   displ. norm   :     0.3430798 α      lambda       -0.1746742E-01
   maximum displ.:     0.1302799 α      in ANC's #116, #95, #67, ...

........................................................................
.............................. CYCLE    2 ..............................
........................................................................

 iter      E             dE          RMSdq      gap      omega  full diag
   1   -199.6421048 -0.199642E+03  0.158E-01    0.62       0.0  T
   2   -199.6422322 -0.127315E-03  0.963E-02    0.62       1.0  T
   3   -199.6420089  0.223269E-03  0.708E-02    0.62       1.0  T
   4   -199.6420252 -0.163310E-04  0.615E-02    0.61       1.0  T
   5   -199.6423129 -0.287640E-03  0.119E-02    0.62       1.0  T
   6   -199.6423194 -0.650308E-05  0.699E-03    0.62       1.4  T
   7   -199.6423215 -0.215995E-05  0.304E-03    0.62       3.2  T
   8   -199.6423218 -0.302512E-06  0.171E-03    0.62       5.8  T
   9   -199.6423219 -0.105553E-06  0.985E-04    0.62      10.0  T
  10   -199.6423220 -0.169178E-07  0.650E-04    0.62      15.2  T
     SCC iter.                  ...        0 min,  0.298 sec
     gradient                   ...        0 min,  0.028 sec
 * total energy  :  -197.4330354 Eh     change       -0.1219898E-01 Eh
   gradient norm :     0.0376156 Eh/α   predicted    -0.9766519E-02 ( -19.94%)
   displ. norm   :     0.3106385 α      lambda       -0.5513710E-02
   maximum displ.:     0.1130181 α      in ANC's #67, #95, #116, ...

........................................................................
.............................. CYCLE    3 ..............................
........................................................................

 iter      E             dE          RMSdq      gap      omega  full diag
   1   -199.6723124 -0.199672E+03  0.107E-01    0.61       0.0  T
   2   -199.6723929 -0.805150E-04  0.654E-02    0.62       1.0  T
   3   -199.6723705  0.224638E-04  0.379E-02    0.61       1.0  T
   4   -199.6724115 -0.410578E-04  0.217E-02    0.63       1.0  T
   5   -199.6724339 -0.223942E-04  0.864E-03    0.61       1.1  T
   6   -199.6724383 -0.443271E-05  0.230E-03    0.62       4.3  T
   7   -199.6724383  0.759082E-07  0.207E-03    0.62       4.8  T
   8   -199.6724385 -0.200902E-06  0.153E-03    0.62       6.4  T
   9   -199.6724386 -0.101074E-06  0.652E-04    0.62      15.1  T
  10   -199.6724386 -0.566217E-08  0.411E-04    0.62      24.0  T
     SCC iter.                  ...        0 min,  0.458 sec
     gradient                   ...        0 min,  0.024 sec
 * total energy  :  -197.4362419 Eh     change       -0.3206427E-02 Eh
   gradient norm :     0.0104317 Eh/α   predicted    -0.3023343E-02 (  -5.71%)
   displ. norm   :     0.2154416 α      lambda       -0.9986130E-03
   maximum displ.:     0.0687730 α      in ANC's #37, #42, #21, ...

........................................................................
.............................. CYCLE    4 ..............................
........................................................................

 iter      E             dE          RMSdq      gap      omega  full diag
   1   -199.6773991 -0.199677E+03  0.118E-01    0.63       0.0  T
   2   -199.6774024 -0.324722E-05  0.491E-02    0.61       1.0  T
   3   -199.6772791  0.123261E-03  0.536E-02    0.63       1.0  T
   4   -199.6773951 -0.115963E-03  0.294E-02    0.62       1.0  T
   5   -199.6774371 -0.420131E-04  0.147E-02    0.62       1.0  T
   6   -199.6774397 -0.267154E-05  0.816E-03    0.62       1.2  T
   7   -199.6774408 -0.102859E-05  0.615E-03    0.62       1.6  T
   8   -199.6774424 -0.161443E-05  0.239E-03    0.62       4.1  T
   9   -199.6774424 -0.471820E-07  0.146E-03    0.62       6.7  T
  10   -199.6774424  0.295347E-08  0.109E-03    0.62       9.0  T
  11   -199.6774425 -0.233527E-07  0.738E-04    0.62      13.3  T
  12   -199.6774425 -0.163259E-07  0.509E-04    0.62      19.3  T
     SCC iter.                  ...        0 min,  0.433 sec
     gradient                   ...        0 min,  0.024 sec
 * total energy  :  -197.4367287 Eh     change       -0.4868119E-03 Eh
   gradient norm :     0.0135955 Eh/α   predicted    -0.5224891E-03 (   7.33%)
   displ. norm   :     0.4472481 α      lambda       -0.2077639E-02
   maximum displ.:     0.1477990 α      in ANC's #37, #21, #42, ...

........................................................................
.............................. CYCLE    5 ..............................
........................................................................

 iter      E             dE          RMSdq      gap      omega  full diag
   1   -199.6817379 -0.199682E+03  0.191E-01    0.61       0.0  T
   2   -199.6818979 -0.160062E-03  0.108E-01    0.63       1.0  T
   3   -199.6819552 -0.572652E-04  0.525E-02    0.62       1.0  T
   4   -199.6818942  0.609955E-04  0.491E-02    0.63       1.0  T
   5   -199.6819902 -0.960497E-04  0.278E-02    0.62       1.0  T
   6   -199.6820162 -0.259487E-04  0.122E-02    0.62       1.0  T
   7   -199.6820164 -0.170677E-06  0.104E-02    0.63       1.0  T
   8   -199.6820226 -0.626364E-05  0.367E-03    0.62       2.7  T
   9   -199.6820226  0.109112E-07  0.282E-03    0.62       3.5  T
  10   -199.6820227 -0.131325E-06  0.196E-03    0.62       5.0  T
  11   -199.6820229 -0.131294E-06  0.103E-03    0.62       9.6  T
  12   -199.6820229 -0.284060E-07  0.532E-04    0.62      18.5  T
  13   -199.6820229 -0.273479E-08  0.395E-04    0.62      25.0  T
     SCC iter.                  ...        0 min,  0.448 sec
     gradient                   ...        0 min,  0.033 sec
 * total energy  :  -197.4368742 Eh     change       -0.1454836E-03 Eh
   gradient norm :     0.0193325 Eh/α   predicted    -0.1246622E-02 ( 756.88%)
   displ. norm   :     0.3076651 α      lambda       -0.2112337E-02
   maximum displ.:     0.2520557 α      in ANC's #1, #20, #21, ...

........................................................................
.............................. CYCLE    6 ..............................
........................................................................

 iter      E             dE          RMSdq      gap      omega  full diag
   1   -199.6801579 -0.199680E+03  0.372E-01    0.59       0.0  T
   2   -199.6804272 -0.269294E-03  0.152E-01    0.60       1.0  T
   3   -199.6803951  0.320795E-04  0.946E-02    0.59       1.0  T
   4   -199.6804801 -0.850065E-04  0.617E-02    0.59       1.0  T
   5   -199.6804000  0.800565E-04  0.557E-02    0.60       1.0  T
   6   -199.6805635 -0.163521E-03  0.231E-02    0.59       1.0  T
   7   -199.6805458  0.177893E-04  0.241E-02    0.60       1.0  T
   8   -199.6805815 -0.357001E-04  0.763E-03    0.59       1.3  T
   9   -199.6805823 -0.833642E-06  0.591E-03    0.59       1.7  T
  10   -199.6805832 -0.915234E-06  0.403E-03    0.59       2.4  T
  11   -199.6805836 -0.424350E-06  0.213E-03    0.59       4.6  T
  12   -199.6805837 -0.879054E-07  0.115E-03    0.59       8.6  T
  13   -199.6805837 -0.138355E-07  0.834E-04    0.59      11.8  T
  14   -199.6805837 -0.412930E-08  0.556E-04    0.59      17.7  T
     SCC iter.                  ...        0 min,  0.491 sec
     gradient                   ...        0 min,  0.043 sec
 * total energy  :  -197.4361062 Eh     change        0.7679835E-03 Eh
   gradient norm :     0.0239179 Eh/α   predicted    -0.1156150E-02 (-250.54%)
   displ. norm   :     0.2416755 α      lambda       -0.3725956E-02
   maximum displ.:     0.1731584 α      in ANC's #1, #67, #33, ...

........................................................................
.............................. CYCLE    7 ..............................
........................................................................

 iter      E             dE          RMSdq      gap      omega  full diag
   1   -199.6781894 -0.199678E+03  0.282E-01    0.61       0.0  T
   2   -199.6783071 -0.117758E-03  0.105E-01    0.62       1.0  T
   3   -199.6782640  0.431419E-04  0.725E-02    0.60       1.0  T
   4   -199.6783183 -0.542664E-04  0.504E-02    0.63       1.0  T
   5   -199.6783237 -0.541815E-05  0.409E-02    0.60       1.0  T
   6   -199.6783704 -0.466797E-04  0.166E-02    0.61       1.0  T
   7   -199.6783595  0.108162E-04  0.182E-02    0.61       1.0  T
   8   -199.6783794 -0.198407E-04  0.557E-03    0.61       1.8  T
   9   -199.6783800 -0.591250E-06  0.418E-03    0.61       2.4  T
  10   -199.6783805 -0.566176E-06  0.280E-03    0.61       3.5  T
  11   -199.6783807 -0.182449E-06  0.157E-03    0.61       6.3  T
  12   -199.6783808 -0.908856E-07  0.804E-04    0.61      12.3  T
  13   -199.6783808 -0.732467E-08  0.588E-04    0.61      16.8  T
     SCC iter.                  ...        0 min,  0.425 sec
     gradient                   ...        0 min,  0.037 sec
 * total energy  :  -197.4378306 Eh     change       -0.1724436E-02 Eh
   gradient norm :     0.0060060 Eh/α   predicted    -0.1971802E-02 (  14.34%)
   displ. norm   :     0.1608648 α      lambda       -0.4489601E-03
   maximum displ.:     0.0623203 α      in ANC's #20, #19, #24, ...

........................................................................
.............................. CYCLE    8 ..............................
........................................................................

 iter      E             dE          RMSdq      gap      omega  full diag
   1   -199.6806325 -0.199681E+03  0.961E-02    0.64       0.0  T
   2   -199.6806137  0.187285E-04  0.398E-02    0.61       1.0  T
   3   -199.6805602  0.535665E-04  0.478E-02    0.65       1.0  T
   4   -199.6806604 -0.100187E-03  0.156E-02    0.62       1.0  T
   5   -199.6806559  0.445369E-05  0.149E-02    0.62       1.0  T
   6   -199.6806653 -0.937403E-05  0.620E-03    0.63       1.6  T
   7   -199.6806666 -0.132288E-05  0.378E-03    0.62       2.6  T
   8   -199.6806674 -0.757522E-06  0.187E-03    0.62       5.3  T
   9   -199.6806674 -0.150842E-07  0.147E-03    0.62       6.7  T
  10   -199.6806674 -0.454322E-07  0.970E-04    0.62      10.2  T
  11   -199.6806674 -0.165515E-07  0.605E-04    0.62      16.3  T
     SCC iter.                  ...        0 min,  0.390 sec
     gradient                   ...        0 min,  0.027 sec
 * total energy  :  -197.4380235 Eh     change       -0.1929125E-03 Eh
   gradient norm :     0.0050976 Eh/α   predicted    -0.2302908E-03 (  19.38%)
   displ. norm   :     0.1878870 α      lambda       -0.3154706E-03
   maximum displ.:     0.0871579 α      in ANC's #20, #19, #24, ...

........................................................................
.............................. CYCLE    9 ..............................
........................................................................

 iter      E             dE          RMSdq      gap      omega  full diag
   1   -199.6819940 -0.199682E+03  0.655E-02    0.61       0.0  T
   2   -199.6819843  0.975733E-05  0.298E-02    0.63       1.0  T
   3   -199.6819682  0.161053E-04  0.306E-02    0.61       1.0  T
   4   -199.6820076 -0.394142E-04  0.106E-02    0.62       1.0  T
   5   -199.6820110 -0.343841E-05  0.592E-03    0.62       1.7  T
   6   -199.6820116 -0.546634E-06  0.311E-03    0.62       3.2  T
   7   -199.6820111  0.418673E-06  0.318E-03    0.62       3.1  T
   8   -199.6820117 -0.530035E-06  0.148E-03    0.62       6.6  T
   9   -199.6820117 -0.630075E-07  0.975E-04    0.62      10.1  T
  10   -199.6820118 -0.221875E-07  0.515E-04    0.62      19.1  T
     SCC iter.                  ...        0 min,  0.286 sec
     gradient                   ...        0 min,  0.024 sec
 * total energy  :  -197.4382508 Eh     change       -0.2272848E-03 Eh
   gradient norm :     0.0042577 Eh/α   predicted    -0.1633051E-03 ( -28.15%)
   displ. norm   :     0.3511256 α      lambda       -0.4556232E-03
   maximum displ.:     0.1771662 α      in ANC's #20, #19, #24, ...

........................................................................
.............................. CYCLE   10 ..............................
........................................................................

 iter      E             dE          RMSdq      gap      omega  full diag
   1   -199.6830364 -0.199683E+03  0.640E-02    0.62       0.0  T
   2   -199.6830432 -0.676499E-05  0.329E-02    0.62       1.0  T
   3   -199.6830311  0.120777E-04  0.216E-02    0.62       1.0  T
   4   -199.6830327 -0.157668E-05  0.158E-02    0.62       1.0  T
   5   -199.6830429 -0.102078E-04  0.104E-02    0.62       1.0  T
   6   -199.6830482 -0.534704E-05  0.334E-03    0.62       3.0  T
   7   -199.6830484 -0.180020E-06  0.254E-03    0.62       3.9  T
   8   -199.6830487 -0.298037E-06  0.114E-03    0.62       8.6  T
   9   -199.6830487  0.126261E-07  0.856E-04    0.62      11.5  T
  10   -199.6830487 -0.137788E-07  0.551E-04    0.62      17.9  T
     SCC iter.                  ...        0 min,  0.293 sec
     gradient                   ...        0 min,  0.025 sec
 * total energy  :  -197.4385179 Eh     change       -0.2670958E-03 Eh
   gradient norm :     0.0054807 Eh/α   predicted    -0.2559000E-03 (  -4.19%)
   displ. norm   :     0.3023255 α      lambda       -0.3092818E-03
   maximum displ.:     0.1570251 α      in ANC's #20, #19, #12, ...

........................................................................
.............................. CYCLE   11 ..............................
........................................................................

 iter      E             dE          RMSdq      gap      omega  full diag
   1   -199.6830675 -0.199683E+03  0.582E-02    0.60       0.0  T
   2   -199.6830672  0.235918E-06  0.264E-02    0.62       1.0  T
   3   -199.6830442  0.230758E-04  0.257E-02    0.60       1.0  T
   4   -199.6830649 -0.207385E-04  0.144E-02    0.61       1.0  T
   5   -199.6830698 -0.489739E-05  0.863E-03    0.61       1.1  T
   6   -199.6830722 -0.241637E-05  0.456E-03    0.61       2.2  T
   7   -199.6830736 -0.139990E-05  0.177E-03    0.61       5.6  T
   8   -199.6830737 -0.912225E-07  0.109E-03    0.61       9.1  T
   9   -199.6830737 -0.257556E-07  0.722E-04    0.61      13.6  T
  10   -199.6830737 -0.939937E-08  0.480E-04    0.61      20.5  T
     SCC iter.                  ...        0 min,  0.356 sec
     gradient                   ...        0 min,  0.028 sec
 * total energy  :  -197.4387351 Eh     change       -0.2172223E-03 Eh
   gradient norm :     0.0046152 Eh/α   predicted    -0.1687775E-03 ( -22.30%)
   displ. norm   :     0.3816370 α      lambda       -0.3412913E-03
   maximum displ.:     0.2004402 α      in ANC's #20, #19, #12, ...

........................................................................
.............................. CYCLE   12 ..............................
........................................................................

 iter      E             dE          RMSdq      gap      omega  full diag
   1   -199.6839184 -0.199684E+03  0.683E-02    0.62       0.0  T
   2   -199.6839237 -0.530928E-05  0.332E-02    0.61       1.0  T
   3   -199.6839189  0.484198E-05  0.186E-02    0.62       1.0  T
   4   -199.6839109  0.798964E-05  0.156E-02    0.61       1.0  T
   5   -199.6839208 -0.995616E-05  0.995E-03    0.62       1.0  T
   6   -199.6839260 -0.518394E-05  0.416E-03    0.61       2.4  T
   7   -199.6839266 -0.540889E-06  0.253E-03    0.61       3.9  T
   8   -199.6839269 -0.359843E-06  0.125E-03    0.61       7.9  T
   9   -199.6839269 -0.967844E-08  0.911E-04    0.61      10.8  T
  10   -199.6839269 -0.263751E-08  0.626E-04    0.61      15.7  T
     SCC iter.                  ...        0 min,  0.390 sec
     gradient                   ...        0 min,  0.033 sec
 * total energy  :  -197.4389680 Eh     change       -0.2328476E-03 Eh
   gradient norm :     0.0039882 Eh/α   predicted    -0.1955008E-03 ( -16.04%)
   displ. norm   :     0.3764798 α      lambda       -0.3116466E-03
   maximum displ.:     0.1929865 α      in ANC's #20, #19, #12, ...

........................................................................
.............................. CYCLE   13 ..............................
........................................................................

 iter      E             dE          RMSdq      gap      omega  full diag
   1   -199.6838274 -0.199684E+03  0.625E-02    0.62       0.0  T
   2   -199.6838276 -0.254893E-06  0.347E-02    0.61       1.0  T
   3   -199.6837876  0.400300E-04  0.333E-02    0.63       1.0  T
   4   -199.6838306 -0.430283E-04  0.123E-02    0.61       1.0  T
   5   -199.6838339 -0.329251E-05  0.689E-03    0.62       1.4  T
   6   -199.6838334  0.548168E-06  0.594E-03    0.61       1.7  T
   7   -199.6838360 -0.266083E-05  0.172E-03    0.61       5.7  T
   8   -199.6838361 -0.687979E-07  0.954E-04    0.61      10.3  T
   9   -199.6838361  0.860493E-08  0.733E-04    0.61      13.4  T
     SCC iter.                  ...        0 min,  0.359 sec
     gradient                   ...        0 min,  0.030 sec
 * total energy  :  -197.4391836 Eh     change       -0.2156223E-03 Eh
   gradient norm :     0.0041511 Eh/α   predicted    -0.1779116E-03 ( -17.49%)
   displ. norm   :     0.3380934 α      lambda       -0.2363591E-03
   maximum displ.:     0.1668168 α      in ANC's #20, #7, #12, ...

........................................................................
.............................. CYCLE   14 ..............................
........................................................................

 iter      E             dE          RMSdq      gap      omega  full diag
   1   -199.6837483 -0.199684E+03  0.543E-02    0.61       0.0  T
   2   -199.6837478  0.511650E-06  0.296E-02    0.62       1.0  T
   3   -199.6837025  0.452622E-04  0.266E-02    0.61       1.0  T
   4   -199.6837401 -0.375616E-04  0.133E-02    0.61       1.0  T
   5   -199.6837490 -0.885572E-05  0.712E-03    0.62       1.4  T
   6   -199.6837514 -0.239758E-05  0.327E-03    0.61       3.0  T
   7   -199.6837518 -0.417906E-06  0.119E-03    0.61       8.2  T
   8   -199.6837518 -0.616656E-07  0.641E-04    0.61      15.4  T
   9   -199.6837518  0.403719E-08  0.543E-04    0.61      18.1  T
     SCC iter.                  ...        0 min,  0.288 sec
     gradient                   ...        0 min,  0.027 sec
 * total energy  :  -197.4393612 Eh     change       -0.1776000E-03 Eh
   gradient norm :     0.0041662 Eh/α   predicted    -0.1316920E-03 ( -25.85%)
   displ. norm   :     0.3627718 α      lambda       -0.2414998E-03
   maximum displ.:     0.1706310 α      in ANC's #20, #7, #12, ...

........................................................................
.............................. CYCLE   15 ..............................
........................................................................

 iter      E             dE          RMSdq      gap      omega  full diag
   1   -199.6830076 -0.199683E+03  0.599E-02    0.62       0.0  T
   2   -199.6830080 -0.390474E-06  0.325E-02    0.61       1.0  T
   3   -199.6829815  0.264962E-04  0.258E-02    0.63       1.0  T
   4   -199.6830060 -0.245209E-04  0.119E-02    0.61       1.0  T
   5   -199.6830112 -0.522237E-05  0.394E-03    0.62       2.5  T
   6   -199.6830111  0.931453E-07  0.362E-03    0.62       2.7  T
   7   -199.6830117 -0.602726E-06  0.162E-03    0.62       6.1  T
   8   -199.6830118 -0.545363E-07  0.113E-03    0.62       8.7  T
   9   -199.6830118 -0.439648E-07  0.768E-04    0.62      12.8  T
  10   -199.6830119 -0.169443E-07  0.433E-04    0.62      22.8  T
     SCC iter.                  ...        0 min,  0.314 sec
     gradient                   ...        0 min,  0.025 sec
 * total energy  :  -197.4395335 Eh     change       -0.1722916E-03 Eh
   gradient norm :     0.0040794 Eh/α   predicted    -0.1366459E-03 ( -20.69%)
   displ. norm   :     0.3327270 α      lambda       -0.2068888E-03
   maximum displ.:     0.1541616 α      in ANC's #7, #20, #12, ...

........................................................................
.............................. CYCLE   16 ..............................
........................................................................

 iter      E             dE          RMSdq      gap      omega  full diag
   1   -199.6832572 -0.199683E+03  0.598E-02    0.61       0.0  T
   2   -199.6832547  0.255718E-05  0.340E-02    0.62       1.0  T
   3   -199.6832180  0.367053E-04  0.328E-02    0.60       1.0  T
   4   -199.6832617 -0.437629E-04  0.117E-02    0.62       1.0  T
   5   -199.6832654 -0.368779E-05  0.652E-03    0.62       1.5  T
   6   -199.6832660 -0.545527E-06  0.379E-03    0.62       2.6  T
   7   -199.6832667 -0.740720E-06  0.199E-03    0.62       4.9  T
   8   -199.6832669 -0.187408E-06  0.102E-03    0.62       9.7  T
   9   -199.6832669 -0.590151E-08  0.736E-04    0.62      13.4  T
  10   -199.6832669 -0.445246E-08  0.472E-04    0.62      20.9  T
     SCC iter.                  ...        0 min,  0.320 sec
     gradient                   ...        0 min,  0.027 sec
 * total energy  :  -197.4396753 Eh     change       -0.1417710E-03 Eh
   gradient norm :     0.0042630 Eh/α   predicted    -0.1149000E-03 ( -18.95%)
   displ. norm   :     0.3023866 α      lambda       -0.1737384E-03
   maximum displ.:     0.1551089 α      in ANC's #7, #20, #12, ...

........................................................................
.............................. CYCLE   17 ..............................
........................................................................

 iter      E             dE          RMSdq      gap      omega  full diag
   1   -199.6838056 -0.199684E+03  0.485E-02    0.62       0.0  T
   2   -199.6838030  0.259075E-05  0.276E-02    0.62       1.0  T
   3   -199.6837417  0.613051E-04  0.311E-02    0.62       1.0  T
   4   -199.6838014 -0.596353E-04  0.116E-02    0.62       1.0  T
   5   -199.6838058 -0.440271E-05  0.856E-03    0.62       1.2  T
   6   -199.6838094 -0.362154E-05  0.247E-03    0.62       4.0  T
   7   -199.6838096 -0.242032E-06  0.136E-03    0.62       7.2  T
   8   -199.6838097 -0.541291E-07  0.815E-04    0.62      12.1  T
   9   -199.6838097 -0.124567E-08  0.609E-04    0.62      16.2  T
     SCC iter.                  ...        0 min,  0.366 sec
     gradient                   ...        0 min,  0.025 sec
 * total energy  :  -197.4398092 Eh     change       -0.1339164E-03 Eh
   gradient norm :     0.0047685 Eh/α   predicted    -0.9481607E-04 ( -29.20%)
   displ. norm   :     0.3944203 α      lambda       -0.2494962E-03
   maximum displ.:     0.2176443 α      in ANC's #7, #12, #20, ...

........................................................................
.............................. CYCLE   18 ..............................
........................................................................

 iter      E             dE          RMSdq      gap      omega  full diag
   1   -199.6854406 -0.199685E+03  0.608E-02    0.62       0.0  T
   2   -199.6854248  0.158480E-04  0.366E-02    0.62       1.0  T
   3   -199.6852367  0.188109E-03  0.560E-02    0.61       1.0  T
   4   -199.6854437 -0.207005E-03  0.965E-03    0.62       1.0  T
   5   -199.6854458 -0.212549E-05  0.570E-03    0.62       1.7  T
   6   -199.6854475 -0.168344E-05  0.249E-03    0.62       4.0  T
   7   -199.6854479 -0.383824E-06  0.108E-03    0.62       9.1  T
   8   -199.6854480 -0.646165E-07  0.567E-04    0.62      17.4  T
   9   -199.6854480 -0.231424E-08  0.391E-04    0.62      25.2  T
     SCC iter.                  ...        0 min,  0.247 sec
     gradient                   ...        0 min,  0.026 sec
 * total energy  :  -197.4400088 Eh     change       -0.1996360E-03 Eh
   gradient norm :     0.0047799 Eh/α   predicted    -0.1441578E-03 ( -27.79%)
   displ. norm   :     0.5267965 α      lambda       -0.3084262E-03
   maximum displ.:     0.3020639 α      in ANC's #7, #20, #12, ...

........................................................................
.............................. CYCLE   19 ..............................
........................................................................

 iter      E             dE          RMSdq      gap      omega  full diag
   1   -199.6840455 -0.199684E+03  0.827E-02    0.62       0.0  T
   2   -199.6840345  0.109468E-04  0.477E-02    0.62       1.0  T
   3   -199.6837925  0.242056E-03  0.617E-02    0.62       1.0  T
   4   -199.6840302 -0.237739E-03  0.202E-02    0.62       1.0  T
   5   -199.6840538 -0.235742E-04  0.676E-03    0.62       1.5  T
   6   -199.6840552 -0.141653E-05  0.364E-03    0.62       2.7  T
   7   -199.6840559 -0.709714E-06  0.139E-03    0.62       7.1  T
   8   -199.6840560 -0.499768E-07  0.903E-04    0.62      10.9  T
   9   -199.6840560 -0.112812E-07  0.694E-04    0.62      14.2  T
     SCC iter.                  ...        0 min,  0.235 sec
     gradient                   ...        0 min,  0.025 sec
 * total energy  :  -197.4402485 Eh     change       -0.2396433E-03 Eh
   gradient norm :     0.0068966 Eh/α   predicted    -0.1970123E-03 ( -17.79%)
   displ. norm   :     0.5167631 α      lambda       -0.3756228E-03
   maximum displ.:     0.2999496 α      in ANC's #7, #24, #12, ...

........................................................................
.............................. CYCLE   20 ..............................
........................................................................

 iter      E             dE          RMSdq      gap      omega  full diag
   1   -199.6891215 -0.199689E+03  0.766E-02    0.62       0.0  T
   2   -199.6890973  0.241900E-04  0.472E-02    0.62       1.0  T
   3   -199.6888375  0.259800E-03  0.669E-02    0.61       1.0  T
   4   -199.6891232 -0.285684E-03  0.180E-02    0.62       1.0  T
   5   -199.6891387 -0.155066E-04  0.658E-03    0.62       1.5  T
   6   -199.6891392 -0.558849E-06  0.437E-03    0.62       2.3  T
   7   -199.6891403 -0.108926E-05  0.154E-03    0.62       6.4  T
   8   -199.6891404 -0.287170E-07  0.109E-03    0.62       9.1  T
   9   -199.6891404 -0.226532E-07  0.802E-04    0.62      12.3  T
  10   -199.6891404 -0.110718E-07  0.529E-04    0.62      18.6  T
     SCC iter.                  ...        0 min,  0.352 sec
     gradient                   ...        0 min,  0.063 sec
 * total energy  :  -197.4404551 Eh     change       -0.2066681E-03 Eh
   gradient norm :     0.0094726 Eh/α   predicted    -0.2379693E-03 (  15.15%)
   displ. norm   :     0.6204792 α      lambda       -0.3767408E-03
   maximum displ.:     0.3696465 α      in ANC's #7, #20, #12, ...
 * RMSD in coord.:     0.4860197 α      energy gain  -0.1961870E-01 Eh

generating ANC from exact Hessian ...
Using Lindh-Hessian (1995)
 Shifting diagonal of input Hessian by   1.840400855248052E-002
 Lowest  eigenvalues of input Hessian
    0.010000    0.017774    0.017883    0.017918    0.018395    0.000000
    0.000000    0.000000    0.000000    0.000000    0.000000    0.018415
    0.018419    0.018468    0.018556    0.018589    0.018768    0.018788
 Highest eigenvalues
    2.185484    2.199895    2.261527    2.308318    2.344299    2.389040
 

........................................................................
.............................. CYCLE   21 ..............................
........................................................................

 iter      E             dE          RMSdq      gap      omega  full diag
   1   -199.6818603 -0.199682E+03  0.101E-01    0.62       0.0  T
   2   -199.6818549  0.542121E-05  0.575E-02    0.62       1.0  T
   3   -199.6815246  0.330296E-03  0.724E-02    0.61       1.0  T
   4   -199.6818565 -0.331889E-03  0.193E-02    0.62       1.0  T
   5   -199.6818747 -0.181649E-04  0.752E-03    0.62       1.3  T
   6   -199.6818770 -0.230071E-05  0.390E-03    0.62       2.5  T
   7   -199.6818777 -0.718204E-06  0.212E-03    0.62       4.6  T
   8   -199.6818779 -0.217070E-06  0.116E-03    0.62       8.5  T
   9   -199.6818779 -0.226788E-07  0.787E-04    0.62      12.5  T
  10   -199.6818779 -0.722488E-08  0.484E-04    0.62      20.3  T
     SCC iter.                  ...        0 min,  0.431 sec
     gradient                   ...        0 min,  0.025 sec
 * total energy  :  -197.4407324 Eh     change       -0.2772846E-03 Eh
   gradient norm :     0.0086285 Eh/α   predicted     0.0000000E+00 (-100.00%)
   displ. norm   :     0.0970986 α      lambda       -0.2899094E-03
   maximum displ.:     0.0479228 α      in ANC's #1, #33, #19, ...

........................................................................
.............................. CYCLE   22 ..............................
........................................................................

 iter      E             dE          RMSdq      gap      omega  full diag
   1   -199.6856650 -0.199686E+03  0.970E-02    0.62       0.0  T
   2   -199.6856566  0.835578E-05  0.573E-02    0.61       1.0  T
   3   -199.6855625  0.941070E-04  0.525E-02    0.63       1.0  T
   4   -199.6856523 -0.898065E-04  0.353E-02    0.61       1.0  T
   5   -199.6857310 -0.787081E-04  0.114E-02    0.62       1.0  T
   6   -199.6857311 -0.118176E-06  0.628E-03    0.62       1.6  T
   7   -199.6857308  0.358463E-06  0.543E-03    0.62       1.8  T
   8   -199.6857324 -0.164291E-05  0.208E-03    0.62       4.7  T
   9   -199.6857324 -0.880618E-08  0.162E-03    0.62       6.1  T
  10   -199.6857325 -0.365266E-07  0.118E-03    0.62       8.3  T
  11   -199.6857325 -0.476649E-07  0.575E-04    0.62      17.1  T
  12   -199.6857325 -0.695385E-08  0.309E-04    0.62      31.9  T
     SCC iter.                  ...        0 min,  0.355 sec
     gradient                   ...        0 min,  0.026 sec
 * total energy  :  -197.4407120 Eh     change        0.2042028E-04 Eh
   gradient norm :     0.0102111 Eh/α   predicted    -0.1463219E-03 (-816.55%)
   displ. norm   :     0.1742711 α      lambda       -0.7676481E-03
   maximum displ.:     0.0885158 α      in ANC's #1, #19, #7, ...

........................................................................
.............................. CYCLE   23 ..............................
........................................................................

 iter      E             dE          RMSdq      gap      omega  full diag
   1   -199.6917008 -0.199692E+03  0.140E-01    0.61       0.0  T
   2   -199.6917454 -0.446491E-04  0.763E-02    0.63       1.0  T
   3   -199.6916838  0.615747E-04  0.560E-02    0.63       1.0  T
   4   -199.6916816  0.226454E-05  0.477E-02    0.62       1.0  T
   5   -199.6918281 -0.146568E-03  0.212E-02    0.63       1.0  T
   6   -199.6918351 -0.693950E-05  0.144E-02    0.62       1.0  T
   7   -199.6918422 -0.711718E-05  0.687E-03    0.63       1.4  T
   8   -199.6918438 -0.157087E-05  0.307E-03    0.63       3.2  T
   9   -199.6918438 -0.510709E-07  0.216E-03    0.63       4.6  T
  10   -199.6918439 -0.835952E-07  0.151E-03    0.63       6.5  T
  11   -199.6918440 -0.507511E-07  0.919E-04    0.63      10.7  T
  12   -199.6918440 -0.327918E-07  0.472E-04    0.63      20.9  T
     SCC iter.                  ...        0 min,  0.405 sec
     gradient                   ...        0 min,  0.028 sec
 * total energy  :  -197.4408960 Eh     change       -0.1840527E-03 Eh
   gradient norm :     0.0113224 Eh/α   predicted    -0.3954824E-03 ( 114.87%)
   displ. norm   :     0.1338419 α      lambda       -0.5414850E-03
   maximum displ.:     0.0740787 α      in ANC's #1, #33, #20, ...

........................................................................
.............................. CYCLE   24 ..............................
........................................................................

 iter      E             dE          RMSdq      gap      omega  full diag
   1   -199.6889520 -0.199689E+03  0.172E-01    0.61       0.0  T
   2   -199.6889096  0.423664E-04  0.606E-02    0.61       1.0  T
   3   -199.6883520  0.557598E-03  0.977E-02    0.60       1.0  T
   4   -199.6889935 -0.641492E-03  0.264E-02    0.61       1.0  T
   5   -199.6889952 -0.168220E-05  0.202E-02    0.61       1.0  T
   6   -199.6889964 -0.124449E-05  0.141E-02    0.62       1.0  T
   7   -199.6890041 -0.761185E-05  0.646E-03    0.61       1.5  T
   8   -199.6890053 -0.119769E-05  0.309E-03    0.61       3.2  T
   9   -199.6890053 -0.825702E-07  0.231E-03    0.61       4.3  T
  10   -199.6890055 -0.118580E-06  0.161E-03    0.61       6.1  T
  11   -199.6890055 -0.367299E-07  0.107E-03    0.61       9.2  T
  12   -199.6890055 -0.547858E-07  0.532E-04    0.61      18.5  T
  13   -199.6890055 -0.204804E-08  0.380E-04    0.61      25.9  T
     SCC iter.                  ...        0 min,  0.378 sec
     gradient                   ...        0 min,  0.028 sec
 * total energy  :  -197.4409813 Eh     change       -0.8527871E-04 Eh
   gradient norm :     0.0075634 Eh/α   predicted    -0.2755920E-03 ( 223.17%)
   displ. norm   :     0.0915279 α      lambda       -0.3957797E-03
   maximum displ.:     0.0414588 α      in ANC's #1, #33, #7, ...

........................................................................
.............................. CYCLE   25 ..............................
........................................................................

 iter      E             dE          RMSdq      gap      omega  full diag
   1   -199.6854838 -0.199685E+03  0.100E-01    0.62       0.0  T
   2   -199.6854914 -0.761029E-05  0.296E-02    0.62       1.0  T
   3   -199.6854896  0.181783E-05  0.192E-02    0.61       1.0  T
   4   -199.6854860  0.362878E-05  0.168E-02    0.62       1.0  T
   5   -199.6854915 -0.553222E-05  0.109E-02    0.61       1.0  T
   6   -199.6854943 -0.278958E-05  0.485E-03    0.62       2.0  T
   7   -199.6854929  0.137727E-05  0.560E-03    0.62       1.8  T
   8   -199.6854949 -0.195122E-05  0.173E-03    0.62       5.7  T
   9   -199.6854950 -0.878271E-07  0.121E-03    0.62       8.2  T
  10   -199.6854950 -0.386011E-07  0.753E-04    0.62      13.1  T
  11   -199.6854950  0.139829E-08  0.590E-04    0.62      16.7  T
     SCC iter.                  ...        0 min,  0.318 sec
     gradient                   ...        0 min,  0.028 sec
 * total energy  :  -197.4411820 Eh     change       -0.2006972E-03 Eh
   gradient norm :     0.0037651 Eh/α   predicted    -0.1995520E-03 (  -0.57%)
   displ. norm   :     0.1468161 α      lambda       -0.2443654E-03
   maximum displ.:     0.0709878 α      in ANC's #7, #19, #6, ...

........................................................................
.............................. CYCLE   26 ..............................
........................................................................

 iter      E             dE          RMSdq      gap      omega  full diag
   1   -199.6855108 -0.199686E+03  0.709E-02    0.62       0.0  T
   2   -199.6854746  0.361574E-04  0.340E-02    0.62       1.0  T
   3   -199.6852897  0.184906E-03  0.582E-02    0.63       1.0  T
   4   -199.6855276 -0.237819E-03  0.110E-02    0.62       1.0  T
   5   -199.6855259  0.169080E-05  0.886E-03    0.62       1.1  T
   6   -199.6855276 -0.171482E-05  0.521E-03    0.62       1.9  T
   7   -199.6855282 -0.655980E-06  0.260E-03    0.62       3.8  T
   8   -199.6855285 -0.274089E-06  0.160E-03    0.62       6.2  T
   9   -199.6855286 -0.477032E-07  0.108E-03    0.62       9.1  T
  10   -199.6855286 -0.923004E-08  0.808E-04    0.62      12.2  T
  11   -199.6855286 -0.208029E-07  0.457E-04    0.62      21.6  T
     SCC iter.                  ...        0 min,  0.375 sec
     gradient                   ...        0 min,  0.024 sec
 * total energy  :  -197.4413123 Eh     change       -0.1303223E-03 Eh
   gradient norm :     0.0038730 Eh/α   predicted    -0.1248210E-03 (  -4.22%)
   displ. norm   :     0.2308057 α      lambda       -0.2254518E-03
   maximum displ.:     0.1239071 α      in ANC's #7, #19, #6, ...

........................................................................
.............................. CYCLE   27 ..............................
........................................................................

 iter      E             dE          RMSdq      gap      omega  full diag
   1   -199.6854089 -0.199685E+03  0.454E-02    0.62       0.0  T
   2   -199.6854003  0.859568E-05  0.261E-02    0.62       1.0  T
   3   -199.6853254  0.748708E-04  0.377E-02    0.63       1.0  T
   4   -199.6854110 -0.855938E-04  0.853E-03    0.62       1.2  T
   5   -199.6854116 -0.539468E-06  0.585E-03    0.62       1.7  T
   6   -199.6854135 -0.195679E-05  0.274E-03    0.62       3.6  T
   7   -199.6854139 -0.372024E-06  0.141E-03    0.62       7.0  T
   8   -199.6854139 -0.267242E-07  0.982E-04    0.62      10.0  T
   9   -199.6854139 -0.588236E-08  0.672E-04    0.62      14.7  T
     SCC iter.                  ...        0 min,  0.270 sec
     gradient                   ...        0 min,  0.027 sec
 * total energy  :  -197.4415012 Eh     change       -0.1888203E-03 Eh
   gradient norm :     0.0043477 Eh/α   predicted    -0.1187337E-03 ( -37.12%)
   displ. norm   :     0.6009660 α      lambda       -0.5338730E-03
   maximum displ.:     0.3379095 α      in ANC's #7, #19, #6, ...

........................................................................
.............................. CYCLE   28 ..............................
........................................................................

 iter      E             dE          RMSdq      gap      omega  full diag
   1   -199.6823028 -0.199682E+03  0.119E-01    0.60       0.0  T
   2   -199.6823020  0.821245E-06  0.579E-02    0.62       1.0  T
   3   -199.6821465  0.155457E-03  0.591E-02    0.59       1.0  T
   4   -199.6822977 -0.151142E-03  0.243E-02    0.62       1.0  T
   5   -199.6822952  0.246379E-05  0.194E-02    0.62       1.0  T
   6   -199.6823196 -0.243530E-04  0.602E-03    0.61       1.6  T
   7   -199.6823214 -0.180590E-05  0.294E-03    0.61       3.4  T
   8   -199.6823216 -0.263102E-06  0.168E-03    0.61       5.8  T
   9   -199.6823217 -0.242879E-07  0.126E-03    0.61       7.8  T
  10   -199.6823217 -0.291472E-07  0.870E-04    0.61      11.3  T
  11   -199.6823217 -0.280620E-07  0.452E-04    0.61      21.8  T
     SCC iter.                  ...        0 min,  0.305 sec
     gradient                   ...        0 min,  0.027 sec
 * total energy  :  -197.4418888 Eh     change       -0.3876482E-03 Eh
   gradient norm :     0.0070242 Eh/α   predicted    -0.3633582E-03 (  -6.27%)
   displ. norm   :     0.5312059 α      lambda       -0.4111904E-03
   maximum displ.:     0.3229715 α      in ANC's #7, #19, #6, ...

........................................................................
.............................. CYCLE   29 ..............................
........................................................................

 iter      E             dE          RMSdq      gap      omega  full diag
   1   -199.6801006 -0.199680E+03  0.873E-02    0.61       0.0  T
   2   -199.6801048 -0.417310E-05  0.459E-02    0.61       1.0  T
   3   -199.6800809  0.238619E-04  0.246E-02    0.62       1.0  T
   4   -199.6800894 -0.848239E-05  0.173E-02    0.61       1.0  T
   5   -199.6801067 -0.173075E-04  0.590E-03    0.61       1.7  T
   6   -199.6801084 -0.171882E-05  0.326E-03    0.61       3.0  T
   7   -199.6801087 -0.244318E-06  0.251E-03    0.61       3.9  T
   8   -199.6801089 -0.238717E-06  0.146E-03    0.61       6.7  T
   9   -199.6801089 -0.638934E-08  0.113E-03    0.61       8.7  T
  10   -199.6801089 -0.168741E-07  0.775E-04    0.61      12.7  T
  11   -199.6801089 -0.195831E-07  0.446E-04    0.61      22.1  T
     SCC iter.                  ...        0 min,  0.376 sec
     gradient                   ...        0 min,  0.022 sec
 * total energy  :  -197.4422355 Eh     change       -0.3466727E-03 Eh
   gradient norm :     0.0083252 Eh/α   predicted    -0.2636219E-03 ( -23.96%)
   displ. norm   :     0.6365304 α      lambda       -0.6886575E-03
   maximum displ.:     0.4157875 α      in ANC's #7, #6, #19, ...

........................................................................
.............................. CYCLE   30 ..............................
........................................................................

 iter      E             dE          RMSdq      gap      omega  full diag
   1   -199.6825292 -0.199683E+03  0.107E-01    0.61       0.0  T
   2   -199.6825321 -0.295457E-05  0.528E-02    0.61       1.0  T
   3   -199.6824558  0.763214E-04  0.396E-02    0.61       1.0  T
   4   -199.6824762 -0.203742E-04  0.308E-02    0.61       1.0  T
   5   -199.6825330 -0.568313E-04  0.127E-02    0.61       1.0  T
   6   -199.6825401 -0.705441E-05  0.535E-03    0.61       1.8  T
   7   -199.6825418 -0.175105E-05  0.266E-03    0.61       3.7  T
   8   -199.6825421 -0.218546E-06  0.170E-03    0.61       5.8  T
   9   -199.6825421 -0.312443E-08  0.131E-03    0.61       7.5  T
  10   -199.6825421 -0.695877E-08  0.942E-04    0.61      10.5  T
  11   -199.6825421 -0.300494E-07  0.542E-04    0.61      18.2  T
     SCC iter.                  ...        0 min,  0.288 sec
     gradient                   ...        0 min,  0.027 sec
 * total energy  :  -197.4428500 Eh     change       -0.6145185E-03 Eh
   gradient norm :     0.0062415 Eh/α   predicted    -0.4838551E-03 ( -21.26%)
   displ. norm   :     0.7369879 α      lambda       -0.9902717E-03
   maximum displ.:     0.5000040 α      in ANC's #7, #6, #19, ...

........................................................................
.............................. CYCLE   31 ..............................
........................................................................

 iter      E             dE          RMSdq      gap      omega  full diag
   1   -199.6868494 -0.199687E+03  0.122E-01    0.59       0.0  T
   2   -199.6868271  0.222898E-04  0.632E-02    0.61       1.0  T
   3   -199.6864420  0.385108E-03  0.846E-02    0.58       1.0  T
   4   -199.6868446 -0.402639E-03  0.274E-02    0.60       1.0  T
   5   -199.6868629 -0.182414E-04  0.163E-02    0.61       1.0  T
   6   -199.6868727 -0.978967E-05  0.772E-03    0.60       1.3  T
   7   -199.6868753 -0.269704E-05  0.393E-03    0.60       2.5  T
   8   -199.6868758 -0.461287E-06  0.260E-03    0.60       3.8  T
   9   -199.6868758  0.429064E-07  0.203E-03    0.60       4.9  T
  10   -199.6868759 -0.123891E-06  0.124E-03    0.60       7.9  T
  11   -199.6868759 -0.504014E-07  0.752E-04    0.60      13.1  T
  12   -199.6868760 -0.227725E-07  0.467E-04    0.60      21.1  T
     SCC iter.                  ...        0 min,  0.343 sec
     gradient                   ...        0 min,  0.025 sec
 * total energy  :  -197.4437292 Eh     change       -0.8792237E-03 Eh
   gradient norm :     0.0092774 Eh/α   predicted    -0.7640966E-03 ( -13.09%)
   displ. norm   :     0.8415194 α      lambda       -0.1205459E-02
   maximum displ.:     0.5764307 α      in ANC's #7, #6, #19, ...

........................................................................
.............................. CYCLE   32 ..............................
........................................................................

 iter      E             dE          RMSdq      gap      omega  full diag
   1   -199.6886151 -0.199689E+03  0.159E-01    0.62       0.0  T
   2   -199.6886301 -0.149802E-04  0.719E-02    0.61       1.0  T
   3   -199.6885549  0.751414E-04  0.486E-02    0.62       1.0  T
   4   -199.6885425  0.123899E-04  0.393E-02    0.61       1.0  T
   5   -199.6886202 -0.776856E-04  0.219E-02    0.61       1.0  T
   6   -199.6886440 -0.237820E-04  0.106E-02    0.62       1.0  T
   7   -199.6886499 -0.584581E-05  0.467E-03    0.61       2.1  T
   8   -199.6886503 -0.452865E-06  0.273E-03    0.61       3.6  T
   9   -199.6886504 -0.433563E-07  0.202E-03    0.61       4.9  T
  10   -199.6886504 -0.484687E-07  0.135E-03    0.61       7.3  T
  11   -199.6886505 -0.577013E-07  0.866E-04    0.61      11.4  T
  12   -199.6886505 -0.190622E-07  0.590E-04    0.61      16.7  T
     SCC iter.                  ...        0 min,  0.495 sec
     gradient                   ...        0 min,  0.032 sec
 * total energy  :  -197.4448557 Eh     change       -0.1126472E-02 Eh
   gradient norm :     0.0116012 Eh/α   predicted    -0.1029592E-02 (  -8.60%)
   displ. norm   :     0.8484119 α      lambda       -0.1433648E-02
   maximum displ.:     0.5925710 α      in ANC's #7, #6, #11, ...

........................................................................
.............................. CYCLE   33 ..............................
........................................................................

 iter      E             dE          RMSdq      gap      omega  full diag
   1   -199.6914501 -0.199691E+03  0.157E-01    0.61       0.0  T
   2   -199.6914613 -0.111788E-04  0.694E-02    0.62       1.0  T
   3   -199.6913381  0.123134E-03  0.565E-02    0.60       1.0  T
   4   -199.6914113 -0.731924E-04  0.370E-02    0.63       1.0  T
   5   -199.6914617 -0.504062E-04  0.195E-02    0.62       1.0  T
   6   -199.6914767 -0.149800E-04  0.100E-02    0.61       1.0  T
   7   -199.6914813 -0.457971E-05  0.510E-03    0.62       1.9  T
   8   -199.6914821 -0.787985E-06  0.302E-03    0.62       3.3  T
   9   -199.6914819  0.159290E-06  0.258E-03    0.62       3.8  T
  10   -199.6914822 -0.287975E-06  0.138E-03    0.62       7.1  T
  11   -199.6914823 -0.405066E-07  0.799E-04    0.62      12.3  T
  12   -199.6914823 -0.130041E-07  0.593E-04    0.62      16.6  T
     SCC iter.                  ...        0 min,  0.387 sec
     gradient                   ...        0 min,  0.026 sec
 * total energy  :  -197.4462066 Eh     change       -0.1350905E-02 Eh
   gradient norm :     0.0119333 Eh/α   predicted    -0.1232839E-02 (  -8.74%)
   displ. norm   :     0.8792384 α      lambda       -0.1696675E-02
   maximum displ.:     0.6186907 α      in ANC's #7, #6, #8, ...

........................................................................
.............................. CYCLE   34 ..............................
........................................................................

 iter      E             dE          RMSdq      gap      omega  full diag
   1   -199.6888112 -0.199689E+03  0.165E-01    0.61       0.0  T
   2   -199.6888201 -0.897277E-05  0.747E-02    0.62       1.0  T
   3   -199.6885744  0.245730E-03  0.701E-02    0.60       1.0  T
   4   -199.6887733 -0.198943E-03  0.387E-02    0.62       1.0  T
   5   -199.6888331 -0.597794E-04  0.191E-02    0.62       1.0  T
   6   -199.6888468 -0.136451E-04  0.105E-02    0.62       1.0  T
   7   -199.6888523 -0.551730E-05  0.497E-03    0.62       2.0  T
   8   -199.6888527 -0.441074E-06  0.340E-03    0.62       2.9  T
   9   -199.6888527  0.180784E-07  0.261E-03    0.62       3.8  T
  10   -199.6888529 -0.202950E-06  0.156E-03    0.62       6.3  T
  11   -199.6888530 -0.759412E-07  0.860E-04    0.62      11.5  T
  12   -199.6888530 -0.178381E-07  0.598E-04    0.62      16.5  T
     SCC iter.                  ...        0 min,  0.393 sec
     gradient                   ...        0 min,  0.028 sec
 * total energy  :  -197.4478463 Eh     change       -0.1639727E-02 Eh
   gradient norm :     0.0122903 Eh/α   predicted    -0.1504205E-02 (  -8.26%)
   displ. norm   :     0.7991056 α      lambda       -0.2444907E-02
   maximum displ.:     0.5074482 α      in ANC's #7, #17, #6, ...

........................................................................
.............................. CYCLE   35 ..............................
........................................................................

 iter      E             dE          RMSdq      gap      omega  full diag
   1   -199.6948843 -0.199695E+03  0.193E-01    0.62       0.0  T
   2   -199.6948535  0.307909E-04  0.874E-02    0.62       1.0  T
   3   -199.6941739  0.679591E-03  0.104E-01    0.61       1.0  T
   4   -199.6948785 -0.704619E-03  0.405E-02    0.63       1.0  T
   5   -199.6948941 -0.156087E-04  0.333E-02    0.61       1.0  T
   6   -199.6949492 -0.550954E-04  0.111E-02    0.62       1.0  T
   7   -199.6949556 -0.639477E-05  0.536E-03    0.62       1.8  T
   8   -199.6949560 -0.338333E-06  0.395E-03    0.62       2.5  T
   9   -199.6949560 -0.343635E-07  0.312E-03    0.62       3.2  T
  10   -199.6949562 -0.216398E-06  0.217E-03    0.62       4.5  T
  11   -199.6949563 -0.126141E-06  0.115E-03    0.62       8.6  T
  12   -199.6949564 -0.261892E-07  0.808E-04    0.62      12.2  T
  13   -199.6949564 -0.458300E-09  0.580E-04    0.62      17.0  T
     SCC iter.                  ...        0 min,  0.472 sec
     gradient                   ...        0 min,  0.030 sec
 * total energy  :  -197.4489775 Eh     change       -0.1131151E-02 Eh
   gradient norm :     0.0275390 Eh/α   predicted    -0.2003130E-02 (  77.09%)
   displ. norm   :     0.7526055 α      lambda       -0.2581336E-02
   maximum displ.:     0.5226769 α      in ANC's #7, #6, #19, ...

........................................................................
.............................. CYCLE   36 ..............................
........................................................................

 iter      E             dE          RMSdq      gap      omega  full diag
   1   -199.6810643 -0.199681E+03  0.159E-01    0.60       0.0  T
   2   -199.6810732 -0.892996E-05  0.725E-02    0.63       1.0  T
   3   -199.6808914  0.181801E-03  0.691E-02    0.59       1.0  T
   4   -199.6810936 -0.202126E-03  0.271E-02    0.62       1.0  T
   5   -199.6811122 -0.186157E-04  0.124E-02    0.62       1.0  T
   6   -199.6811170 -0.482063E-05  0.680E-03    0.62       1.4  T
   7   -199.6811167  0.250321E-06  0.562E-03    0.62       1.8  T
   8   -199.6811177 -0.983302E-06  0.352E-03    0.62       2.8  T
   9   -199.6811182 -0.456420E-06  0.220E-03    0.62       4.5  T
  10   -199.6811183 -0.791215E-07  0.136E-03    0.62       7.2  T
  11   -199.6811184 -0.877370E-07  0.751E-04    0.62      13.1  T
  12   -199.6811184 -0.209008E-07  0.465E-04    0.62      21.2  T
     SCC iter.                  ...        0 min,  0.409 sec
     gradient                   ...        0 min,  0.029 sec
 * total energy  :  -197.4510100 Eh     change       -0.2032550E-02 Eh
   gradient norm :     0.0258854 Eh/α   predicted    -0.2021728E-02 (  -0.53%)
   displ. norm   :     0.7340500 α      lambda       -0.2198797E-02
   maximum displ.:     0.5435324 α      in ANC's #7, #6, #8, ...

........................................................................
.............................. CYCLE   37 ..............................
........................................................................

 iter      E             dE          RMSdq      gap      omega  full diag
   1   -199.6770085 -0.199677E+03  0.133E-01    0.62       0.0  T
   2   -199.6770081  0.412677E-06  0.569E-02    0.62       1.0  T
   3   -199.6768075  0.200593E-03  0.614E-02    0.62       1.0  T
   4   -199.6769802 -0.172730E-03  0.324E-02    0.62       1.0  T
   5   -199.6770286 -0.483777E-04  0.167E-02    0.61       1.0  T
   6   -199.6770370 -0.844797E-05  0.810E-03    0.62       1.2  T
   7   -199.6770399 -0.289277E-05  0.465E-03    0.62       2.1  T
   8   -199.6770406 -0.682721E-06  0.265E-03    0.62       3.7  T
   9   -199.6770406  0.209138E-08  0.176E-03    0.62       5.6  T
  10   -199.6770407 -0.684767E-07  0.113E-03    0.62       8.7  T
  11   -199.6770407 -0.566172E-07  0.541E-04    0.62      18.2  T
  12   -199.6770407 -0.654865E-08  0.368E-04    0.62      26.8  T
     SCC iter.                  ...        0 min,  0.502 sec
     gradient                   ...        0 min,  0.049 sec
 * total energy  :  -197.4530698 Eh     change       -0.2059777E-02 Eh
   gradient norm :     0.0279668 Eh/α   predicted    -0.1691790E-02 ( -17.87%)
   displ. norm   :     0.6278156 α      lambda       -0.4135316E-02
   maximum displ.:     0.4113768 α      in ANC's #7, #6, #8, ...

........................................................................
.............................. CYCLE   38 ..............................
........................................................................

 iter      E             dE          RMSdq      gap      omega  full diag
   1   -199.6924359 -0.199692E+03  0.198E-01    0.62       0.0  T
   2   -199.6924832 -0.472302E-04  0.797E-02    0.62       1.0  T
   3   -199.6922379  0.245252E-03  0.782E-02    0.62       1.0  T
   4   -199.6924774 -0.239530E-03  0.464E-02    0.62       1.0  T
   5   -199.6925637 -0.862896E-04  0.266E-02    0.62       1.0  T
   6   -199.6925847 -0.209570E-04  0.170E-02    0.62       1.0  T
   7   -199.6926004 -0.157081E-04  0.693E-03    0.62       1.4  T
   8   -199.6926017 -0.134403E-05  0.405E-03    0.62       2.4  T
   9   -199.6926019 -0.137932E-06  0.304E-03    0.62       3.2  T
  10   -199.6926022 -0.354465E-06  0.168E-03    0.62       5.9  T
  11   -199.6926023 -0.560775E-07  0.842E-04    0.62      11.7  T
  12   -199.6926023 -0.994066E-08  0.542E-04    0.62      18.2  T
     SCC iter.                  ...        0 min,  0.474 sec
     gradient                   ...        0 min,  0.025 sec
 * total energy  :  -197.4548057 Eh     change       -0.1735914E-02 Eh
   gradient norm :     0.0293705 Eh/α   predicted    -0.2882635E-02 (  66.06%)
   displ. norm   :     0.7371053 α      lambda       -0.3504489E-02
   maximum displ.:     0.5303822 α      in ANC's #7, #6, #17, ...

........................................................................
.............................. CYCLE   39 ..............................
........................................................................

 iter      E             dE          RMSdq      gap      omega  full diag
   1   -199.6860801 -0.199686E+03  0.151E-01    0.63       0.0  T
   2   -199.6860776  0.249614E-05  0.694E-02    0.62       1.0  T
   3   -199.6857739  0.303691E-03  0.723E-02    0.63       1.0  T
   4   -199.6860424 -0.268506E-03  0.377E-02    0.63       1.0  T
   5   -199.6861018 -0.594123E-04  0.222E-02    0.62       1.0  T
   6   -199.6861172 -0.154239E-04  0.113E-02    0.63       1.0  T
   7   -199.6861227 -0.547878E-05  0.512E-03    0.62       1.9  T
   8   -199.6861230 -0.348008E-06  0.354E-03    0.62       2.8  T
   9   -199.6861232 -0.202901E-06  0.222E-03    0.62       4.4  T
  10   -199.6861233 -0.458028E-07  0.153E-03    0.62       6.4  T
  11   -199.6861234 -0.997526E-07  0.865E-04    0.62      11.4  T
  12   -199.6861234 -0.238261E-07  0.593E-04    0.62      16.6  T
     SCC iter.                  ...        0 min,  0.834 sec
     gradient                   ...        0 min,  0.031 sec
 * total energy  :  -197.4579600 Eh     change       -0.3154309E-02 Eh
   gradient norm :     0.0198772 Eh/α   predicted    -0.2704286E-02 ( -14.27%)
   displ. norm   :     0.8232654 α      lambda       -0.3724407E-02
   maximum displ.:     0.6029541 α      in ANC's #7, #6, #17, ...

........................................................................
.............................. CYCLE   40 ..............................
........................................................................

 iter      E             dE          RMSdq      gap      omega  full diag
   1   -199.6851245 -0.199685E+03  0.154E-01    0.62       0.0  T
   2   -199.6851431 -0.186361E-04  0.631E-02    0.62       1.0  T
   3   -199.6850933  0.497807E-04  0.380E-02    0.61       1.0  T
   4   -199.6850438  0.495100E-04  0.406E-02    0.63       1.0  T
   5   -199.6851437 -0.998594E-04  0.163E-02    0.62       1.0  T
   6   -199.6851516 -0.790875E-05  0.897E-03    0.62       1.1  T
   7   -199.6851550 -0.340677E-05  0.509E-03    0.62       1.9  T
   8   -199.6851553 -0.301884E-06  0.381E-03    0.62       2.6  T
   9   -199.6851554 -0.149668E-06  0.261E-03    0.62       3.8  T
  10   -199.6851555 -0.123142E-06  0.180E-03    0.62       5.5  T
  11   -199.6851557 -0.159543E-06  0.862E-04    0.62      11.4  T
  12   -199.6851557 -0.995436E-08  0.642E-04    0.62      15.4  T
     SCC iter.                  ...        0 min,  0.556 sec
     gradient                   ...        0 min,  0.031 sec
 * total energy  :  -197.4612609 Eh     change       -0.3300872E-02 Eh
   gradient norm :     0.0179941 Eh/α   predicted    -0.3124344E-02 (  -5.35%)
   displ. norm   :     0.8738660 α      lambda       -0.3682396E-02
   maximum displ.:     0.6553978 α      in ANC's #7, #6, #8, ...

........................................................................
.............................. CYCLE   41 ..............................
........................................................................

 iter      E             dE          RMSdq      gap      omega  full diag
   1   -199.6880357 -0.199688E+03  0.137E-01    0.62       0.0  T
   2   -199.6880630 -0.273250E-04  0.575E-02    0.58       1.0  T
   3   -199.6880316  0.314528E-04  0.357E-02    0.58       1.0  T
   4   -199.6880403 -0.875078E-05  0.265E-02    0.56       1.0  T
   5   -199.6880660 -0.256998E-04  0.131E-02    0.56       1.0  T
   6   -199.6880708 -0.475566E-05  0.907E-03    0.56       1.1  T
   7   -199.6880739 -0.315968E-05  0.611E-03    0.56       1.6  T
   8   -199.6880752 -0.125415E-05  0.327E-03    0.56       3.0  T
   9   -199.6880752 -0.533360E-07  0.206E-03    0.56       4.8  T
  10   -199.6880752  0.496525E-07  0.155E-03    0.56       6.4  T
  11   -199.6880753 -0.132291E-06  0.786E-04    0.56      12.5  T
  12   -199.6880753 -0.102520E-07  0.616E-04    0.56      16.0  T
     SCC iter.                  ...        0 min,  0.447 sec
     gradient                   ...        0 min,  0.033 sec
 * total energy  :  -197.4646267 Eh     change       -0.3365805E-02 Eh
   gradient norm :     0.0171182 Eh/α   predicted    -0.3247215E-02 (  -3.52%)
   displ. norm   :     0.8831126 α      lambda       -0.3860066E-02
   maximum displ.:     0.6704139 α      in ANC's #7, #6, #8, ...

........................................................................
.............................. CYCLE   42 ..............................
........................................................................

 iter      E             dE          RMSdq      gap      omega  full diag
   1   -199.6965893 -0.199697E+03  0.124E-01    0.58       0.0  T
   2   -199.6966262 -0.368539E-04  0.535E-02    0.53       1.0  T
   3   -199.6965407  0.854647E-04  0.484E-02    0.53       1.0  T
   4   -199.6966203 -0.796306E-04  0.257E-02    0.51       1.0  T
   5   -199.6966303 -0.993687E-05  0.173E-02    0.52       1.0  T
   6   -199.6966425 -0.122022E-04  0.969E-03    0.52       1.0  T
   7   -199.6966475 -0.504163E-05  0.468E-03    0.51       2.1  T
   8   -199.6966479 -0.434366E-06  0.330E-03    0.51       3.0  T
   9   -199.6966481 -0.119792E-06  0.201E-03    0.51       4.9  T
  10   -199.6966480  0.104678E-06  0.181E-03    0.52       5.4  T
  11   -199.6966481 -0.181986E-06  0.787E-04    0.52      12.5  T
  12   -199.6966482 -0.145081E-07  0.563E-04    0.52      17.5  T
     SCC iter.                  ...        0 min,  0.588 sec
     gradient                   ...        0 min,  0.043 sec
 * total energy  :  -197.4682856 Eh     change       -0.3658853E-02 Eh
   gradient norm :     0.0170319 Eh/α   predicted    -0.3435244E-02 (  -6.11%)
   displ. norm   :     0.8928811 α      lambda       -0.4195239E-02
   maximum displ.:     0.6837089 α      in ANC's #7, #6, #8, ...

   *** FAILED TO CONVERGE GEOMETRY OPTIMIZATION IN 42 ITERATIONS ***


 ANCopt (total)                0 d,  0 h,  0 min, 18.336 sec
 optimizer setup                ...        0 min,  0.001 sec (  0.005%)
 model hessian                  ...        0 min,  0.086 sec (  0.469%)
 ANC generation                 ...        0 min,  0.028 sec (  0.153%)
 coordinate transformation      ...        0 min,  0.003 sec (  0.016%)
 single point calculation       ...        0 min, 18.116 sec ( 98.800%)
 optimization log               ...        0 min,  0.071 sec (  0.387%)
 hessian update                 ...        0 min,  0.009 sec (  0.049%)
 rational function              ...        0 min,  0.010 sec (  0.055%)

================
 final structure:
================
103
 xtb: 6.7.1pre (5071a88)
C           -4.60885337018506       -3.49264561288645        9.40496128013904
C           -4.14457341433081       -2.98365496693487        8.27812647151071
C           -3.10996442905076       -1.91102713709515        8.17317077030387
O           -2.40360102925358       -1.77900189890916        7.18627543999828
N           -3.07691944227963       -1.10732073098575        9.26344652180200
C           -2.13804037640698       -0.10990107235086        9.58043036109641
C           -0.80802519964998       -0.29981578910231        9.22426417787899
C            0.16806511421681        0.60309858829871        9.61083388989607
N            1.51254488498889        0.42355090795383        9.35966276128508
C            2.18692305614110       -0.66225597721263        8.89320458145249
N            1.53362162119410       -1.72530360422680        8.41874888990526
C            2.28975050374796       -2.75166921195668        8.05165066917039
C            3.66650681179293       -2.73799665682124        8.12095802917825
C            4.26748261305186       -1.55701316499626        8.59398771168297
C            5.70113068844737       -1.40360368468929        8.67753965995950
C            6.64776972510802       -2.14658904842506        8.01147837718162
N            7.89846888188815       -1.70130897952000        8.29271211289588
C            9.11665671037897       -2.23029404993600        7.75377491072974
C            7.80058397942012       -0.65030296442261        9.16796684249899
C            8.79550940716053        0.12721286380067        9.74729529931700
C            8.39890239245517        1.12763807166971       10.61016271385549
C            7.04924815871478        1.34846397889164       10.89548080951412
C            6.05866139045829        0.58328973846204       10.31997518212570
C            6.43039141939846       -0.42632819498313        9.43616920300383
N            3.51230361620791       -0.53885844822364        8.98988559967603
C           -0.20928087190379        1.75363587819000       10.33400843533020
O            0.80434548419530        2.61714736152204       10.65286322444349
C            0.46257902416092        3.85436666039694       11.22744151199062
C           -1.53769785336524        1.93850794954626       10.66822548984852
C           -2.52051875168830        1.01788722715429       10.31328192699742
N           -3.85813667888718        1.34246920055472       10.69741523578915
C           -4.37866559956038        0.60223109246969       11.82955057038309
C           -4.76821266456195        1.46510225990162        9.57404237613589
C           -6.04519633484546        2.22842440585691        9.93916151263979
N           -7.06113707383038        1.39546551906313       10.56718914442573
C           -7.73332756559612        0.54446912709323        9.60645278336863
C           -8.03473809426300        2.19930798509243       11.27909868326149
H           -4.28290714889147       -3.16830184241974       10.37979908114415
H           -5.34176537042675       -4.28516428620635        9.40656989235085
H           -4.46649581437781       -3.38061997929125        7.32698128967357
H           -3.80618400497423       -1.24096481632786        9.94293707691273
H           -0.51461357152227       -1.17255629060666        8.66337811598228
H            2.11836958010451        1.17015971712206        9.67219827522928
H            1.74672654546015       -3.62420408870317        7.70659540740867
H            4.25498097544621       -3.59523150770412        7.84515736263029
H            6.50868753075716       -2.95550131823544        7.32000715355121
H            9.64521760462530       -1.47015082731602        7.17313810305343
H            8.88833953467713       -3.07155152870830        7.10225956441766
H            9.77368078155460       -2.57407915495118        8.55690513761304
H            9.84039591999628       -0.04254677725416        9.53253550062663
H            9.14571897231402        1.75371873120445       11.07569091242050
H            6.78614207915698        2.13959463689092       11.58321438229781
H            5.01541122236362        0.74716712984917       10.53231156692411
H            1.39638674941006        4.40979159467316       11.30895521584415
H            0.02783275185135        3.72955823199905       12.22428500205010
H           -0.23473590366443        4.40888561438574       10.59425575094327
H           -1.85854506290777        2.80636573506734       11.21950751495601
H           -4.82782051872564       -0.36463987635419       11.56904864621679
H           -5.15440752827390        1.19136754293004       12.30938924314844
H           -3.57757031195849        0.43454499081526       12.54384634938023
H           -4.23719623487627        2.02999903843997        8.80358687833761
H           -5.04592924238745        0.49221564679365        9.13994554428818
H           -5.77423056167094        3.02295042784254       10.63198735792950
H           -6.43875558935766        2.69667486470391        9.02516810083884
H           -7.01336201868239       -0.10138538783666        9.10622514714674
H           -8.27172629289888        1.12395472189649        8.83805224197452
H           -8.45012629837205       -0.08774617456273       10.13118252777144
H           -8.74888350981672        1.53821325094742       11.77020818616408
H           -8.59261182948749        2.87863722247676       10.61425963614484
H           -7.53349804933681        2.79340379179852       12.04146034780180
Ti          -2.03126974077857       -3.18623301943905        2.95485650220471
Ti           0.37274647944699       -1.84931809830715        2.22818020605392
Ti           1.86063224888385       -3.10910110187906       -0.11750215528696
Ti          -2.40840744214965       -0.39687997916217        2.28909479987849
Ti           2.16964139341564        0.28195558823133        3.05975543666402
Ti          -0.59804554786543       -0.27381282632993        4.76169415470556
Ti          -2.11109043874717       -3.09762032716092       -0.38903436144113
Ti          -0.61403554381758       -0.80394709336240       -1.11882983264610
Ti           1.83701119150009       -1.50360928360151       -2.70430157693838
Ti          -1.83627051105064        1.69685736817524       -0.24560185847376
Ti           2.42053986938103        0.43940164088298        0.06838258803268
Ti           0.77467234411865        1.85547141105504       -2.04778858325443
C           -3.54503646290400        1.19507749875337        1.66182942985459
C            4.16561804764234        0.42026697139850        1.18109575532993
C            0.51593745937280        2.21277874649887        1.27129158772687
C           -3.57622760154962        2.05546027825737        0.76875569930061
C            4.14125034911342        0.48154125937573        2.42243439387395
C           -0.54799854962297        2.73227044243633        0.78482350631658
C            1.66013085500495        1.67746919000075        1.67724938523209
O           -2.99616739790422       -2.08771042674739        1.92121890112431
O           -0.32936719116241       -2.89271902177782        3.43308006385426
O            0.32300379804820       -2.92751196303489        0.83515557969776
O           -0.70166068207753       -0.53246160223185        1.91446555897418
O            1.99926614980094       -1.33267693348045        2.18102626437855
O           -2.25052494872748       -0.41024927779981        4.00758655403272
O            1.11090703394283       -0.05046421621465        4.45477049965612
O           -1.70959839850185       -4.51855717250047       -1.01076132705025
O            0.06857600901008       -1.14457102299870       -2.68865135110249
O            2.78117685218427       -2.18712253311819       -1.29809238877284
O           -2.03038146047934       -0.27196825811522       -0.36008487945744
O            0.79232908158646       -0.38777760369242       -0.21723607301806
O           -0.93972669585353        1.61901310007787       -1.88577326500713
O            2.39128633193733        1.40680960997726       -1.39219988745867
 
 Bond Distances (Angstroems)
 ---------------------------
C1-C2=1.3208         C1-H38=1.0778        C1-H39=1.0795        C2-C1=1.3208         C2-C3=1.4940         C2-H40=1.0798        
C3-C2=1.4940         C3-O4=1.2208         C3-N5=1.3549         O4-C3=1.2208         N5-C3=1.3549         N5-C6=1.4060         
N5-H41=1.0057        C6-N5=1.4060         C6-C7=1.3899         C6-C30=1.3983        C7-C6=1.3899         C7-C8=1.3847         
C7-H42=1.0781        C8-C7=1.3847         C8-N9=1.3795         C8-C26=1.4104        N9-C8=1.3795         N9-C10=1.3606        
N9-H43=1.0110        C10-N9=1.3606        C10-N11=1.3349       C10-N25=1.3346       N11-C10=1.3349       N11-C12=1.3266       
C12-N11=1.3266       C12-C13=1.3786       C12-H44=1.0841       C13-C12=1.3786       C13-C14=1.4070       C13-H45=1.0757       
C14-C13=1.4070       C14-C15=1.4443       C14-N25=1.3280       C15-C14=1.4443       C15-C16=1.3754       C15-C24=1.4361       
C16-C15=1.3754       C16-N17=1.3571       C16-H46=1.0732       N17-C16=1.3571       N17-C18=1.4333       N17-C19=1.3712       
C18-N17=1.4333       C18-H47=1.0929       C18-H48=1.0883       C18-H49=1.0931       C19-N17=1.3712       C19-C20=1.3893       
C19-C24=1.4140       C20-C19=1.3893       C20-C21=1.3794       C20-H50=1.0802       C21-C20=1.3794       C21-C22=1.3970       
C21-H51=1.0800       C22-C21=1.3970       C22-C23=1.3777       C22-H52=1.0808       C23-C22=1.3777       C23-C24=1.3923       
C23-H53=1.0772       C24-C15=1.4361       C24-C19=1.4140       C24-C23=1.3923       N25-C10=1.3346       N25-C14=1.3280       
C26-C8=1.4104        C26-O27=1.3692       C26-C29=1.3822       O27-C26=1.3692       O27-C28=1.4063       C28-O27=1.4063       
C28-H54=1.0896       C28-H55=1.0947       C28-H56=1.0930       C29-C26=1.3822       C29-C30=1.3926       C29-H57=1.0770       
C30-C6=1.3983        C30-C29=1.3926       C30-N31=1.4290       N31-C30=1.4290       N31-C32=1.4494       N31-C33=1.4509       
C32-N31=1.4494       C32-H58=1.0975       C32-H59=1.0859       C32-H60=1.0863       C33-N31=1.4509       C33-C34=1.5319       
C33-H61=1.0930       C33-H62=1.1009       C34-C33=1.5319       C34-N35=1.4562       C34-H63=1.0884       C34-H64=1.0998       
N35-C34=1.4562       N35-C36=1.4488       N35-C37=1.4494       C36-N35=1.4488       C36-H65=1.0889       C36-H66=1.1028       
C36-H67=1.0903       C37-N35=1.4494       C37-H68=1.0901       C37-H69=1.1021       C37-H70=1.0888       H38-C1=1.0778        
H39-C1=1.0795        H40-C2=1.0798        H41-N5=1.0057        H42-C7=1.0781        H43-N9=1.0110        H44-C12=1.0841       
H45-C13=1.0757       H46-C16=1.0732       H47-C18=1.0929       H48-C18=1.0883       H49-C18=1.0931       H50-C20=1.0802       
H51-C21=1.0800       H52-C22=1.0808       H53-C23=1.0772       H54-C28=1.0896       H55-C28=1.0947       H56-C28=1.0930       
H57-C29=1.0770       H58-C32=1.0975       H59-C32=1.0859       H60-C32=1.0863       H61-C33=1.0930       H62-C33=1.1009       
H63-C34=1.0884       H64-C34=1.0998       H65-C36=1.0889       H66-C36=1.1028       H67-C36=1.0903       H68-C37=1.0901       
H69-C37=1.1021       H70-C37=1.0888       Ti71-Ti72=2.8451     Ti71-Ti74=2.8924     Ti71-Ti76=3.7150     Ti71-Ti77=3.3460     
Ti71-O90=1.7906      Ti71-O91=1.7920      Ti72-Ti71=2.8451     Ti72-Ti73=3.0501     Ti72-Ti74=3.1382     Ti72-Ti75=2.9091     
Ti72-Ti76=3.1374     Ti72-Ti77=3.8181     Ti72-Ti78=3.6427     Ti72-Ti81=3.7545     Ti72-O91=1.7417      Ti72-O92=1.7622      
Ti72-O93=1.7283      Ti72-O94=1.7073      Ti73-Ti72=3.0501     Ti73-Ti78=3.5271     Ti73-Ti79=3.0446     Ti73-Ti81=3.5972     
Ti73-O92=1.8179      Ti73-O99=1.7582      Ti74-Ti71=2.8924     Ti74-Ti72=3.1382     Ti74-Ti76=3.0670     Ti74-Ti77=3.8151     
Ti74-Ti80=3.3370     Ti74-C83=2.0542      Ti74-O90=1.8275      Ti74-O93=1.7526      Ti74-O95=1.7258      Ti74-O100=2.6789     
Ti75-Ti72=2.9091     Ti75-Ti76=3.2963     Ti75-Ti81=3.0060     Ti75-C84=2.7445      Ti75-C87=2.0816      Ti75-C89=2.0294      
Ti75-O94=1.8461      Ti75-O96=1.7826      Ti76-Ti71=3.7150     Ti76-Ti72=3.1374     Ti76-Ti74=3.0670     Ti76-Ti75=3.2963     
Ti76-O95=1.8215      Ti76-O96=1.7506      Ti77-Ti71=3.3460     Ti77-Ti72=3.8181     Ti77-Ti74=3.8151     Ti77-Ti78=2.8346     
Ti77-O90=2.6722      Ti77-O92=2.7299      Ti77-O97=1.6021      Ti78-Ti72=3.6427     Ti78-Ti73=3.5271     Ti78-Ti77=2.8346     
Ti78-Ti79=3.0018     Ti78-Ti80=2.9173     Ti78-Ti81=3.4877     Ti78-Ti82=3.1407     Ti78-O98=1.7454      Ti78-O100=1.6926     
Ti78-O101=1.7216     Ti78-O102=2.5622     Ti79-Ti73=3.0446     Ti79-Ti78=3.0018     Ti79-Ti81=3.4356     Ti79-Ti82=3.5837     
Ti79-O98=1.8046      Ti79-O99=1.8265      Ti80-Ti74=3.3370     Ti80-Ti78=2.9173     Ti80-Ti82=3.1765     Ti80-C83=2.6096      
Ti80-C85=2.8461      Ti80-C86=2.0457      Ti80-C88=1.9477      Ti80-O100=1.9817     Ti80-O102=1.8708     Ti81-Ti72=3.7545     
Ti81-Ti73=3.5972     Ti81-Ti75=3.0060     Ti81-Ti78=3.4877     Ti81-Ti79=3.4356     Ti81-Ti82=3.0319     Ti81-C84=2.0697      
Ti81-C85=2.8669      Ti81-C89=2.1678      Ti81-O101=1.8485     Ti81-O103=1.7522     Ti82-Ti78=3.1407     Ti82-Ti79=3.5837     
Ti82-Ti80=3.1765     Ti82-Ti81=3.0319     Ti82-O102=1.7382     Ti82-O103=1.8013     C83-Ti74=2.0542      C83-Ti80=2.6096      
C83-C86=1.2405       C84-Ti75=2.7445      C84-Ti81=2.0697      C84-C87=1.2431       C85-Ti80=2.8461      C85-Ti81=2.8669      
C85-C88=1.2800       C85-C89=1.3269       C86-Ti80=2.0457      C86-C83=1.2405       C87-Ti75=2.0816      C87-C84=1.2431       
C88-Ti80=1.9477      C88-C85=1.2800       C89-Ti75=2.0294      C89-Ti81=2.1678      C89-C85=1.3269       O90-Ti71=1.7906      
O90-Ti74=1.8275      O90-Ti77=2.6722      O91-Ti71=1.7920      O91-Ti72=1.7417      O92-Ti72=1.7622      O92-Ti73=1.8179      
O92-Ti77=2.7299      O93-Ti72=1.7283      O93-Ti74=1.7526      O94-Ti72=1.7073      O94-Ti75=1.8461      O95-Ti74=1.7258      
O95-Ti76=1.8215      O96-Ti75=1.7826      O96-Ti76=1.7506      O97-Ti77=1.6021      O98-Ti78=1.7454      O98-Ti79=1.8046      
O99-Ti73=1.7582      O99-Ti79=1.8265      O100-Ti74=2.6789     O100-Ti78=1.6926     O100-Ti80=1.9817     O101-Ti78=1.7216     
O101-Ti81=1.8485     O102-Ti78=2.5622     O102-Ti80=1.8708     O102-Ti82=1.7382     O103-Ti81=1.7522     O103-Ti82=1.8013     
 C  H  Rav=1.0874 sigma=0.0082  Rmin=1.0732  Rmax=1.1028    31
 C  C  Rav=1.3828 sigma=0.0651  Rmin=1.2405  Rmax=1.5319    24
 N  H  Rav=1.0083 sigma=0.0027  Rmin=1.0057  Rmax=1.0110     2
 N  C  Rav=1.3924 sigma=0.0484  Rmin=1.3266  Rmax=1.4562    17
 O  C  Rav=1.3321 sigma=0.0801  Rmin=1.2208  Rmax=1.4063     3
 Ti C  Rav=2.3148 sigma=0.3505  Rmin=1.9477  Rmax=2.8669    11
 Ti O  Rav=1.8914 sigma=0.3038  Rmin=1.6021  Rmax=2.7299    31
 Ti Ti Rav=3.2696 sigma=0.3101  Rmin=2.8346  Rmax=3.8181    28
 
 selected bond angles (degree)
 --------------------
H38-C1-C2=123.32               H39-C1-C2=121.53               H39-C1-H38=115.14              C3-C2-C1=125.46                
H40-C2-C1=120.34               H40-C2-C3=114.11               O4-C3-C2=122.35                N5-C3-C2=112.72                
N5-C3-O4=124.91                C6-N5-C3=128.21                H41-N5-C3=116.56               H41-N5-C6=115.23               
C7-C6-N5=118.97                C30-C6-N5=120.51               C30-C6-C7=120.41               C8-C7-C6=120.92                
H42-C7-C6=120.29               H42-C7-C8=118.77               N9-C8-C7=123.46                C26-C8-C7=119.11               
C26-C8-N9=117.41               C10-N9-C8=130.49               H43-N9-C8=115.57               H43-N9-C10=113.47              
N11-C10-N9=120.98              N25-C10-N9=113.18              N25-C10-N11=125.83             
 
 selected dihedral angles (degree)
 ---------------------------------
C3-C2-C1-H38=  0.54           C3-C2-C1-H39=181.49           H40-C2-C1-H38=176.76          H40-C2-C1-H39=357.71          
O4-C3-C2-C1=155.14            O4-C3-C2-H40=338.72           N5-C3-C2-C1=333.67            N5-C3-C2-H40=157.25           
C6-N5-C3-C2=171.61            C6-N5-C3-O4=350.10            H41-N5-C3-C2=352.40           H41-N5-C3-O4=170.88           
C7-C6-N5-C3=325.04            C7-C6-N5-H41=144.27           C30-C6-N5-C3=148.87           C30-C6-N5-H41=328.09          
C8-C7-C6-N5=185.29            C8-C7-C6-C30=  1.47           H42-C7-C6-N5=  3.52           H42-C7-C6-C30=179.70          
N9-C8-C7-C6=175.77            N9-C8-C7-H42=357.51           C26-C8-C7-C6=357.67           C26-C8-C7-H42=179.41          
C10-N9-C8-C7=349.92           C10-N9-C8-C26=168.05          H43-N9-C8-C7=178.36           H43-N9-C8-C26=356.49          
N11-C10-N9-C8=  9.59          N11-C10-N9-H43=181.28         N25-C10-N9-C8=190.64          N25-C10-N9-H43=  2.34         
 
 CMA Distance (Angstroems)
 ---------------------------
R(CMA):  8.7466
           -------------------------------------------------
          |                Final Singlepoint                |
           -------------------------------------------------

          ...................................................
          :                      SETUP                      :
          :.................................................:
          :  # basis functions                 385          :
          :  # atomic orbitals                 373          :
          :  # shells                          185          :
          :  # electrons                       352          :
          :  max. iterations                   500          :
          :  Hamiltonian                  GFN2-xTB          :
          :  restarted?                      false          :
          :  GBSA solvation                  false          :
          :  PC potential                    false          :
          :  electronic temp.          500.0000000     K    :
          :  accuracy                    1.0000000          :
          :  -> integral cutoff          0.2500000E+02      :
          :  -> integral neglect         0.1000000E-07      :
          :  -> SCF convergence          0.1000000E-05 Eh   :
          :  -> wf. convergence          0.1000000E-03 e    :
          :  Broyden damping             0.4000000          :
          :  net charge                          0          :
          :  unpaired electrons                  0          :
          ...................................................

 iter      E             dE          RMSdq      gap      omega  full diag
   1   -199.7105638 -0.199711E+03  0.143E-01    0.55       0.0  T
   2   -199.7105177  0.460727E-04  0.671E-02    0.50       1.0  T
   3   -199.7099192  0.598533E-03  0.100E-01    0.51       1.0  T
   4   -199.7106030 -0.683822E-03  0.237E-02    0.49       1.0  T
   5   -199.7106141 -0.110453E-04  0.140E-02    0.49       1.0  T
   6   -199.7106214 -0.736409E-05  0.786E-03    0.48       1.3  T
   7   -199.7106228 -0.134784E-05  0.586E-03    0.49       1.7  T
   8   -199.7106243 -0.152136E-05  0.306E-03    0.49       3.2  T
   9   -199.7106243 -0.435561E-07  0.219E-03    0.49       4.5  T
  10   -199.7106244 -0.520985E-07  0.145E-03    0.49       6.8  T
  11   -199.7106245 -0.662941E-07  0.940E-04    0.49      10.5  T
  12   -199.7106245 -0.299796E-07  0.551E-04    0.49      17.9  T

   *** convergence criteria satisfied after 12 iterations ***

         #    Occupation            Energy/Eh            Energy/eV
      -------------------------------------------------------------
         1        2.0000           -0.8016900             -21.8151
       ...           ...                  ...                  ...
       170        2.0000           -0.3418921              -9.3034
       171        2.0000           -0.3339239              -9.0865
       172        2.0000           -0.3283182              -8.9340
       173        2.0000           -0.3227371              -8.7821
       174        2.0000           -0.3173396              -8.6352
       175        2.0000           -0.3043119              -8.2807
       176        1.9926           -0.2913570              -7.9282 (HOMO)
       177        0.0067           -0.2734952              -7.4422 (LUMO)
       178        0.0003           -0.2687915              -7.3142
       179        0.0003           -0.2683077              -7.3010
       180        0.0001           -0.2664506              -7.2505
       181        0.0000           -0.2649149              -7.2087
       ...           ...                  ...                  ...
       373                         13.2853040             361.5115
      -------------------------------------------------------------
                  HL-Gap            0.0178618 Eh            0.4860 eV
             Fermi-level           -0.2825068 Eh           -7.6874 eV

 SCC (total)                   0 d,  0 h,  0 min,  0.731 sec
 SCC setup                      ...        0 min,  0.001 sec (  0.137%)
 Dispersion                     ...        0 min,  0.006 sec (  0.821%)
 classical contributions        ...        0 min,  0.000 sec (  0.000%)
 integral evaluation            ...        0 min,  0.017 sec (  2.326%)
 iterations                     ...        0 min,  0.677 sec ( 92.613%)
 molecular gradient             ...        0 min,  0.027 sec (  3.694%)
 printout                       ...        0 min,  0.003 sec (  0.410%)

         :::::::::::::::::::::::::::::::::::::::::::::::::::::
         ::                     SUMMARY                     ::
         :::::::::::::::::::::::::::::::::::::::::::::::::::::
         :: total energy            -197.472136181107 Eh    ::
         :: gradient norm              0.017656766513 Eh/a0 ::
         :: HOMO-LUMO gap              0.486043494081 eV    ::
         ::.................................................::
         :: SCC energy              -199.707763575112 Eh    ::
         :: -> isotropic ES            1.015598600997 Eh    ::
         :: -> anisotropic ES         -0.394090739809 Eh    ::
         :: -> anisotropic XC         -0.006973101173 Eh    ::
         :: -> dispersion             -0.173797432363 Eh    ::
         :: repulsion energy           2.235627394004 Eh    ::
         :: add. restraining           0.000000000000 Eh    ::
         :: total charge              -0.000000000000 e     ::
         :::::::::::::::::::::::::::::::::::::::::::::::::::::

           -------------------------------------------------
          |                Property Printout                |
           -------------------------------------------------

    * Orbital Energies and Occupations

         #    Occupation            Energy/Eh            Energy/eV
      -------------------------------------------------------------
         1        2.0000           -0.8016900             -21.8151
       ...           ...                  ...                  ...
       164        2.0000           -0.3573097              -9.7229
       165        2.0000           -0.3565804              -9.7030
       166        2.0000           -0.3532007              -9.6111
       167        2.0000           -0.3496603              -9.5147
       168        2.0000           -0.3445764              -9.3764
       169        2.0000           -0.3440465              -9.3620
       170        2.0000           -0.3418921              -9.3034
       171        2.0000           -0.3339239              -9.0865
       172        2.0000           -0.3283182              -8.9340
       173        2.0000           -0.3227371              -8.7821
       174        2.0000           -0.3173396              -8.6352
       175        2.0000           -0.3043119              -8.2807
       176        1.9926           -0.2913570              -7.9282 (HOMO)
       177        0.0067           -0.2734952              -7.4422 (LUMO)
       178        0.0003           -0.2687915              -7.3142
       179        0.0003           -0.2683077              -7.3010
       180        0.0001           -0.2664506              -7.2505
       181        0.0000           -0.2649149              -7.2087
       182        0.0000           -0.2632214              -7.1626
       183        0.0000           -0.2574491              -7.0055
       184        0.0000           -0.2572125              -6.9991
       185                         -0.2553841              -6.9494
       186                         -0.2551115              -6.9419
       187                         -0.2545537              -6.9268
       ...                                ...                  ...
       373                         13.2853040             361.5115
      -------------------------------------------------------------
                  HL-Gap            0.0178618 Eh            0.4860 eV
             Fermi-level           -0.2825068 Eh           -7.6874 eV

     #   Z          covCN         q      C6AA      α(0)
     1   6 C        2.836    -0.083    30.065     8.986
     2   6 C        2.894    -0.063    29.565     8.915
     3   6 C        2.751     0.270    22.435     7.756
     4   8 O        0.858    -0.396    21.596     6.231
     5   7 N        2.699    -0.150    24.246     7.313
     6   6 C        2.907     0.047    26.940     8.511
     7   6 C        2.923    -0.080    29.995     8.981
     8   6 C        2.904     0.053    26.820     8.492
     9   7 N        2.719    -0.132    23.859     7.255
    10   6 C        2.886     0.231    23.162     7.890
    11   7 N        1.837    -0.282    28.172     7.866
    12   6 C        2.926     0.070    26.439     8.432
    13   6 C        2.909    -0.082    30.041     8.987
    14   6 C        2.961     0.117    25.425     8.271
    15   6 C        3.063    -0.038    28.888     8.814
    16   6 C        3.045    -0.008    28.175     8.706
    17   7 N        2.815    -0.008    21.416     6.873
    18   6 C        3.690    -0.054    21.741     6.673
    19   6 C        3.101     0.032    27.157     8.540
    20   6 C        2.908    -0.051    29.267     8.871
    21   6 C        2.924    -0.037    28.920     8.819
    22   6 C        2.920    -0.040    28.997     8.830
    23   6 C        2.912    -0.034    28.835     8.805
    24   6 C        3.109    -0.007    28.054     8.678
    25   7 N        1.865    -0.293    28.444     7.905
    26   6 C        2.869     0.114    25.482     8.275
    27   8 O        1.705    -0.273    18.526     5.811
    28   6 C        3.645     0.028    20.432     6.497
    29   6 C        2.925    -0.084    30.102     8.998
    30   6 C        2.922     0.034    27.247     8.560
    31   7 N        2.732    -0.166    24.598     7.366
    32   6 C        3.700    -0.041    21.475     6.627
    33   6 C        3.754    -0.002    20.663     6.482
    34   6 C        3.763    -0.000    20.627     6.474
    35   7 N        2.723    -0.172    24.718     7.384
    36   6 C        3.718    -0.035    21.316     6.595
    37   6 C        3.720    -0.035    21.321     6.595
    38   1 H        0.926     0.054     2.276     2.359
    39   1 H        0.926     0.062     2.171     2.304
    40   1 H        0.926     0.074     2.044     2.236
    41   1 H        0.860     0.195     1.132     1.667
    42   1 H        0.926     0.112     1.679     2.026
    43   1 H        0.860     0.213     1.044     1.601
    44   1 H        0.925     0.037     2.488     2.467
    45   1 H        0.926     0.031     2.575     2.509
    46   1 H        0.926     0.039     2.464     2.454
    47   1 H        0.924     0.063     2.168     2.303
    48   1 H        0.925     0.063     2.160     2.298
    49   1 H        0.924     0.060     2.194     2.316
    50   1 H        0.926     0.027     2.634     2.538
    51   1 H        0.926     0.029     2.595     2.519
    52   1 H        0.926     0.029     2.594     2.519
    53   1 H        0.926     0.051     2.310     2.377
    54   1 H        0.925     0.067     2.120     2.277
    55   1 H        0.924     0.046     2.374     2.410
    56   1 H        0.924     0.048     2.349     2.397
    57   1 H        0.926     0.065     2.145     2.290
    58   1 H        0.924     0.012     2.863     2.646
    59   1 H        0.925     0.061     2.187     2.313
    60   1 H        0.925     0.041     2.435     2.440
    61   1 H        0.924     0.042     2.419     2.432
    62   1 H        0.923     0.017     2.786     2.610
    63   1 H        0.925     0.052     2.300     2.372
    64   1 H        0.923     0.017     2.779     2.607
    65   1 H        0.925     0.035     2.513     2.479
    66   1 H        0.923     0.015     2.812     2.622
    67   1 H        0.924     0.040     2.451     2.448
    68   1 H        0.925     0.041     2.434     2.440
    69   1 H        0.923     0.015     2.816     2.625
    70   1 H        0.925     0.038     2.477     2.461
    71  22 Ti       3.658     1.042   101.672    24.431
    72  22 Ti       6.874     1.557    83.998    14.880
    73  22 Ti       3.280     1.043   102.698    24.745
    74  22 Ti       5.812     1.375    85.721    15.032
    75  22 Ti       5.463     1.121    88.205    15.248
    76  22 Ti       3.348     1.029   102.842    24.759
    77  22 Ti       2.346     0.871   203.159    34.900
    78  22 Ti       6.113     1.360    85.860    15.044
    79  22 Ti       3.395     0.991   103.267    24.807
    80  22 Ti       5.526     1.088    88.538    15.277
    81  22 Ti       5.597     1.189    87.533    15.190
    82  22 Ti       3.591     1.012   102.578    24.646
    83   6 C        2.255    -0.259    37.610     9.939
    84   6 C        2.076    -0.259    38.685    10.048
    85   6 C        2.282    -0.019    30.299     8.929
    86   6 C        1.833    -0.215    37.484     9.891
    87   6 C        1.911    -0.229    37.892     9.941
    88   6 C        1.824    -0.346    42.151    10.490
    89   6 C        2.627    -0.402    39.836    10.324
    90   8 O        1.588    -0.860    32.358     7.676
    91   8 O        1.466    -0.883    33.284     7.777
    92   8 O        1.552    -0.961    35.792     8.071
    93   8 O        1.493    -1.010    37.645     8.273
    94   8 O        1.532    -0.913    34.148     7.883
    95   8 O        1.462    -0.815    31.147     7.523
    96   8 O        1.465    -0.814    31.112     7.519
    97   8 O        0.727    -0.653    27.525     7.030
    98   8 O        1.453    -0.866    32.753     7.713
    99   8 O        1.461    -0.798    30.643     7.461
   100   8 O        1.616    -0.948    35.250     8.013
   101   8 O        1.539    -0.968    36.050     8.100
   102   8 O        1.698    -0.820    31.080     7.527
   103   8 O        1.453    -0.782    30.197     7.406

 Mol. C6AA /au·bohr⁶  :     224149.929375
 Mol. C8AA /au·bohr⁸  :    8947658.994801
 Mol. α(0) /au        :        795.914950


Wiberg/Mayer (AO) data.
largest (>0.10) Wiberg bond orders for each atom

 ---------------------------------------------------------------------------
     #   Z sym  total        # sym  WBO       # sym  WBO       # sym  WBO
 ---------------------------------------------------------------------------
     1   6 C    3.978 --     2 C    1.943    39 H    0.973    38 H    0.967
     2   6 C    3.974 --     1 C    1.943     3 C    0.998    40 H    0.956
     3   6 C    3.942 --     4 O    1.636     5 N    1.228     2 C    0.998
     4   8 O    2.134 --     3 C    1.636     5 N    0.181    76 Ti   0.140
     5   7 N    3.498 --     3 C    1.228     6 C    1.044    41 H    0.913
                             4 O    0.181
     6   6 C    3.956 --     7 C    1.368    30 C    1.346     5 N    1.044
     7   6 C    3.977 --     8 C    1.386     6 C    1.368    42 H    0.925
     8   6 C    3.965 --     7 C    1.386    26 C    1.262     9 N    1.117
     9   7 N    3.504 --    10 C    1.176     8 C    1.117    43 H    0.917
    10   6 C    3.964 --    25 N    1.323    11 N    1.315     9 N    1.176
    11   7 N    3.054 --    12 C    1.407    10 C    1.315
    12   6 C    3.974 --    13 C    1.468    11 N    1.407    44 H    0.960
    13   6 C    3.973 --    12 C    1.468    14 C    1.314    45 H    0.969
    14   6 C    3.972 --    25 N    1.391    13 C    1.314    15 C    1.102
    15   6 C    3.976 --    16 C    1.493    24 C    1.175    14 C    1.102
    16   6 C    3.956 --    15 C    1.493    17 N    1.238    46 H    0.966
    17   7 N    3.610 --    16 C    1.238    19 C    1.146    18 C    1.008
    18   6 C    3.971 --    17 N    1.008    48 H    0.981    49 H    0.974
                            47 H    0.973
    19   6 C    3.956 --    20 C    1.342    24 C    1.258    17 N    1.146
    20   6 C    3.987 --    21 C    1.488    19 C    1.342    50 H    0.968
                            23 C    0.114
    21   6 C    3.989 --    20 C    1.488    22 C    1.378    51 H    0.972
    22   6 C    3.987 --    23 C    1.497    21 C    1.378    52 H    0.971
    23   6 C    3.990 --    22 C    1.497    24 C    1.342    53 H    0.966
                            20 C    0.114
    24   6 C    3.985 --    23 C    1.342    19 C    1.258    15 C    1.175
    25   7 N    3.033 --    14 C    1.391    10 C    1.323
    26   6 C    3.927 --    29 C    1.412     8 C    1.262    27 O    1.048
    27   8 O    2.213 --    26 C    1.048    28 C    0.982
    28   6 C    3.942 --    27 O    0.982    54 H    0.979    56 H    0.977
                            55 H    0.976
    29   6 C    3.981 --    26 C    1.412    30 C    1.379    57 H    0.961
    30   6 C    3.964 --    29 C    1.379     6 C    1.346    31 N    1.011
    31   7 N    3.138 --    30 C    1.011    32 C    1.003    33 C    0.996
    32   6 C    3.982 --    31 N    1.003    60 H    0.984    59 H    0.977
                            58 H    0.968
    33   6 C    3.985 --    31 N    0.996    34 C    0.996    61 H    0.972
                            62 H    0.954
    34   6 C    3.986 --    35 N    1.003    33 C    0.996    63 H    0.971
                            64 H    0.964
    35   7 N    3.120 --    36 C    1.018    37 C    1.015    34 C    1.003
    36   6 C    3.988 --    35 N    1.018    67 H    0.982    65 H    0.977
                            66 H    0.972
    37   6 C    3.987 --    35 N    1.015    70 H    0.982    68 H    0.982
                            69 H    0.974
    38   1 H    0.997 --     1 C    0.967
    39   1 H    0.996 --     1 C    0.973
    40   1 H    0.994 --     2 C    0.956
    41   1 H    0.961 --     5 N    0.913
    42   1 H    0.987 --     7 C    0.925
    43   1 H    0.954 --     9 N    0.917
    44   1 H    0.998 --    12 C    0.960
    45   1 H    0.999 --    13 C    0.969
    46   1 H    0.998 --    16 C    0.966
    47   1 H    0.994 --    18 C    0.973
    48   1 H    0.996 --    18 C    0.981
    49   1 H    0.994 --    18 C    0.974
    50   1 H    0.999 --    20 C    0.968
    51   1 H    0.999 --    21 C    0.972
    52   1 H    0.999 --    22 C    0.971
    53   1 H    0.997 --    23 C    0.966
    54   1 H    0.995 --    28 C    0.979
    55   1 H    0.997 --    28 C    0.976
    56   1 H    0.997 --    28 C    0.977
    57   1 H    0.995 --    29 C    0.961
    58   1 H    1.000 --    32 C    0.968
    59   1 H    0.995 --    32 C    0.977
    60   1 H    0.998 --    32 C    0.984
    61   1 H    0.997 --    33 C    0.972
    62   1 H    1.000 --    33 C    0.954
    63   1 H    0.997 --    34 C    0.971
    64   1 H    0.999 --    34 C    0.964
    65   1 H    0.999 --    36 C    0.977
    66   1 H    1.000 --    36 C    0.972
    67   1 H    0.998 --    36 C    0.982
    68   1 H    0.998 --    37 C    0.982
    69   1 H    1.000 --    37 C    0.974
    70   1 H    0.999 --    37 C    0.982
    71  22 Ti   2.839 --    90 O    0.830    91 O    0.816    77 Ti   0.328
                            72 Ti   0.197    74 Ti   0.194    76 Ti   0.130
                            95 O    0.103
    72  22 Ti   3.843 --    91 O    0.751    94 O    0.740    92 O    0.678
                            93 O    0.605    71 Ti   0.197    73 Ti   0.185
                            75 Ti   0.149    76 Ti   0.126
    73  22 Ti   2.731 --    99 O    0.961    92 O    0.598    79 Ti   0.373
                            72 Ti   0.185    77 Ti   0.137    94 O    0.112
    74  22 Ti   3.935 --    95 O    0.973    83 C    0.716    90 O    0.691
                            93 O    0.581    76 Ti   0.214    71 Ti   0.194
                            80 Ti   0.167   100 O    0.121
    75  22 Ti   4.061 --    89 C    0.883    96 O    0.779    87 C    0.737
                            94 O    0.600    81 Ti   0.282    76 Ti   0.165
                            88 C    0.155    72 Ti   0.149    84 C    0.142
    76  22 Ti   2.746 --    96 O    0.908    95 O    0.675    74 Ti   0.214
                            75 Ti   0.165     4 O    0.140    71 Ti   0.130
                            72 Ti   0.126    91 O    0.120
    77  22 Ti   3.718 --    97 O    1.970    78 Ti   0.590    71 Ti   0.328
                            90 O    0.152    92 O    0.148    73 Ti   0.137
                           100 O    0.121
    78  22 Ti   4.011 --   100 O    0.810    98 O    0.754   101 O    0.705
                            77 Ti   0.590   102 O    0.202    79 Ti   0.162
                            80 Ti   0.145    82 Ti   0.138
    79  22 Ti   2.770 --    98 O    0.830    99 O    0.785    73 Ti   0.373
                            82 Ti   0.254    78 Ti   0.162    81 Ti   0.119
    80  22 Ti   4.012 --    88 C    1.066    86 C    0.729   102 O    0.608
                           100 O    0.426    89 C    0.236    82 Ti   0.200
                            74 Ti   0.167    83 C    0.157    78 Ti   0.145
    81  22 Ti   4.074 --   103 O    0.955    84 C    0.673    89 C    0.653
                           101 O    0.458    75 Ti   0.282    82 Ti   0.207
                            88 C    0.145    79 Ti   0.119    99 O    0.101
    82  22 Ti   2.819 --   102 O    0.891   103 O    0.749    79 Ti   0.254
                            81 Ti   0.207    80 Ti   0.200    78 Ti   0.138
    83   6 C    3.844 --    86 C    2.742    74 Ti   0.716    80 Ti   0.157
    84   6 C    3.782 --    87 C    2.737    81 Ti   0.673    75 Ti   0.142
    85   6 C    3.978 --    88 C    1.995    89 C    1.618
    86   6 C    3.705 --    83 C    2.742    80 Ti   0.729
    87   6 C    3.743 --    84 C    2.737    75 Ti   0.737
    88   6 C    3.764 --    85 C    1.995    80 Ti   1.066    75 Ti   0.155
                            81 Ti   0.145
    89   6 C    3.829 --    85 C    1.618    75 Ti   0.883    81 Ti   0.653
                            80 Ti   0.236
    90   8 O    1.916 --    71 Ti   0.830    74 Ti   0.691    77 Ti   0.152
    91   8 O    1.891 --    71 Ti   0.816    72 Ti   0.751    76 Ti   0.120
    92   8 O    1.777 --    72 Ti   0.678    73 Ti   0.598    77 Ti   0.148
    93   8 O    1.713 --    72 Ti   0.605    74 Ti   0.581
    94   8 O    1.844 --    72 Ti   0.740    75 Ti   0.600    73 Ti   0.112
    95   8 O    1.981 --    74 Ti   0.973    76 Ti   0.675    71 Ti   0.103
    96   8 O    1.989 --    76 Ti   0.908    75 Ti   0.779
    97   8 O    2.150 --    77 Ti   1.970
    98   8 O    1.909 --    79 Ti   0.830    78 Ti   0.754
    99   8 O    2.010 --    73 Ti   0.961    79 Ti   0.785    81 Ti   0.101
   100   8 O    1.795 --    78 Ti   0.810    80 Ti   0.426    77 Ti   0.121
                            74 Ti   0.121
   101   8 O    1.774 --    78 Ti   0.705    81 Ti   0.458
   102   8 O    1.981 --    82 Ti   0.891    80 Ti   0.608    78 Ti   0.202
   103   8 O    2.029 --    81 Ti   0.955    82 Ti   0.749
 ---------------------------------------------------------------------------

Topologies differ in total number of bonds
Writing topology from bond orders to xtbtopo.mol

molecular dipole:
                 x           y           z       tot (Debye)
 q only:        0.637      -0.618       2.901
   full:       -0.675      -1.370       3.320       9.290
molecular quadrupole (traceless):
                xx          xy          yy          xz          yz          zz
 q only:      -30.645     -10.117     -57.150     -45.691      -3.621      87.795
  q+dip:        3.715     -23.804     -65.657     -19.359     -26.200      61.942
   full:        4.286     -23.518     -65.514     -19.633     -27.295      61.229

           -------------------------------------------------
          |                Geometry Summary                 |
           -------------------------------------------------

      molecular mass/u    :     1382.0761420
   center of mass at/Å    :        0.2185535      -0.4709771       3.9339699
  moments of inertia/u·Å² :        0.2060038E+05   0.3325378E+05   0.4530764E+05
rotational constants/cm⁻¹ :        0.8183168E-03   0.5069389E-03   0.3720704E-03

 * 105 selected distances

     #   Z          #   Z                                           value/Å
     1   6 C        2   6 C                                       1.3207514
     3   6 C        4   8 O                                       1.2207959
     3   6 C        5   7 N                                       1.3548939
     5   7 N        6   6 C                                       1.4059940
     6   6 C        7   6 C                                       1.3899146
     7   6 C        8   6 C                                       1.3847177
     8   6 C        9   7 N                                       1.3794747
     9   7 N       10   6 C                                       1.3606418
    10   6 C       11   7 N                                       1.3349088
    11   7 N       12   6 C                                       1.3266193
    12   6 C       13   6 C                                       1.3785676
    13   6 C       14   6 C                                       1.4070008
    15   6 C       16   6 C                                       1.3754238
    16   6 C       17   7 N                                       1.3570613
    17   7 N       18   6 C                                       1.4332692
    17   7 N       19   6 C                                       1.3712280
    19   6 C       20   6 C                                       1.3892549
    20   6 C       21   6 C                                       1.3793797
    21   6 C       22   6 C                                       1.3970460
    22   6 C       23   6 C                                       1.3776650
    15   6 C       24   6 C                                       1.4361085
    19   6 C       24   6 C                                       1.4140457
    23   6 C       24   6 C                                       1.3923451
    10   6 C       25   7 N                                       1.3346191
    14   6 C       25   7 N                                       1.3280323
     8   6 C       26   6 C                                       1.4103573
    26   6 C       27   8 O                                       1.3692185
    27   8 O       28   6 C                                       1.4062917
    26   6 C       29   6 C                                       1.3822340
     6   6 C       30   6 C                                       1.3983090
    29   6 C       30   6 C                                       1.3926467
    31   7 N       32   6 C                                       1.4493563
    31   7 N       33   6 C                                       1.4509459
    33   6 C       34   6 C                                       1.5318813
    34   6 C       35   7 N                                       1.4561508
    35   7 N       36   6 C                                       1.4488097
    35   7 N       37   6 C                                       1.4494403
     1   6 C       38   1 H                                       1.0778445
     1   6 C       39   1 H                                       1.0794668
     2   6 C       40   1 H                                       1.0797651
     5   7 N       41   1 H                                       1.0056814 (min)
     7   6 C       42   1 H                                       1.0781279
     9   7 N       43   1 H                                       1.0110029
    12   6 C       44   1 H                                       1.0840920
    13   6 C       45   1 H                                       1.0757414
    16   6 C       46   1 H                                       1.0732267
    18   6 C       47   1 H                                       1.0928557
    18   6 C       48   1 H                                       1.0882625
    18   6 C       49   1 H                                       1.0931090
    20   6 C       50   1 H                                       1.0801519
    21   6 C       51   1 H                                       1.0800133
    22   6 C       52   1 H                                       1.0807822
    23   6 C       53   1 H                                       1.0771786
    28   6 C       54   1 H                                       1.0895588
    28   6 C       55   1 H                                       1.0946591
    28   6 C       56   1 H                                       1.0930068
    29   6 C       57   1 H                                       1.0770479
    32   6 C       58   1 H                                       1.0974703
    32   6 C       59   1 H                                       1.0858649
    32   6 C       60   1 H                                       1.0863199
    33   6 C       61   1 H                                       1.0930182
    33   6 C       62   1 H                                       1.1009428
    34   6 C       63   1 H                                       1.0884401
    34   6 C       64   1 H                                       1.0997871
    36   6 C       65   1 H                                       1.0889014
    36   6 C       66   1 H                                       1.1027767
    36   6 C       67   1 H                                       1.0903385
    37   6 C       68   1 H                                       1.0900636
    37   6 C       69   1 H                                       1.1021445
    37   6 C       70   1 H                                       1.0887548
    71  22 Ti      72  22 Ti                                      2.8451178
    72  22 Ti      75  22 Ti                                      2.9090682 (max)
    74  22 Ti      83   6 C                                       2.0541949
    83   6 C       86   6 C                                       1.2404888
    84   6 C       87   6 C                                       1.2430890
    80  22 Ti      88   6 C                                       1.9476915
    85   6 C       88   6 C                                       1.2800324
    75  22 Ti      89   6 C                                       2.0293799
    85   6 C       89   6 C                                       1.3268523
    71  22 Ti      90   8 O                                       1.7905828
    74  22 Ti      90   8 O                                       1.8274853
    71  22 Ti      91   8 O                                       1.7920159
    72  22 Ti      91   8 O                                       1.7416754
    72  22 Ti      92   8 O                                       1.7622413
    73  22 Ti      92   8 O                                       1.8179200
    72  22 Ti      93   8 O                                       1.7282590
    74  22 Ti      93   8 O                                       1.7526307
    72  22 Ti      94   8 O                                       1.7072517
    75  22 Ti      94   8 O                                       1.8461396
    74  22 Ti      95   8 O                                       1.7257810
    76  22 Ti      95   8 O                                       1.8215329
    75  22 Ti      96   8 O                                       1.7825513
    76  22 Ti      96   8 O                                       1.7506017
    77  22 Ti      97   8 O                                       1.6021243
    78  22 Ti      98   8 O                                       1.7453720
    79  22 Ti      98   8 O                                       1.8045822
    73  22 Ti      99   8 O                                       1.7581925
    79  22 Ti      99   8 O                                       1.8264895
    78  22 Ti     100   8 O                                       1.6925518
    78  22 Ti     101   8 O                                       1.7216069
    81  22 Ti     101   8 O                                       1.8484790
    80  22 Ti     102   8 O                                       1.8708323
    82  22 Ti     102   8 O                                       1.7381962
    81  22 Ti     103   8 O                                       1.7521517
    82  22 Ti     103   8 O                                       1.8012594

 * 8 distinct bonds (by element types)

   Z      Z             #   av. dist./Å        max./Å        min./Å
   1 H    6 C          31     1.0874101     1.1027767     1.0732267
   6 C    6 C          22     1.3749142     1.5318813     1.2404888
   1 H    7 N           2     1.0083422     1.0110029     1.0056814
   6 C    7 N          16     1.3900903     1.4561508     1.3266193
   6 C    8 O           3     1.3321020     1.4062917     1.2207959
   6 C   22 Ti          3     2.0104221     2.0541949     1.9476915
   8 O   22 Ti         26     1.7695579     1.8708323     1.6021243
  22 Ti  22 Ti          2     2.8770930     2.9090682     2.8451178


optimized geometry written to: xtbopt.xyz


           -------------------------------------------------
          | TOTAL ENERGY             -197.472136181107 Eh   |
          | GRADIENT NORM               0.017656766513 Eh/α |
          | HOMO-LUMO GAP               0.486043494081 eV   |
           -------------------------------------------------

------------------------------------------------------------------------
 * finished run on 2026/08/31 at 21:54:45.398     
------------------------------------------------------------------------
 total:
 * wall-time:     0 d,  0 h,  0 min, 21.876 sec
 *  cpu-time:     0 d,  0 h,  2 min, 48.156 sec
 * ratio c/w:     7.687 speedup
 SCF:
 * wall-time:     0 d,  0 h,  0 min,  2.733 sec
 *  cpu-time:     0 d,  0 h,  0 min, 22.359 sec
 * ratio c/w:     8.181 speedup
 ANC optimizer:
 * wall-time:     0 d,  0 h,  0 min, 19.079 sec
 *  cpu-time:     0 d,  0 h,  2 min, 25.562 sec
 * ratio c/w:     7.629 speedup

normal termination of xtb
