103
 energy: -197.611891123090 gnorm: 0.002882631073 xtb: 6.7.1pre (5071a88)
C           -4.61027652388449       -3.86835813251236        7.10914326801461
C           -3.87228940778812       -2.99640997232022        6.38244266344145
C           -2.89627273789272       -2.08968280470685        6.92272906348063
O           -2.03222923955767       -1.47262763160389        6.19601782086148
N           -3.02907201541975       -1.74690899903920        8.25886729654522
C           -2.22746366468201       -0.70659543130905        8.75531340948631
C           -0.85154690144198       -0.87764236525042        8.60214979690195
C            0.01668300456570        0.19150916159874        8.72856622695600
N            1.39342007298967        0.06508629352010        8.57116167107355
C            2.08689907148032       -0.92536440055903        7.94299705112373
N            1.47100933287213       -2.02179801426042        7.45666297243498
C            2.27299791692338       -3.00245473786954        7.02530918922368
C            3.64841056900387       -2.88066058571108        6.98044078016260
C            4.19662113502220       -1.66603312192444        7.45337348048928
C            5.61489477294622       -1.40284114489287        7.47272876234621
C            6.56489927099767       -1.89439345791025        6.59893536703792
N            7.79268336370159       -1.41750262815508        6.91942426566245
C            9.01312679282810       -1.67870633409593        6.21217965623118
C            7.67928313722933       -0.60914560354339        8.02324144359204
C            8.65556734190361        0.07014191441369        8.74280693413435
C            8.24512989682116        0.80015477438779        9.83832492053088
C            6.89993840576049        0.85807996066345       10.21251044600897
C            5.92737001660402        0.18711045768245        9.50456155736480
C            6.31663259093880       -0.55769496472083        8.39435721827621
N            3.40330187537181       -0.72713215528576        7.95742016093154
C           -0.51993102823997        1.46189687715367        9.04902582699604
O            0.34994208764040        2.52434349004055        8.94625639187931
C           -0.21506040602104        3.82600289733140        8.83681884590822
C           -1.85152796867451        1.56113254267665        9.42796482256393
C           -2.73104335870490        0.49037604884094        9.28456238944642
N           -4.08463780906883        0.69253751030365        9.67631123233021
C           -4.44573851892717       -0.09904630643074       10.83859514785961
C           -5.06465576502282        0.66086449792197        8.60105587626423
C           -6.26654038257903        1.54925434150785        8.95772289676518
N           -7.15888218812894        0.91467604157321        9.92159413886175
C           -8.07972565120272       -0.01223441051527        9.29670395446610
C           -7.87122136642104        1.87693008362461       10.73677986182308
H           -4.42316684049341       -4.05092723548967        8.15376026422677
H           -5.36987833518291       -4.46808077957531        6.64164544302246
H           -4.05947785091829       -2.86897231013915        5.31205650885780
H           -3.93846631777678       -1.90706946580003        8.67010589056249
H           -0.47787813173843       -1.84492772132210        8.30046182444061
H            1.94422922938596        0.91412087335981        8.70730721129320
H            1.76131396583912       -3.91134541357267        6.72046838494793
H            4.27631668168652       -3.70082022237970        6.66898558394231
H            6.41420702122627       -2.52286884686524        5.73195431650554
H            9.46105161156078       -0.74316808330028        5.87167724874278
H            8.80482157543992       -2.30478811324028        5.34734603608725
H            9.72777678971175       -2.19129629901059        6.86094111822029
H            9.69636065892531        0.02643338458722        8.46102057210538
H            8.97686658058088        1.33795402500258       10.42231697329329
H            6.62517162209027        1.44308594189633       11.07729641873420
H            4.88744756966195        0.22961312114791        9.78121515869246
H            0.62385226138771        4.47762558603834        8.58014718712890
H           -0.65311363683575        4.14044431014790        9.78980055407648
H           -0.97055378663436        3.84376407429588        8.03260063580299
H           -2.27144285336654        2.49746140309341        9.75705441094037
H           -4.38592802478269       -1.18428465743288       10.67076396019256
H           -5.46606826831490        0.15677086575787       11.11313418072694
H           -3.77059322440237        0.15756329585495       11.65306643934864
H           -4.57265755810422        1.06337971176203        7.67896361097043
H           -5.42318046268175       -0.35737028908137        8.38069840651401
H           -5.87342466675407        2.46294405493593        9.40524577268757
H           -6.80083533287514        1.81852522710992        8.03257680421357
H           -7.53066358567903       -0.72876241366521        8.69062857046029
H           -8.81560119405336        0.49460438609566        8.65382398142547
H           -8.61496472344123       -0.55659488292989       10.07419784755415
H           -8.45796968799002        1.33977735074118       11.48154070028801
H           -8.55247455841793        2.51386920124513       10.15301399667048
H           -7.15462477705049        2.51165313081544       11.25497228404851
Ti          -1.47533298734755       -3.55105206760270        4.16509051196049
Ti           0.33830723455539       -1.42765352918814        5.12636060346086
Ti           3.48376646362749       -1.10796777354455        3.95487201616454
Ti          -2.40555128754847       -0.90952208442036        3.26004997010499
Ti           0.41033511351703        1.77437356765289        6.10670862424765
Ti          -2.38416825466356        1.06371271316071        5.49920372308529
Ti           0.91815473825285       -3.13251470088573        2.08749693235939
Ti           0.98998901332551       -0.39044028817676        1.44040199106371
Ti           3.92153929618634        0.18923863016978        1.26091788061436
Ti          -1.35149291271010        1.25216036833774        1.14669241851666
Ti           2.23567193417977        1.78227973969484        3.69109104849919
Ti           1.54139871658244        2.61571909072188        0.90784881988815
C           -3.36409202478850       -0.03788989477832        1.60585844687960
C            3.06457712819931        2.12510250987383        5.51932945472204
C           -0.42511088030846        2.69669737241675        3.45998086678842
C           -3.30409319198267        0.86712201990910        0.75592808232426
C            2.34787745517422        2.33827039874179        6.51418734274221
C           -1.38195470716181        2.54899365346121        2.62333252705718
C            0.55545076007885        2.83933196232242        4.34801833844523
O           -2.65379993744319       -2.68153517937787        3.21397966484247
O           -0.18816253018246       -3.13084869182623        5.24147680779269
O            1.93543382671814       -1.78635953769348        4.40369307414179
O           -0.70865996312684       -0.84736864158479        3.81422052981378
O            0.72238120689495        0.10051455608245        5.81177815434546
O           -3.26967182192420        0.02356270924775        4.42065988421927
O           -1.27362900238408        1.96561320548954        6.48218575786922
O            2.07442376186824       -4.23612446629225        1.99170297887401
O            2.39086924551679       -0.26352155509058        0.43976032756379
O            4.39520306648946        0.02407371997712        2.97835248409955
O           -0.66916457787214       -0.56404168046114        1.18947420395586
O            1.36429580172155        0.44777483144029        2.88046466038485
O            0.11844726128589        1.82782710682141        0.27999498396129
O            2.68961358383740        2.71929303418178        2.25586678672440
