      -----------------------------------------------------------      
     |                   =====================                   |     
     |                           x T B                           |     
     |                   =====================                   |     
     |                         S. Grimme                         |     
     |          Mulliken Center for Theoretical Chemistry        |     
     |                    University of Bonn                     |     
      -----------------------------------------------------------      

   * xtb version 6.7.1pre (5071a88) compiled by 'Marcel@Raven' on 2024-07-23

   xtb is free software: you can redistribute it and/or modify it under
   the terms of the GNU Lesser General Public License as published by
   the Free Software Foundation, either version 3 of the License, or
   (at your option) any later version.
   
   xtb is distributed in the hope that it will be useful,
   but WITHOUT ANY WARRANTY; without even the implied warranty of
   MERCHANTABILITY or FITNESS FOR A PARTICULAR PURPOSE.  See the
   GNU Lesser General Public License for more details.
   
   Cite this work as:
   * C. Bannwarth, E. Caldeweyher, S. Ehlert, A. Hansen, P. Pracht,
     J. Seibert, S. Spicher, S. Grimme, WIREs Comput. Mol. Sci., 2020, 11,
     e01493. DOI: 10.1002/wcms.1493
   
   for GFN2-xTB:
   * C. Bannwarth, S. Ehlert and S. Grimme., J. Chem. Theory Comput., 2019,
     15, 1652-1671. DOI: 10.1021/acs.jctc.8b01176
   for GFN1-xTB:
   * S. Grimme, C. Bannwarth, P. Shushkov, J. Chem. Theory Comput., 2017,
     13, 1989-2009. DOI: 10.1021/acs.jctc.7b00118
   for GFN0-xTB:
   * P. Pracht, E. Caldeweyher, S. Ehlert, S. Grimme, ChemRxiv, 2019, preprint.
     DOI: 10.26434/chemrxiv.8326202.v1
   for GFN-FF:
   * S. Spicher and S. Grimme, Angew. Chem. Int. Ed., 2020, 59, 15665-15673.
     DOI: 10.1002/anie.202004239
   
   for ALPB and GBSA implicit solvation:
   * S. Ehlert, M. Stahn, S. Spicher, S. Grimme, J. Chem. Theory Comput.,
     2021, 17, 4250-4261. DOI: 10.1021/acs.jctc.1c00471
   
   for ddCOSMO and CPCM-X implicit solvation:
   * M. Stahn, S. Ehlert, S. Grimme, J. Phys. Chem. A,
     2023, XX, XXXX-XXXX. DOI: 10.1021/acs.jpca.3c04382
   
   for DFT-D4:
   * E. Caldeweyher, C. Bannwarth and S. Grimme, J. Chem. Phys., 2017,
     147, 034112. DOI: 10.1063/1.4993215
   * E. Caldeweyher, S. Ehlert, A. Hansen, H. Neugebauer, S. Spicher,
     C. Bannwarth and S. Grimme, J. Chem. Phys., 2019, 150, 154122.
     DOI: 10.1063/1.5090222
   * E. Caldeweyher, J.-M. Mewes, S. Ehlert and S. Grimme, Phys. Chem. Chem. Phys.
     2020, 22, 8499-8512. DOI: 10.1039/D0CP00502A
   
   for sTDA-xTB:
   * S. Grimme and C. Bannwarth, J. Chem. Phys., 2016, 145, 054103.
     DOI: 10.1063/1.4959605
   
   in the mass-spec context:
   * V. Asgeirsson, C. Bauer and S. Grimme, Chem. Sci., 2017, 8, 4879.
     DOI: 10.1039/c7sc00601b
   * J. Koopman and S. Grimme, ACS Omega 2019, 4, 12, 15120-15133.
     DOI: 10.1021/acsomega.9b02011
   
   for metadynamics refer to:
   * S. Grimme, J. Chem. Theory Comput., 2019, 155, 2847-2862
     DOI: 10.1021/acs.jctc.9b00143
   
   for SPH calculations refer to:
   * S. Spicher and S. Grimme, J. Chem. Theory Comput., 2021, 17, 1701-1714
     DOI: 10.1021/acs.jctc.0c01306
   
   for ONIOM refer to:
   * C. Plett, A. Katbashev, S. Ehlert, S. Grimme, M. Bursch,
     Phys. Chem. Chem. Phys., 2023, 25, 17860-17868. DOI: 10.1039/D3CP02178E
   
   for DIPRO refer to:
   * J. Kohn, N. Gildemeister, S. Grimme, D. Fazzi, A. Hansen,
     J. Chem. Phys., 2023, just accepted.
   
   for PTB refer to:
   * S. Grimme, M. Mueller, A. Hansen, J. Chem. Phys., 2023, 158, 124111.
     DOI: 10.1063/5.0137838
   
   with help from (in alphabetical order)
   P. Atkinson, C. Bannwarth, F. Bohle, G. Brandenburg, E. Caldeweyher
   M. Checinski, S. Dohm, S. Ehlert, S. Ehrlich, I. Gerasimov, C. Hölzer
   A. Katbashev, J. Kohn, J. Koopman, C. Lavigne, S. Lehtola, F. März, M. Müller,
   F. Musil, H. Neugebauer, J. Pisarek, C. Plett, P. Pracht, F. Pultar,
   J. Seibert, P. Shushkov, S. Spicher, M. Stahn, M. Steiner, T. Strunk,
   J. Stückrath, T. Rose, and J. Unsleber
   
 * started run on 2026/08/31 at 20:30:59.966     
   ID    Z sym.   atoms
    1    6 C      1-3, 6-8, 10, 12-16, 18-24, 26, 28-30, 32-34, 36, 37, 83-89
    2    8 O      4, 27, 90-103
    3    7 N      5, 9, 11, 17, 25, 31, 35
    4    1 H      38-70
    5   22 Ti     71-82

           -------------------------------------------------
          |                Calculation Setup                |
           -------------------------------------------------

          program call               : "c:\Users\Andre\Proyectos doctorado\kras-pancreatic-gC3N4-ai\tools\xtb\xtb-6.7.1\bin\xtb.exe" "c:\Users\Andre\Proyectos doctorado\mxene-glioblastoma-qsar-ai\calculations\gbm\Osimertinib\Osimertinib_Ti3C2O2_complex.xyz" --gfn 2 --sp --chrg 0 --uhf 0 --iterations 500 --norestart
          coordinate file            : c:\Users\Andre\Proyectos doctorado\mxene-glioblastoma-qsar-ai\calculations\gbm\Osimertinib\Osimertinib_Ti3C2O2_complex.xyz
          omp threads                :                    16


molecular fragmentation (1/2 indicates fragments):
111111111111111111111111111111111111111111111111111111111111111111111111
1111111111221221122222222222222
# atoms in fragment 1/2:    85    18
 fragment masses (1/2) :     1110.04      272.03
CMA distance (Bohr)    :   4.918
constraining FC (au)   :  0.0500

           -------------------------------------------------
          |                 G F N 2 - x T B                 |
           -------------------------------------------------

        Reference                      10.1021/acs.jctc.8b01176
      * Hamiltonian:
        H0-scaling (s, p, d)           1.850000    2.230000    2.230000
        zeta-weighting                 0.500000
      * Dispersion:
        s8                             2.700000
        a1                             0.520000
        a2                             5.000000
        s9                             5.000000
      * Repulsion:
        kExp                           1.500000    1.000000
        rExp                           1.000000
      * Coulomb:
        alpha                          2.000000
        third order                    shell-resolved
        anisotropic                    true
        a3                             3.000000
        a5                             4.000000
        cn-shift                       1.200000
        cn-exp                         4.000000
        max-rad                        5.000000


          ...................................................
          :                      SETUP                      :
          :.................................................:
          :  # basis functions                 385          :
          :  # atomic orbitals                 373          :
          :  # shells                          185          :
          :  # electrons                       352          :
          :  max. iterations                   500          :
          :  Hamiltonian                  GFN2-xTB          :
          :  restarted?                      false          :
          :  GBSA solvation                  false          :
          :  PC potential                    false          :
          :  electronic temp.          300.0000000     K    :
          :  accuracy                    1.0000000          :
          :  -> integral cutoff          0.2500000E+02      :
          :  -> integral neglect         0.1000000E-07      :
          :  -> SCF convergence          0.1000000E-05 Eh   :
          :  -> wf. convergence          0.1000000E-03 e    :
          :  Broyden damping             0.4000000          :
          :  net charge                          0          :
          :  unpaired electrons                  0          :
          ...................................................

 iter      E             dE          RMSdq      gap      omega  full diag
   1   -193.9270591 -0.193927E+03  0.118E+01    0.04       0.0  T
   2   -128.8747907  0.650523E+02  0.174E+01    0.01       1.0  T
   3    -69.5136060  0.593612E+02  0.227E+01    0.06       1.0  T
   4   -186.2344417 -0.116721E+03  0.970E+00    0.07       1.0  T
   5   -187.5162798 -0.128184E+01  0.108E+01    0.15       1.0  T
   6   -196.0118045 -0.849552E+01  0.762E+00    0.14       1.0  T
   7   -194.9688325  0.104297E+01  0.718E+00    0.08       1.0  T
   8   -194.7516088  0.217224E+00  0.695E+00    0.05       1.0  T
   9   -195.0689245 -0.317316E+00  0.611E+00    0.04       1.0  T
  10   -196.1905903 -0.112167E+01  0.554E+00    0.19       1.0  T
  11   -188.8364640  0.735413E+01  0.576E+00    0.12       1.0  T
  12   -196.9760680 -0.813960E+01  0.433E+00    0.34       1.0  T
  13   -194.7007210  0.227535E+01  0.448E+00    0.03       1.0  T
  14   -197.6019804 -0.290126E+01  0.357E+00    0.15       1.0  T
  15   -197.9962586 -0.394278E+00  0.317E+00    0.13       1.0  T
  16   -197.8240951  0.172164E+00  0.314E+00    0.03       1.0  T
  17   -198.0201274 -0.196032E+00  0.299E+00    0.14       1.0  T
  18   -197.8682145  0.151913E+00  0.269E+00    0.02       1.0  T
  19   -198.3461666 -0.477952E+00  0.224E+00    0.10       1.0  T
  20   -198.4049398 -0.587732E-01  0.177E+00    0.02       1.0  T
  21   -198.5007494 -0.958096E-01  0.153E+00    0.09       1.0  T
  22   -198.1514478  0.349302E+00  0.147E+00    0.01       1.0  T
  23   -198.5258003 -0.374352E+00  0.112E+00    0.12       1.0  T
  24   -198.5112287  0.145715E-01  0.919E-01    0.09       1.0  T
  25   -198.5838584 -0.726296E-01  0.677E-01    0.11       1.0  T
  26   -198.6032006 -0.193422E-01  0.572E-01    0.10       1.0  T
  27   -198.5923673  0.108333E-01  0.586E-01    0.10       1.0  T
  28   -198.5991731 -0.680581E-02  0.605E-01    0.11       1.0  T
  29   -198.6045971 -0.542398E-02  0.469E-01    0.09       1.0  T
  30   -198.6060848 -0.148767E-02  0.500E-01    0.10       1.0  T
  31   -198.6104411 -0.435636E-02  0.413E-01    0.09       1.0  T
  32   -198.6093397  0.110145E-02  0.395E-01    0.09       1.0  T
  33   -198.6132020 -0.386232E-02  0.354E-01    0.09       1.0  T
  34   -198.6168412 -0.363918E-02  0.320E-01    0.09       1.0  T
  35   -198.6243929 -0.755174E-02  0.271E-01    0.09       1.0  T
  36   -198.6267184 -0.232546E-02  0.255E-01    0.09       1.0  T
  37   -198.6256495  0.106886E-02  0.258E-01    0.09       1.0  T
  38   -198.6309859 -0.533637E-02  0.221E-01    0.08       1.0  T
  39   -198.6340182 -0.303238E-02  0.197E-01    0.08       1.0  T
  40   -198.6340550 -0.367547E-04  0.195E-01    0.08       1.0  T
  41   -198.6390704 -0.501539E-02  0.147E-01    0.08       1.0  T
  42   -198.6387868  0.283588E-03  0.145E-01    0.08       1.0  T
  43   -198.6429639 -0.417706E-02  0.961E-02    0.07       1.0  T
  44   -198.6433685 -0.404624E-03  0.741E-02    0.07       1.0  T
  45   -198.6439444 -0.575892E-03  0.653E-02    0.07       1.0  T
  46   -198.6436926  0.251747E-03  0.686E-02    0.07       1.0  T
  47   -198.6437924 -0.997400E-04  0.681E-02    0.07       1.0  T
  48   -198.6439017 -0.109320E-03  0.521E-02    0.07       1.0  T
  49   -198.6441810 -0.279359E-03  0.297E-02    0.07       1.0  T
  50   -198.6442912 -0.110188E-03  0.422E-02    0.07       1.0  T
  51   -198.6443587 -0.675111E-04  0.277E-02    0.07       1.0  T
  52   -198.6443694 -0.106341E-04  0.126E-02    0.07       1.0  T
  53   -198.6444005 -0.311342E-04  0.833E-03    0.07       1.2  T
  54   -198.6443958  0.468268E-05  0.115E-02    0.07       1.0  T
  55   -198.6443998 -0.394186E-05  0.633E-03    0.07       1.6  T
  56   -198.6443954  0.442536E-05  0.743E-03    0.07       1.3  T
  57   -198.6443930  0.238715E-05  0.868E-03    0.07       1.1  T
  58   -198.6443997 -0.670189E-05  0.507E-03    0.07       1.9  T
  59   -198.6444028 -0.317671E-05  0.170E-03    0.07       5.8  T
  60   -198.6444031 -0.261496E-06  0.591E-04    0.07      16.7  T
  61   -198.6444031  0.254128E-07  0.613E-04    0.07      16.1  T

   *** convergence criteria satisfied after 61 iterations ***

         #    Occupation            Energy/Eh            Energy/eV
      -------------------------------------------------------------
         1        2.0000           -0.8928982             -24.2970
       ...           ...                  ...                  ...
       170        2.0000           -0.3753836             -10.2147
       171        1.9999           -0.3701302             -10.0718
       172        1.9998           -0.3698851             -10.0651
       173        1.9954           -0.3666305              -9.9765
       174        1.9518           -0.3643828              -9.9154
       175        1.7741           -0.3628243              -9.8730
       176        1.6898           -0.3624768              -9.8635 (HOMO)
       177        0.5246           -0.3598839              -9.7929 (LUMO)
       178        0.0506           -0.3573967              -9.7253
       179        0.0140           -0.3561586              -9.6916
       180        0.0000           -0.3452362              -9.3944
       181                         -0.3408878              -9.2760
       ...                                ...                  ...
       373                         18.8762570             513.6491
      -------------------------------------------------------------
                  HL-Gap            0.0025929 Eh            0.0706 eV
             Fermi-level           -0.3608663 Eh           -9.8197 eV

 SCC (total)                   0 d,  0 h,  0 min,  2.011 sec
 SCC setup                      ...        0 min,  0.002 sec (  0.099%)
 Dispersion                     ...        0 min,  0.002 sec (  0.099%)
 classical contributions        ...        0 min,  0.001 sec (  0.050%)
 integral evaluation            ...        0 min,  0.026 sec (  1.293%)
 iterations                     ...        0 min,  1.947 sec ( 96.818%)
 molecular gradient             ...        0 min,  0.030 sec (  1.492%)
 printout                       ...        0 min,  0.003 sec (  0.149%)

         :::::::::::::::::::::::::::::::::::::::::::::::::::::
         ::                     SUMMARY                     ::
         :::::::::::::::::::::::::::::::::::::::::::::::::::::
         :: total energy            -192.338380956334 Eh    ::
         :: gradient norm              5.375182794212 Eh/a0 ::
         :: HOMO-LUMO gap              0.070556707523 eV    ::
         ::.................................................::
         :: SCC energy              -198.638688978263 Eh    ::
         :: -> isotropic ES            0.859719604467 Eh    ::
         :: -> anisotropic ES         -0.055731791630 Eh    ::
         :: -> anisotropic XC         -0.051564678692 Eh    ::
         :: -> dispersion             -0.185662428242 Eh    ::
         :: repulsion energy           6.300308021930 Eh    ::
         :: add. restraining           0.000000000000 Eh    ::
         :: total charge               0.000000000006 e     ::
         :::::::::::::::::::::::::::::::::::::::::::::::::::::

           -------------------------------------------------
          |                Property Printout                |
           -------------------------------------------------

    * Orbital Energies and Occupations

         #    Occupation            Energy/Eh            Energy/eV
      -------------------------------------------------------------
         1        2.0000           -0.8928982             -24.2970
       ...           ...                  ...                  ...
       164        2.0000           -0.3856598             -10.4943
       165        2.0000           -0.3853318             -10.4854
       166        2.0000           -0.3850032             -10.4765
       167        2.0000           -0.3817129             -10.3869
       168        2.0000           -0.3788719             -10.3096
       169        2.0000           -0.3761747             -10.2362
       170        2.0000           -0.3753836             -10.2147
       171        1.9999           -0.3701302             -10.0718
       172        1.9998           -0.3698851             -10.0651
       173        1.9954           -0.3666305              -9.9765
       174        1.9518           -0.3643828              -9.9154
       175        1.7741           -0.3628243              -9.8730
       176        1.6898           -0.3624768              -9.8635 (HOMO)
       177        0.5246           -0.3598839              -9.7929 (LUMO)
       178        0.0506           -0.3573967              -9.7253
       179        0.0140           -0.3561586              -9.6916
       180        0.0000           -0.3452362              -9.3944
       181                         -0.3408878              -9.2760
       182                         -0.3385803              -9.2132
       183                         -0.3379990              -9.1974
       184                         -0.3361722              -9.1477
       185                         -0.3313198              -9.0157
       186                         -0.3274804              -8.9112
       187                         -0.3254153              -8.8550
       ...                                ...                  ...
       373                         18.8762570             513.6491
      -------------------------------------------------------------
                  HL-Gap            0.0025929 Eh            0.0706 eV
             Fermi-level           -0.3608663 Eh           -9.8197 eV

     #   Z          covCN         q      C6AA      α(0)
     1   6 C        2.834    -0.085    30.111     8.992
     2   6 C        2.891    -0.059    29.458     8.899
     3   6 C        2.749     0.272    22.409     7.751
     4   8 O        0.858    -0.404    21.755     6.253
     5   7 N        2.694    -0.144    24.126     7.295
     6   6 C        2.897     0.062    26.611     8.458
     7   6 C        2.911    -0.063    29.578     8.918
     8   6 C        2.891     0.073    26.376     8.420
     9   7 N        2.699    -0.101    23.226     7.158
    10   6 C        2.841     0.238    23.037     7.866
    11   7 N        1.835    -0.212    26.449     7.621
    12   6 C        2.917     0.072    26.395     8.425
    13   6 C        2.907    -0.056    29.389     8.889
    14   6 C        2.973     0.126    25.233     8.240
    15   6 C        3.075    -0.031    28.695     8.783
    16   6 C        2.992     0.006    27.874     8.661
    17   7 N        2.837    -0.008    21.400     6.871
    18   6 C        3.688    -0.065    21.943     6.705
    19   6 C        3.056     0.036    27.153     8.546
    20   6 C        2.906    -0.049    29.225     8.864
    21   6 C        2.913    -0.035    28.862     8.810
    22   6 C        2.908    -0.038    28.952     8.823
    23   6 C        2.912    -0.037    28.930     8.820
    24   6 C        3.092    -0.009    28.131     8.693
    25   7 N        1.850    -0.214    26.491     7.628
    26   6 C        2.858     0.127    25.214     8.230
    27   8 O        1.709    -0.195    17.254     5.608
    28   6 C        4.177     0.026    20.055     6.360
    29   6 C        2.907    -0.079    29.968     8.976
    30   6 C        2.930     0.042    27.048     8.529
    31   7 N        2.725    -0.170    24.683     7.379
    32   6 C        3.706    -0.046    21.548     6.636
    33   6 C        3.741    -0.015    20.916     6.525
    34   6 C        3.744    -0.033    21.237     6.574
    35   7 N        2.720    -0.130    23.821     7.249
    36   6 C        3.704    -0.078    22.155     6.729
    37   6 C        3.702    -0.057    21.763     6.671
    38   1 H        0.925     0.056     2.249     2.345
    39   1 H        0.925     0.049     2.338     2.391
    40   1 H        0.925     0.076     2.018     2.221
    41   1 H        0.860     0.207     1.073     1.623
    42   1 H        0.925     0.130     1.532     1.935
    43   1 H        0.860     0.250     0.885     1.474
    44   1 H        0.925     0.070     2.090     2.261
    45   1 H        0.926     0.060     2.197     2.318
    46   1 H        0.925     0.082     1.954     2.186
    47   1 H        0.924     0.067     2.124     2.279
    48   1 H        0.924     0.072     2.068     2.249
    49   1 H        0.924     0.071     2.069     2.250
    50   1 H        0.925     0.033     2.549     2.497
    51   1 H        0.925     0.033     2.539     2.492
    52   1 H        0.925     0.034     2.533     2.489
    53   1 H        0.925     0.033     2.542     2.493
    54   1 H        0.943     0.179     1.211     1.721
    55   1 H        0.926     0.145     1.425     1.867
    56   1 H        0.924     0.077     2.010     2.217
    57   1 H        0.925     0.064     2.148     2.292
    58   1 H        0.924     0.027     2.633     2.537
    59   1 H        0.924     0.047     2.364     2.404
    60   1 H        0.924     0.050     2.318     2.381
    61   1 H        0.924     0.034     2.532     2.488
    62   1 H        0.924     0.047     2.359     2.402
    63   1 H        0.924     0.074     2.044     2.236
    64   1 H        0.923     0.063     2.166     2.302
    65   1 H        0.931     0.146     1.418     1.862
    66   1 H        0.924     0.077     2.012     2.218
    67   1 H        0.924     0.072     2.066     2.248
    68   1 H        0.924     0.052     2.300     2.372
    69   1 H        0.924     0.058     2.224     2.332
    70   1 H        0.924     0.027     2.628     2.535
    71  22 Ti       4.159     0.716    92.219    16.213
    72  22 Ti       6.490     0.609    93.599    15.707
    73  22 Ti       4.151     0.743    91.919    16.252
    74  22 Ti       7.449     1.028    89.153    15.330
    75  22 Ti       7.449     1.017    89.266    15.339
    76  22 Ti       6.519     1.057    88.856    15.304
    77  22 Ti       4.151     0.776    91.568    16.221
    78  22 Ti       6.350     0.752    92.038    15.576
    79  22 Ti       4.151     0.776    91.558    16.220
    80  22 Ti       7.449     1.044    88.983    15.315
    81  22 Ti       7.449     1.041    89.013    15.318
    82  22 Ti       6.519     1.061    88.815    15.301
    83   6 C        5.128    -0.697    38.428     8.804
    84   6 C        5.128    -0.702    38.604     8.824
    85   6 C        5.649    -0.560    33.714     8.246
    86   6 C        2.445    -0.418    41.020    10.450
    87   6 C        2.445    -0.420    41.095    10.459
    88   6 C        2.445    -0.335    38.024    10.061
    89   6 C        2.445    -0.339    38.181    10.082
    90   8 O        0.728    -0.562    25.281     6.738
    91   8 O        1.155    -0.620    26.389     6.897
    92   8 O        0.728    -0.548    24.949     6.693
    93   8 O        0.729    -0.660    27.718     7.055
    94   8 O        0.729    -0.646    27.365     7.010
    95   8 O        0.753    -0.591    25.960     6.828
    96   8 O        0.753    -0.607    26.359     6.881
    97   8 O        0.728    -0.540    24.757     6.668
    98   8 O        0.729    -0.579    25.687     6.792
    99   8 O        0.728    -0.540    24.759     6.668
   100   8 O        0.729    -0.655    27.578     7.037
   101   8 O        0.729    -0.657    27.652     7.047
   102   8 O        0.753    -0.583    25.758     6.802
   103   8 O        0.753    -0.584    25.799     6.807

 Mol. C6AA /au·bohr⁶  :     212471.245969
 Mol. C8AA /au·bohr⁸  :    8549736.691110
 Mol. α(0) /au        :        714.712930


Wiberg/Mayer (AO) data.
largest (>0.10) Wiberg bond orders for each atom

 ---------------------------------------------------------------------------
     #   Z sym  total        # sym  WBO       # sym  WBO       # sym  WBO
 ---------------------------------------------------------------------------
     1   6 C    3.986 --     2 C    1.943    38 H    0.975    39 H    0.971
     2   6 C    3.984 --     1 C    1.943     3 C    1.003    40 H    0.960
     3   6 C    3.947 --     4 O    1.689     5 N    1.188     2 C    1.003
     4   8 O    2.013 --     3 C    1.689     5 N    0.162
     5   7 N    3.493 --     3 C    1.188     6 C    1.096    41 H    0.907
                             4 O    0.162
     6   6 C    3.936 --     7 C    1.386    30 C    1.290     5 N    1.096
     7   6 C    3.959 --     6 C    1.386     8 C    1.371    42 H    0.942
     8   6 C    3.928 --     7 C    1.371    26 C    1.239     9 N    1.135
     9   7 N    3.471 --    10 C    1.169     8 C    1.135    43 H    0.884
    10   6 C    3.948 --    11 N    1.321    25 N    1.320     9 N    1.169
    11   7 N    2.983 --    12 C    1.412    10 C    1.321
    12   6 C    3.959 --    13 C    1.447    11 N    1.412    44 H    0.954
    13   6 C    3.921 --    12 C    1.447    14 C    1.342    45 H    0.964
    14   6 C    3.958 --    25 N    1.370    13 C    1.342    15 C    1.072
    15   6 C    3.947 --    16 C    1.491    24 C    1.185    14 C    1.072
    16   6 C    3.953 --    15 C    1.491    17 N    1.247    46 H    0.923
    17   7 N    3.601 --    16 C    1.247    19 C    1.146    18 C    1.002
    18   6 C    3.964 --    17 N    1.002    49 H    0.976    47 H    0.974
                            48 H    0.974
    19   6 C    3.952 --    20 C    1.338    24 C    1.262    17 N    1.146
    20   6 C    3.980 --    21 C    1.476    19 C    1.338    50 H    0.969
                            23 C    0.121
    21   6 C    3.985 --    20 C    1.476    22 C    1.394    51 H    0.971
    22   6 C    3.984 --    23 C    1.486    21 C    1.394    52 H    0.971
    23   6 C    3.983 --    22 C    1.486    24 C    1.330    53 H    0.970
                            20 C    0.121
    24   6 C    3.982 --    23 C    1.330    19 C    1.262    15 C    1.185
    25   7 N    3.012 --    14 C    1.370    10 C    1.320
    26   6 C    3.847 --    29 C    1.371     8 C    1.239    27 O    1.052
    27   8 O    2.292 --    26 C    1.052    28 C    0.975
    28   6 C    3.874 --    27 O    0.975    56 H    0.926    55 H    0.837
                            54 H    0.793    72 Ti   0.173
    29   6 C    3.972 --    30 C    1.407    26 C    1.371    57 H    0.950
    30   6 C    3.899 --    29 C    1.407     6 C    1.290    31 N    1.013
    31   7 N    3.127 --    30 C    1.013    32 C    0.993    33 C    0.983
    32   6 C    3.976 --    31 N    0.993    60 H    0.982    59 H    0.981
                            58 H    0.977
    33   6 C    3.975 --    34 C    0.985    31 N    0.983    62 H    0.970
                            61 H    0.956
    34   6 C    3.972 --    35 N    1.002    33 C    0.985    64 H    0.970
                            63 H    0.959
    35   7 N    3.128 --    36 C    1.023    37 C    1.012    34 C    1.002
    36   6 C    3.949 --    35 N    1.023    66 H    0.955    67 H    0.911
                            65 H    0.836    71 Ti   0.151
    37   6 C    3.975 --    35 N    1.012    69 H    0.981    68 H    0.981
                            70 H    0.972
    38   1 H    0.997 --     1 C    0.975
    39   1 H    0.998 --     1 C    0.971
    40   1 H    0.994 --     2 C    0.960
    41   1 H    0.957 --     5 N    0.907
    42   1 H    0.981 --     7 C    0.942
    43   1 H    0.937 --     9 N    0.884
    44   1 H    0.982 --    12 C    0.954
    45   1 H    0.996 --    13 C    0.964
    46   1 H    0.992 --    16 C    0.923
    47   1 H    0.993 --    18 C    0.974
    48   1 H    0.993 --    18 C    0.974
    49   1 H    0.994 --    18 C    0.976
    50   1 H    0.998 --    20 C    0.969
    51   1 H    0.998 --    21 C    0.971
    52   1 H    0.998 --    22 C    0.971
    53   1 H    0.998 --    23 C    0.970
    54   1 H    0.959 --    28 C    0.793
    55   1 H    0.975 --    28 C    0.837
    56   1 H    0.979 --    28 C    0.926
    57   1 H    0.994 --    29 C    0.950
    58   1 H    0.998 --    32 C    0.977
    59   1 H    0.997 --    32 C    0.981
    60   1 H    0.997 --    32 C    0.982
    61   1 H    0.998 --    33 C    0.956
    62   1 H    0.997 --    33 C    0.970
    63   1 H    0.994 --    34 C    0.959
    64   1 H    0.996 --    34 C    0.970
    65   1 H    0.977 --    36 C    0.836    71 Ti   0.106
    66   1 H    0.993 --    36 C    0.955
    67   1 H    0.990 --    36 C    0.911
    68   1 H    0.997 --    37 C    0.981
    69   1 H    0.995 --    37 C    0.981
    70   1 H    0.995 --    37 C    0.972
    71  22 Ti   4.125 --    90 O    1.986    77 Ti   0.557    72 Ti   0.274
                            83 C    0.216    86 C    0.184    74 Ti   0.182
                            36 C    0.151    65 H    0.106
    72  22 Ti   4.792 --    91 O    1.752    78 Ti   0.354    84 C    0.317
                            83 C    0.306    73 Ti   0.290    71 Ti   0.274
                            28 C    0.173    74 Ti   0.150    75 Ti   0.121
                            79 Ti   0.105    86 C    0.101
    73  22 Ti   3.923 --    92 O    2.023    79 Ti   0.580    72 Ti   0.290
                            84 C    0.253    75 Ti   0.192    87 C    0.172
                            78 Ti   0.109
    74  22 Ti   4.470 --    93 O    1.745    86 C    0.669    83 C    0.530
                            95 O    0.223    80 Ti   0.186    71 Ti   0.182
                            72 Ti   0.150    85 C    0.149    76 Ti   0.143
    75  22 Ti   4.477 --    94 O    1.761    87 C    0.656    84 C    0.482
                            96 O    0.225    73 Ti   0.192    81 Ti   0.163
                            76 Ti   0.149    85 C    0.137    72 Ti   0.121
    76  22 Ti   4.482 --    95 O    1.125    96 O    1.108    85 C    0.505
                            88 C    0.436    89 C    0.428    82 Ti   0.277
                            75 Ti   0.149    74 Ti   0.143
    77  22 Ti   4.000 --    97 O    2.019    71 Ti   0.557    78 Ti   0.337
                            83 C    0.326    80 Ti   0.205    86 C    0.197
    78  22 Ti   4.397 --    98 O    1.898    72 Ti   0.354    79 Ti   0.346
                            77 Ti   0.337    83 C    0.266    84 C    0.265
                            80 Ti   0.135    81 Ti   0.129    73 Ti   0.109
    79  22 Ti   4.041 --    99 O    2.016    73 Ti   0.580    78 Ti   0.346
                            84 C    0.315    81 Ti   0.210    87 C    0.201
                            72 Ti   0.105
    80  22 Ti   4.451 --   100 O    1.744    86 C    0.659    83 C    0.508
                           102 O    0.215    77 Ti   0.205    74 Ti   0.186
                            85 C    0.158    82 Ti   0.148    78 Ti   0.135
    81  22 Ti   4.454 --   101 O    1.739    87 C    0.651    84 C    0.526
                           103 O    0.216    79 Ti   0.210    85 C    0.163
                            75 Ti   0.163    82 Ti   0.155    78 Ti   0.129
    82  22 Ti   4.476 --   102 O    1.117   103 O    1.113    85 C    0.506
                            88 C    0.434    89 C    0.431    76 Ti   0.277
                            81 Ti   0.155    80 Ti   0.148
    83   6 C    3.649 --    86 C    0.861    74 Ti   0.530    80 Ti   0.508
                            77 Ti   0.326    72 Ti   0.306    78 Ti   0.266
                            71 Ti   0.216
    84   6 C    3.660 --    87 C    0.866    81 Ti   0.526    75 Ti   0.482
                            72 Ti   0.317    79 Ti   0.315    78 Ti   0.265
                            73 Ti   0.253
    85   6 C    3.801 --    88 C    0.823    89 C    0.822    82 Ti   0.506
                            76 Ti   0.505    81 Ti   0.163    80 Ti   0.158
                            74 Ti   0.149    75 Ti   0.137
    86   6 C    3.360 --    83 C    0.861    74 Ti   0.669    80 Ti   0.659
                            88 C    0.224    77 Ti   0.197    71 Ti   0.184
                            72 Ti   0.101
    87   6 C    3.350 --    84 C    0.866    75 Ti   0.656    81 Ti   0.651
                            89 C    0.229    79 Ti   0.201    73 Ti   0.172
    88   6 C    3.327 --    85 C    0.823    76 Ti   0.436    82 Ti   0.434
                           102 O    0.396    95 O    0.373    86 C    0.224
                            89 C    0.141
    89   6 C    3.325 --    85 C    0.822    82 Ti   0.431    76 Ti   0.428
                           103 O    0.399    96 O    0.367    87 C    0.229
                            88 C    0.141
    90   8 O    2.245 --    71 Ti   1.986
    91   8 O    2.181 --    72 Ti   1.752
    92   8 O    2.262 --    73 Ti   2.023
    93   8 O    2.123 --    74 Ti   1.745
    94   8 O    2.140 --    75 Ti   1.761
    95   8 O    2.141 --    76 Ti   1.125    88 C    0.373    74 Ti   0.223
                           102 O    0.130
    96   8 O    2.119 --    76 Ti   1.108    89 C    0.367    75 Ti   0.225
                           103 O    0.129
    97   8 O    2.261 --    77 Ti   2.019
    98   8 O    2.225 --    78 Ti   1.898
    99   8 O    2.262 --    79 Ti   2.016
   100   8 O    2.124 --    80 Ti   1.744
   101   8 O    2.121 --    81 Ti   1.739
   102   8 O    2.150 --    82 Ti   1.117    88 C    0.396    80 Ti   0.215
                            95 O    0.130
   103   8 O    2.148 --    82 Ti   1.113    89 C    0.399    81 Ti   0.216
                            96 O    0.129
 ---------------------------------------------------------------------------

Topologies differ in total number of bonds
Writing topology from bond orders to xtbtopo.mol

molecular dipole:
                 x           y           z       tot (Debye)
 q only:       -0.915     -11.230       8.350
   full:       -0.400      -6.016       5.212      20.257
molecular quadrupole (traceless):
                xx          xy          yy          xz          yz          zz
 q only:       59.041      45.052       9.457     -42.414     -48.623     -68.498
  q+dip:       57.145      47.624      34.198     -40.131     -43.575     -91.343
   full:       53.309      44.846      41.552     -36.250     -47.748     -94.861


           -------------------------------------------------
          | TOTAL ENERGY             -192.338380956334 Eh   |
          | GRADIENT NORM               5.375182794212 Eh/α |
          | HOMO-LUMO GAP               0.070556707523 eV   |
           -------------------------------------------------

------------------------------------------------------------------------
 * finished run on 2026/08/31 at 20:31:02.060     
------------------------------------------------------------------------
 total:
 * wall-time:     0 d,  0 h,  0 min,  2.091 sec
 *  cpu-time:     0 d,  0 h,  0 min, 16.484 sec
 * ratio c/w:     7.883 speedup
 SCF:
 * wall-time:     0 d,  0 h,  0 min,  2.012 sec
 *  cpu-time:     0 d,  0 h,  0 min, 16.094 sec
 * ratio c/w:     7.999 speedup

normal termination of xtb
