70
 energy: -105.408115067770 gnorm: 0.002242712734 xtb: 6.7.1pre (5071a88)
C           -5.24691219588380       -3.18094409961277       10.54534752649337
C           -4.26579629858187       -3.27203483001797        9.66102721244700
C           -2.97689724181591       -2.52136193453135        9.68419325032038
O           -1.97171862964348       -2.99864215407857        9.20018552403777
N           -3.06952731154666       -1.29327946932192       10.26578796917761
C           -2.09111355422291       -0.30091709993004       10.40538751980077
C           -0.74028565889338       -0.58540031361238       10.22457995769543
C            0.22066513669184        0.40090865849312       10.37398386822956
N            1.57747384574421        0.18601577240096       10.20999632591155
C            2.25117972692669       -0.90067980327995        9.74901497723325
N            1.59832344138305       -2.01722222709324        9.43850400763283
C            2.32778719465768       -3.01410467438111        8.96448288914183
C            3.69434903886272       -2.92737425528011        8.79264461383476
C            4.30089914042111       -1.71961456415694        9.17338002471010
C            5.72832204611952       -1.50745710857804        9.06887979943295
C            6.61846146509900       -2.20248411605921        8.28452945857872
N            7.87719883805410       -1.71380585130767        8.43664114380172
C            9.05407224471975       -2.17206912457867        7.75631306588836
C            7.83922389711519       -0.68553924921332        9.34305729971257
C            8.86568341439893        0.10949200791521        9.83886731866696
C            8.53159953215860        1.07112133089073       10.76839126323688
C            7.21219326389101        1.24079902457828       11.19752121478714
C            6.19066126612302        0.45942501683827       10.70577906156904
C            6.49991945586125       -0.51702075085543        9.76162759804171
N            3.57074170730149       -0.71690718394152        9.65211305087002
C           -0.17643568050391        1.70911088847888       10.72433638966533
O            0.84045938825044        2.62594110393875       10.86336927011844
C            0.49708313692642        3.95177721741577       11.17484876017461
C           -1.51778394217855        1.98420016367060       10.89791922231414
C           -2.48842945181708        0.99832907869365       10.74278697726467
N           -3.84057184521677        1.41791952283926       10.93918217166376
C           -4.52161360729956        0.82533125779177       12.07711606081753
C           -4.61038943447568        1.49496550387134        9.71278759096010
C           -5.92603153816965        2.25393583055790        9.90762874999298
N           -6.95413047078532        1.44901945864017       10.55160474162421
C           -7.58014961162670        0.51775418839991        9.63627883351744
C           -7.95391101149347        2.27123618050375       11.20017968963328
H           -5.21514357733979       -2.51713922350809       11.39498383567445
H           -6.12721320304309       -3.79801842250823       10.47199924462399
H           -4.31408452359047       -3.99598161038482        8.85925259584934
H           -3.98797321975734       -1.02010955016479       10.57910434852962
H           -0.42934827903096       -1.57726670988892        9.94481193227525
H            2.15922249582757        0.99605380327522       10.37928277225855
H            1.77291997022599       -3.91101161363946        8.71958033253190
H            4.27210900208330       -3.75167807570590        8.41004211710469
H            6.43160476999470       -3.00751013005768        7.59849907158997
H            9.50328877183962       -1.35826728950667        7.18080803945744
H            8.79030282599185       -2.98044638170632        7.07666847735169
H            9.79294776026065       -2.53959149905355        8.47347611820775
H            9.88693555892040       -0.02200622997019        9.51290508576153
H            9.30456619720455        1.70542250912618       11.17742729034902
H            6.99792068034994        2.00313911467835       11.93278767123964
H            5.16997713712314        0.58445363131700       11.02859056307894
H            1.43839333562414        4.49867743689639       11.21355851629625
H           -0.00161104316160        4.02040068252447       12.14710456351279
H           -0.14553814161224        4.39158396713073       10.40565400353207
H           -1.86323060048897        2.97116749767580       11.15756894160168
H           -5.22512427689867        0.02993432761382       11.80404588197672
H           -5.10022946879580        1.59786887985609       12.58678853344766
H           -3.78128552465848        0.43591826043567       12.77483442983784
H           -3.99737973966957        2.04401932637476        8.99186676610107
H           -4.82407464262989        0.50508096952033        9.27329314142475
H           -5.71781731608341        3.11794693114690       10.54114023516041
H           -6.26939048203267        2.62531128031364        8.92629843209609
H           -6.82727834228557       -0.11871614717762        9.17472462836462
H           -8.14228467025819        1.02523314341560        8.83574456929438
H           -8.26793868763247       -0.11741878417387       10.19366390119496
H           -8.65740020684368        1.62487248305178       11.72379025874033
H           -8.51822654869775        2.89795173981577       10.49151849658287
H           -7.47221670748771        2.91970128718950       11.93073780595809
