      -----------------------------------------------------------      
     |                   =====================                   |     
     |                           x T B                           |     
     |                   =====================                   |     
     |                         S. Grimme                         |     
     |          Mulliken Center for Theoretical Chemistry        |     
     |                    University of Bonn                     |     
      -----------------------------------------------------------      

   * xtb version 6.7.1pre (5071a88) compiled by 'Marcel@Raven' on 2024-07-23

   xtb is free software: you can redistribute it and/or modify it under
   the terms of the GNU Lesser General Public License as published by
   the Free Software Foundation, either version 3 of the License, or
   (at your option) any later version.
   
   xtb is distributed in the hope that it will be useful,
   but WITHOUT ANY WARRANTY; without even the implied warranty of
   MERCHANTABILITY or FITNESS FOR A PARTICULAR PURPOSE.  See the
   GNU Lesser General Public License for more details.
   
   Cite this work as:
   * C. Bannwarth, E. Caldeweyher, S. Ehlert, A. Hansen, P. Pracht,
     J. Seibert, S. Spicher, S. Grimme, WIREs Comput. Mol. Sci., 2020, 11,
     e01493. DOI: 10.1002/wcms.1493
   
   for GFN2-xTB:
   * C. Bannwarth, S. Ehlert and S. Grimme., J. Chem. Theory Comput., 2019,
     15, 1652-1671. DOI: 10.1021/acs.jctc.8b01176
   for GFN1-xTB:
   * S. Grimme, C. Bannwarth, P. Shushkov, J. Chem. Theory Comput., 2017,
     13, 1989-2009. DOI: 10.1021/acs.jctc.7b00118
   for GFN0-xTB:
   * P. Pracht, E. Caldeweyher, S. Ehlert, S. Grimme, ChemRxiv, 2019, preprint.
     DOI: 10.26434/chemrxiv.8326202.v1
   for GFN-FF:
   * S. Spicher and S. Grimme, Angew. Chem. Int. Ed., 2020, 59, 15665-15673.
     DOI: 10.1002/anie.202004239
   
   for ALPB and GBSA implicit solvation:
   * S. Ehlert, M. Stahn, S. Spicher, S. Grimme, J. Chem. Theory Comput.,
     2021, 17, 4250-4261. DOI: 10.1021/acs.jctc.1c00471
   
   for ddCOSMO and CPCM-X implicit solvation:
   * M. Stahn, S. Ehlert, S. Grimme, J. Phys. Chem. A,
     2023, XX, XXXX-XXXX. DOI: 10.1021/acs.jpca.3c04382
   
   for DFT-D4:
   * E. Caldeweyher, C. Bannwarth and S. Grimme, J. Chem. Phys., 2017,
     147, 034112. DOI: 10.1063/1.4993215
   * E. Caldeweyher, S. Ehlert, A. Hansen, H. Neugebauer, S. Spicher,
     C. Bannwarth and S. Grimme, J. Chem. Phys., 2019, 150, 154122.
     DOI: 10.1063/1.5090222
   * E. Caldeweyher, J.-M. Mewes, S. Ehlert and S. Grimme, Phys. Chem. Chem. Phys.
     2020, 22, 8499-8512. DOI: 10.1039/D0CP00502A
   
   for sTDA-xTB:
   * S. Grimme and C. Bannwarth, J. Chem. Phys., 2016, 145, 054103.
     DOI: 10.1063/1.4959605
   
   in the mass-spec context:
   * V. Asgeirsson, C. Bauer and S. Grimme, Chem. Sci., 2017, 8, 4879.
     DOI: 10.1039/c7sc00601b
   * J. Koopman and S. Grimme, ACS Omega 2019, 4, 12, 15120-15133.
     DOI: 10.1021/acsomega.9b02011
   
   for metadynamics refer to:
   * S. Grimme, J. Chem. Theory Comput., 2019, 155, 2847-2862
     DOI: 10.1021/acs.jctc.9b00143
   
   for SPH calculations refer to:
   * S. Spicher and S. Grimme, J. Chem. Theory Comput., 2021, 17, 1701-1714
     DOI: 10.1021/acs.jctc.0c01306
   
   for ONIOM refer to:
   * C. Plett, A. Katbashev, S. Ehlert, S. Grimme, M. Bursch,
     Phys. Chem. Chem. Phys., 2023, 25, 17860-17868. DOI: 10.1039/D3CP02178E
   
   for DIPRO refer to:
   * J. Kohn, N. Gildemeister, S. Grimme, D. Fazzi, A. Hansen,
     J. Chem. Phys., 2023, just accepted.
   
   for PTB refer to:
   * S. Grimme, M. Mueller, A. Hansen, J. Chem. Phys., 2023, 158, 124111.
     DOI: 10.1063/5.0137838
   
   with help from (in alphabetical order)
   P. Atkinson, C. Bannwarth, F. Bohle, G. Brandenburg, E. Caldeweyher
   M. Checinski, S. Dohm, S. Ehlert, S. Ehrlich, I. Gerasimov, C. Hölzer
   A. Katbashev, J. Kohn, J. Koopman, C. Lavigne, S. Lehtola, F. März, M. Müller,
   F. Musil, H. Neugebauer, J. Pisarek, C. Plett, P. Pracht, F. Pultar,
   J. Seibert, P. Shushkov, S. Spicher, M. Stahn, M. Steiner, T. Strunk,
   J. Stückrath, T. Rose, and J. Unsleber
   
 * started run on 2026/09/02 at 20:12:05.679     
   ID    Z sym.   atoms
    1   22 Ti     1-12
    2    6 C      13-19
    3    8 O      20-33

           -------------------------------------------------
          |                Calculation Setup                |
           -------------------------------------------------

          program call               : "c:\Users\Andre\Proyectos doctorado\nano-qsar-ai-papers\kras-pancreatic-gC3N4-ai\tools\xtb\xtb-6.7.1\bin\xtb.exe" "c:\Users\Andre\Proyectos doctorado\nano-qsar-ai-papers\mxene-glioblastoma-qsar-ai\calculations\gbm\Osimertinib\Osimertinib_mxene_frozen_from_opt.xyz" --gfn 2 --chrg 0 --uhf 0 --norestart
          coordinate file            : c:\Users\Andre\Proyectos doctorado\nano-qsar-ai-papers\mxene-glioblastoma-qsar-ai\calculations\gbm\Osimertinib\Osimertinib_mxene_frozen_from_opt.xyz
          omp threads                :                     4


molecular fragmentation (1/2 indicates fragments):
111111111111111111212222122222222
# atoms in fragment 1/2:    20    13
 fragment masses (1/2) :      678.46      204.00
CMA distance (Bohr)    :   1.523
constraining FC (au)   :  0.0500

           -------------------------------------------------
          |                 G F N 2 - x T B                 |
           -------------------------------------------------

        Reference                      10.1021/acs.jctc.8b01176
      * Hamiltonian:
        H0-scaling (s, p, d)           1.850000    2.230000    2.230000
        zeta-weighting                 0.500000
      * Dispersion:
        s8                             2.700000
        a1                             0.520000
        a2                             5.000000
        s9                             5.000000
      * Repulsion:
        kExp                           1.500000    1.000000
        rExp                           1.000000
      * Coulomb:
        alpha                          2.000000
        third order                    shell-resolved
        anisotropic                    true
        a3                             3.000000
        a5                             4.000000
        cn-shift                       1.200000
        cn-exp                         4.000000
        max-rad                        5.000000


          ...................................................
          :                      SETUP                      :
          :.................................................:
          :  # basis functions                 204          :
          :  # atomic orbitals                 192          :
          :  # shells                           78          :
          :  # electrons                       160          :
          :  max. iterations                   250          :
          :  Hamiltonian                  GFN2-xTB          :
          :  restarted?                      false          :
          :  GBSA solvation                  false          :
          :  PC potential                    false          :
          :  electronic temp.          300.0000000     K    :
          :  accuracy                    1.0000000          :
          :  -> integral cutoff          0.2500000E+02      :
          :  -> integral neglect         0.1000000E-07      :
          :  -> SCF convergence          0.1000000E-05 Eh   :
          :  -> wf. convergence          0.1000000E-03 e    :
          :  Broyden damping             0.4000000          :
          :  net charge                          0          :
          :  unpaired electrons                  0          :
          ...................................................

 iter      E             dE          RMSdq      gap      omega  full diag
   1    -91.2977118 -0.912977E+02  0.198E+01    0.01       0.0  T
   2    -86.4322726  0.486544E+01  0.131E+01    0.19       1.0  T
   3    -31.1396865  0.552926E+02  0.315E+01    0.18       1.0  T
   4    -89.7882055 -0.586485E+02  0.137E+01    0.39       1.0  T
   5    -89.7984632 -0.102576E-01  0.103E+01    0.01       1.0  T
   6    -92.2642023 -0.246574E+01  0.750E+00    0.52       1.0  T
   7    -92.3811624 -0.116960E+00  0.550E+00    0.23       1.0  T
   8    -92.4086345 -0.274721E-01  0.456E+00    0.29       1.0  T
   9    -91.8904923  0.518142E+00  0.427E+00    0.03       1.0  T
  10    -92.5269923 -0.636500E+00  0.288E+00    0.51       1.0  T
  11    -92.5797750 -0.527827E-01  0.230E+00    0.67       1.0  T
  12    -92.6097470 -0.299720E-01  0.186E+00    0.84       1.0  T
  13    -92.6305265 -0.207795E-01  0.144E+00    0.94       1.0  T
  14    -92.6587771 -0.282506E-01  0.991E-01    0.94       1.0  T
  15    -92.6675462 -0.876912E-02  0.701E-01    0.92       1.0  T
  16    -92.6742204 -0.667422E-02  0.550E-01    0.82       1.0  T
  17    -92.6787585 -0.453811E-02  0.406E-01    0.68       1.0  T
  18    -92.6806115 -0.185293E-02  0.285E-01    0.59       1.0  T
  19    -92.6821876 -0.157618E-02  0.198E-01    0.54       1.0  T
  20    -92.6824090 -0.221400E-03  0.152E-01    0.52       1.0  T
  21    -92.6826163 -0.207298E-03  0.112E-01    0.51       1.0  T
  22    -92.6827491 -0.132727E-03  0.823E-02    0.50       1.0  T
  23    -92.6829031 -0.154042E-03  0.468E-02    0.45       1.0  T
  24    -92.6829227 -0.196301E-04  0.305E-02    0.43       1.0  T
  25    -92.6829250 -0.223364E-05  0.214E-02    0.43       1.0  T
  26    -92.6829276 -0.266261E-05  0.132E-02    0.43       1.3  T
  27    -92.6829303 -0.271446E-05  0.756E-03    0.43       2.3  T
  28    -92.6829306 -0.271252E-06  0.433E-03    0.43       4.0  T
  29    -92.6829308 -0.163456E-06  0.288E-03    0.44       6.0  T
  30    -92.6829308 -0.111982E-07  0.201E-03    0.44       8.7  T
  31    -92.6829308  0.905550E-08  0.134E-03    0.44      13.0  T
  32    -92.6829308 -0.115864E-07  0.111E-03    0.44      15.6  T
  33    -92.6829308 -0.227555E-07  0.668E-04    0.44      26.1  T
  34    -92.6829308 -0.116205E-07  0.366E-04    0.44      47.5  T

   *** convergence criteria satisfied after 34 iterations ***

         #    Occupation            Energy/Eh            Energy/eV
      -------------------------------------------------------------
         1        2.0000           -0.8281873             -22.5361
       ...           ...                  ...                  ...
        74        2.0000           -0.3621404              -9.8543
        75        2.0000           -0.3566468              -9.7049
        76        2.0000           -0.3547383              -9.6529
        77        2.0000           -0.3521180              -9.5816
        78        2.0000           -0.3416018              -9.2955
        79        2.0000           -0.3281691              -8.9299
        80        1.9996           -0.3127884              -8.5114 (HOMO)
        81        0.0004           -0.2967742              -8.0756 (LUMO)
        82        0.0000           -0.2933813              -7.9833
        83        0.0000           -0.2915454              -7.9334
        84        0.0000           -0.2898680              -7.8877
        85        0.0000           -0.2897319              -7.8840
       ...           ...                  ...                  ...
       192                         12.5413104             341.2664
      -------------------------------------------------------------
                  HL-Gap            0.0160143 Eh            0.4358 eV
             Fermi-level           -0.3047970 Eh           -8.2939 eV

 SCC (total)                   0 d,  0 h,  0 min,  0.296 sec
 SCC setup                      ...        0 min,  0.001 sec (  0.338%)
 Dispersion                     ...        0 min,  0.000 sec (  0.000%)
 classical contributions        ...        0 min,  0.000 sec (  0.000%)
 integral evaluation            ...        0 min,  0.008 sec (  2.703%)
 iterations                     ...        0 min,  0.271 sec ( 91.554%)
 molecular gradient             ...        0 min,  0.015 sec (  5.068%)
 printout                       ...        0 min,  0.001 sec (  0.338%)

         :::::::::::::::::::::::::::::::::::::::::::::::::::::
         ::                     SUMMARY                     ::
         :::::::::::::::::::::::::::::::::::::::::::::::::::::
         :: total energy             -91.984915036100 Eh    ::
         :: gradient norm              0.057747611047 Eh/a0 ::
         :: HOMO-LUMO gap              0.435769985850 eV    ::
         ::.................................................::
         :: SCC energy               -92.681237690264 Eh    ::
         :: -> isotropic ES            0.892202180996 Eh    ::
         :: -> anisotropic ES         -0.342876393741 Eh    ::
         :: -> anisotropic XC         -0.048476280994 Eh    ::
         :: -> dispersion             -0.086537864448 Eh    ::
         :: repulsion energy           0.696322654165 Eh    ::
         :: add. restraining           0.000000000000 Eh    ::
         :: total charge              -0.000000001346 e     ::
         :::::::::::::::::::::::::::::::::::::::::::::::::::::

           -------------------------------------------------
          |                Property Printout                |
           -------------------------------------------------

    * Orbital Energies and Occupations

         #    Occupation            Energy/Eh            Energy/eV
      -------------------------------------------------------------
         1        2.0000           -0.8281873             -22.5361
       ...           ...                  ...                  ...
        68        2.0000           -0.3962115             -10.7815
        69        2.0000           -0.3941268             -10.7247
        70        2.0000           -0.3890151             -10.5856
        71        2.0000           -0.3878505             -10.5539
        72        2.0000           -0.3708464             -10.0912
        73        2.0000           -0.3662436              -9.9660
        74        2.0000           -0.3621404              -9.8543
        75        2.0000           -0.3566468              -9.7049
        76        2.0000           -0.3547383              -9.6529
        77        2.0000           -0.3521180              -9.5816
        78        2.0000           -0.3416018              -9.2955
        79        2.0000           -0.3281691              -8.9299
        80        1.9996           -0.3127884              -8.5114 (HOMO)
        81        0.0004           -0.2967742              -8.0756 (LUMO)
        82        0.0000           -0.2933813              -7.9833
        83        0.0000           -0.2915454              -7.9334
        84        0.0000           -0.2898680              -7.8877
        85        0.0000           -0.2897319              -7.8840
        86                         -0.2884065              -7.8479
        87                         -0.2829617              -7.6998
        88                         -0.2799679              -7.6183
        89                         -0.2787537              -7.5853
        90                         -0.2778837              -7.5616
        91                         -0.2768512              -7.5335
       ...                                ...                  ...
       192                         12.5413104             341.2664
      -------------------------------------------------------------
                  HL-Gap            0.0160143 Eh            0.4358 eV
             Fermi-level           -0.3047970 Eh           -8.2939 eV

     #   Z          covCN         q      C6AA      α(0)
     1  22 Ti       3.705     0.991   101.516    24.268
     2  22 Ti       5.071     1.518    84.366    14.913
     3  22 Ti       3.369     1.032   102.796    24.752
     4  22 Ti       5.668     1.327    86.179    15.072
     5  22 Ti       5.430     1.113    88.288    15.255
     6  22 Ti       3.149     1.004   103.154    24.801
     7  22 Ti       2.453     0.817   187.517    33.540
     8  22 Ti       6.094     1.337    86.082    15.063
     9  22 Ti       3.661     1.001   102.103    24.475
    10  22 Ti       5.878     1.120    88.222    15.250
    11  22 Ti       6.320     1.171    87.712    15.205
    12  22 Ti       3.789     1.026    98.674    23.400
    13   6 C        2.462    -0.233    34.644     9.607
    14   6 C        2.084    -0.273    39.144    10.108
    15   6 C        2.376    -0.032    29.695     8.872
    16   6 C        1.823    -0.208    37.290     9.866
    17   6 C        1.940    -0.221    37.602     9.903
    18   6 C        1.820    -0.356    42.535    10.538
    19   6 C        2.638    -0.397    39.649    10.300
    20   8 O        1.453    -0.779    30.107     7.395
    21   8 O        1.453    -0.850    32.258     7.654
    22   8 O        1.484    -0.895    33.634     7.819
    23   8 O        1.512    -0.995    37.064     8.211
    24   8 O        1.456    -0.897    33.745     7.829
    25   8 O        1.453    -0.788    30.382     7.429
    26   8 O        1.453    -0.753    29.357     7.302
    27   8 O        0.727    -0.606    26.335     6.877
    28   8 O        1.458    -0.867    32.792     7.718
    29   8 O        1.481    -0.789    30.352     7.428
    30   8 O        1.544    -0.934    34.871     7.966
    31   8 O        1.516    -0.988    36.814     8.183
    32   8 O        1.608    -0.805    30.672     7.475
    33   8 O        1.462    -0.791    30.439     7.436

 Mol. C6AA /au·bohr⁶  :      55719.122959
 Mol. C8AA /au·bohr⁸  :    3403356.519131
 Mol. α(0) /au        :        421.912158


Wiberg/Mayer (AO) data.
largest (>0.10) Wiberg bond orders for each atom

 ---------------------------------------------------------------------------
     #   Z sym  total        # sym  WBO       # sym  WBO       # sym  WBO
 ---------------------------------------------------------------------------
     1  22 Ti   3.086 --    20 O    0.972    21 O    0.912     7 Ti   0.474
                             2 Ti   0.212     4 Ti   0.209
     2  22 Ti   3.860 --    22 O    0.768    24 O    0.757    21 O    0.744
                            23 O    0.660     1 Ti   0.212     3 Ti   0.140
                             5 Ti   0.108     6 Ti   0.108
     3  22 Ti   2.816 --    29 O    0.905    22 O    0.683     9 Ti   0.341
                            11 Ti   0.179     7 Ti   0.171     2 Ti   0.140
     4  22 Ti   4.011 --    25 O    0.987    20 O    0.816    13 C    0.703
                            23 O    0.483     6 Ti   0.249     1 Ti   0.209
                            10 Ti   0.190    30 O    0.131
     5  22 Ti   4.210 --    26 O    0.891    19 C    0.792    24 O    0.695
                            17 C    0.693    11 Ti   0.285     6 Ti   0.267
                            18 C    0.162    14 C    0.115     2 Ti   0.108
     6  22 Ti   2.858 --    26 O    0.954    25 O    0.790     5 Ti   0.267
                             4 Ti   0.249     2 Ti   0.108
     7  22 Ti   3.857 --    27 O    2.053     8 Ti   0.559     1 Ti   0.474
                             3 Ti   0.171    22 O    0.130
     8  22 Ti   4.088 --    30 O    0.849    28 O    0.818    31 O    0.701
                             7 Ti   0.559    32 O    0.170     9 Ti   0.170
                            12 Ti   0.147    10 Ti   0.138
     9  22 Ti   2.741 --    29 O    0.846    28 O    0.756     3 Ti   0.341
                            12 Ti   0.285     8 Ti   0.170    33 O    0.121
    10  22 Ti   4.118 --    18 C    0.973    32 O    0.735    16 C    0.733
                            30 O    0.435    19 C    0.199    13 C    0.197
                             4 Ti   0.190    12 Ti   0.180     8 Ti   0.138
    11  22 Ti   4.132 --    33 O    0.867    19 C    0.742    14 C    0.669
                            31 O    0.473     5 Ti   0.285    12 Ti   0.182
                             3 Ti   0.179    18 C    0.140    17 C    0.121
    12  22 Ti   2.798 --    32 O    0.833    33 O    0.794     9 Ti   0.285
                            11 Ti   0.182    10 Ti   0.180     8 Ti   0.147
    13   6 C    3.835 --    16 C    2.710     4 Ti   0.703    10 Ti   0.197
    14   6 C    3.790 --    17 C    2.719    11 Ti   0.669     5 Ti   0.115
    15   6 C    3.978 --    18 C    1.996    19 C    1.569
    16   6 C    3.677 --    13 C    2.710    10 Ti   0.733
    17   6 C    3.728 --    14 C    2.719     5 Ti   0.693    11 Ti   0.121
    18   6 C    3.764 --    15 C    1.996    10 Ti   0.973     5 Ti   0.162
                            11 Ti   0.140
    19   6 C    3.785 --    15 C    1.569     5 Ti   0.792    11 Ti   0.742
                            10 Ti   0.199
    20   8 O    2.031 --     1 Ti   0.972     4 Ti   0.816
    21   8 O    1.934 --     1 Ti   0.912     2 Ti   0.744
    22   8 O    1.860 --     2 Ti   0.768     3 Ti   0.683     7 Ti   0.130
    23   8 O    1.725 --     2 Ti   0.660     4 Ti   0.483
    24   8 O    1.874 --     2 Ti   0.757     5 Ti   0.695
    25   8 O    2.020 --     4 Ti   0.987     6 Ti   0.790
    26   8 O    2.064 --     6 Ti   0.954     5 Ti   0.891
    27   8 O    2.221 --     7 Ti   2.053
    28   8 O    1.902 --     8 Ti   0.818     9 Ti   0.756
    29   8 O    2.022 --     3 Ti   0.905     9 Ti   0.846
    30   8 O    1.816 --     8 Ti   0.849    10 Ti   0.435     4 Ti   0.131
    31   8 O    1.748 --     8 Ti   0.701    11 Ti   0.473
    32   8 O    1.993 --    12 Ti   0.833    10 Ti   0.735     8 Ti   0.170
    33   8 O    2.021 --    11 Ti   0.867    12 Ti   0.794     9 Ti   0.121
 ---------------------------------------------------------------------------

Topologies differ in total number of bonds
Writing topology from bond orders to xtbtopo.mol

molecular dipole:
                 x           y           z       tot (Debye)
 q only:        1.798      -0.489      -0.667
   full:        0.092      -2.195       0.820       5.962
molecular quadrupole (traceless):
                xx          xy          yy          xz          yz          zz
 q only:        9.280      10.020      -0.149     -18.148     -25.135      -9.132
  q+dip:      -26.069      16.427     -24.493     -21.622     -46.734      50.562
   full:      -25.844      17.068     -21.831     -20.909     -44.352      47.675


           -------------------------------------------------
          | TOTAL ENERGY              -91.984915036100 Eh   |
          | GRADIENT NORM               0.057747611047 Eh/α |
          | HOMO-LUMO GAP               0.435769985850 eV   |
           -------------------------------------------------

------------------------------------------------------------------------
 * finished run on 2026/09/02 at 20:12:06.014     
------------------------------------------------------------------------
 total:
 * wall-time:     0 d,  0 h,  0 min,  0.333 sec
 *  cpu-time:     0 d,  0 h,  0 min,  1.000 sec
 * ratio c/w:     3.003 speedup
 SCF:
 * wall-time:     0 d,  0 h,  0 min,  0.297 sec
 *  cpu-time:     0 d,  0 h,  0 min,  0.984 sec
 * ratio c/w:     3.314 speedup

