      -----------------------------------------------------------      
     |                   =====================                   |     
     |                           x T B                           |     
     |                   =====================                   |     
     |                         S. Grimme                         |     
     |          Mulliken Center for Theoretical Chemistry        |     
     |                    University of Bonn                     |     
      -----------------------------------------------------------      

   * xtb version 6.7.1pre (5071a88) compiled by 'Marcel@Raven' on 2024-07-23

   xtb is free software: you can redistribute it and/or modify it under
   the terms of the GNU Lesser General Public License as published by
   the Free Software Foundation, either version 3 of the License, or
   (at your option) any later version.
   
   xtb is distributed in the hope that it will be useful,
   but WITHOUT ANY WARRANTY; without even the implied warranty of
   MERCHANTABILITY or FITNESS FOR A PARTICULAR PURPOSE.  See the
   GNU Lesser General Public License for more details.
   
   Cite this work as:
   * C. Bannwarth, E. Caldeweyher, S. Ehlert, A. Hansen, P. Pracht,
     J. Seibert, S. Spicher, S. Grimme, WIREs Comput. Mol. Sci., 2020, 11,
     e01493. DOI: 10.1002/wcms.1493
   
   for GFN2-xTB:
   * C. Bannwarth, S. Ehlert and S. Grimme., J. Chem. Theory Comput., 2019,
     15, 1652-1671. DOI: 10.1021/acs.jctc.8b01176
   for GFN1-xTB:
   * S. Grimme, C. Bannwarth, P. Shushkov, J. Chem. Theory Comput., 2017,
     13, 1989-2009. DOI: 10.1021/acs.jctc.7b00118
   for GFN0-xTB:
   * P. Pracht, E. Caldeweyher, S. Ehlert, S. Grimme, ChemRxiv, 2019, preprint.
     DOI: 10.26434/chemrxiv.8326202.v1
   for GFN-FF:
   * S. Spicher and S. Grimme, Angew. Chem. Int. Ed., 2020, 59, 15665-15673.
     DOI: 10.1002/anie.202004239
   
   for ALPB and GBSA implicit solvation:
   * S. Ehlert, M. Stahn, S. Spicher, S. Grimme, J. Chem. Theory Comput.,
     2021, 17, 4250-4261. DOI: 10.1021/acs.jctc.1c00471
   
   for ddCOSMO and CPCM-X implicit solvation:
   * M. Stahn, S. Ehlert, S. Grimme, J. Phys. Chem. A,
     2023, XX, XXXX-XXXX. DOI: 10.1021/acs.jpca.3c04382
   
   for DFT-D4:
   * E. Caldeweyher, C. Bannwarth and S. Grimme, J. Chem. Phys., 2017,
     147, 034112. DOI: 10.1063/1.4993215
   * E. Caldeweyher, S. Ehlert, A. Hansen, H. Neugebauer, S. Spicher,
     C. Bannwarth and S. Grimme, J. Chem. Phys., 2019, 150, 154122.
     DOI: 10.1063/1.5090222
   * E. Caldeweyher, J.-M. Mewes, S. Ehlert and S. Grimme, Phys. Chem. Chem. Phys.
     2020, 22, 8499-8512. DOI: 10.1039/D0CP00502A
   
   for sTDA-xTB:
   * S. Grimme and C. Bannwarth, J. Chem. Phys., 2016, 145, 054103.
     DOI: 10.1063/1.4959605
   
   in the mass-spec context:
   * V. Asgeirsson, C. Bauer and S. Grimme, Chem. Sci., 2017, 8, 4879.
     DOI: 10.1039/c7sc00601b
   * J. Koopman and S. Grimme, ACS Omega 2019, 4, 12, 15120-15133.
     DOI: 10.1021/acsomega.9b02011
   
   for metadynamics refer to:
   * S. Grimme, J. Chem. Theory Comput., 2019, 155, 2847-2862
     DOI: 10.1021/acs.jctc.9b00143
   
   for SPH calculations refer to:
   * S. Spicher and S. Grimme, J. Chem. Theory Comput., 2021, 17, 1701-1714
     DOI: 10.1021/acs.jctc.0c01306
   
   for ONIOM refer to:
   * C. Plett, A. Katbashev, S. Ehlert, S. Grimme, M. Bursch,
     Phys. Chem. Chem. Phys., 2023, 25, 17860-17868. DOI: 10.1039/D3CP02178E
   
   for DIPRO refer to:
   * J. Kohn, N. Gildemeister, S. Grimme, D. Fazzi, A. Hansen,
     J. Chem. Phys., 2023, just accepted.
   
   for PTB refer to:
   * S. Grimme, M. Mueller, A. Hansen, J. Chem. Phys., 2023, 158, 124111.
     DOI: 10.1063/5.0137838
   
   with help from (in alphabetical order)
   P. Atkinson, C. Bannwarth, F. Bohle, G. Brandenburg, E. Caldeweyher
   M. Checinski, S. Dohm, S. Ehlert, S. Ehrlich, I. Gerasimov, C. Hölzer
   A. Katbashev, J. Kohn, J. Koopman, C. Lavigne, S. Lehtola, F. März, M. Müller,
   F. Musil, H. Neugebauer, J. Pisarek, C. Plett, P. Pracht, F. Pultar,
   J. Seibert, P. Shushkov, S. Spicher, M. Stahn, M. Steiner, T. Strunk,
   J. Stückrath, T. Rose, and J. Unsleber
   
 * started run on 2026/08/31 at 21:18:46.170     
   ID    Z sym.   atoms
    1    6 C      1-3, 6-8, 10, 12-16, 18-24, 26, 28-30, 32-34, 36, 37, 83-89
    2    8 O      4, 27, 90-103
    3    7 N      5, 9, 11, 17, 25, 31, 35
    4    1 H      38-70
    5   22 Ti     71-82

           -------------------------------------------------
          |                Calculation Setup                |
           -------------------------------------------------

          program call               : "c:\Users\Andre\Proyectos doctorado\kras-pancreatic-gC3N4-ai\tools\xtb\xtb-6.7.1\bin\xtb.exe" "c:\Users\Andre\Proyectos doctorado\mxene-glioblastoma-qsar-ai\calculations\gbm\Osimertinib\Osimertinib_Ti12C7O14_phys_complex.xyz" --gfn 2 --sp --chrg 0 --uhf 0 --etemp 300 --iterations 500 --norestart
          coordinate file            : c:\Users\Andre\Proyectos doctorado\mxene-glioblastoma-qsar-ai\calculations\gbm\Osimertinib\Osimertinib_Ti12C7O14_phys_complex.xyz
          omp threads                :                    16


molecular fragmentation (1/2 indicates fragments):
111111111111111111111111111111111111111111111111111111111111111111111122
2222222222222222222222222222222
# atoms in fragment 1/2:    70    33
 fragment masses (1/2) :      499.61      882.47
CMA distance (Bohr)    :  23.011
constraining FC (au)   :  0.0500

           -------------------------------------------------
          |                 G F N 2 - x T B                 |
           -------------------------------------------------

        Reference                      10.1021/acs.jctc.8b01176
      * Hamiltonian:
        H0-scaling (s, p, d)           1.850000    2.230000    2.230000
        zeta-weighting                 0.500000
      * Dispersion:
        s8                             2.700000
        a1                             0.520000
        a2                             5.000000
        s9                             5.000000
      * Repulsion:
        kExp                           1.500000    1.000000
        rExp                           1.000000
      * Coulomb:
        alpha                          2.000000
        third order                    shell-resolved
        anisotropic                    true
        a3                             3.000000
        a5                             4.000000
        cn-shift                       1.200000
        cn-exp                         4.000000
        max-rad                        5.000000


          ...................................................
          :                      SETUP                      :
          :.................................................:
          :  # basis functions                 385          :
          :  # atomic orbitals                 373          :
          :  # shells                          185          :
          :  # electrons                       352          :
          :  max. iterations                   500          :
          :  Hamiltonian                  GFN2-xTB          :
          :  restarted?                      false          :
          :  GBSA solvation                  false          :
          :  PC potential                    false          :
          :  electronic temp.          300.0000000     K    :
          :  accuracy                    1.0000000          :
          :  -> integral cutoff          0.2500000E+02      :
          :  -> integral neglect         0.1000000E-07      :
          :  -> SCF convergence          0.1000000E-05 Eh   :
          :  -> wf. convergence          0.1000000E-03 e    :
          :  Broyden damping             0.4000000          :
          :  net charge                          0          :
          :  unpaired electrons                  0          :
          ...................................................

 iter      E             dE          RMSdq      gap      omega  full diag
   1   -196.5362905 -0.196536E+03  0.125E+01    0.12       0.0  T
   2   -156.2516494  0.402846E+02  0.137E+01    0.09       1.0  T
   3     -7.3267246  0.148925E+03  0.254E+01    0.04       1.0  T
   4   -158.4149702 -0.151088E+03  0.119E+01    0.03       1.0  T
   5    117.3919935  0.275807E+03  0.221E+01    0.04       1.0  T
   6   -195.5119678 -0.312904E+03  0.774E+00    0.04       1.0  T
   7   -198.9203908 -0.340842E+01  0.526E+00    0.08       1.0  T
   8   -199.0698232 -0.149432E+00  0.491E+00    0.43       1.0  T
   9   -198.3768947  0.692929E+00  0.524E+00    0.06       1.0  T
  10   -198.1281615  0.248733E+00  0.534E+00    0.12       1.0  T
  11   -198.0507734  0.773881E-01  0.539E+00    0.22       1.0  T
  12   -198.0168238  0.339496E-01  0.515E+00    0.33       1.0  T
  13   -196.0865562  0.193027E+01  0.495E+00    0.16       1.0  T
  14   -196.3882951 -0.301739E+00  0.455E+00    0.07       1.0  T
  15   -195.0612855  0.132701E+01  0.467E+00    0.03       1.0  T
  16   -196.5017176 -0.144043E+01  0.453E+00    0.27       1.0  T
  17   -193.7177019  0.278402E+01  0.429E+00    0.06       1.0  T
  18   -195.0600776 -0.134238E+01  0.379E+00    0.07       1.0  T
  19   -192.3603519  0.269973E+01  0.399E+00    0.02       1.0  T
  20   -195.5930666 -0.323271E+01  0.322E+00    0.05       1.0  T
  21   -195.1313259  0.461741E+00  0.311E+00    0.05       1.0  T
  22   -197.2320009 -0.210068E+01  0.292E+00    0.02       1.0  T
  23   -197.1284142  0.103587E+00  0.282E+00    0.02       1.0  T
  24   -196.9967841  0.131630E+00  0.290E+00    0.06       1.0  T
  25   -196.5122021  0.484582E+00  0.276E+00    0.03       1.0  T
  26   -197.2449866 -0.732785E+00  0.250E+00    0.10       1.0  T
  27   -197.1810534  0.639333E-01  0.246E+00    0.09       1.0  T
  28   -199.3601498 -0.217910E+01  0.249E+00    0.08       1.0  T
  29   -199.3587862  0.136356E-02  0.248E+00    0.07       1.0  T
  30   -199.2728631  0.859231E-01  0.230E+00    0.03       1.0  T
  31   -199.3375838 -0.647207E-01  0.241E+00    0.05       1.0  T
  32   -199.4080974 -0.705136E-01  0.260E+00    0.11       1.0  T
  33   -199.4492173 -0.411199E-01  0.241E+00    0.09       1.0  T
  34   -199.4964205 -0.472032E-01  0.206E+00    0.39       1.0  T
  35   -199.5060065 -0.958605E-02  0.194E+00    0.55       1.0  T
  36   -199.5285993 -0.225927E-01  0.165E+00    0.66       1.0  T
  37   -199.5506255 -0.220262E-01  0.132E+00    0.55       1.0  T
  38   -199.5647466 -0.141211E-01  0.107E+00    0.49       1.0  T
  39   -199.5763025 -0.115559E-01  0.816E-01    0.47       1.0  T
  40   -199.5819273 -0.562476E-02  0.662E-01    0.51       1.0  T
  41   -199.5862255 -0.429822E-02  0.538E-01    0.55       1.0  T
  42   -199.5884189 -0.219339E-02  0.418E-01    0.52       1.0  T
  43   -199.5891615 -0.742603E-03  0.372E-01    0.50       1.0  T
  44   -199.5907935 -0.163206E-02  0.314E-01    0.53       1.0  T
  45   -199.5915678 -0.774231E-03  0.264E-01    0.52       1.0  T
  46   -199.5925421 -0.974351E-03  0.195E-01    0.53       1.0  T
  47   -199.5932675 -0.725366E-03  0.161E-01    0.53       1.0  T
  48   -199.5937218 -0.454296E-03  0.138E-01    0.53       1.0  T
  49   -199.5940187 -0.296963E-03  0.118E-01    0.53       1.0  T
  50   -199.5943211 -0.302316E-03  0.101E-01    0.54       1.0  T
  51   -199.5945309 -0.209796E-03  0.874E-02    0.54       1.0  T
  52   -199.5947206 -0.189710E-03  0.741E-02    0.55       1.0  T
  53   -199.5948354 -0.114855E-03  0.614E-02    0.56       1.0  T
  54   -199.5950017 -0.166277E-03  0.479E-02    0.57       1.0  T
  55   -199.5950334 -0.316666E-04  0.447E-02    0.57       1.0  T
  56   -199.5950883 -0.549200E-04  0.414E-02    0.58       1.0  T
  57   -199.5951107 -0.223856E-04  0.385E-02    0.58       1.0  T
  58   -199.5951459 -0.351855E-04  0.346E-02    0.59       1.0  T
  59   -199.5951724 -0.265939E-04  0.304E-02    0.59       1.0  T
  60   -199.5951883 -0.158419E-04  0.277E-02    0.59       1.0  T
  61   -199.5952112 -0.228912E-04  0.244E-02    0.60       1.0  T
  62   -199.5952296 -0.184402E-04  0.207E-02    0.60       1.0  T
  63   -199.5952423 -0.127118E-04  0.166E-02    0.60       1.0  T
  64   -199.5952519 -0.957337E-05  0.132E-02    0.61       1.0  T
  65   -199.5952582 -0.625544E-05  0.109E-02    0.61       1.0  T
  66   -199.5952621 -0.397931E-05  0.919E-03    0.61       1.1  T
  67   -199.5952645 -0.241051E-05  0.797E-03    0.61       1.2  T
  68   -199.5952658 -0.121424E-05  0.721E-03    0.61       1.4  T
  69   -199.5952665 -0.704098E-06  0.670E-03    0.61       1.5  T
  70   -199.5952680 -0.149464E-05  0.553E-03    0.61       1.8  T
  71   -199.5952694 -0.146805E-05  0.407E-03    0.61       2.4  T
  72   -199.5952702 -0.768340E-06  0.303E-03    0.61       3.2  T
  73   -199.5952707 -0.503018E-06  0.204E-03    0.61       4.8  T
  74   -199.5952709 -0.180538E-06  0.152E-03    0.61       6.5  T
  75   -199.5952710 -0.835537E-07  0.120E-03    0.61       8.2  T
  76   -199.5952710 -0.390141E-07  0.101E-03    0.61       9.7  T
  77   -199.5952710 -0.381056E-07  0.788E-04    0.61      12.5  T
  78   -199.5952711 -0.277990E-07  0.570E-04    0.61      17.3  T

   *** convergence criteria satisfied after 78 iterations ***

         #    Occupation            Energy/Eh            Energy/eV
      -------------------------------------------------------------
         1        2.0000           -0.8241228             -22.4255
       ...           ...                  ...                  ...
       170        2.0000           -0.3495876              -9.5128
       171        2.0000           -0.3487656              -9.4904
       172        2.0000           -0.3459688              -9.4143
       173        2.0000           -0.3412725              -9.2865
       174        2.0000           -0.3375836              -9.1861
       175        2.0000           -0.3261213              -8.8742
       176        2.0000           -0.3114736              -8.4756 (HOMO)
       177        0.0000           -0.2889933              -7.8639 (LUMO)
       178        0.0000           -0.2880538              -7.8383
       179        0.0000           -0.2871202              -7.8129
       180        0.0000           -0.2870198              -7.8102
       181                         -0.2827120              -7.6930
       ...                                ...                  ...
       373                         13.3225628             362.5254
      -------------------------------------------------------------
                  HL-Gap            0.0224802 Eh            0.6117 eV
             Fermi-level           -0.3004678 Eh           -8.1761 eV

 SCC (total)                   0 d,  0 h,  0 min,  1.842 sec
 SCC setup                      ...        0 min,  0.001 sec (  0.054%)
 Dispersion                     ...        0 min,  0.003 sec (  0.163%)
 classical contributions        ...        0 min,  0.000 sec (  0.000%)
 integral evaluation            ...        0 min,  0.008 sec (  0.434%)
 iterations                     ...        0 min,  1.804 sec ( 97.937%)
 molecular gradient             ...        0 min,  0.024 sec (  1.303%)
 printout                       ...        0 min,  0.002 sec (  0.109%)

         :::::::::::::::::::::::::::::::::::::::::::::::::::::
         ::                     SUMMARY                     ::
         :::::::::::::::::::::::::::::::::::::::::::::::::::::
         :: total energy            -197.428442412841 Eh    ::
         :: gradient norm              0.088733132195 Eh/a0 ::
         :: HOMO-LUMO gap              0.611718544286 eV    ::
         ::.................................................::
         :: SCC energy              -199.593385738975 Eh    ::
         :: -> isotropic ES            0.996740951888 Eh    ::
         :: -> anisotropic ES         -0.365941772157 Eh    ::
         :: -> anisotropic XC         -0.000342670763 Eh    ::
         :: -> dispersion             -0.167152809353 Eh    ::
         :: repulsion energy           2.164943326134 Eh    ::
         :: add. restraining           0.000000000000 Eh    ::
         :: total charge              -0.000000000002 e     ::
         :::::::::::::::::::::::::::::::::::::::::::::::::::::

           -------------------------------------------------
          |                Property Printout                |
           -------------------------------------------------

    * Orbital Energies and Occupations

         #    Occupation            Energy/Eh            Energy/eV
      -------------------------------------------------------------
         1        2.0000           -0.8241228             -22.4255
       ...           ...                  ...                  ...
       164        2.0000           -0.3642534              -9.9118
       165        2.0000           -0.3641076              -9.9079
       166        2.0000           -0.3619655              -9.8496
       167        2.0000           -0.3550472              -9.6613
       168        2.0000           -0.3541143              -9.6359
       169        2.0000           -0.3540262              -9.6335
       170        2.0000           -0.3495876              -9.5128
       171        2.0000           -0.3487656              -9.4904
       172        2.0000           -0.3459688              -9.4143
       173        2.0000           -0.3412725              -9.2865
       174        2.0000           -0.3375836              -9.1861
       175        2.0000           -0.3261213              -8.8742
       176        2.0000           -0.3114736              -8.4756 (HOMO)
       177        0.0000           -0.2889933              -7.8639 (LUMO)
       178        0.0000           -0.2880538              -7.8383
       179        0.0000           -0.2871202              -7.8129
       180        0.0000           -0.2870198              -7.8102
       181                         -0.2827120              -7.6930
       182                         -0.2781178              -7.5680
       183                         -0.2771374              -7.5413
       184                         -0.2752739              -7.4906
       185                         -0.2751604              -7.4875
       186                         -0.2740996              -7.4586
       187                         -0.2738959              -7.4531
       ...                                ...                  ...
       373                         13.3225628             362.5254
      -------------------------------------------------------------
                  HL-Gap            0.0224802 Eh            0.6117 eV
             Fermi-level           -0.3004678 Eh           -8.1761 eV

     #   Z          covCN         q      C6AA      α(0)
     1   6 C        2.834    -0.083    30.076     8.987
     2   6 C        2.891    -0.059    29.456     8.898
     3   6 C        2.749     0.271    22.412     7.752
     4   8 O        0.858    -0.417    22.027     6.292
     5   7 N        2.694    -0.155    24.357     7.330
     6   6 C        2.897     0.051    26.845     8.495
     7   6 C        2.911    -0.071    29.778     8.948
     8   6 C        2.891     0.054    26.778     8.484
     9   7 N        2.699    -0.144    24.108     7.292
    10   6 C        2.841     0.233    23.129     7.882
    11   7 N        1.835    -0.275    27.987     7.840
    12   6 C        2.917     0.074    26.338     8.416
    13   6 C        2.907    -0.069    29.719     8.939
    14   6 C        2.973     0.117    25.416     8.270
    15   6 C        3.075    -0.040    28.911     8.816
    16   6 C        2.992    -0.004    28.121     8.699
    17   7 N        2.837    -0.021    21.645     6.910
    18   6 C        3.688    -0.057    21.804     6.684
    19   6 C        3.056     0.035    27.173     8.549
    20   6 C        2.906    -0.052    29.289     8.874
    21   6 C        2.913    -0.036    28.894     8.814
    22   6 C        2.908    -0.040    28.994     8.829
    23   6 C        2.912    -0.038    28.933     8.820
    24   6 C        3.092    -0.011    28.186     8.702
    25   7 N        1.850    -0.308    28.837     7.959
    26   6 C        2.858     0.107    25.624     8.297
    27   8 O        1.703    -0.285    18.734     5.844
    28   6 C        3.639     0.034    20.368     6.491
    29   6 C        2.907    -0.083    30.083     8.994
    30   6 C        2.930     0.030    27.341     8.575
    31   7 N        2.725    -0.189    25.100     7.441
    32   6 C        3.706    -0.028    21.228     6.586
    33   6 C        3.741     0.004    20.580     6.472
    34   6 C        3.744    -0.007    20.780     6.503
    35   7 N        2.720    -0.169    24.644     7.373
    36   6 C        3.702    -0.037    21.387     6.613
    37   6 C        3.702    -0.035    21.355     6.608
    38   1 H        0.925     0.050     2.315     2.379
    39   1 H        0.925     0.047     2.364     2.404
    40   1 H        0.925     0.069     2.093     2.262
    41   1 H        0.860     0.199     1.112     1.652
    42   1 H        0.925     0.113     1.671     2.021
    43   1 H        0.860     0.202     1.098     1.641
    44   1 H        0.925     0.041     2.437     2.441
    45   1 H        0.926     0.036     2.507     2.476
    46   1 H        0.925     0.049     2.335     2.389
    47   1 H        0.924     0.062     2.180     2.309
    48   1 H        0.924     0.062     2.178     2.308
    49   1 H        0.924     0.065     2.143     2.289
    50   1 H        0.925     0.026     2.645     2.543
    51   1 H        0.925     0.027     2.627     2.535
    52   1 H        0.925     0.028     2.616     2.529
    53   1 H        0.925     0.029     2.595     2.519
    54   1 H        0.924     0.042     2.429     2.437
    55   1 H        0.924     0.058     2.222     2.331
    56   1 H        0.924     0.044     2.398     2.422
    57   1 H        0.925     0.038     2.481     2.463
    58   1 H        0.924     0.019     2.749     2.593
    59   1 H        0.924     0.036     2.508     2.477
    60   1 H        0.924     0.042     2.426     2.436
    61   1 H        0.924     0.013     2.838     2.635
    62   1 H        0.924     0.032     2.553     2.499
    63   1 H        0.924     0.042     2.424     2.435
    64   1 H        0.923     0.043     2.415     2.430
    65   1 H        0.924     0.040     2.451     2.448
    66   1 H        0.924     0.041     2.437     2.441
    67   1 H        0.924     0.014     2.821     2.626
    68   1 H        0.924     0.041     2.438     2.442
    69   1 H        0.924     0.040     2.447     2.446
    70   1 H        0.924     0.015     2.817     2.625
    71  22 Ti       3.637     1.050   101.796    24.488
    72  22 Ti       6.855     1.550    84.064    14.886
    73  22 Ti       3.227     1.048   102.635    24.738
    74  22 Ti       5.860     1.379    85.675    15.028
    75  22 Ti       5.627     1.120    88.223    15.250
    76  22 Ti       3.541     1.044   102.427    24.666
    77  22 Ti       2.352     0.881   202.655    34.857
    78  22 Ti       6.011     1.349    85.971    15.054
    79  22 Ti       3.414     1.009   103.046    24.778
    80  22 Ti       5.519     1.097    88.447    15.269
    81  22 Ti       5.687     1.189    87.531    15.190
    82  22 Ti       3.581     1.026   102.468    24.642
    83   6 C        2.246    -0.257    37.621     9.937
    84   6 C        2.142    -0.255    38.311    10.005
    85   6 C        2.248    -0.019    30.614     8.965
    86   6 C        1.838    -0.209    37.291     9.865
    87   6 C        1.894    -0.225    37.770     9.926
    88   6 C        1.821    -0.346    42.133    10.488
    89   6 C        2.631    -0.404    39.923    10.335
    90   8 O        1.554    -0.847    31.990     7.631
    91   8 O        1.464    -0.880    33.199     7.766
    92   8 O        1.557    -0.955    35.580     8.048
    93   8 O        1.523    -1.007    37.487     8.258
    94   8 O        1.523    -0.912    34.154     7.883
    95   8 O        1.458    -0.820    31.334     7.544
    96   8 O        1.455    -0.796    30.611     7.457
    97   8 O        0.727    -0.635    27.074     6.973
    98   8 O        1.453    -0.864    32.689     7.706
    99   8 O        1.476    -0.799    30.655     7.464
   100   8 O        1.603    -0.946    35.196     8.007
   101   8 O        1.547    -0.969    36.081     8.104
   102   8 O        1.700    -0.817    30.968     7.513
   103   8 O        1.453    -0.781    30.160     7.401

 Mol. C6AA /au·bohr⁶  :     224381.147997
 Mol. C8AA /au·bohr⁸  :    8950141.402807
 Mol. α(0) /au        :        796.280371


Wiberg/Mayer (AO) data.
largest (>0.10) Wiberg bond orders for each atom

 ---------------------------------------------------------------------------
     #   Z sym  total        # sym  WBO       # sym  WBO       # sym  WBO
 ---------------------------------------------------------------------------
     1   6 C    3.987 --     2 C    1.943    38 H    0.976    39 H    0.972
     2   6 C    3.984 --     1 C    1.943     3 C    1.002    40 H    0.961
     3   6 C    3.951 --     4 O    1.677     5 N    1.201     2 C    1.002
     4   8 O    2.009 --     3 C    1.677     5 N    0.172
     5   7 N    3.504 --     3 C    1.201     6 C    1.079    41 H    0.910
                             4 O    0.172
     6   6 C    3.963 --     7 C    1.380    30 C    1.322     5 N    1.079
     7   6 C    3.970 --     8 C    1.381     6 C    1.380    42 H    0.948
     8   6 C    3.962 --     7 C    1.381    26 C    1.279     9 N    1.107
     9   7 N    3.481 --    10 C    1.159     8 C    1.107    43 H    0.924
    10   6 C    3.959 --    25 N    1.333    11 N    1.332     9 N    1.159
    11   7 N    3.032 --    12 C    1.418    10 C    1.332
    12   6 C    3.974 --    13 C    1.449    11 N    1.418    44 H    0.963
    13   6 C    3.974 --    12 C    1.449    14 C    1.362    45 H    0.966
    14   6 C    3.974 --    25 N    1.371    13 C    1.362    15 C    1.070
    15   6 C    3.973 --    16 C    1.510    24 C    1.188    14 C    1.070
    16   6 C    3.955 --    15 C    1.510    17 N    1.228    46 H    0.966
    17   7 N    3.599 --    16 C    1.228    19 C    1.151    18 C    1.003
    18   6 C    3.972 --    17 N    1.003    49 H    0.981    48 H    0.976
                            47 H    0.976
    19   6 C    3.956 --    20 C    1.335    24 C    1.262    17 N    1.151
    20   6 C    3.986 --    21 C    1.480    19 C    1.335    50 H    0.970
                            23 C    0.124
    21   6 C    3.989 --    20 C    1.480    22 C    1.391    51 H    0.971
    22   6 C    3.987 --    23 C    1.489    21 C    1.391    52 H    0.971
    23   6 C    3.990 --    22 C    1.489    24 C    1.329    53 H    0.970
                            20 C    0.124
    24   6 C    3.984 --    23 C    1.329    19 C    1.262    15 C    1.188
    25   7 N    3.017 --    14 C    1.371    10 C    1.333
    26   6 C    3.911 --    29 C    1.396     8 C    1.279    27 O    1.033
    27   8 O    2.195 --    26 C    1.033    28 C    0.984
    28   6 C    3.947 --    27 O    0.984    55 H    0.980    54 H    0.978
                            56 H    0.977
    29   6 C    3.981 --    26 C    1.396    30 C    1.396    57 H    0.961
    30   6 C    3.953 --    29 C    1.396     6 C    1.322    31 N    1.006
    31   7 N    3.125 --    30 C    1.006    32 C    0.997    33 C    0.983
    32   6 C    3.983 --    31 N    0.997    60 H    0.983    59 H    0.982
                            58 H    0.978
    33   6 C    3.982 --    34 C    0.986    31 N    0.983    62 H    0.972
                            61 H    0.967
    34   6 C    3.984 --    35 N    1.006    33 C    0.986    64 H    0.972
                            63 H    0.972
    35   7 N    3.124 --    36 C    1.016    37 C    1.016    34 C    1.006
    36   6 C    3.987 --    35 N    1.016    65 H    0.983    66 H    0.982
                            67 H    0.975
    37   6 C    3.987 --    35 N    1.016    69 H    0.983    68 H    0.982
                            70 H    0.974
    38   1 H    0.997 --     1 C    0.976
    39   1 H    0.998 --     1 C    0.972
    40   1 H    0.995 --     2 C    0.961
    41   1 H    0.960 --     5 N    0.910
    42   1 H    0.986 --     7 C    0.948
    43   1 H    0.959 --     9 N    0.924
    44   1 H    0.998 --    12 C    0.963
    45   1 H    0.999 --    13 C    0.966
    46   1 H    0.997 --    16 C    0.966
    47   1 H    0.994 --    18 C    0.976
    48   1 H    0.995 --    18 C    0.976
    49   1 H    0.995 --    18 C    0.981
    50   1 H    0.999 --    20 C    0.970
    51   1 H    0.999 --    21 C    0.971
    52   1 H    0.999 --    22 C    0.971
    53   1 H    0.999 --    23 C    0.970
    54   1 H    0.998 --    28 C    0.978
    55   1 H    0.996 --    28 C    0.980
    56   1 H    0.998 --    28 C    0.977
    57   1 H    0.998 --    29 C    0.961
    58   1 H    1.000 --    32 C    0.978
    59   1 H    0.998 --    32 C    0.982
    60   1 H    0.998 --    32 C    0.983
    61   1 H    1.000 --    33 C    0.967
    62   1 H    0.998 --    33 C    0.972
    63   1 H    0.998 --    34 C    0.972
    64   1 H    0.998 --    34 C    0.972
    65   1 H    0.998 --    36 C    0.983
    66   1 H    0.998 --    36 C    0.982
    67   1 H    1.000 --    36 C    0.975
    68   1 H    0.998 --    37 C    0.982
    69   1 H    0.998 --    37 C    0.983
    70   1 H    1.000 --    37 C    0.974
    71  22 Ti   2.825 --    90 O    0.845    91 O    0.814    77 Ti   0.331
                            72 Ti   0.201    74 Ti   0.198
    72  22 Ti   3.854 --    91 O    0.751    94 O    0.747    92 O    0.692
                            93 O    0.604    71 Ti   0.201    73 Ti   0.189
                            76 Ti   0.138    75 Ti   0.137
    73  22 Ti   2.723 --    99 O    0.963    92 O    0.598    79 Ti   0.371
                            72 Ti   0.189    77 Ti   0.140    94 O    0.110
    74  22 Ti   3.920 --    95 O    0.938    83 C    0.721    90 O    0.706
                            93 O    0.562    76 Ti   0.210    71 Ti   0.198
                            80 Ti   0.177   100 O    0.124
    75  22 Ti   4.073 --    89 C    0.894    96 O    0.772    87 C    0.743
                            94 O    0.599    81 Ti   0.284    76 Ti   0.174
                            88 C    0.162    84 C    0.152    72 Ti   0.137
    76  22 Ti   2.651 --    96 O    0.975    95 O    0.710    74 Ti   0.210
                            75 Ti   0.174    72 Ti   0.138    91 O    0.123
    77  22 Ti   3.767 --    97 O    1.997    78 Ti   0.607    71 Ti   0.331
                            92 O    0.152    90 O    0.147    73 Ti   0.140
                           100 O    0.112
    78  22 Ti   4.017 --   100 O    0.802    98 O    0.753   101 O    0.715
                            77 Ti   0.607   102 O    0.196    79 Ti   0.166
                            82 Ti   0.148    80 Ti   0.141
    79  22 Ti   2.745 --    98 O    0.835    99 O    0.764    73 Ti   0.371
                            82 Ti   0.221    78 Ti   0.166    81 Ti   0.130
    80  22 Ti   4.010 --    88 C    1.055    86 C    0.727   102 O    0.615
                           100 O    0.442    89 C    0.231    82 Ti   0.200
                            74 Ti   0.177    83 C    0.156    78 Ti   0.141
    81  22 Ti   4.081 --   103 O    0.968    84 C    0.669    89 C    0.654
                           101 O    0.441    75 Ti   0.284    82 Ti   0.210
                            88 C    0.142    79 Ti   0.130    99 O    0.113
    82  22 Ti   2.792 --   102 O    0.900   103 O    0.734    79 Ti   0.221
                            81 Ti   0.210    80 Ti   0.200    78 Ti   0.148
    83   6 C    3.843 --    86 C    2.739    74 Ti   0.721    80 Ti   0.156
    84   6 C    3.781 --    87 C    2.732    81 Ti   0.669    75 Ti   0.152
    85   6 C    3.979 --    88 C    2.009    89 C    1.603
    86   6 C    3.706 --    83 C    2.739    80 Ti   0.727
    87   6 C    3.748 --    84 C    2.732    75 Ti   0.743
    88   6 C    3.769 --    85 C    2.009    80 Ti   1.055    75 Ti   0.162
                            81 Ti   0.142
    89   6 C    3.829 --    85 C    1.603    75 Ti   0.894    81 Ti   0.654
                            80 Ti   0.231
    90   8 O    1.935 --    71 Ti   0.845    74 Ti   0.706    77 Ti   0.147
    91   8 O    1.894 --    71 Ti   0.814    72 Ti   0.751    76 Ti   0.123
    92   8 O    1.784 --    72 Ti   0.692    73 Ti   0.598    77 Ti   0.152
    93   8 O    1.719 --    72 Ti   0.604    74 Ti   0.562
    94   8 O    1.848 --    72 Ti   0.747    75 Ti   0.599    73 Ti   0.110
    95   8 O    1.974 --    74 Ti   0.938    76 Ti   0.710
    96   8 O    2.017 --    76 Ti   0.975    75 Ti   0.772
    97   8 O    2.171 --    77 Ti   1.997
    98   8 O    1.911 --    79 Ti   0.835    78 Ti   0.753
    99   8 O    2.009 --    73 Ti   0.963    79 Ti   0.764    81 Ti   0.113
   100   8 O    1.799 --    78 Ti   0.802    80 Ti   0.442    74 Ti   0.124
                            77 Ti   0.112
   101   8 O    1.772 --    78 Ti   0.715    81 Ti   0.441
   102   8 O    1.987 --    82 Ti   0.900    80 Ti   0.615    78 Ti   0.196
   103   8 O    2.032 --    81 Ti   0.968    82 Ti   0.734
 ---------------------------------------------------------------------------

Topologies differ in total number of bonds
Writing topology from bond orders to xtbtopo.mol

molecular dipole:
                 x           y           z       tot (Debye)
 q only:        0.330      -2.710      -2.570
   full:       -0.877      -3.499      -1.889      10.350
molecular quadrupole (traceless):
                xx          xy          yy          xz          yz          zz
 q only:       17.864       9.017      15.387     -73.416     -75.523     -33.251
  q+dip:       33.175      16.863       6.358     -41.130    -111.460     -39.533
   full:       33.801      16.130       7.579     -38.515    -111.951     -41.379


           -------------------------------------------------
          | TOTAL ENERGY             -197.428442412841 Eh   |
          | GRADIENT NORM               0.088733132195 Eh/α |
          | HOMO-LUMO GAP               0.611718544286 eV   |
           -------------------------------------------------

------------------------------------------------------------------------
 * finished run on 2026/08/31 at 21:18:48.059     
------------------------------------------------------------------------
 total:
 * wall-time:     0 d,  0 h,  0 min,  1.888 sec
 *  cpu-time:     0 d,  0 h,  0 min, 19.516 sec
 * ratio c/w:    10.337 speedup
 SCF:
 * wall-time:     0 d,  0 h,  0 min,  1.844 sec
 *  cpu-time:     0 d,  0 h,  0 min, 19.094 sec
 * ratio c/w:    10.355 speedup

normal termination of xtb
