103
Drug@Ti3C2O2 complex
C     -4.888624      0.542230     10.239226
C     -4.185648      1.462472      9.565122
C     -3.018890      1.190354      8.676755
O     -2.178599      2.071575      8.545919
N     -3.058551     -0.029992      8.057965
C     -2.132801     -0.600070      7.158032
C     -0.935988      0.004047      6.766437
C     -0.073531     -0.631665      5.862167
N      1.145456     -0.079578      5.430673
C      1.853252      1.080421      5.710427
N      1.402468      1.986327      6.586881
C      2.148449      3.083046      6.794650
C      3.343468      3.310241      6.166354
C      3.742460      2.327057      5.291288
C      4.989111      2.446083      4.547106
C      5.099486      2.055657      3.225511
N      6.373550      2.314608      2.803540
C      6.868684      2.043608      1.472628
C      7.116459      2.860815      3.828398
C      8.456660      3.279705      3.868398
C      8.954438      3.783985      5.072358
C      8.146657      3.862471      6.201130
C      6.812326      3.444144      6.151205
C      6.274187      2.943261      4.944145
N      3.009856      1.218850      5.045996
C     -0.438386     -1.902208      5.351586
O      0.467126     -2.453530      4.470071
C      0.147021     -3.719573      3.909686
C     -1.633438     -2.512149      5.745917
C     -2.492473     -1.870094      6.647887
N     -3.720430     -2.453601      7.093214
C     -3.442238     -3.611694      7.954800
C     -4.668168     -2.746140      5.988555
C     -5.238409     -1.451752      5.354406
N     -6.264264     -1.604085      4.304369
C     -5.752247     -2.275791      3.114452
C     -7.485611     -2.237323      4.788765
H     -5.702089      0.850295     10.888990
H     -4.665607     -0.517991     10.196734
H     -4.401777      2.519511      9.688874
H     -3.868197     -0.627470      8.191359
H     -0.670873      0.975870      7.164555
H      1.651659     -0.651023      4.766562
H      1.734241      3.794667      7.502560
H      3.910737      4.212679      6.339618
H      4.362225      1.620063      2.562599
H      7.699858      1.338020      1.549652
H      7.199570      2.985787      1.028287
H      6.070612      1.609161      0.865114
H      9.097463      3.212050      2.995212
H      9.990014      4.111292      5.128011
H      8.554539      4.246180      7.132938
H      6.203762      3.496688      7.048891
H     -0.776051     -3.670273      3.322766
H      0.957952     -3.998515      3.229980
H      0.084315     -4.489736      4.685386
H     -1.908721     -3.489040      5.369997
H     -3.022452     -4.452516      7.390862
H     -4.372181     -3.950895      8.424276
H     -2.753750     -3.344871      8.765188
H     -4.206008     -3.387436      5.229575
H     -5.502392     -3.317414      6.412832
H     -4.416744     -0.856899      4.935665
H     -5.655945     -0.824970      6.154005
H     -4.853519     -1.773010      2.740470
H     -6.491750     -2.235167      2.306785
H     -5.509798     -3.328089      3.297233
H     -8.270113     -2.182025      4.025612
H     -7.871082     -1.714636      5.671056
H     -7.340712     -3.291994      5.045767
Ti     -3.000000     -2.600000      1.250000
Ti      0.000000     -2.600000      1.250000
Ti      3.000000     -2.600000      1.250000
Ti     -1.500000      0.000000      1.250000
Ti      1.500000      0.000000      1.250000
Ti      0.000000      2.600000      1.250000
Ti     -3.000000     -2.600000     -1.250000
Ti      0.000000     -2.600000     -1.250000
Ti      3.000000     -2.600000     -1.250000
Ti     -1.500000      0.000000     -1.250000
Ti      1.500000      0.000000     -1.250000
Ti      0.000000      2.600000     -1.250000
C     -1.500000     -1.300000      0.000000
C      1.500000     -1.300000      0.000000
C      0.000000      1.300000      0.000000
C     -3.000000      0.000000      0.000000
C      3.000000      0.000000      0.000000
C     -1.500000      2.600000      0.000000
C      1.500000      2.600000      0.000000
O     -3.000000     -2.600000      2.450000
O      0.000000     -2.600000      2.450000
O      3.000000     -2.600000      2.450000
O     -1.500000      0.000000      2.450000
O      1.500000      0.000000      2.450000
O     -1.500000      2.600000      2.450000
O      1.500000      2.600000      2.450000
O     -3.000000     -2.600000     -2.450000
O      0.000000     -2.600000     -2.450000
O      3.000000     -2.600000     -2.450000
O     -1.500000      0.000000     -2.450000
O      1.500000      0.000000     -2.450000
O     -1.500000      2.600000     -2.450000
O      1.500000      2.600000     -2.450000
