      -----------------------------------------------------------      
     |                   =====================                   |     
     |                           x T B                           |     
     |                   =====================                   |     
     |                         S. Grimme                         |     
     |          Mulliken Center for Theoretical Chemistry        |     
     |                    University of Bonn                     |     
      -----------------------------------------------------------      

   * xtb version 6.7.1pre (5071a88) compiled by 'Marcel@Raven' on 2024-07-23

   xtb is free software: you can redistribute it and/or modify it under
   the terms of the GNU Lesser General Public License as published by
   the Free Software Foundation, either version 3 of the License, or
   (at your option) any later version.
   
   xtb is distributed in the hope that it will be useful,
   but WITHOUT ANY WARRANTY; without even the implied warranty of
   MERCHANTABILITY or FITNESS FOR A PARTICULAR PURPOSE.  See the
   GNU Lesser General Public License for more details.
   
   Cite this work as:
   * C. Bannwarth, E. Caldeweyher, S. Ehlert, A. Hansen, P. Pracht,
     J. Seibert, S. Spicher, S. Grimme, WIREs Comput. Mol. Sci., 2020, 11,
     e01493. DOI: 10.1002/wcms.1493
   
   for GFN2-xTB:
   * C. Bannwarth, S. Ehlert and S. Grimme., J. Chem. Theory Comput., 2019,
     15, 1652-1671. DOI: 10.1021/acs.jctc.8b01176
   for GFN1-xTB:
   * S. Grimme, C. Bannwarth, P. Shushkov, J. Chem. Theory Comput., 2017,
     13, 1989-2009. DOI: 10.1021/acs.jctc.7b00118
   for GFN0-xTB:
   * P. Pracht, E. Caldeweyher, S. Ehlert, S. Grimme, ChemRxiv, 2019, preprint.
     DOI: 10.26434/chemrxiv.8326202.v1
   for GFN-FF:
   * S. Spicher and S. Grimme, Angew. Chem. Int. Ed., 2020, 59, 15665-15673.
     DOI: 10.1002/anie.202004239
   
   for ALPB and GBSA implicit solvation:
   * S. Ehlert, M. Stahn, S. Spicher, S. Grimme, J. Chem. Theory Comput.,
     2021, 17, 4250-4261. DOI: 10.1021/acs.jctc.1c00471
   
   for ddCOSMO and CPCM-X implicit solvation:
   * M. Stahn, S. Ehlert, S. Grimme, J. Phys. Chem. A,
     2023, XX, XXXX-XXXX. DOI: 10.1021/acs.jpca.3c04382
   
   for DFT-D4:
   * E. Caldeweyher, C. Bannwarth and S. Grimme, J. Chem. Phys., 2017,
     147, 034112. DOI: 10.1063/1.4993215
   * E. Caldeweyher, S. Ehlert, A. Hansen, H. Neugebauer, S. Spicher,
     C. Bannwarth and S. Grimme, J. Chem. Phys., 2019, 150, 154122.
     DOI: 10.1063/1.5090222
   * E. Caldeweyher, J.-M. Mewes, S. Ehlert and S. Grimme, Phys. Chem. Chem. Phys.
     2020, 22, 8499-8512. DOI: 10.1039/D0CP00502A
   
   for sTDA-xTB:
   * S. Grimme and C. Bannwarth, J. Chem. Phys., 2016, 145, 054103.
     DOI: 10.1063/1.4959605
   
   in the mass-spec context:
   * V. Asgeirsson, C. Bauer and S. Grimme, Chem. Sci., 2017, 8, 4879.
     DOI: 10.1039/c7sc00601b
   * J. Koopman and S. Grimme, ACS Omega 2019, 4, 12, 15120-15133.
     DOI: 10.1021/acsomega.9b02011
   
   for metadynamics refer to:
   * S. Grimme, J. Chem. Theory Comput., 2019, 155, 2847-2862
     DOI: 10.1021/acs.jctc.9b00143
   
   for SPH calculations refer to:
   * S. Spicher and S. Grimme, J. Chem. Theory Comput., 2021, 17, 1701-1714
     DOI: 10.1021/acs.jctc.0c01306
   
   for ONIOM refer to:
   * C. Plett, A. Katbashev, S. Ehlert, S. Grimme, M. Bursch,
     Phys. Chem. Chem. Phys., 2023, 25, 17860-17868. DOI: 10.1039/D3CP02178E
   
   for DIPRO refer to:
   * J. Kohn, N. Gildemeister, S. Grimme, D. Fazzi, A. Hansen,
     J. Chem. Phys., 2023, just accepted.
   
   for PTB refer to:
   * S. Grimme, M. Mueller, A. Hansen, J. Chem. Phys., 2023, 158, 124111.
     DOI: 10.1063/5.0137838
   
   with help from (in alphabetical order)
   P. Atkinson, C. Bannwarth, F. Bohle, G. Brandenburg, E. Caldeweyher
   M. Checinski, S. Dohm, S. Ehlert, S. Ehrlich, I. Gerasimov, C. Hölzer
   A. Katbashev, J. Kohn, J. Koopman, C. Lavigne, S. Lehtola, F. März, M. Müller,
   F. Musil, H. Neugebauer, J. Pisarek, C. Plett, P. Pracht, F. Pultar,
   J. Seibert, P. Shushkov, S. Spicher, M. Stahn, M. Steiner, T. Strunk,
   J. Stückrath, T. Rose, and J. Unsleber
   
 * started run on 2026/09/01 at 20:31:37.709     
   ID    Z sym.   atoms
    1   22 Ti     1-12
    2    6 C      13-19
    3    8 O      20-33

           -------------------------------------------------
          |                Calculation Setup                |
           -------------------------------------------------

          program call               : "c:\Users\Andre\Proyectos doctorado\nano-qsar-ai-papers\kras-pancreatic-gC3N4-ai\tools\xtb\xtb-6.7.1\bin\xtb.exe" "c:\Users\Andre\Proyectos doctorado\nano-qsar-ai-papers\mxene-glioblastoma-qsar-ai\calculations\gbm\Osimertinib\xtbopt.xyz" --gfn 2 --chrg 0 --uhf 0 --wbo --norestart
          coordinate file            : c:\Users\Andre\Proyectos doctorado\nano-qsar-ai-papers\mxene-glioblastoma-qsar-ai\calculations\gbm\Osimertinib\xtbopt.xyz
          omp threads                :                    16


molecular fragmentation (1/2 indicates fragments):
111111111111111111122221222222222
# atoms in fragment 1/2:    20    13
 fragment masses (1/2) :      674.48      207.99
CMA distance (Bohr)    :   0.943
constraining FC (au)   :  0.0500

           -------------------------------------------------
          |                 G F N 2 - x T B                 |
           -------------------------------------------------

        Reference                      10.1021/acs.jctc.8b01176
      * Hamiltonian:
        H0-scaling (s, p, d)           1.850000    2.230000    2.230000
        zeta-weighting                 0.500000
      * Dispersion:
        s8                             2.700000
        a1                             0.520000
        a2                             5.000000
        s9                             5.000000
      * Repulsion:
        kExp                           1.500000    1.000000
        rExp                           1.000000
      * Coulomb:
        alpha                          2.000000
        third order                    shell-resolved
        anisotropic                    true
        a3                             3.000000
        a5                             4.000000
        cn-shift                       1.200000
        cn-exp                         4.000000
        max-rad                        5.000000


          ...................................................
          :                      SETUP                      :
          :.................................................:
          :  # basis functions                 204          :
          :  # atomic orbitals                 192          :
          :  # shells                           78          :
          :  # electrons                       160          :
          :  max. iterations                   250          :
          :  Hamiltonian                  GFN2-xTB          :
          :  restarted?                      false          :
          :  GBSA solvation                  false          :
          :  PC potential                    false          :
          :  electronic temp.          300.0000000     K    :
          :  accuracy                    1.0000000          :
          :  -> integral cutoff          0.2500000E+02      :
          :  -> integral neglect         0.1000000E-07      :
          :  -> SCF convergence          0.1000000E-05 Eh   :
          :  -> wf. convergence          0.1000000E-03 e    :
          :  Broyden damping             0.4000000          :
          :  net charge                          0          :
          :  unpaired electrons                  0          :
          ...................................................

 iter      E             dE          RMSdq      gap      omega  full diag
   1    -91.2725225 -0.912725E+02  0.184E+01    0.02       0.0  T
   2    -85.8805769  0.539195E+01  0.129E+01    0.16       1.0  T
   3    -39.2892097  0.465914E+02  0.303E+01    0.01       1.0  T
   4    -89.3788200 -0.500896E+02  0.100E+01    0.03       1.0  T
   5    -91.5104522 -0.213163E+01  0.895E+00    0.01       1.0  T
   6    -92.4981026 -0.987650E+00  0.654E+00    0.25       1.0  T
   7    -92.5910835 -0.929810E-01  0.557E+00    0.59       1.0  T
   8    -92.5976314 -0.654787E-02  0.431E+00    0.72       1.0  T
   9    -92.6109712 -0.133398E-01  0.290E+00    0.50       1.0  T
  10    -92.6509200 -0.399488E-01  0.219E+00    0.52       1.0  T
  11    -92.6678917 -0.169716E-01  0.180E+00    0.68       1.0  T
  12    -92.6828757 -0.149841E-01  0.147E+00    0.81       1.0  T
  13    -92.6929067 -0.100309E-01  0.126E+00    0.96       1.0  T
  14    -92.7055280 -0.126213E-01  0.112E+00    0.91       1.0  T
  15    -92.7146831 -0.915514E-02  0.104E+00    0.79       1.0  T
  16    -92.7195236 -0.484043E-02  0.957E-01    0.67       1.0  T
  17    -92.7330946 -0.135711E-01  0.796E-01    0.35       1.0  T
  18    -92.2835711  0.449524E+00  0.495E+00    0.03       1.0  T
  19    -92.4974714 -0.213900E+00  0.377E+00    0.01       1.0  T
  20    -92.0783428  0.419129E+00  0.577E+00    0.03       1.0  T
  21    -92.0789725 -0.629755E-03  0.568E+00    0.02       1.0  T
  22    -92.2626257 -0.183653E+00  0.475E+00    0.02       1.0  T
  23    -92.7507267 -0.488101E+00  0.766E-01    0.08       1.0  T
  24    -92.7467431  0.398359E-02  0.856E-01    0.07       1.0  T
  25    -92.7617700 -0.150269E-01  0.712E-02    0.12       1.0  T
  26    -92.7598149  0.195511E-02  0.316E-01    0.09       1.0  T
  27    -92.7574225  0.239233E-02  0.429E-01    0.09       1.0  T
  28    -92.7617021 -0.427961E-02  0.947E-02    0.11       1.0  T
  29    -92.7618022 -0.100052E-03  0.704E-02    0.11       1.0  T
  30    -92.7617410  0.612393E-04  0.850E-02    0.11       1.0  T
  31    -92.7619196 -0.178623E-03  0.130E-02    0.11       1.3  T
  32    -92.7619225 -0.286939E-05  0.316E-03    0.11       5.5  T
  33    -92.7619226 -0.151551E-06  0.147E-03    0.11      11.8  T
  34    -92.7619225  0.864330E-07  0.250E-03    0.11       7.0  T
  35    -92.7619225 -0.136188E-08  0.266E-03    0.11       6.5  T
  36    -92.7619221  0.425417E-06  0.481E-03    0.11       3.6  T
  37    -92.7619226 -0.515156E-06  0.131E-03    0.11      13.3  T
  38    -92.7619226 -0.505521E-08  0.119E-03    0.11      14.6  T
  39    -92.7619226 -0.199185E-07  0.826E-04    0.11      21.1  T
  40    -92.7619226 -0.675850E-08  0.612E-04    0.11      28.4  T

   *** convergence criteria satisfied after 40 iterations ***

         #    Occupation            Energy/Eh            Energy/eV
      -------------------------------------------------------------
         1        2.0000           -0.8121140             -22.0987
       ...           ...                  ...                  ...
        74        2.0000           -0.3503496              -9.5335
        75        2.0000           -0.3459114              -9.4127
        76        2.0000           -0.3442399              -9.3672
        77        2.0000           -0.3387178              -9.2170
        78        2.0000           -0.3290721              -8.9545
        79        2.0000           -0.3197969              -8.7021
        80        1.7575           -0.3013069              -8.1990 (HOMO)
        81        0.1710           -0.2971733              -8.0865 (LUMO)
        82        0.0715           -0.2962951              -8.0626
        83        0.0000           -0.2877801              -7.8309
        84        0.0000           -0.2844433              -7.7401
        85                         -0.2787320              -7.5847
       ...                                ...                  ...
       192                         13.2785665             361.3282
      -------------------------------------------------------------
                  HL-Gap            0.0041336 Eh            0.1125 eV
             Fermi-level           -0.2994251 Eh           -8.1478 eV

 SCC (total)                   0 d,  0 h,  0 min,  0.499 sec
 SCC setup                      ...        0 min,  0.001 sec (  0.200%)
 Dispersion                     ...        0 min,  0.007 sec (  1.403%)
 classical contributions        ...        0 min,  0.000 sec (  0.000%)
 integral evaluation            ...        0 min,  0.007 sec (  1.403%)
 iterations                     ...        0 min,  0.474 sec ( 94.990%)
 molecular gradient             ...        0 min,  0.009 sec (  1.804%)
 printout                       ...        0 min,  0.001 sec (  0.200%)

         :::::::::::::::::::::::::::::::::::::::::::::::::::::
         ::                     SUMMARY                     ::
         :::::::::::::::::::::::::::::::::::::::::::::::::::::
         :: total energy             -92.087007967753 Eh    ::
         :: gradient norm              0.000806652747 Eh/a0 ::
         :: HOMO-LUMO gap              0.112479844420 eV    ::
         ::.................................................::
         :: SCC energy               -92.760163535476 Eh    ::
         :: -> isotropic ES            0.899388111701 Eh    ::
         :: -> anisotropic ES         -0.411445438732 Eh    ::
         :: -> anisotropic XC         -0.062000467878 Eh    ::
         :: -> dispersion             -0.091762777961 Eh    ::
         :: repulsion energy           0.673155567723 Eh    ::
         :: add. restraining           0.000000000000 Eh    ::
         :: total charge              -0.000000000001 e     ::
         :::::::::::::::::::::::::::::::::::::::::::::::::::::

           -------------------------------------------------
          |                Property Printout                |
           -------------------------------------------------

    * Orbital Energies and Occupations

         #    Occupation            Energy/Eh            Energy/eV
      -------------------------------------------------------------
         1        2.0000           -0.8121140             -22.0987
       ...           ...                  ...                  ...
        68        2.0000           -0.3848284             -10.4717
        69        2.0000           -0.3779398             -10.2843
        70        2.0000           -0.3756472             -10.2219
        71        2.0000           -0.3723442             -10.1320
        72        2.0000           -0.3596688              -9.7871
        73        2.0000           -0.3579098              -9.7392
        74        2.0000           -0.3503496              -9.5335
        75        2.0000           -0.3459114              -9.4127
        76        2.0000           -0.3442399              -9.3672
        77        2.0000           -0.3387178              -9.2170
        78        2.0000           -0.3290721              -8.9545
        79        2.0000           -0.3197969              -8.7021
        80        1.7575           -0.3013069              -8.1990 (HOMO)
        81        0.1710           -0.2971733              -8.0865 (LUMO)
        82        0.0715           -0.2962951              -8.0626
        83        0.0000           -0.2877801              -7.8309
        84        0.0000           -0.2844433              -7.7401
        85                         -0.2787320              -7.5847
        86                         -0.2779400              -7.5631
        87                         -0.2688366              -7.3154
        88                         -0.2681223              -7.2960
        89                         -0.2629914              -7.1564
        90                         -0.2622150              -7.1352
        91                         -0.2594518              -7.0600
       ...                                ...                  ...
       192                         13.2785665             361.3282
      -------------------------------------------------------------
                  HL-Gap            0.0041336 Eh            0.1125 eV
             Fermi-level           -0.2994251 Eh           -8.1478 eV

     #   Z          covCN         q      C6AA      α(0)
     1  22 Ti       3.511     0.999   103.027    24.753
     2  22 Ti       6.605     1.542    84.139    14.892
     3  22 Ti       3.238     1.059   102.509    24.723
     4  22 Ti       5.912     1.362    85.840    15.042
     5  22 Ti       5.736     1.126    88.155    15.244
     6  22 Ti       3.500     1.018   102.828    24.733
     7  22 Ti       2.067     0.994   202.598    34.850
     8  22 Ti       6.615     1.563    83.949    14.876
     9  22 Ti       3.413     1.020   102.913    24.762
    10  22 Ti       5.860     1.133    88.088    15.238
    11  22 Ti       5.707     1.194    87.481    15.185
    12  22 Ti       3.572     1.025   102.534    24.658
    13   6 C        2.350    -0.268    36.731     9.858
    14   6 C        2.155    -0.261    38.447    10.025
    15   6 C        2.218    -0.033    31.201     9.043
    16   6 C        1.839    -0.221    37.699     9.919
    17   6 C        1.896    -0.231    37.961     9.951
    18   6 C        1.834    -0.370    43.066    10.602
    19   6 C        2.625    -0.406    39.995    10.344
    20   8 O        1.474    -0.827    31.512     7.568
    21   8 O        1.457    -0.869    32.841     7.724
    22   8 O        1.525    -0.920    34.394     7.910
    23   8 O        1.517    -1.012    37.670     8.278
    24   8 O        1.492    -0.916    34.320     7.899
    25   8 O        1.460    -0.820    31.307     7.542
    26   8 O        1.454    -0.798    30.677     7.465
    27   8 O        1.494    -0.874    32.950     7.740
    28   8 O        1.484    -0.874    32.958     7.740
    29   8 O        1.456    -0.815    31.178     7.526
    30   8 O        1.555    -0.937    34.943     7.975
    31   8 O        1.516    -0.990    36.872     8.190
    32   8 O        1.465    -0.804    30.816     7.483
    33   8 O        1.453    -0.792    30.486     7.441

 Mol. C6AA /au·bohr⁶  :      56661.616149
 Mol. C8AA /au·bohr⁸  :    3448080.929872
 Mol. α(0) /au        :        427.176914


Wiberg/Mayer (AO) data.
largest (>0.10) Wiberg bond orders for each atom

 ---------------------------------------------------------------------------
     #   Z sym  total        # sym  WBO       # sym  WBO       # sym  WBO
 ---------------------------------------------------------------------------
     1  22 Ti   2.867 --    21 O    0.860    20 O    0.826     7 Ti   0.389
                             2 Ti   0.196     4 Ti   0.193     6 Ti   0.158
     2  22 Ti   3.866 --    22 O    0.773    21 O    0.735    24 O    0.702
                            23 O    0.641     1 Ti   0.196     3 Ti   0.194
                             5 Ti   0.128     6 Ti   0.113
     3  22 Ti   2.646 --    29 O    0.872    22 O    0.643     9 Ti   0.296
                             2 Ti   0.194     7 Ti   0.160    27 O    0.102
                            24 O    0.100
     4  22 Ti   3.942 --    25 O    0.938    20 O    0.749    13 C    0.690
                            23 O    0.498    10 Ti   0.205     1 Ti   0.193
                             6 Ti   0.191    30 O    0.112
     5  22 Ti   4.092 --    19 C    0.836    26 O    0.823    17 C    0.726
                            24 O    0.657    11 Ti   0.272     6 Ti   0.209
                            18 C    0.148    14 C    0.142     2 Ti   0.128
     6  22 Ti   2.718 --    26 O    0.933    25 O    0.719     5 Ti   0.209
                             4 Ti   0.191     1 Ti   0.158     2 Ti   0.113
                            21 O    0.105
     7  22 Ti   2.379 --    27 O    0.895     1 Ti   0.389     8 Ti   0.191
                            20 O    0.168     3 Ti   0.160    22 O    0.157
                            30 O    0.107
     8  22 Ti   3.828 --    28 O    0.790    30 O    0.683    31 O    0.663
                            27 O    0.649     9 Ti   0.201     7 Ti   0.191
                            10 Ti   0.127    12 Ti   0.120
     9  22 Ti   2.698 --    29 O    0.850    28 O    0.768     3 Ti   0.296
                             8 Ti   0.201    12 Ti   0.153    11 Ti   0.147
    10  22 Ti   4.091 --    18 C    0.880    32 O    0.820    16 C    0.735
                            30 O    0.586     4 Ti   0.205    12 Ti   0.199
                            13 C    0.175    19 C    0.138     8 Ti   0.127
    11  22 Ti   4.080 --    33 O    0.953    14 C    0.683    19 C    0.624
                            31 O    0.517     5 Ti   0.272    12 Ti   0.217
                             9 Ti   0.147    18 C    0.123
    12  22 Ti   2.708 --    32 O    0.886    33 O    0.739    11 Ti   0.217
                            10 Ti   0.199     9 Ti   0.153    28 O    0.136
                             8 Ti   0.120
    13   6 C    3.821 --    16 C    2.725     4 Ti   0.690    10 Ti   0.175
    14   6 C    3.791 --    17 C    2.735    11 Ti   0.683     5 Ti   0.142
    15   6 C    3.976 --    18 C    2.016    19 C    1.578
    16   6 C    3.685 --    13 C    2.725    10 Ti   0.735
    17   6 C    3.733 --    14 C    2.735     5 Ti   0.726
    18   6 C    3.629 --    15 C    2.016    10 Ti   0.880     5 Ti   0.148
                            11 Ti   0.123
    19   6 C    3.630 --    15 C    1.578     5 Ti   0.836    11 Ti   0.624
                            10 Ti   0.138
    20   8 O    1.961 --     1 Ti   0.826     4 Ti   0.749     7 Ti   0.168
    21   8 O    1.911 --     1 Ti   0.860     2 Ti   0.735     6 Ti   0.105
    22   8 O    1.834 --     2 Ti   0.773     3 Ti   0.643     7 Ti   0.157
    23   8 O    1.712 --     2 Ti   0.641     4 Ti   0.498
    24   8 O    1.845 --     2 Ti   0.702     5 Ti   0.657     3 Ti   0.100
    25   8 O    1.979 --     4 Ti   0.938     6 Ti   0.719
    26   8 O    2.011 --     6 Ti   0.933     5 Ti   0.823
    27   8 O    1.895 --     7 Ti   0.895     8 Ti   0.649     3 Ti   0.102
    28   8 O    1.903 --     8 Ti   0.790     9 Ti   0.768    12 Ti   0.136
    29   8 O    1.989 --     3 Ti   0.872     9 Ti   0.850
    30   8 O    1.817 --     8 Ti   0.683    10 Ti   0.586     4 Ti   0.112
                             7 Ti   0.107
    31   8 O    1.745 --     8 Ti   0.663    11 Ti   0.517
    32   8 O    2.005 --    12 Ti   0.886    10 Ti   0.820
    33   8 O    2.019 --    11 Ti   0.953    12 Ti   0.739
 ---------------------------------------------------------------------------

Topologies differ in total number of bonds
Writing topology from bond orders to xtbtopo.mol

molecular dipole:
                 x           y           z       tot (Debye)
 q only:       -0.635      -3.621      -0.686
   full:       -1.293      -3.312       0.051       9.038
molecular quadrupole (traceless):
                xx          xy          yy          xz          yz          zz
 q only:      -36.104      23.303      29.117     -32.756      -5.971       6.987
  q+dip:      -29.879      16.844       8.809       1.203     -11.694      21.070
   full:      -28.618      17.266      11.244      -0.194     -11.409      17.373


           -------------------------------------------------
          | TOTAL ENERGY              -92.087007967753 Eh   |
          | GRADIENT NORM               0.000806652747 Eh/α |
          | HOMO-LUMO GAP               0.112479844420 eV   |
           -------------------------------------------------

------------------------------------------------------------------------
 * finished run on 2026/09/01 at 20:31:38.257     
------------------------------------------------------------------------
 total:
 * wall-time:     0 d,  0 h,  0 min,  0.546 sec
 *  cpu-time:     0 d,  0 h,  0 min,  2.531 sec
 * ratio c/w:     4.636 speedup
 SCF:
 * wall-time:     0 d,  0 h,  0 min,  0.499 sec
 *  cpu-time:     0 d,  0 h,  0 min,  2.328 sec
 * ratio c/w:     4.666 speedup

