70
Frozen drug coordinates from Osimertinib relaxed complex
C     -4.953605    -3.311339     6.653862
C     -3.739318    -2.960704     6.201638
C     -2.697281    -2.229354     6.912732
O     -1.426267    -2.204253     6.297290
N     -2.649416    -2.507149     8.355824
C     -1.782409    -1.706850     9.106436
C     -0.411002    -1.951955     8.955375
C      0.529790    -1.039236     9.415195
N      1.907431    -1.137590     9.169452
C      2.511019    -1.771626     8.119645
N      1.942349    -2.850064     7.559338
C      2.717340    -3.571322     6.739743
C      4.005527    -3.197905     6.412242
C      4.455968    -1.969278     6.930502
C      5.705268    -1.368988     6.521417
C      6.780569    -1.966245     5.899491
N      7.707684    -1.039431     5.551770
C      8.951581    -1.295846     4.884524
C      7.242647     0.202227     5.905919
C      7.794383     1.462201     5.695283
C      7.069816     2.553332     6.127215
C      5.830078     2.406436     6.757283
C      5.269699     1.161316     6.964825
C      5.989596     0.038772     6.539935
N      3.725229    -1.306025     7.823222
C      0.085796     0.079850    10.165326
O      1.059720     0.958280    10.597669
C      0.646039     2.279995    10.905441
C     -1.268257     0.226672    10.445854
C     -2.218597    -0.628464     9.895619
N     -3.580204    -0.229327    10.043340
C     -4.430218    -1.137531    10.788288
C     -4.149357     0.283117     8.800643
C     -5.254865     1.309643     9.076278
N     -6.537753     0.685527     9.379674
C     -7.222352     0.244267     8.179447
C     -7.390288     1.555838    10.163611
H     -5.284072    -3.120142     7.661334
H     -5.669276    -3.777414     6.002561
H     -3.487632    -3.175017     5.154826
H     -3.600816    -2.489345     8.704231
H     -0.104595    -2.808737     8.372301
H      2.432542    -0.321565     9.487212
H      2.277221    -4.501528     6.391230
H      4.614249    -3.790245     5.750111
H      6.962920    -3.008199     5.716246
H      8.968838    -0.805356     3.908615
H      9.074577    -2.367624     4.743526
H      9.787153    -0.919407     5.478494
H      8.751056     1.583508     5.210679
H      7.470121     3.543861     5.977135
H      5.291677     3.283090     7.083974
H      4.333171     1.048710     7.497000
H      1.568249     2.852523    10.995722
H      0.100805     2.308880    11.854548
H      0.031817     2.695223    10.085759
H     -1.633697     1.061882    11.024456
H     -4.529978    -2.140835    10.352142
H     -5.419226    -0.689023    10.847112
H     -4.017274    -1.245601    11.790598
H     -3.335630     0.790329     8.259779
H     -4.544987    -0.514396     8.141509
H     -4.949160     1.901423     9.940905
H     -5.332716     1.978522     8.203945
H     -6.568218    -0.392814     7.588184
H     -7.543140     1.087640     7.549177
H     -8.102028    -0.330269     8.468123
H     -8.307997     1.022778    10.409874
H     -7.658839     2.482728     9.634500
H     -6.883934     1.817824    11.091452
