      -----------------------------------------------------------      
     |                   =====================                   |     
     |                           x T B                           |     
     |                   =====================                   |     
     |                         S. Grimme                         |     
     |          Mulliken Center for Theoretical Chemistry        |     
     |                    University of Bonn                     |     
      -----------------------------------------------------------      

   * xtb version 6.7.1pre (5071a88) compiled by 'Marcel@Raven' on 2024-07-23

   xtb is free software: you can redistribute it and/or modify it under
   the terms of the GNU Lesser General Public License as published by
   the Free Software Foundation, either version 3 of the License, or
   (at your option) any later version.
   
   xtb is distributed in the hope that it will be useful,
   but WITHOUT ANY WARRANTY; without even the implied warranty of
   MERCHANTABILITY or FITNESS FOR A PARTICULAR PURPOSE.  See the
   GNU Lesser General Public License for more details.
   
   Cite this work as:
   * C. Bannwarth, E. Caldeweyher, S. Ehlert, A. Hansen, P. Pracht,
     J. Seibert, S. Spicher, S. Grimme, WIREs Comput. Mol. Sci., 2020, 11,
     e01493. DOI: 10.1002/wcms.1493
   
   for GFN2-xTB:
   * C. Bannwarth, S. Ehlert and S. Grimme., J. Chem. Theory Comput., 2019,
     15, 1652-1671. DOI: 10.1021/acs.jctc.8b01176
   for GFN1-xTB:
   * S. Grimme, C. Bannwarth, P. Shushkov, J. Chem. Theory Comput., 2017,
     13, 1989-2009. DOI: 10.1021/acs.jctc.7b00118
   for GFN0-xTB:
   * P. Pracht, E. Caldeweyher, S. Ehlert, S. Grimme, ChemRxiv, 2019, preprint.
     DOI: 10.26434/chemrxiv.8326202.v1
   for GFN-FF:
   * S. Spicher and S. Grimme, Angew. Chem. Int. Ed., 2020, 59, 15665-15673.
     DOI: 10.1002/anie.202004239
   
   for ALPB and GBSA implicit solvation:
   * S. Ehlert, M. Stahn, S. Spicher, S. Grimme, J. Chem. Theory Comput.,
     2021, 17, 4250-4261. DOI: 10.1021/acs.jctc.1c00471
   
   for ddCOSMO and CPCM-X implicit solvation:
   * M. Stahn, S. Ehlert, S. Grimme, J. Phys. Chem. A,
     2023, XX, XXXX-XXXX. DOI: 10.1021/acs.jpca.3c04382
   
   for DFT-D4:
   * E. Caldeweyher, C. Bannwarth and S. Grimme, J. Chem. Phys., 2017,
     147, 034112. DOI: 10.1063/1.4993215
   * E. Caldeweyher, S. Ehlert, A. Hansen, H. Neugebauer, S. Spicher,
     C. Bannwarth and S. Grimme, J. Chem. Phys., 2019, 150, 154122.
     DOI: 10.1063/1.5090222
   * E. Caldeweyher, J.-M. Mewes, S. Ehlert and S. Grimme, Phys. Chem. Chem. Phys.
     2020, 22, 8499-8512. DOI: 10.1039/D0CP00502A
   
   for sTDA-xTB:
   * S. Grimme and C. Bannwarth, J. Chem. Phys., 2016, 145, 054103.
     DOI: 10.1063/1.4959605
   
   in the mass-spec context:
   * V. Asgeirsson, C. Bauer and S. Grimme, Chem. Sci., 2017, 8, 4879.
     DOI: 10.1039/c7sc00601b
   * J. Koopman and S. Grimme, ACS Omega 2019, 4, 12, 15120-15133.
     DOI: 10.1021/acsomega.9b02011
   
   for metadynamics refer to:
   * S. Grimme, J. Chem. Theory Comput., 2019, 155, 2847-2862
     DOI: 10.1021/acs.jctc.9b00143
   
   for SPH calculations refer to:
   * S. Spicher and S. Grimme, J. Chem. Theory Comput., 2021, 17, 1701-1714
     DOI: 10.1021/acs.jctc.0c01306
   
   for ONIOM refer to:
   * C. Plett, A. Katbashev, S. Ehlert, S. Grimme, M. Bursch,
     Phys. Chem. Chem. Phys., 2023, 25, 17860-17868. DOI: 10.1039/D3CP02178E
   
   for DIPRO refer to:
   * J. Kohn, N. Gildemeister, S. Grimme, D. Fazzi, A. Hansen,
     J. Chem. Phys., 2023, just accepted.
   
   for PTB refer to:
   * S. Grimme, M. Mueller, A. Hansen, J. Chem. Phys., 2023, 158, 124111.
     DOI: 10.1063/5.0137838
   
   with help from (in alphabetical order)
   P. Atkinson, C. Bannwarth, F. Bohle, G. Brandenburg, E. Caldeweyher
   M. Checinski, S. Dohm, S. Ehlert, S. Ehrlich, I. Gerasimov, C. Hölzer
   A. Katbashev, J. Kohn, J. Koopman, C. Lavigne, S. Lehtola, F. März, M. Müller,
   F. Musil, H. Neugebauer, J. Pisarek, C. Plett, P. Pracht, F. Pultar,
   J. Seibert, P. Shushkov, S. Spicher, M. Stahn, M. Steiner, T. Strunk,
   J. Stückrath, T. Rose, and J. Unsleber
   
 * started run on 2026/09/02 at 16:17:30.994     
   ID    Z sym.   atoms
    1    6 C      1-3, 6-8, 10, 12-16, 18-24, 26, 28-30, 32-34, 36, 37, 83-89
    2    8 O      4, 27, 90-103
    3    7 N      5, 9, 11, 17, 25, 31, 35
    4    1 H      38-70
    5   22 Ti     71-82

           -------------------------------------------------
          |                Calculation Setup                |
           -------------------------------------------------

          program call               : "c:\Users\Andre\Proyectos doctorado\nano-qsar-ai-papers\kras-pancreatic-gC3N4-ai\tools\xtb\xtb-6.7.1\bin\xtb.exe" "c:\Users\Andre\Proyectos doctorado\nano-qsar-ai-papers\mxene-glioblastoma-qsar-ai\calculations\gbm\Osimertinib\Osimertinib_opt_orient_270deg.xyz" --opt loose --gfn 2 --chrg 0 --uhf 0 --iterations 500 --cycles 400 --norestart
          coordinate file            : c:\Users\Andre\Proyectos doctorado\nano-qsar-ai-papers\mxene-glioblastoma-qsar-ai\calculations\gbm\Osimertinib\Osimertinib_opt_orient_270deg.xyz
          omp threads                :                     4


molecular fragmentation (1/2 indicates fragments):
111111111111111111111111111111111111111111111111111111111111111111111122
2222222222222222222222222222222
# atoms in fragment 1/2:    70    33
 fragment masses (1/2) :      499.61      882.47
CMA distance (Bohr)    :  19.037
constraining FC (au)   :  0.0500

           -------------------------------------------------
          |                 G F N 2 - x T B                 |
           -------------------------------------------------

        Reference                      10.1021/acs.jctc.8b01176
      * Hamiltonian:
        H0-scaling (s, p, d)           1.850000    2.230000    2.230000
        zeta-weighting                 0.500000
      * Dispersion:
        s8                             2.700000
        a1                             0.520000
        a2                             5.000000
        s9                             5.000000
      * Repulsion:
        kExp                           1.500000    1.000000
        rExp                           1.000000
      * Coulomb:
        alpha                          2.000000
        third order                    shell-resolved
        anisotropic                    true
        a3                             3.000000
        a5                             4.000000
        cn-shift                       1.200000
        cn-exp                         4.000000
        max-rad                        5.000000


          ...................................................
          :                      SETUP                      :
          :.................................................:
          :  # basis functions                 385          :
          :  # atomic orbitals                 373          :
          :  # shells                          185          :
          :  # electrons                       352          :
          :  max. iterations                   500          :
          :  Hamiltonian                  GFN2-xTB          :
          :  restarted?                      false          :
          :  GBSA solvation                  false          :
          :  PC potential                    false          :
          :  electronic temp.          300.0000000     K    :
          :  accuracy                    1.0000000          :
          :  -> integral cutoff          0.2500000E+02      :
          :  -> integral neglect         0.1000000E-07      :
          :  -> SCF convergence          0.1000000E-05 Eh   :
          :  -> wf. convergence          0.1000000E-03 e    :
          :  Broyden damping             0.4000000          :
          :  net charge                          0          :
          :  unpaired electrons                  0          :
          ...................................................

 iter      E             dE          RMSdq      gap      omega  full diag
   1   -195.3571724 -0.195357E+03  0.129E+01    0.01       0.0  T
   2   -138.9762236  0.563809E+02  0.149E+01    0.02       1.0  T
   3     82.8113862  0.221788E+03  0.272E+01    0.08       1.0  T
   4   -153.2826722 -0.236094E+03  0.128E+01    0.03       1.0  T
   5     28.7982427  0.182081E+03  0.202E+01    0.05       1.0  T
   6   -197.1428920 -0.225941E+03  0.752E+00    0.09       1.0  T
   7   -196.4464263  0.696466E+00  0.676E+00    0.06       1.0  T
   8   -194.7769484  0.166948E+01  0.689E+00    0.29       1.0  T
   9   -196.4756859 -0.169874E+01  0.652E+00    0.11       1.0  T
  10   -196.6493669 -0.173681E+00  0.641E+00    0.10       1.0  T
  11   -196.6259547  0.234122E-01  0.642E+00    0.10       1.0  T
  12   -196.5439245  0.820302E-01  0.683E+00    0.01       1.0  T
  13   -195.2400944  0.130383E+01  0.703E+00    0.05       1.0  T
  14   -196.2472768 -0.100718E+01  0.658E+00    0.18       1.0  T
  15   -197.3599937 -0.111272E+01  0.609E+00    0.08       1.0  T
  16   -197.2855869  0.744068E-01  0.674E+00    0.01       1.0  T
  17   -186.7502773  0.105353E+02  0.756E+00    0.01       1.0  T
  18   -198.5717735 -0.118215E+02  0.601E+00    0.06       1.0  T
  19   -194.5636471  0.400813E+01  0.858E+00    0.03       1.0  T
  20   -193.4382713  0.112538E+01  0.835E+00    0.15       1.0  T
  21   -193.3629174  0.753539E-01  0.832E+00    0.24       1.0  T
  22   -193.3641540 -0.123663E-02  0.832E+00    0.24       1.0  T
  23   -193.1953389  0.168815E+00  0.827E+00    0.16       1.0  T
  24   -193.1920345  0.330438E-02  0.827E+00    0.16       1.0  T
  25   -193.1766512  0.153832E-01  0.844E+00    0.22       1.0  T
  26   -192.3714509  0.805200E+00  0.777E+00    0.01       1.0  T
  27   -192.8963430 -0.524892E+00  0.764E+00    0.04       1.0  T
  28   -191.3820956  0.151425E+01  0.630E+00    0.18       1.0  T
  29   -194.6478532 -0.326576E+01  0.537E+00    0.11       1.0  T
  30   -194.6472072  0.646002E-03  0.511E+00    0.06       1.0  T
  31   -198.0996906 -0.345248E+01  0.440E+00    0.16       1.0  T
  32   -198.1114662 -0.117756E-01  0.413E+00    0.11       1.0  T
  33   -199.0651766 -0.953710E+00  0.413E+00    0.14       1.0  T
  34   -198.1369900  0.928187E+00  0.373E+00    0.23       1.0  T
  35   -199.2523458 -0.111536E+01  0.354E+00    0.05       1.0  T
  36   -199.2782313 -0.258854E-01  0.347E+00    0.04       1.0  T
  37   -199.4445480 -0.166317E+00  0.367E+00    0.03       1.0  T
  38   -199.3887314  0.558166E-01  0.325E+00    0.03       1.0  T
  39   -199.4111049 -0.223735E-01  0.281E+00    0.02       1.0  T
  40   -199.2515825  0.159522E+00  0.263E+00    0.09       1.0  T
  41   -199.2395842  0.119984E-01  0.245E+00    0.10       1.0  T
  42   -199.2288358  0.107484E-01  0.233E+00    0.10       1.0  T
  43   -199.2330412 -0.420545E-02  0.237E+00    0.10       1.0  T
  44   -199.1607611  0.722802E-01  0.305E+00    0.02       1.0  T
  45   -199.1307609  0.300001E-01  0.304E+00    0.00       1.0  T
  46   -199.2297696 -0.990087E-01  0.218E+00    0.10       1.0  T
  47   -199.2564963 -0.267267E-01  0.181E+00    0.08       1.0  T
  48   -199.2604207 -0.392441E-02  0.177E+00    0.08       1.0  T
  49   -199.2857515 -0.253308E-01  0.154E+00    0.07       1.0  T
  50   -199.2921931 -0.644161E-02  0.151E+00    0.07       1.0  T
  51   -199.2944664 -0.227331E-02  0.124E+00    0.07       1.0  T
  52   -199.2885060  0.596040E-02  0.143E+00    0.06       1.0  T
  53   -199.2931619 -0.465588E-02  0.124E+00    0.07       1.0  T
  54   -199.1446170  0.148545E+00  0.176E+00    0.01       1.0  T
  55   -199.3132919 -0.168675E+00  0.132E+00    0.07       1.0  T
  56   -199.3263045 -0.130125E-01  0.127E+00    0.04       1.0  T
  57   -199.2938842  0.324203E-01  0.160E+00    0.00       1.0  T
  58   -199.3003929 -0.650871E-02  0.158E+00    0.01       1.0  T
  59   -199.3199048 -0.195119E-01  0.111E+00    0.03       1.0  T
  60   -199.2180434  0.101861E+00  0.143E+00    0.02       1.0  T
  61   -199.3057803 -0.877369E-01  0.901E-01    0.02       1.0  T
  62   -199.3280218 -0.222414E-01  0.710E-01    0.03       1.0  T
  63   -199.3306078 -0.258600E-02  0.423E-01    0.03       1.0  T
  64   -199.3308419 -0.234176E-03  0.193E-01    0.04       1.0  T
  65   -199.3312489 -0.406978E-03  0.184E-01    0.04       1.0  T
  66   -199.3312027  0.462427E-04  0.198E-01    0.03       1.0  T
  67   -199.3314105 -0.207824E-03  0.170E-01    0.04       1.0  T
  68   -199.3314064  0.411173E-05  0.187E-01    0.04       1.0  T
  69   -199.3315468 -0.140450E-03  0.163E-01    0.04       1.0  T
  70   -199.3316279 -0.810768E-04  0.157E-01    0.04       1.0  T
  71   -199.3315626  0.653575E-04  0.149E-01    0.03       1.0  T
  72   -199.3324652 -0.902627E-03  0.108E-01    0.04       1.0  T
  73   -199.3327188 -0.253618E-03  0.131E-01    0.03       1.0  T
  74   -199.3321806  0.538205E-03  0.177E-01    0.03       1.0  T
  75   -199.3323135 -0.132855E-03  0.136E-01    0.04       1.0  T
  76   -199.3328591 -0.545640E-03  0.721E-02    0.04       1.0  T
  77   -199.3329080 -0.489075E-04  0.558E-02    0.04       1.0  T
  78   -199.3330630 -0.155027E-03  0.426E-02    0.04       1.0  T
  79   -199.3331293 -0.662778E-04  0.535E-02    0.04       1.0  T
  80   -199.3331822 -0.528431E-04  0.370E-02    0.04       1.0  T
  81   -199.3332013 -0.191402E-04  0.302E-02    0.04       1.0  T
  82   -199.3332227 -0.214402E-04  0.268E-02    0.04       1.0  T
  83   -199.3332456 -0.228516E-04  0.231E-02    0.04       1.0  T
  84   -199.3332532 -0.757229E-05  0.332E-02    0.04       1.0  T
  85   -199.3332575 -0.436658E-05  0.313E-02    0.04       1.0  T
  86   -199.3332592 -0.170682E-05  0.282E-02    0.04       1.0  T
  87   -199.3332663 -0.710527E-05  0.210E-02    0.04       1.0  T
  88   -199.3332753 -0.896608E-05  0.173E-02    0.04       1.0  T
  89   -199.3332791 -0.377879E-05  0.153E-02    0.04       1.0  T
  90   -199.3332814 -0.231835E-05  0.924E-03    0.04       1.1  T
  91   -199.3332824 -0.104252E-05  0.978E-03    0.04       1.0  T
  92   -199.3332834 -0.976875E-06  0.845E-03    0.04       1.2  T
  93   -199.3332839 -0.453105E-06  0.761E-03    0.04       1.3  T
  94   -199.3332843 -0.424317E-06  0.708E-03    0.04       1.4  T
  95   -199.3332851 -0.820348E-06  0.586E-03    0.04       1.7  T
  96   -199.3332861 -0.990064E-06  0.440E-03    0.04       2.2  T
  97   -199.3332866 -0.530258E-06  0.269E-03    0.04       3.7  T
  98   -199.3332869 -0.230456E-06  0.983E-04    0.04      10.0  T
  99   -199.3332869 -0.304589E-07  0.824E-04    0.04      12.0  T

   *** convergence criteria satisfied after 99 iterations ***

         #    Occupation            Energy/Eh            Energy/eV
      -------------------------------------------------------------
         1        2.0000           -0.8413645             -22.8947
       ...           ...                  ...                  ...
       170        2.0000           -0.3644078              -9.9160
       171        1.9999           -0.3612759              -9.8308
       172        1.9982           -0.3580415              -9.7428
       173        1.9902           -0.3564210              -9.6987
       174        1.9030           -0.3541987              -9.6382
       175        1.8016           -0.3534667              -9.6183
       176        1.4965           -0.3524056              -9.5894 (HOMO)
       177        0.8104           -0.3510060              -9.5514 (LUMO)
       178        0.0000           -0.3389945              -9.2245
       179                         -0.3348449              -9.1116
       180                         -0.3159261              -8.5968
       181                         -0.3098051              -8.4302
       ...                                ...                  ...
       373                         13.3084506             362.1414
      -------------------------------------------------------------
                  HL-Gap            0.0013996 Eh            0.0381 eV
             Fermi-level           -0.3513706 Eh           -9.5613 eV

 SCC (total)                   0 d,  0 h,  0 min,  2.922 sec
 SCC setup                      ...        0 min,  0.001 sec (  0.034%)
 Dispersion                     ...        0 min,  0.006 sec (  0.205%)
 classical contributions        ...        0 min,  0.000 sec (  0.000%)
 integral evaluation            ...        0 min,  0.021 sec (  0.719%)
 iterations                     ...        0 min,  2.831 sec ( 96.886%)
 molecular gradient             ...        0 min,  0.059 sec (  2.019%)
 printout                       ...        0 min,  0.004 sec (  0.137%)

         :::::::::::::::::::::::::::::::::::::::::::::::::::::
         ::                     SUMMARY                     ::
         :::::::::::::::::::::::::::::::::::::::::::::::::::::
         :: total energy            -197.165423405982 Eh    ::
         :: gradient norm              0.133188150409 Eh/a0 ::
         :: HOMO-LUMO gap              0.038083724769 eV    ::
         ::.................................................::
         :: SCC energy              -199.330709490126 Eh    ::
         :: -> isotropic ES            0.803194046645 Eh    ::
         :: -> anisotropic ES         -0.270517328938 Eh    ::
         :: -> anisotropic XC          0.015186681064 Eh    ::
         :: -> dispersion             -0.164963870207 Eh    ::
         :: repulsion energy           2.165286084144 Eh    ::
         :: add. restraining           0.000000000000 Eh    ::
         :: total charge               0.000000000198 e     ::
         :::::::::::::::::::::::::::::::::::::::::::::::::::::

      ----------------------------------------------------------- 
     |                   =====================                   |
     |                        A N C O P T                        |
     |                   =====================                   |
     |               Approximate Normal Coordinate               |
     |                Rational Function Optimizer                |
      ----------------------------------------------------------- 
      ----------------------------------------------------------- 
     |                   =====================                   |
     |                        A N C O P T                        |
     |                   =====================                   |
     |               Approximate Normal Coordinate               |
     |                Rational Function Optimizer                |
      ----------------------------------------------------------- 

          ...................................................
          :                      SETUP                      :
          :.................................................:
          :   optimization level             loose          :
          :   max. optcycles                   400          :
          :   ANC micro-cycles                  20          :
          :   degrees of freedom               303          :
          :.................................................:
          :   RF solver                   davidson          :
          :   write xtbopt.log                true          :
          :   linear?                        false          :
          :   energy convergence         0.5000000E-04 Eh   :
          :   grad. convergence          0.4000000E-02 Eh/α :
          :   maxmium RF displ.          1.0000000          :
          :   Hlow (freq-cutoff)         0.1000000E-01      :
          :   Hmax (freq-cutoff)         5.0000000          :
          :   S6 in model hess.         20.0000000          :
          ...................................................

generating ANC from exact Hessian ...
Using Lindh-Hessian (1995)
 Shifting diagonal of input Hessian by   1.791435002772746E-002
 Lowest  eigenvalues of input Hessian
    0.010000    0.017284    0.017392    0.017427    0.017901    0.000000
    0.000000    0.000000    0.000000    0.000000    0.000000    0.017922
    0.017923    0.017975    0.018052    0.018086    0.018233    0.018289
 Highest eigenvalues
    2.117608    2.126430    2.205806    2.240883    2.262054    2.345284
 

........................................................................
.............................. CYCLE    1 ..............................
........................................................................

 iter      E             dE          RMSdq      gap      omega  full diag
   1   -199.3332869 -0.199333E+03  0.706E-04    0.04       0.0  T
   2   -199.3332792  0.770764E-05  0.152E-02    0.04       1.0  T
   3   -199.3332855 -0.632912E-05  0.714E-03    0.04       1.4  T
   4   -199.3332845  0.101703E-05  0.887E-03    0.04       1.1  T
   5   -199.3332842  0.342387E-06  0.108E-02    0.04       1.0  T
   6   -199.3332863 -0.216773E-05  0.504E-03    0.04       2.0  T
   7   -199.3332866 -0.216008E-06  0.386E-03    0.04       2.6  T
   8   -199.3332868 -0.265124E-06  0.936E-04    0.04      10.5  T
   9   -199.3332869 -0.830227E-07  0.650E-04    0.04      15.2  T
     SCC iter.                  ...        0 min,  0.226 sec
     gradient                   ...        0 min,  0.063 sec
 * total energy  :  -197.1654234 Eh     change       -0.1188278E-07 Eh
   gradient norm :     0.1331868 Eh/α   predicted     0.0000000E+00 (-100.00%)
   displ. norm   :     0.6240355 α      lambda       -0.5483010E-01
   maximum displ.:     0.1938974 α      in ANC's #145, #66, #41, ...

........................................................................
.............................. CYCLE    2 ..............................
........................................................................

 iter      E             dE          RMSdq      gap      omega  full diag
   1   -199.0260335 -0.199026E+03  0.368E+00    0.09       0.0  T
   2   -189.4453485  0.958069E+01  0.109E+01    0.04       1.0  T
   3   -201.9867487 -0.125414E+02  0.668E+00    0.38       1.0  T
   4   -201.6070988  0.379650E+00  0.677E+00    0.06       1.0  T
   5   -201.2478210  0.359278E+00  0.686E+00    0.23       1.0  T
   6   -201.2394652  0.835579E-02  0.687E+00    0.24       1.0  T
   7   -200.9530205  0.286445E+00  0.689E+00    0.36       1.0  T
   8   -198.6123853  0.234064E+01  0.507E+00    0.10       1.0  T
   9   -198.1063226  0.506063E+00  0.600E+00    0.03       1.0  T
  10   -198.2232576 -0.116935E+00  0.615E+00    0.13       1.0  T
  11   -198.3327560 -0.109498E+00  0.540E+00    0.07       1.0  T
  12   -198.1662585  0.166498E+00  0.585E+00    0.36       1.0  T
  13   -198.3094387 -0.143180E+00  0.489E+00    0.03       1.0  T
  14   -199.2960115 -0.986573E+00  0.310E+00    0.18       1.0  T
  15   -199.3281890 -0.321775E-01  0.295E+00    0.16       1.0  T
  16   -199.3345246 -0.633557E-02  0.294E+00    0.17       1.0  T
  17   -199.3330453  0.147925E-02  0.286E+00    0.16       1.0  T
  18   -199.3354516 -0.240624E-02  0.158E+00    0.04       1.0  T
  19   -199.3068056  0.286459E-01  0.186E+00    0.07       1.0  T
  20   -199.3288611 -0.220555E-01  0.194E+00    0.06       1.0  T
  21   -199.3513111 -0.224500E-01  0.158E+00    0.04       1.0  T
  22   -199.3987104 -0.473994E-01  0.149E+00    0.05       1.0  T
  23   -199.4023296 -0.361919E-02  0.188E+00    0.07       1.0  T
  24   -199.3846368  0.176928E-01  0.164E+00    0.04       1.0  T
  25   -199.3562689  0.283679E-01  0.104E+00    0.04       1.0  T
  26   -199.3761119 -0.198430E-01  0.151E+00    0.05       1.0  T
  27   -199.3712868  0.482516E-02  0.148E+00    0.05       1.0  T
  28   -199.3736705 -0.238371E-02  0.134E+00    0.05       1.0  T
  29   -199.3632399  0.104306E-01  0.574E-01    0.03       1.0  T
  30   -199.3578211  0.541875E-02  0.596E-01    0.02       1.0  T
  31   -199.4034485 -0.456274E-01  0.622E-01    0.04       1.0  T
  32   -199.3117948  0.916538E-01  0.109E+00    0.00       1.0  T
  33   -199.3776363 -0.658415E-01  0.105E+00    0.03       1.0  T
  34   -199.4127667 -0.351305E-01  0.190E-01    0.02       1.0  T
  35   -199.3791504  0.336163E-01  0.127E+00    0.05       1.0  T
  36   -199.3929694 -0.138191E-01  0.101E+00    0.05       1.0  T
  37   -199.4091447 -0.161753E-01  0.578E-01    0.04       1.0  T
  38   -199.4129654 -0.382067E-02  0.329E-01    0.03       1.0  T
  39   -199.4133342 -0.368795E-03  0.274E-01    0.03       1.0  T
  40   -199.4127037  0.630521E-03  0.118E-01    0.02       1.0  T
  41   -199.4136290 -0.925315E-03  0.195E-01    0.03       1.0  T
  42   -199.4127347  0.894265E-03  0.907E-02    0.02       1.0  T
  43   -199.4136728 -0.938070E-03  0.112E-01    0.03       1.0  T
  44   -199.4132508  0.421958E-03  0.872E-02    0.02       1.0  T
  45   -199.4135481 -0.297233E-03  0.586E-02    0.02       1.0  T
  46   -199.4137112 -0.163111E-03  0.458E-02    0.02       1.0  T
  47   -199.4136524  0.588055E-04  0.338E-02    0.02       1.0  T
  48   -199.4136516  0.817247E-06  0.334E-02    0.02       1.0  T
  49   -199.4136767 -0.251770E-04  0.348E-02    0.02       1.0  T
  50   -199.4137246 -0.478192E-04  0.518E-02    0.02       1.0  T
  51   -199.4137738 -0.492308E-04  0.343E-02    0.02       1.0  T
  52   -199.4138123 -0.385569E-04  0.218E-02    0.02       1.0  T
  53   -199.4138181 -0.576598E-05  0.541E-03    0.02       1.8  T
  54   -199.4138219 -0.377627E-05  0.361E-03    0.02       2.7  T
  55   -199.4138194  0.250729E-05  0.766E-03    0.02       1.3  T
  56   -199.4138214 -0.206645E-05  0.284E-03    0.02       3.5  T
  57   -199.4138215 -0.243083E-07  0.247E-03    0.02       4.0  T
  58   -199.4138216 -0.168663E-06  0.186E-03    0.02       5.3  T
  59   -199.4138218 -0.215459E-06  0.153E-03    0.02       6.4  T
  60   -199.4138220 -0.178766E-06  0.119E-03    0.02       8.3  T
  61   -199.4138221 -0.883507E-07  0.669E-04    0.02      14.7  T
  62   -199.4138221 -0.240806E-07  0.752E-04    0.02      13.1  T
     SCC iter.                  ...        0 min,  1.519 sec
     gradient                   ...        0 min,  0.075 sec
 * total energy  :  -197.2085868 Eh     change       -0.4316335E-01 Eh
   gradient norm :     0.0718660 Eh/α   predicted    -0.3810104E-01 ( -11.73%)
   displ. norm   :     0.6779878 α      lambda       -0.3412946E-01
   maximum displ.:     0.2052172 α      in ANC's #145, #66, #36, ...

........................................................................
.............................. CYCLE    3 ..............................
........................................................................

 iter      E             dE          RMSdq      gap      omega  full diag
   1   -199.1080114 -0.199108E+03  0.344E+00    0.09       0.0  T
   2   -188.6748291  0.104332E+02  0.112E+01    0.03       1.0  T
   3   -201.9074995 -0.132327E+02  0.656E+00    0.14       1.0  T
   4   -202.2594336 -0.351934E+00  0.643E+00    0.07       1.0  T
   5   -200.7312671  0.152817E+01  0.681E+00    0.25       1.0  T
   6   -201.0196374 -0.288370E+00  0.619E+00    0.02       1.0  T
   7   -198.7015461  0.231809E+01  0.567E+00    0.05       1.0  T
   8   -195.9967191  0.270483E+01  0.612E+00    0.02       1.0  T
   9   -198.8537433 -0.285702E+01  0.427E+00    0.08       1.0  T
  10   -199.0527982 -0.199055E+00  0.358E+00    0.07       1.0  T
  11   -199.2251395 -0.172341E+00  0.329E+00    0.21       1.0  T
  12   -199.2503423 -0.252028E-01  0.320E+00    0.21       1.0  T
  13   -199.3234925 -0.731502E-01  0.285E+00    0.17       1.0  T
  14   -199.3464340 -0.229415E-01  0.261E+00    0.13       1.0  T
  15   -199.3819352 -0.355012E-01  0.248E+00    0.12       1.0  T
  16   -199.1305951  0.251340E+00  0.251E+00    0.18       1.0  T
  17   -199.0034912  0.127104E+00  0.268E+00    0.20       1.0  T
  18   -198.9981121  0.537905E-02  0.259E+00    0.18       1.0  T
  19   -199.4621085 -0.463996E+00  0.150E+00    0.03       1.0  T
  20   -199.0466598  0.415449E+00  0.268E+00    0.22       1.0  T
  21   -199.1227581 -0.760982E-01  0.240E+00    0.17       1.0  T
  22   -199.4495507 -0.326793E+00  0.131E+00    0.00       1.0  T
  23   -199.4587900 -0.923927E-02  0.130E+00    0.01       1.0  T
  24   -199.4646423 -0.585225E-02  0.128E+00    0.02       1.0  T
  25   -199.1907023  0.273940E+00  0.230E+00    0.21       1.0  T
  26   -199.2521342 -0.614319E-01  0.249E+00    0.24       1.0  T
  27   -199.3179760 -0.658418E-01  0.209E+00    0.13       1.0  T
  28   -199.4622224 -0.144246E+00  0.761E-01    0.04       1.0  T
  29   -199.4507937  0.114287E-01  0.560E-01    0.02       1.0  T
  30   -199.4670936 -0.162999E-01  0.267E-01    0.01       1.0  T
  31   -199.3944345  0.726591E-01  0.126E+00    0.07       1.0  T
  32   -199.4658502 -0.714157E-01  0.189E-01    0.01       1.0  T
  33   -199.4682500 -0.239986E-02  0.255E-01    0.01       1.0  T
  34   -199.4629159  0.533415E-02  0.258E-01    0.01       1.0  T
  35   -199.4507633  0.121526E-01  0.718E-01    0.03       1.0  T
  36   -199.4588276 -0.806428E-02  0.474E-01    0.02       1.0  T
  37   -199.4674894 -0.866181E-02  0.185E-01    0.01       1.0  T
  38   -199.4666415  0.847881E-03  0.316E-01    0.01       1.0  T
  39   -199.4680147 -0.137314E-02  0.627E-02    0.01       1.0  T
  40   -199.4674328  0.581837E-03  0.193E-01    0.01       1.0  T
  41   -199.4680144 -0.581528E-03  0.584E-02    0.01       1.0  T
  42   -199.4670728  0.941551E-03  0.227E-01    0.02       1.0  T
  43   -199.4679989 -0.926133E-03  0.117E-01    0.01       1.0  T
  44   -199.4679679  0.310585E-04  0.115E-01    0.01       1.0  T
  45   -199.4680205 -0.526507E-04  0.884E-02    0.01       1.0  T
  46   -199.4679853  0.351837E-04  0.861E-02    0.01       1.0  T
  47   -199.4680642 -0.788374E-04  0.549E-02    0.01       1.0  T
  48   -199.4681062 -0.419806E-04  0.377E-02    0.01       1.0  T
  49   -199.4681343 -0.281426E-04  0.193E-02    0.01       1.0  T
  50   -199.4681388 -0.445644E-05  0.140E-02    0.01       1.0  T
  51   -199.4681429 -0.412207E-05  0.492E-03    0.01       2.0  T
  52   -199.4681448 -0.188029E-05  0.260E-03    0.01       3.8  T
  53   -199.4681441  0.717244E-06  0.726E-03    0.01       1.4  T
  54   -199.4681449 -0.844072E-06  0.546E-03    0.01       1.8  T
  55   -199.4681452 -0.355072E-06  0.499E-03    0.01       2.0  T
  56   -199.4681456 -0.366347E-06  0.256E-03    0.01       3.8  T
  57   -199.4681456  0.165496E-07  0.107E-03    0.01       9.2  T
  58   -199.4681456 -0.290956E-07  0.161E-03    0.01       6.1  T
  59   -199.4681456  0.522568E-07  0.205E-03    0.01       4.8  T
  60   -199.4681456 -0.104040E-07  0.161E-03    0.01       6.1  T
  61   -199.4681456  0.213328E-08  0.163E-03    0.01       6.0  T
  62   -199.4681456 -0.513625E-07  0.296E-04    0.01      33.3  T
  63   -199.4681456 -0.578382E-09  0.172E-04    0.01      57.3  T
     SCC iter.                  ...        0 min,  1.681 sec
     gradient                   ...        0 min,  0.069 sec
 * total energy  :  -197.2295604 Eh     change       -0.2097367E-01 Eh
   gradient norm :     0.0366169 Eh/α   predicted    -0.2490887E-01 (  18.76%)
   displ. norm   :     0.6096738 α      lambda       -0.1306783E-01
   maximum displ.:     0.2524292 α      in ANC's #1, #33, #36, ...

........................................................................
.............................. CYCLE    4 ..............................
........................................................................

 iter      E             dE          RMSdq      gap      omega  full diag
   1   -199.3091407 -0.199309E+03  0.251E+00    0.27       0.0  T
   2   -197.6421940  0.166695E+01  0.557E+00    0.04       1.0  T
   3   -200.6762366 -0.303404E+01  0.434E+00    0.05       1.0  T
   4   -200.5279651  0.148272E+00  0.429E+00    0.07       1.0  T
   5   -195.0929090  0.543506E+01  0.656E+00    0.46       1.0  T
   6   -196.5972549 -0.150435E+01  0.549E+00    0.13       1.0  T
   7   -196.5712190  0.260360E-01  0.489E+00    0.01       1.0  T
   8   -199.0254987 -0.245428E+01  0.310E+00    0.09       1.0  T
   9   -197.8242375  0.120126E+01  0.386E+00    0.07       1.0  T
  10   -198.6013436 -0.777106E+00  0.247E+00    0.34       1.0  T
  11   -198.8479380 -0.246594E+00  0.226E+00    0.07       1.0  T
  12   -198.8767444 -0.288064E-01  0.207E+00    0.09       1.0  T
  13   -199.1392243 -0.262480E+00  0.182E+00    0.01       1.0  T
  14   -199.2450105 -0.105786E+00  0.150E+00    0.01       1.0  T
  15   -199.4120909 -0.167080E+00  0.143E+00    0.07       1.0  T
  16   -199.4064926  0.559836E-02  0.138E+00    0.07       1.0  T
  17   -199.4062293  0.263314E-03  0.155E+00    0.08       1.0  T
  18   -199.4165691 -0.103398E-01  0.139E+00    0.07       1.0  T
  19   -199.3467818  0.697873E-01  0.210E+00    0.17       1.0  T
  20   -199.3807292 -0.339475E-01  0.211E+00    0.15       1.0  T
  21   -199.4373617 -0.566325E-01  0.127E+00    0.06       1.0  T
  22   -199.4162999  0.210618E-01  0.114E+00    0.06       1.0  T
  23   -199.4322079 -0.159080E-01  0.923E-01    0.06       1.0  T
  24   -199.4655707 -0.333628E-01  0.590E-01    0.01       1.0  T
  25   -199.4604024  0.516828E-02  0.828E-01    0.03       1.0  T
  26   -199.4701387 -0.973631E-02  0.205E-01    0.02       1.0  T
  27   -199.4721715 -0.203274E-02  0.398E-01    0.03       1.0  T
  28   -199.4710709  0.110054E-02  0.476E-01    0.03       1.0  T
  29   -199.4754757 -0.440474E-02  0.149E-01    0.01       1.0  T
  30   -199.4706505  0.482518E-02  0.410E-01    0.01       1.0  T
  31   -199.4755641 -0.491359E-02  0.641E-02    0.01       1.0  T
  32   -199.4757178 -0.153704E-03  0.283E-02    0.01       1.0  T
  33   -199.4752932  0.424607E-03  0.113E-01    0.01       1.0  T
  34   -199.4756927 -0.399544E-03  0.603E-02    0.01       1.0  T
  35   -199.4756162  0.765451E-04  0.815E-02    0.01       1.0  T
  36   -199.4757530 -0.136793E-03  0.147E-02    0.01       1.0  T
  37   -199.4757494  0.357010E-05  0.178E-02    0.01       1.0  T
  38   -199.4757447  0.469288E-05  0.226E-02    0.01       1.0  T
  39   -199.4757503 -0.556992E-05  0.664E-03    0.01       1.5  T
  40   -199.4757515 -0.126733E-05  0.637E-03    0.01       1.5  T
  41   -199.4757543 -0.281128E-05  0.433E-03    0.01       2.3  T
  42   -199.4757558 -0.144475E-05  0.372E-03    0.01       2.7  T
  43   -199.4757573 -0.154695E-05  0.186E-03    0.01       5.3  T
  44   -199.4757577 -0.398965E-06  0.169E-03    0.01       5.8  T
  45   -199.4757578 -0.777289E-07  0.106E-03    0.01       9.3  T
  46   -199.4757578  0.342978E-07  0.204E-03    0.01       4.8  T
  47   -199.4757577  0.468779E-07  0.204E-03    0.01       4.8  T
  48   -199.4757579 -0.145320E-06  0.331E-04    0.01      29.8  T
  49   -199.4757579 -0.845097E-08  0.395E-04    0.01      25.0  T
     SCC iter.                  ...        0 min,  1.250 sec
     gradient                   ...        0 min,  0.062 sec
 * total energy  :  -197.2324592 Eh     change       -0.2898792E-02 Eh
   gradient norm :     0.0624855 Eh/α   predicted    -0.8962788E-02 ( 209.19%)
   displ. norm   :     0.5399140 α      lambda       -0.1736422E-01
   maximum displ.:     0.3594720 α      in ANC's #1, #31, #28, ...

........................................................................
.............................. CYCLE    5 ..............................
........................................................................

 iter      E             dE          RMSdq      gap      omega  full diag
   1   -199.3758123 -0.199376E+03  0.188E+00    0.12       0.0  T
   2   -197.9747749  0.140104E+01  0.471E+00    0.09       1.0  T
   3   -198.5020927 -0.527318E+00  0.419E+00    0.15       1.0  T
   4   -198.2883174  0.213775E+00  0.426E+00    0.21       1.0  T
   5   -198.2620623  0.262551E-01  0.422E+00    0.18       1.0  T
   6   -198.6483613 -0.386299E+00  0.268E+00    0.29       1.0  T
   7   -198.7188471 -0.704858E-01  0.245E+00    0.14       1.0  T
   8   -199.1731826 -0.454336E+00  0.205E+00    0.21       1.0  T
   9   -198.6864815  0.486701E+00  0.214E+00    0.20       1.0  T
  10   -198.5970159  0.894655E-01  0.235E+00    0.20       1.0  T
  11   -198.9842685 -0.387253E+00  0.168E+00    0.06       1.0  T
  12   -199.0829413 -0.986728E-01  0.144E+00    0.06       1.0  T
  13   -199.3286547 -0.245713E+00  0.139E+00    0.03       1.0  T
  14   -199.3289082 -0.253508E-03  0.138E+00    0.03       1.0  T
  15   -199.3217360  0.717216E-02  0.130E+00    0.02       1.0  T
  16   -198.9527751  0.368961E+00  0.191E+00    0.09       1.0  T
  17   -199.4441399 -0.491365E+00  0.710E-01    0.03       1.0  T
  18   -199.4276834  0.164565E-01  0.918E-01    0.05       1.0  T
  19   -199.4629639 -0.352804E-01  0.115E+00    0.06       1.0  T
  20   -199.4725004 -0.953658E-02  0.880E-01    0.05       1.0  T
  21   -199.4396261  0.328743E-01  0.870E-01    0.04       1.0  T
  22   -199.4769511 -0.373250E-01  0.225E-01    0.01       1.0  T
  23   -199.4750903  0.186081E-02  0.233E-01    0.00       1.0  T
  24   -199.4774917 -0.240139E-02  0.165E-01    0.01       1.0  T
  25   -199.4784129 -0.921232E-03  0.347E-01    0.03       1.0  T
  26   -199.4787006 -0.287728E-03  0.295E-01    0.03       1.0  T
  27   -199.4785295  0.171169E-03  0.122E-01    0.01       1.0  T
  28   -199.4768861  0.164336E-02  0.201E-01    0.01       1.0  T
  29   -199.4776905 -0.804385E-03  0.160E-01    0.01       1.0  T
  30   -199.4782125 -0.522075E-03  0.132E-01    0.01       1.0  T
  31   -199.4783243 -0.111735E-03  0.126E-01    0.01       1.0  T
  32   -199.4784231 -0.988043E-04  0.121E-01    0.01       1.0  T
  33   -199.4784192  0.384992E-05  0.122E-01    0.01       1.0  T
  34   -199.4784017  0.175538E-04  0.127E-01    0.01       1.0  T
  35   -199.4786274 -0.225710E-03  0.118E-01    0.01       1.0  T
  36   -199.4793440 -0.716601E-03  0.830E-02    0.01       1.0  T
  37   -199.4795572 -0.213227E-03  0.630E-02    0.01       1.0  T
  38   -199.4790424  0.514792E-03  0.762E-02    0.01       1.0  T
  39   -199.4796272 -0.584757E-03  0.608E-02    0.01       1.0  T
  40   -199.4786173  0.100988E-02  0.875E-02    0.01       1.0  T
  41   -199.4796230 -0.100571E-02  0.520E-02    0.01       1.0  T
  42   -199.4779209  0.170216E-02  0.110E-01    0.01       1.0  T
  43   -199.4795953 -0.167443E-02  0.478E-02    0.01       1.0  T
  44   -199.4781783  0.141703E-02  0.103E-01    0.01       1.0  T
  45   -199.4794319 -0.125364E-02  0.527E-02    0.01       1.0  T
  46   -199.4788707  0.561220E-03  0.794E-02    0.01       1.0  T
  47   -199.4793541 -0.483437E-03  0.579E-02    0.01       1.0  T
  48   -199.4797702 -0.416132E-03  0.327E-02    0.01       1.0  T
  49   -199.4797310  0.392692E-04  0.416E-02    0.01       1.0  T
  50   -199.4799233 -0.192319E-03  0.176E-02    0.01       1.0  T
  51   -199.4799359 -0.125661E-04  0.562E-03    0.01       1.8  T
  52   -199.4799377 -0.179596E-05  0.463E-03    0.01       2.1  T
  53   -199.4799348  0.289196E-05  0.610E-03    0.01       1.6  T
  54   -199.4799385 -0.370289E-05  0.472E-03    0.01       2.1  T
  55   -199.4799403 -0.187344E-05  0.258E-03    0.01       3.8  T
  56   -199.4799409 -0.599072E-06  0.185E-03    0.01       5.3  T
  57   -199.4799414 -0.410092E-06  0.980E-04    0.01      10.1  T
  58   -199.4799415 -0.139012E-06  0.476E-04    0.01      20.7  T
     SCC iter.                  ...        0 min,  1.460 sec
     gradient                   ...        0 min,  0.057 sec
 * total energy  :  -197.2405344 Eh     change       -0.8075202E-02 Eh
   gradient norm :     0.0329552 Eh/α   predicted    -0.1121302E-01 (  38.86%)
   displ. norm   :     0.4292800 α      lambda       -0.7178150E-02
   maximum displ.:     0.1599188 α      in ANC's #39, #41, #17, ...

........................................................................
.............................. CYCLE    6 ..............................
........................................................................

 iter      E             dE          RMSdq      gap      omega  full diag
   1   -199.3996828 -0.199400E+03  0.159E+00    0.07       0.0  T
   2   -197.5856865  0.181400E+01  0.475E+00    0.09       1.0  T
   3   -199.4091259 -0.182344E+01  0.169E+00    0.11       1.0  T
   4   -199.4331273 -0.240014E-01  0.199E+00    0.14       1.0  T
   5   -199.4476759 -0.145485E-01  0.155E+00    0.10       1.0  T
   6   -199.4796710 -0.319952E-01  0.107E+00    0.01       1.0  T
   7   -199.4104929  0.691781E-01  0.217E+00    0.06       1.0  T
   8   -199.3712368  0.392561E-01  0.224E+00    0.14       1.0  T
   9   -199.3874994 -0.162625E-01  0.196E+00    0.02       1.0  T
  10   -199.2890986  0.984008E-01  0.106E+00    0.01       1.0  T
  11   -199.4597262 -0.170628E+00  0.959E-01    0.07       1.0  T
  12   -199.4494741  0.102521E-01  0.110E+00    0.07       1.0  T
  13   -199.4674120 -0.179379E-01  0.767E-01    0.05       1.0  T
  14   -199.4823722 -0.149601E-01  0.225E-01    0.02       1.0  T
  15   -199.4824997 -0.127587E-03  0.197E-01    0.01       1.0  T
  16   -199.4811278  0.137198E-02  0.281E-01    0.01       1.0  T
  17   -199.4800351  0.109268E-02  0.326E-01    0.01       1.0  T
  18   -199.4803705 -0.335452E-03  0.303E-01    0.01       1.0  T
  19   -199.4834482 -0.307764E-02  0.150E-01    0.02       1.0  T
  20   -199.4838847 -0.436509E-03  0.283E-02    0.02       1.0  T
  21   -199.4838825  0.217309E-05  0.293E-02    0.02       1.0  T
  22   -199.4838236  0.589218E-04  0.548E-02    0.02       1.0  T
  23   -199.4838272 -0.365921E-05  0.494E-02    0.02       1.0  T
  24   -199.4838949 -0.676453E-04  0.347E-03    0.01       2.8  T
  25   -199.4838667  0.282180E-04  0.289E-02    0.01       1.0  T
  26   -199.4838954 -0.287152E-04  0.200E-03    0.01       4.9  T
  27   -199.4838936  0.182603E-05  0.777E-03    0.01       1.3  T
  28   -199.4838958 -0.221518E-05  0.177E-03    0.01       5.6  T
  29   -199.4838959 -0.993313E-07  0.738E-04    0.01      13.4  T
  30   -199.4838957  0.159278E-06  0.189E-03    0.01       5.2  T
  31   -199.4838959 -0.199570E-06  0.810E-04    0.01      12.2  T
     SCC iter.                  ...        0 min,  0.743 sec
     gradient                   ...        0 min,  0.067 sec
 * total energy  :  -197.2440921 Eh     change       -0.3557664E-02 Eh
   gradient norm :     0.0254647 Eh/α   predicted    -0.4250480E-02 (  19.47%)
   displ. norm   :     0.4662750 α      lambda       -0.5207405E-02
   maximum displ.:     0.1801136 α      in ANC's #17, #39, #28, ...

........................................................................
.............................. CYCLE    7 ..............................
........................................................................

 iter      E             dE          RMSdq      gap      omega  full diag
   1   -199.3833291 -0.199383E+03  0.198E+00    0.13       0.0  T
   2   -197.9925572  0.139077E+01  0.481E+00    0.11       1.0  T
   3   -198.6537754 -0.661218E+00  0.428E+00    0.13       1.0  T
   4   -198.3182707  0.335505E+00  0.441E+00    0.12       1.0  T
   5   -198.1866105  0.131660E+00  0.455E+00    0.06       1.0  T
   6   -195.7000841  0.248653E+01  0.570E+00    0.03       1.0  T
   7   -196.2076406 -0.507557E+00  0.520E+00    0.24       1.0  T
   8   -196.5498501 -0.342210E+00  0.479E+00    0.07       1.0  T
   9   -198.6340052 -0.208416E+01  0.243E+00    0.15       1.0  T
  10   -199.0767846 -0.442779E+00  0.219E+00    0.18       1.0  T
  11   -199.3617957 -0.285011E+00  0.299E+00    0.11       1.0  T
  12   -199.4094459 -0.476502E-01  0.237E+00    0.11       1.0  T
  13   -199.4000568  0.938909E-02  0.195E+00    0.09       1.0  T
  14   -199.4075963 -0.753945E-02  0.180E+00    0.09       1.0  T
  15   -199.4064707  0.112557E-02  0.145E+00    0.09       1.0  T
  16   -199.4127989 -0.632817E-02  0.116E+00    0.06       1.0  T
  17   -199.4117600  0.103890E-02  0.115E+00    0.06       1.0  T
  18   -199.1064143  0.305346E+00  0.184E+00    0.07       1.0  T
  19   -199.4284660 -0.322052E+00  0.164E+00    0.09       1.0  T
  20   -199.4429381 -0.144721E-01  0.111E+00    0.05       1.0  T
  21   -199.4586529 -0.157148E-01  0.909E-01    0.04       1.0  T
  22   -199.4683969 -0.974404E-02  0.415E-01    0.03       1.0  T
  23   -199.4689159 -0.518950E-03  0.500E-01    0.01       1.0  T
  24   -199.4676960  0.121994E-02  0.750E-01    0.05       1.0  T
  25   -199.4754650 -0.776902E-02  0.838E-01    0.05       1.0  T
  26   -199.4733112  0.215379E-02  0.917E-01    0.05       1.0  T
  27   -199.4804857 -0.717446E-02  0.693E-01    0.04       1.0  T
  28   -199.4844980 -0.401231E-02  0.453E-01    0.03       1.0  T
  29   -199.4839644  0.533544E-03  0.453E-01    0.03       1.0  T
  30   -199.4836942  0.270247E-03  0.376E-01    0.03       1.0  T
  31   -199.4848749 -0.118073E-02  0.155E-01    0.02       1.0  T
  32   -199.4835379  0.133705E-02  0.296E-01    0.03       1.0  T
  33   -199.4847247 -0.118686E-02  0.783E-02    0.02       1.0  T
  34   -199.4848148 -0.901076E-04  0.111E-01    0.02       1.0  T
  35   -199.4848346 -0.197969E-04  0.968E-02    0.02       1.0  T
  36   -199.4847654  0.691774E-04  0.155E-01    0.02       1.0  T
  37   -199.4848808 -0.115369E-03  0.115E-01    0.02       1.0  T
  38   -199.4848856 -0.478902E-05  0.984E-02    0.02       1.0  T
  39   -199.4848339  0.517118E-04  0.727E-02    0.02       1.0  T
  40   -199.4848807 -0.467980E-04  0.745E-02    0.02       1.0  T
  41   -199.4849237 -0.429885E-04  0.725E-02    0.02       1.0  T
  42   -199.4849963 -0.725831E-04  0.758E-02    0.02       1.0  T
  43   -199.4850162 -0.199690E-04  0.651E-02    0.02       1.0  T
  44   -199.4850575 -0.412381E-04  0.548E-02    0.02       1.0  T
  45   -199.4850919 -0.344793E-04  0.517E-02    0.02       1.0  T
  46   -199.4851995 -0.107530E-03  0.296E-02    0.02       1.0  T
  47   -199.4852099 -0.104570E-04  0.333E-02    0.02       1.0  T
  48   -199.4852464 -0.364876E-04  0.862E-03    0.02       1.1  T
  49   -199.4852469 -0.530022E-06  0.665E-03    0.02       1.5  T
  50   -199.4852514 -0.443032E-05  0.262E-03    0.02       3.8  T
  51   -199.4852513  0.741368E-07  0.134E-03    0.02       7.3  T
  52   -199.4852514 -0.101118E-06  0.114E-03    0.02       8.6  T
  53   -199.4852514 -0.655058E-08  0.105E-03    0.02       9.4  T
  54   -199.4852515 -0.131618E-06  0.575E-04    0.02      17.1  T
  55   -199.4852516 -0.413018E-07  0.290E-04    0.02      34.0  T
     SCC iter.                  ...        0 min,  1.412 sec
     gradient                   ...        0 min,  0.057 sec
 * total energy  :  -197.2478390 Eh     change       -0.3746889E-02 Eh
   gradient norm :     0.0206840 Eh/α   predicted    -0.3169784E-02 ( -15.40%)
   displ. norm   :     0.5079073 α      lambda       -0.3637542E-02
   maximum displ.:     0.1855514 α      in ANC's #17, #41, #28, ...

........................................................................
.............................. CYCLE    8 ..............................
........................................................................

 iter      E             dE          RMSdq      gap      omega  full diag
   1   -199.3924431 -0.199392E+03  0.219E+00    0.13       0.0  T
   2   -198.3065038  0.108594E+01  0.447E+00    0.10       1.0  T
   3   -199.2645432 -0.958039E+00  0.453E+00    0.10       1.0  T
   4   -197.5948544  0.166969E+01  0.551E+00    0.23       1.0  T
   5   -194.7322642  0.286259E+01  0.662E+00    0.16       1.0  T
   6   -194.7182421  0.140221E-01  0.663E+00    0.17       1.0  T
   7   -195.1277298 -0.409488E+00  0.667E+00    0.11       1.0  T
   8   -195.1600667 -0.323370E-01  0.665E+00    0.08       1.0  T
   9   -195.0284062  0.131661E+00  0.668E+00    0.08       1.0  T
  10   -194.9576583  0.707479E-01  0.674E+00    0.11       1.0  T
  11   -194.9673879 -0.972956E-02  0.674E+00    0.10       1.0  T
  12   -195.1044344 -0.137047E+00  0.671E+00    0.07       1.0  T
  13   -195.0972857  0.714877E-02  0.671E+00    0.08       1.0  T
  14   -193.6999204  0.139737E+01  0.700E+00    0.05       1.0  T
  15   -195.5178940 -0.181797E+01  0.667E+00    0.08       1.0  T
  16   -195.6600526 -0.142159E+00  0.657E+00    0.08       1.0  T
  17   -197.5369060 -0.187685E+01  0.606E+00    0.05       1.0  T
  18   -201.0053126 -0.346841E+01  0.592E+00    0.10       1.0  T
  19   -201.0099033 -0.459060E-02  0.587E+00    0.04       1.0  T
  20   -201.3536453 -0.343742E+00  0.595E+00    0.11       1.0  T
  21   -201.3784253 -0.247800E-01  0.596E+00    0.13       1.0  T
  22   -201.5246897 -0.146264E+00  0.590E+00    0.23       1.0  T
  23   -202.8612881 -0.133660E+01  0.568E+00    0.21       1.0  T
  24   -202.8990384 -0.377503E-01  0.564E+00    0.20       1.0  T
  25   -202.9374953 -0.384569E-01  0.553E+00    0.22       1.0  T
  26   -203.2546161 -0.317121E+00  0.503E+00    0.07       1.0  T
  27   -203.0553732  0.199243E+00  0.507E+00    0.25       1.0  T
  28   -203.1641220 -0.108749E+00  0.475E+00    0.23       1.0  T
  29   -203.2196920 -0.555700E-01  0.458E+00    0.22       1.0  T
  30   -203.3671449 -0.147453E+00  0.434E+00    0.25       1.0  T
  31   -203.6217981 -0.254653E+00  0.401E+00    0.06       1.0  T
  32   -203.6073704  0.144277E-01  0.400E+00    0.07       1.0  T
  33   -202.8581598  0.749211E+00  0.437E+00    0.32       1.0  T
  34   -203.3374376 -0.479278E+00  0.388E+00    0.08       1.0  T
  35   -203.8253071 -0.487869E+00  0.356E+00    0.01       1.0  T
  36   -203.7326109  0.926962E-01  0.365E+00    0.01       1.0  T
  37   -203.5253945  0.207216E+00  0.368E+00    0.05       1.0  T
  38   -203.7282309 -0.202836E+00  0.352E+00    0.03       1.0  T
  39   -203.3707477  0.357483E+00  0.349E+00    0.12       1.0  T
  40   -203.4621202 -0.913725E-01  0.344E+00    0.10       1.0  T
  41   -204.6293016 -0.116718E+01  0.250E+00    0.07       1.0  T
  42   -204.6814775 -0.521759E-01  0.246E+00    0.07       1.0  T
  43   -204.6835489 -0.207138E-02  0.215E+00    0.05       1.0  T
  44   -204.8455960 -0.162047E+00  0.185E+00    0.06       1.0  T
  45   -204.8946794 -0.490834E-01  0.174E+00    0.02       1.0  T
  46   -204.0563537  0.838326E+00  0.269E+00    0.07       1.0  T
  47   -204.0836355 -0.272819E-01  0.268E+00    0.09       1.0  T
  48   -204.1183562 -0.347207E-01  0.265E+00    0.10       1.0  T
  49   -204.2419397 -0.123583E+00  0.250E+00    0.11       1.0  T
  50   -204.1039364  0.138003E+00  0.254E+00    0.10       1.0  T
  51   -204.6168199 -0.512883E+00  0.176E+00    0.04       1.0  T
  52   -204.5642703  0.525495E-01  0.175E+00    0.02       1.0  T
  53   -204.8373479 -0.273078E+00  0.136E+00    0.07       1.0  T
  54   -204.8401462 -0.279836E-02  0.131E+00    0.06       1.0  T
  55   -204.8336838  0.646241E-02  0.129E+00    0.04       1.0  T
  56   -204.9429261 -0.109242E+00  0.111E+00    0.04       1.0  T
  57   -204.9646319 -0.217059E-01  0.104E+00    0.04       1.0  T
  58   -204.9726273 -0.799532E-02  0.978E-01    0.04       1.0  T
  59   -204.9749345 -0.230720E-02  0.933E-01    0.04       1.0  T
  60   -204.9765740 -0.163957E-02  0.896E-01    0.04       1.0  T
  61   -204.9813512 -0.477715E-02  0.866E-01    0.04       1.0  T
  62   -204.9813470  0.419994E-05  0.856E-01    0.04       1.0  T
  63   -204.9837023 -0.235530E-02  0.835E-01    0.04       1.0  T
  64   -204.9865701 -0.286783E-02  0.814E-01    0.04       1.0  T
  65   -204.9889679 -0.239781E-02  0.787E-01    0.04       1.0  T
  66   -204.9924068 -0.343889E-02  0.757E-01    0.04       1.0  T
  67   -204.9944833 -0.207649E-02  0.718E-01    0.05       1.0  T
  68   -204.9963899 -0.190660E-02  0.699E-01    0.05       1.0  T
  69   -205.0001474 -0.375756E-02  0.661E-01    0.05       1.0  T
  70   -205.0037017 -0.355427E-02  0.602E-01    0.05       1.0  T
  71   -205.0075523 -0.385063E-02  0.559E-01    0.05       1.0  T
  72   -205.0109825 -0.343015E-02  0.520E-01    0.05       1.0  T
  73   -205.0147512 -0.376870E-02  0.471E-01    0.05       1.0  T
  74   -205.0191132 -0.436201E-02  0.419E-01    0.05       1.0  T
  75   -205.0213095 -0.219627E-02  0.394E-01    0.05       1.0  T
  76   -205.0217805 -0.471009E-03  0.392E-01    0.05       1.0  T
  77   -205.0272423 -0.546178E-02  0.362E-01    0.05       1.0  T
  78   -205.0379721 -0.107299E-01  0.362E-01    0.05       1.0  T
  79   -205.0319381  0.603398E-02  0.338E-01    0.05       1.0  T
  80   -205.0378915 -0.595339E-02  0.324E-01    0.05       1.0  T
  81   -205.0400611 -0.216962E-02  0.305E-01    0.05       1.0  T
  82   -205.0297401  0.103211E-01  0.403E-01    0.02       1.0  T
  83   -205.0167418  0.129983E-01  0.474E-01    0.01       1.0  T
  84   -205.0378022 -0.210604E-01  0.360E-01    0.03       1.0  T
  85   -204.7612461  0.276556E+00  0.121E+00    0.07       1.0  T
  86   -204.5138675  0.247379E+00  0.160E+00    0.07       1.0  T
  87   -204.5517093 -0.378418E-01  0.155E+00    0.07       1.0  T
  88   -204.5516740  0.352606E-04  0.155E+00    0.07       1.0  T
  89   -204.6409078 -0.892338E-01  0.140E+00    0.07       1.0  T
  90   -204.6381734  0.273444E-02  0.140E+00    0.07       1.0  T
  91   -204.6170532  0.211202E-01  0.144E+00    0.07       1.0  T
  92   -204.7864142 -0.169361E+00  0.113E+00    0.06       1.0  T
  93   -205.0046889 -0.218275E+00  0.542E-01    0.00       1.0  T
  94   -204.8073294  0.197359E+00  0.109E+00    0.06       1.0  T
  95   -204.7841051  0.232243E-01  0.113E+00    0.06       1.0  T
  96   -204.9160284 -0.131923E+00  0.829E-01    0.03       1.0  T
  97   -205.0570246 -0.140996E+00  0.138E-01    0.05       1.0  T
  98   -205.0574101 -0.385506E-03  0.136E-01    0.05       1.0  T
  99   -205.0580540 -0.643930E-03  0.114E-01    0.05       1.0  T
 100   -205.0601368 -0.208282E-02  0.930E-02    0.05       1.0  T
 101   -205.0475950  0.125418E-01  0.201E-01    0.05       1.0  T
 102   -205.0521617 -0.456665E-02  0.177E-01    0.05       1.0  T
 103   -205.0559790 -0.381728E-02  0.153E-01    0.05       1.0  T
 104   -205.0300330  0.259459E-01  0.371E-01    0.02       1.0  T
 105   -205.0409591 -0.109261E-01  0.302E-01    0.02       1.0  T
 106   -205.0541157 -0.131566E-01  0.167E-01    0.05       1.0  T
 107   -205.0342760  0.198396E-01  0.345E-01    0.02       1.0  T
 108   -205.0383913 -0.411528E-02  0.318E-01    0.02       1.0  T
 109   -205.0315996  0.679167E-02  0.359E-01    0.01       1.0  T
 110   -205.0299558  0.164380E-02  0.366E-01    0.01       1.0  T
 111   -205.0568352 -0.268793E-01  0.152E-01    0.04       1.0  T
 112   -205.0513321  0.550306E-02  0.208E-01    0.03       1.0  T
 113   -205.0522495 -0.917400E-03  0.198E-01    0.03       1.0  T
 114   -205.0557634 -0.351386E-02  0.159E-01    0.04       1.0  T
 115   -205.0587707 -0.300731E-02  0.115E-01    0.04       1.0  T
 116   -205.0563255  0.244521E-02  0.150E-01    0.04       1.0  T
 117   -205.0566048 -0.279358E-03  0.146E-01    0.04       1.0  T
 118   -205.0566636 -0.587795E-04  0.144E-01    0.04       1.0  T
 119   -205.0561870  0.476598E-03  0.148E-01    0.04       1.0  T
 120   -205.0580411 -0.185413E-02  0.120E-01    0.04       1.0  T
 121   -205.0589043 -0.863122E-03  0.103E-01    0.04       1.0  T
 122   -205.0607327 -0.182846E-02  0.552E-02    0.05       1.0  T
 123   -205.0607315  0.121263E-05  0.529E-02    0.05       1.0  T
 124   -205.0610868 -0.355299E-03  0.321E-02    0.05       1.0  T
 125   -205.0611977 -0.110895E-03  0.209E-02    0.05       1.0  T
 126   -205.0611291  0.686433E-04  0.224E-02    0.06       1.0  T
 127   -205.0609890  0.140104E-03  0.306E-02    0.06       1.0  T
 128   -205.0611953 -0.206360E-03  0.168E-02    0.06       1.0  T
 129   -205.0612417 -0.463412E-04  0.109E-02    0.05       1.0  T
 130   -205.0612476 -0.598211E-05  0.873E-03    0.05       1.1  T
 131   -205.0612314  0.162434E-04  0.109E-02    0.05       1.0  T
 132   -205.0612492 -0.178468E-04  0.758E-03    0.05       1.3  T
 133   -205.0612515 -0.221659E-05  0.672E-03    0.05       1.5  T
 134   -205.0612534 -0.195268E-05  0.581E-03    0.05       1.7  T
 135   -205.0612552 -0.176655E-05  0.501E-03    0.05       2.0  T
 136   -205.0612568 -0.157622E-05  0.311E-03    0.05       3.2  T
 137   -205.0612546  0.217132E-05  0.399E-03    0.05       2.5  T
 138   -205.0612533  0.129781E-05  0.423E-03    0.05       2.3  T
 139   -205.0612530  0.261986E-06  0.421E-03    0.05       2.3  T
 140   -205.0612388  0.142426E-04  0.835E-03    0.05       1.2  T
 141   -205.0612374  0.137067E-05  0.866E-03    0.05       1.1  T
 142   -205.0612479 -0.104619E-04  0.609E-03    0.05       1.6  T
 143   -205.0612507 -0.284349E-05  0.516E-03    0.05       1.9  T
 144   -205.0612532 -0.248801E-05  0.418E-03    0.05       2.4  T
 145   -205.0612552 -0.194974E-05  0.320E-03    0.05       3.1  T
 146   -205.0612572 -0.201898E-05  0.164E-03    0.05       6.0  T
 147   -205.0612576 -0.423807E-06  0.100E-03    0.05       9.8  T
 148   -205.0612578 -0.163904E-06  0.549E-04    0.05      18.0  T
 149   -205.0612578 -0.333651E-08  0.508E-04    0.05      19.4  T
     SCC iter.                  ...        0 min,  4.399 sec
     gradient                   ...        0 min,  0.058 sec
 * total energy  :  -202.8224300 Eh     change       -0.5574591E+01 Eh
   gradient norm :     0.5889241 Eh/α   predicted    -0.2287960E-02 ( -99.96%)
   displ. norm   :     0.8418534 α      lambda       -0.4742317E+00
   maximum displ.:     0.4323791 α      in ANC's #145, #200, #223, ...

........................................................................
.............................. CYCLE    9 ..............................
........................................................................

 iter      E             dE          RMSdq      gap      omega  full diag
   1   -204.7456005 -0.204746E+03  0.307E+00    0.21       0.0  T
   2   -189.0780456  0.156676E+02  0.953E+00    0.06       1.0  T
   3   -205.1755592 -0.160975E+02  0.255E+00    0.15       1.0  T
   4   -205.0706253  0.104934E+00  0.236E+00    0.24       1.0  T
   5   -204.6521843  0.418441E+00  0.247E+00    0.49       1.0  T
   6   -205.5084353 -0.856251E+00  0.107E+00    0.05       1.0  T
   7   -205.5428691 -0.344338E-01  0.787E-01    0.04       1.0  T
   8   -205.5443139 -0.144482E-02  0.709E-01    0.04       1.0  T
   9   -205.3376883  0.206626E+00  0.139E+00    0.03       1.0  T
  10   -205.5202737 -0.182585E+00  0.736E-01    0.02       1.0  T
  11   -205.5193790  0.894742E-03  0.705E-01    0.03       1.0  T
  12   -205.5597707 -0.403917E-01  0.397E-01    0.04       1.0  T
  13   -205.3379089  0.221862E+00  0.103E+00    0.04       1.0  T
  14   -205.5712186 -0.233310E+00  0.359E-01    0.06       1.0  T
  15   -205.5754441 -0.422551E-02  0.296E-01    0.05       1.0  T
  16   -205.4319080  0.143536E+00  0.769E-01    0.02       1.0  T
  17   -205.5596700 -0.127762E+00  0.371E-01    0.03       1.0  T
  18   -205.5789642 -0.192942E-01  0.179E-01    0.04       1.0  T
  19   -205.4595766  0.119388E+00  0.719E-01    0.02       1.0  T
  20   -205.5374077 -0.778311E-01  0.453E-01    0.01       1.0  T
  21   -205.5522681 -0.148604E-01  0.373E-01    0.02       1.0  T
  22   -205.5645711 -0.123030E-01  0.268E-01    0.03       1.0  T
  23   -205.5808949 -0.163238E-01  0.541E-02    0.04       1.0  T
  24   -205.5803584  0.536526E-03  0.649E-02    0.04       1.0  T
  25   -205.5810119 -0.653547E-03  0.204E-02    0.04       1.0  T
  26   -205.5809018  0.110093E-03  0.331E-02    0.04       1.0  T
  27   -205.5810513 -0.149474E-03  0.135E-02    0.04       1.0  T
  28   -205.5810509  0.408404E-06  0.156E-02    0.04       1.0  T
  29   -205.5810776 -0.267348E-04  0.911E-03    0.04       1.1  T
  30   -205.5810437  0.339175E-04  0.139E-02    0.04       1.0  T
  31   -205.5810213  0.224628E-04  0.160E-02    0.04       1.0  T
  32   -205.5810730 -0.516855E-04  0.763E-03    0.04       1.3  T
  33   -205.5810834 -0.104508E-04  0.398E-03    0.04       2.5  T
  34   -205.5810853 -0.194456E-05  0.182E-03    0.04       5.4  T
  35   -205.5810839  0.144103E-05  0.240E-03    0.04       4.1  T
  36   -205.5810848 -0.869187E-06  0.177E-03    0.04       5.6  T
  37   -205.5810857 -0.886009E-06  0.668E-04    0.04      14.8  T
  38   -205.5810857 -0.886826E-08  0.685E-04    0.04      14.4  T
     SCC iter.                  ...        0 min,  0.994 sec
     gradient                   ...        0 min,  0.058 sec
 * total energy  :  -203.2727854 Eh     change       -0.4503554E+00 Eh
   gradient norm :     0.5426273 Eh/α   predicted    -0.4051641E+00 ( -10.03%)
   displ. norm   :     0.9511422 α      lambda       -0.5110319E+00
   maximum displ.:     0.4411758 α      in ANC's #200, #145, #223, ...

........................................................................
.............................. CYCLE   10 ..............................
........................................................................

 iter      E             dE          RMSdq      gap      omega  full diag
   1   -204.8055295 -0.204806E+03  0.384E+00    0.07       0.0  T
   2   -195.3913581  0.941417E+01  0.830E+00    0.11       1.0  T
   3   -200.0598245 -0.466847E+01  0.459E+00    0.14       1.0  T
   4   -200.9974364 -0.937612E+00  0.387E+00    0.18       1.0  T
   5   -206.0294375 -0.503200E+01  0.181E+00    0.06       1.0  T
   6   -205.5448257  0.484612E+00  0.228E+00    0.40       1.0  T
   7   -205.5511955 -0.636971E-02  0.211E+00    0.43       1.0  T
   8   -206.0958533 -0.544658E+00  0.121E+00    0.04       1.0  T
   9   -205.9772310  0.118622E+00  0.146E+00    0.18       1.0  T
  10   -206.1734397 -0.196209E+00  0.888E-01    0.14       1.0  T
  11   -206.2527882 -0.793485E-01  0.583E-01    0.06       1.0  T
  12   -206.2158154  0.369728E-01  0.613E-01    0.03       1.0  T
  13   -206.2284904 -0.126750E-01  0.538E-01    0.03       1.0  T
  14   -206.2593740 -0.308837E-01  0.357E-01    0.04       1.0  T
  15   -206.2619585 -0.258445E-02  0.329E-01    0.06       1.0  T
  16   -206.2639623 -0.200385E-02  0.239E-01    0.06       1.0  T
  17   -206.1233317  0.140631E+00  0.909E-01    0.00       1.0  T
  18   -206.2485886 -0.125257E+00  0.396E-01    0.03       1.0  T
  19   -205.6938441  0.554744E+00  0.166E+00    0.09       1.0  T
  20   -206.0102731 -0.316429E+00  0.113E+00    0.03       1.0  T
  21   -206.1161400 -0.105867E+00  0.880E-01    0.01       1.0  T
  22   -206.2232622 -0.107122E+00  0.493E-01    0.02       1.0  T
  23   -206.2724627 -0.492005E-01  0.857E-02    0.05       1.0  T
  24   -206.2729442 -0.481438E-03  0.814E-02    0.05       1.0  T
  25   -206.2735464 -0.602249E-03  0.541E-02    0.06       1.0  T
  26   -206.2725250  0.102146E-02  0.802E-02    0.06       1.0  T
  27   -206.2737428 -0.121781E-02  0.335E-02    0.05       1.0  T
  28   -206.2739809 -0.238115E-03  0.128E-02    0.05       1.0  T
  29   -206.2739886 -0.768612E-05  0.102E-02    0.05       1.0  T
  30   -206.2740005 -0.119647E-04  0.546E-03    0.05       1.8  T
  31   -206.2738963  0.104204E-03  0.217E-02    0.05       1.0  T
  32   -206.2739806 -0.842822E-04  0.115E-02    0.05       1.0  T
  33   -206.2739501  0.305559E-04  0.151E-02    0.05       1.0  T
  34   -206.2740036 -0.535748E-04  0.281E-03    0.05       3.5  T
  35   -206.2739997  0.397870E-05  0.512E-03    0.05       1.9  T
  36   -206.2739971  0.251027E-05  0.571E-03    0.05       1.7  T
  37   -206.2740039 -0.672043E-05  0.240E-03    0.05       4.1  T
  38   -206.2740045 -0.608786E-06  0.174E-03    0.05       5.7  T
  39   -206.2740048 -0.354227E-06  0.113E-03    0.05       8.8  T
  40   -206.2740050 -0.127496E-06  0.756E-04    0.05      13.0  T
  41   -206.2740049  0.287374E-07  0.794E-04    0.05      12.4  T
     SCC iter.                  ...        0 min,  1.016 sec
     gradient                   ...        0 min,  0.057 sec
 * total energy  :  -203.6688233 Eh     change       -0.3960380E+00 Eh
   gradient norm :     0.4143794 Eh/α   predicted    -0.4866741E+00 (  22.89%)
   displ. norm   :     0.8194589 α      lambda       -0.2888615E+00
   maximum displ.:     0.3495624 α      in ANC's #200, #223, #87, ...

........................................................................
.............................. CYCLE   11 ..............................
........................................................................

 iter      E             dE          RMSdq      gap      omega  full diag
   1   -205.4377924 -0.205438E+03  0.389E+00    0.01       0.0  T
   2   -190.3927856  0.150450E+02  0.117E+01    0.09       1.0  T
   3   -205.7405863 -0.153478E+02  0.356E+00    0.28       1.0  T
   4   -203.7847567  0.195583E+01  0.421E+00    0.24       1.0  T
   5   -204.6051321 -0.820375E+00  0.303E+00    0.18       1.0  T
   6   -206.0152944 -0.141016E+01  0.251E+00    0.46       1.0  T
   7   -206.5904899 -0.575196E+00  0.186E+00    0.03       1.0  T
   8   -206.2102045  0.380285E+00  0.196E+00    0.27       1.0  T
   9   -206.7480929 -0.537888E+00  0.943E-01    0.08       1.0  T
  10   -206.6975478  0.505451E-01  0.107E+00    0.04       1.0  T
  11   -206.5788907  0.118657E+00  0.117E+00    0.02       1.0  T
  12   -206.7706292 -0.191738E+00  0.719E-01    0.10       1.0  T
  13   -206.7362748  0.343543E-01  0.801E-01    0.03       1.0  T
  14   -206.8221788 -0.859039E-01  0.369E-01    0.05       1.0  T
  15   -206.8175986  0.458020E-02  0.350E-01    0.05       1.0  T
  16   -206.7670398  0.505588E-01  0.644E-01    0.08       1.0  T
  17   -206.7752216 -0.818186E-02  0.577E-01    0.05       1.0  T
  18   -206.7476278  0.275938E-01  0.710E-01    0.07       1.0  T
  19   -206.8056301 -0.580023E-01  0.424E-01    0.07       1.0  T
  20   -206.8134950 -0.786487E-02  0.358E-01    0.06       1.0  T
  21   -206.7899687  0.235263E-01  0.457E-01    0.04       1.0  T
  22   -206.8044565 -0.144878E-01  0.412E-01    0.07       1.0  T
  23   -206.8238205 -0.193640E-01  0.224E-01    0.06       1.0  T
  24   -206.8277497 -0.392918E-02  0.127E-01    0.05       1.0  T
  25   -206.8292670 -0.151730E-02  0.961E-02    0.05       1.0  T
  26   -206.8314178 -0.215085E-02  0.467E-02    0.05       1.0  T
  27   -206.8312531  0.164739E-03  0.510E-02    0.05       1.0  T
  28   -206.8314306 -0.177504E-03  0.457E-02    0.05       1.0  T
  29   -206.8316254 -0.194847E-03  0.337E-02    0.05       1.0  T
  30   -206.8316809 -0.554566E-04  0.302E-02    0.05       1.0  T
  31   -206.8318181 -0.137259E-03  0.103E-02    0.05       1.0  T
  32   -206.8318204 -0.222801E-05  0.715E-03    0.05       1.4  T
  33   -206.8317964  0.239941E-04  0.124E-02    0.05       1.0  T
  34   -206.8318062 -0.987922E-05  0.103E-02    0.05       1.0  T
  35   -206.8318217 -0.154096E-04  0.673E-03    0.05       1.5  T
  36   -206.8318233 -0.167625E-05  0.516E-03    0.05       1.9  T
  37   -206.8318292 -0.582483E-05  0.183E-03    0.05       5.4  T
  38   -206.8318277  0.146989E-05  0.266E-03    0.05       3.7  T
  39   -206.8318292 -0.149989E-05  0.135E-03    0.05       7.3  T
  40   -206.8318295 -0.299119E-06  0.844E-04    0.05      11.7  T
  41   -206.8318297 -0.193639E-06  0.301E-04    0.05      32.8  T
     SCC iter.                  ...        0 min,  1.031 sec
     gradient                   ...        0 min,  0.059 sec
 * total energy  :  -203.8858427 Eh     change       -0.2170194E+00 Eh
   gradient norm :     0.4880360 Eh/α   predicted    -0.2414179E+00 (  11.24%)
   displ. norm   :     0.7905596 α      lambda       -0.2890675E+00
   maximum displ.:     0.2667090 α      in ANC's #87, #200, #138, ...

........................................................................
.............................. CYCLE   12 ..............................
........................................................................

 iter      E             dE          RMSdq      gap      omega  full diag
   1   -206.4880571 -0.206488E+03  0.377E+00    0.50       0.0  T
   2   -175.4137082  0.310743E+02  0.140E+01    0.04       1.0  T
   3   -205.4402477 -0.300265E+02  0.477E+00    0.07       1.0  T
   4   -194.3930398  0.110472E+02  0.867E+00    0.05       1.0  T
   5   -203.9892936 -0.959625E+01  0.567E+00    0.04       1.0  T
   6   -205.9959667 -0.200667E+01  0.299E+00    0.06       1.0  T
   7   -207.1977914 -0.120182E+01  0.211E+00    0.06       1.0  T
   8   -207.5476426 -0.349851E+00  0.188E+00    0.04       1.0  T
   9   -207.6631313 -0.115489E+00  0.120E+00    0.08       1.0  T
  10   -207.1912810  0.471850E+00  0.234E+00    0.27       1.0  T
  11   -207.6799678 -0.488687E+00  0.933E-01    0.05       1.0  T
  12   -207.6038177  0.761501E-01  0.936E-01    0.03       1.0  T
  13   -207.6545070 -0.506893E-01  0.107E+00    0.10       1.0  T
  14   -207.6686268 -0.141198E-01  0.984E-01    0.09       1.0  T
  15   -207.6264688  0.421580E-01  0.103E+00    0.11       1.0  T
  16   -207.7094617 -0.829929E-01  0.498E-01    0.07       1.0  T
  17   -207.1378675  0.571594E+00  0.162E+00    0.08       1.0  T
  18   -207.4218262 -0.283959E+00  0.116E+00    0.04       1.0  T
  19   -207.4719336 -0.501074E-01  0.111E+00    0.02       1.0  T
  20   -206.5508499  0.921084E+00  0.208E+00    0.01       1.0  T
  21   -207.1490910 -0.598241E+00  0.152E+00    0.07       1.0  T
  22   -207.7021587 -0.553068E+00  0.412E-01    0.08       1.0  T
  23   -207.6919716  0.101871E-01  0.363E-01    0.05       1.0  T
  24   -207.6958205 -0.384885E-02  0.331E-01    0.08       1.0  T
  25   -207.7080606 -0.122401E-01  0.239E-01    0.06       1.0  T
  26   -207.7060753  0.198529E-02  0.285E-01    0.05       1.0  T
  27   -207.7063495 -0.274148E-03  0.237E-01    0.05       1.0  T
  28   -207.7048578  0.149170E-02  0.228E-01    0.06       1.0  T
  29   -207.7052862 -0.428410E-03  0.220E-01    0.06       1.0  T
  30   -207.7057124 -0.426185E-03  0.209E-01    0.06       1.0  T
  31   -207.7047906  0.921761E-03  0.217E-01    0.07       1.0  T
  32   -207.7055131 -0.722524E-03  0.205E-01    0.06       1.0  T
  33   -207.7068709 -0.135778E-02  0.184E-01    0.06       1.0  T
  34   -207.7090431 -0.217220E-02  0.157E-01    0.06       1.0  T
  35   -207.7135126 -0.446950E-02  0.938E-02    0.06       1.0  T
  36   -207.7154078 -0.189522E-02  0.447E-02    0.06       1.0  T
  37   -207.7148696  0.538185E-03  0.591E-02    0.06       1.0  T
  38   -207.7153152 -0.445562E-03  0.420E-02    0.06       1.0  T
  39   -207.7154181 -0.102901E-03  0.352E-02    0.06       1.0  T
  40   -207.7146827  0.735423E-03  0.596E-02    0.06       1.0  T
  41   -207.7150413 -0.358579E-03  0.469E-02    0.06       1.0  T
  42   -207.7154250 -0.383736E-03  0.275E-02    0.06       1.0  T
  43   -207.7155231 -0.981310E-04  0.183E-02    0.06       1.0  T
  44   -207.7155785 -0.553404E-04  0.880E-03    0.06       1.1  T
  45   -207.7155807 -0.227667E-05  0.601E-03    0.06       1.6  T
  46   -207.7155819 -0.115755E-05  0.508E-03    0.06       1.9  T
  47   -207.7155799  0.202830E-05  0.450E-03    0.06       2.2  T
  48   -207.7155824 -0.250612E-05  0.411E-03    0.06       2.4  T
  49   -207.7155824 -0.694491E-07  0.361E-03    0.06       2.7  T
  50   -207.7155831 -0.648957E-06  0.317E-03    0.06       3.1  T
  51   -207.7155835 -0.388244E-06  0.273E-03    0.06       3.6  T
  52   -207.7155844 -0.896635E-06  0.169E-03    0.06       5.8  T
  53   -207.7155849 -0.536676E-06  0.604E-04    0.06      16.3  T
  54   -207.7155849 -0.965420E-08  0.505E-04    0.06      19.5  T
     SCC iter.                  ...        0 min,  1.541 sec
     gradient                   ...        0 min,  0.057 sec
 * total energy  :  -204.0655210 Eh     change       -0.1796783E+00 Eh
   gradient norm :     0.4779415 Eh/α   predicted    -0.2348652E+00 (  30.71%)
   displ. norm   :     0.6752121 α      lambda       -0.2411697E+00
   maximum displ.:     0.2820907 α      in ANC's #87, #81, #57, ...

........................................................................
.............................. CYCLE   13 ..............................
........................................................................

 iter      E             dE          RMSdq      gap      omega  full diag
   1   -198.9119513 -0.198912E+03  0.721E+00    0.03       0.0  T
   2     39.2189904  0.238131E+03  0.217E+01    0.06       1.0  T
   3   -191.7059213 -0.230925E+03  0.116E+01    0.09       1.0  T
   4   -204.6948778 -0.129890E+02  0.593E+00    0.16       1.0  T
   5   -206.4746143 -0.177974E+01  0.379E+00    0.16       1.0  T
   6   -206.6096826 -0.135068E+00  0.383E+00    0.78       1.0  T
   7   -207.2373854 -0.627703E+00  0.290E+00    0.05       1.0  T
   8   -206.9207468  0.316639E+00  0.304E+00    0.40       1.0  T
   9   -207.0133103 -0.925636E-01  0.273E+00    0.19       1.0  T
  10   -207.3454936 -0.332183E+00  0.154E+00    0.15       1.0  T
  11   -207.3976282 -0.521346E-01  0.149E+00    0.13       1.0  T
  12   -207.3824132  0.152150E-01  0.128E+00    0.14       1.0  T
  13   -207.4245176 -0.421044E-01  0.104E+00    0.07       1.0  T
  14   -206.6956761  0.728841E+00  0.164E+00    0.08       1.0  T
  15   -207.3659990 -0.670323E+00  0.807E-01    0.03       1.0  T
  16   -206.8566630  0.509336E+00  0.165E+00    0.10       1.0  T
  17   -207.3325761 -0.475913E+00  0.831E-01    0.00       1.0  T
  18   -206.7153917  0.617184E+00  0.150E+00    0.07       1.0  T
  19   -207.1744851 -0.459093E+00  0.924E-01    0.05       1.0  T
  20   -207.3927779 -0.218293E+00  0.805E-01    0.17       1.0  T
  21   -207.4233516 -0.305737E-01  0.467E-01    0.03       1.0  T
  22   -207.4529006 -0.295489E-01  0.534E-01    0.13       1.0  T
  23   -207.4656559 -0.127553E-01  0.424E-01    0.10       1.0  T
  24   -207.4214206  0.442352E-01  0.476E-01    0.01       1.0  T
  25   -207.2842139  0.137207E+00  0.910E-01    0.03       1.0  T
  26   -207.2851797 -0.965872E-03  0.906E-01    0.03       1.0  T
  27   -207.4653741 -0.180194E+00  0.416E-01    0.04       1.0  T
  28   -207.4750748 -0.970064E-02  0.233E-01    0.05       1.0  T
  29   -207.4725086  0.256620E-02  0.241E-01    0.09       1.0  T
  30   -207.4663360  0.617260E-02  0.308E-01    0.10       1.0  T
  31   -207.4675724 -0.123643E-02  0.301E-01    0.10       1.0  T
  32   -207.4764256 -0.885315E-02  0.182E-01    0.08       1.0  T
  33   -207.4785773 -0.215175E-02  0.137E-01    0.07       1.0  T
  34   -207.4825719 -0.399463E-02  0.649E-02    0.07       1.0  T
  35   -207.4817295  0.842409E-03  0.973E-02    0.07       1.0  T
  36   -207.4827064 -0.976830E-03  0.750E-02    0.07       1.0  T
  37   -207.4828650 -0.158659E-03  0.458E-02    0.07       1.0  T
  38   -207.4828337  0.313202E-04  0.500E-02    0.07       1.0  T
  39   -207.4828047  0.289727E-04  0.469E-02    0.07       1.0  T
  40   -207.4830462 -0.241490E-03  0.379E-02    0.07       1.0  T
  41   -207.4832212 -0.174930E-03  0.258E-02    0.07       1.0  T
  42   -207.4832732 -0.520827E-04  0.223E-02    0.07       1.0  T
  43   -207.4832671  0.615846E-05  0.204E-02    0.07       1.0  T
  44   -207.4832880 -0.208786E-04  0.166E-02    0.07       1.0  T
  45   -207.4833087 -0.207103E-04  0.127E-02    0.07       1.0  T
  46   -207.4833216 -0.129139E-04  0.899E-03    0.07       1.1  T
  47   -207.4833232 -0.162390E-05  0.825E-03    0.07       1.2  T
  48   -207.4833277 -0.453580E-05  0.681E-03    0.07       1.4  T
  49   -207.4833298 -0.207311E-05  0.529E-03    0.07       1.9  T
  50   -207.4833314 -0.154207E-05  0.451E-03    0.07       2.2  T
  51   -207.4833327 -0.130516E-05  0.240E-03    0.07       4.1  T
  52   -207.4833329 -0.286401E-06  0.225E-03    0.07       4.4  T
  53   -207.4833333 -0.389024E-06  0.122E-03    0.07       8.1  T
  54   -207.4833334 -0.875917E-07  0.704E-04    0.07      14.0  T
  55   -207.4833335 -0.372149E-07  0.331E-04    0.07      29.8  T
     SCC iter.                  ...        0 min,  1.416 sec
     gradient                   ...        0 min,  0.057 sec
 * total energy  :  -204.0835798 Eh     change       -0.1805879E-01 Eh
   gradient norm :     0.9970415 Eh/α   predicted    -0.1755609E+00 ( 872.16%)
   displ. norm   :     0.6527270 α      lambda       -0.4742227E+00
   maximum displ.:     0.2508034 α      in ANC's #200, #237, #219, ...

........................................................................
.............................. CYCLE   14 ..............................
........................................................................

 iter      E             dE          RMSdq      gap      omega  full diag
   1   -202.9426123 -0.202943E+03  0.667E+00    0.02       0.0  T
   2   -155.0582618  0.478844E+02  0.162E+01    0.17       1.0  T
   3   -191.2306719 -0.361724E+02  0.115E+01    0.06       1.0  T
   4   -205.7771871 -0.145465E+02  0.473E+00    0.27       1.0  T
   5   -205.8827816 -0.105595E+00  0.359E+00    0.04       1.0  T
   6   -206.2070170 -0.324235E+00  0.333E+00    0.61       1.0  T
   7   -206.7501911 -0.543174E+00  0.214E+00    0.02       1.0  T
   8   -206.9219612 -0.171770E+00  0.172E+00    0.14       1.0  T
   9   -206.8187364  0.103225E+00  0.186E+00    0.02       1.0  T
  10   -206.1508616  0.667875E+00  0.209E+00    0.24       1.0  T
  11   -206.9093686 -0.758507E+00  0.911E-01    0.15       1.0  T
  12   -206.3341304  0.575238E+00  0.183E+00    0.13       1.0  T
  13   -206.9485703 -0.614440E+00  0.683E-01    0.13       1.0  T
  14   -206.7561923  0.192378E+00  0.113E+00    0.03       1.0  T
  15   -206.8734396 -0.117247E+00  0.768E-01    0.01       1.0  T
  16   -206.9812029 -0.107763E+00  0.504E-01    0.10       1.0  T
  17   -206.5169437  0.464259E+00  0.138E+00    0.09       1.0  T
  18   -206.9962120 -0.479268E+00  0.285E-01    0.07       1.0  T
  19   -206.9971892 -0.977249E-03  0.237E-01    0.09       1.0  T
  20   -206.9385725  0.586168E-01  0.496E-01    0.01       1.0  T
  21   -206.9964959 -0.579234E-01  0.219E-01    0.09       1.0  T
  22   -207.0002136 -0.371775E-02  0.141E-01    0.06       1.0  T
  23   -207.0002348 -0.211424E-04  0.118E-01    0.08       1.0  T
  24   -206.9928011  0.743364E-02  0.204E-01    0.04       1.0  T
  25   -206.9998407 -0.703956E-02  0.131E-01    0.07       1.0  T
  26   -207.0016913 -0.185063E-02  0.911E-02    0.07       1.0  T
  27   -207.0019462 -0.254866E-03  0.770E-02    0.07       1.0  T
  28   -207.0029870 -0.104085E-02  0.280E-02    0.07       1.0  T
  29   -207.0023071  0.679991E-03  0.556E-02    0.07       1.0  T
  30   -207.0027293 -0.422229E-03  0.363E-02    0.07       1.0  T
  31   -207.0029898 -0.260550E-03  0.184E-02    0.07       1.0  T
  32   -207.0030475 -0.576257E-04  0.101E-02    0.07       1.0  T
  33   -207.0029438  0.103687E-03  0.213E-02    0.07       1.0  T
  34   -207.0030186 -0.748085E-04  0.136E-02    0.07       1.0  T
  35   -207.0030630 -0.444205E-04  0.664E-03    0.07       1.5  T
  36   -207.0030667 -0.370721E-05  0.261E-03    0.07       3.8  T
  37   -207.0030634  0.333590E-05  0.376E-03    0.07       2.6  T
  38   -207.0030669 -0.355397E-05  0.149E-03    0.07       6.6  T
  39   -207.0030669  0.483847E-07  0.158E-03    0.07       6.3  T
  40   -207.0030673 -0.461732E-06  0.781E-04    0.07      12.6  T
  41   -207.0030673  0.594862E-07  0.674E-04    0.07      14.6  T
     SCC iter.                  ...        0 min,  1.080 sec
     gradient                   ...        0 min,  0.061 sec
 * total energy  :  -203.7978827 Eh     change        0.2856971E+00 Eh
   gradient norm :     2.1859737 Eh/α   predicted    -0.3381335E+00 (-218.35%)
   displ. norm   :     0.4308972 α      lambda       -0.6935065E+00
   maximum displ.:     0.1939438 α      in ANC's #237, #145, #235, ...

........................................................................
.............................. CYCLE   15 ..............................
........................................................................

 iter      E             dE          RMSdq      gap      omega  full diag
   1   -204.3833784 -0.204383E+03  0.544E+00    0.12       0.0  T
   2   -180.3123532  0.240710E+02  0.141E+01    0.17       1.0  T
   3   -201.0029865 -0.206906E+02  0.574E+00    0.09       1.0  T
   4   -201.8188667 -0.815880E+00  0.500E+00    0.04       1.0  T
   5   -206.3982891 -0.457942E+01  0.302E+00    0.09       1.0  T
   6   -206.1773128  0.220976E+00  0.265E+00    0.23       1.0  T
   7   -206.0789954  0.983174E-01  0.280E+00    0.63       1.0  T
   8   -206.3541685 -0.275173E+00  0.231E+00    0.19       1.0  T
   9   -206.7926015 -0.438433E+00  0.154E+00    0.09       1.0  T
  10   -206.4252766  0.367325E+00  0.188E+00    0.15       1.0  T
  11   -203.9449822  0.248029E+01  0.296E+00    0.01       1.0  T
  12   -206.2448785 -0.229990E+01  0.187E+00    0.07       1.0  T
  13   -206.5663844 -0.321506E+00  0.155E+00    0.00       1.0  T
  14   -206.1978118  0.368573E+00  0.172E+00    0.04       1.0  T
  15   -205.7723115  0.425500E+00  0.200E+00    0.02       1.0  T
  16   -205.6988831  0.734284E-01  0.208E+00    0.02       1.0  T
  17   -206.3743680 -0.675485E+00  0.160E+00    0.03       1.0  T
  18   -206.5640562 -0.189688E+00  0.126E+00    0.05       1.0  T
  19   -206.5453792  0.186770E-01  0.126E+00    0.06       1.0  T
  20   -206.6854988 -0.140120E+00  0.103E+00    0.03       1.0  T
  21   -206.9103776 -0.224879E+00  0.519E-01    0.08       1.0  T
  22   -206.8527547  0.576228E-01  0.668E-01    0.02       1.0  T
  23   -206.9097067 -0.569519E-01  0.410E-01    0.07       1.0  T
  24   -206.8033602  0.106346E+00  0.658E-01    0.01       1.0  T
  25   -206.9126205 -0.109260E+00  0.314E-01    0.06       1.0  T
  26   -206.9089494  0.367115E-02  0.346E-01    0.05       1.0  T
  27   -206.9068237  0.212566E-02  0.301E-01    0.06       1.0  T
  28   -206.9023215  0.450224E-02  0.284E-01    0.06       1.0  T
  29   -206.9015116  0.809923E-03  0.276E-01    0.06       1.0  T
  30   -206.9014051  0.106449E-03  0.262E-01    0.06       1.0  T
  31   -206.9016900 -0.284899E-03  0.245E-01    0.06       1.0  T
  32   -206.9023589 -0.668907E-03  0.233E-01    0.06       1.0  T
  33   -206.9032488 -0.889910E-03  0.218E-01    0.06       1.0  T
  34   -206.9050464 -0.179759E-02  0.196E-01    0.06       1.0  T
  35   -206.9067492 -0.170276E-02  0.177E-01    0.06       1.0  T
  36   -206.9131724 -0.642323E-02  0.107E-01    0.06       1.0  T
  37   -206.9134482 -0.275833E-03  0.102E-01    0.06       1.0  T
  38   -206.9140979 -0.649621E-03  0.855E-02    0.06       1.0  T
  39   -206.9150696 -0.971730E-03  0.591E-02    0.06       1.0  T
  40   -206.9149765  0.930930E-04  0.578E-02    0.06       1.0  T
  41   -206.9151311 -0.154558E-03  0.480E-02    0.06       1.0  T
  42   -206.9153601 -0.229093E-03  0.297E-02    0.06       1.0  T
  43   -206.9152758  0.843105E-04  0.339E-02    0.06       1.0  T
  44   -206.9154913 -0.215427E-03  0.147E-02    0.06       1.0  T
  45   -206.9155126 -0.213398E-04  0.877E-03    0.06       1.1  T
  46   -206.9155220 -0.944562E-05  0.569E-03    0.06       1.7  T
  47   -206.9155225 -0.429780E-06  0.537E-03    0.06       1.8  T
  48   -206.9155230 -0.559143E-06  0.461E-03    0.06       2.1  T
  49   -206.9155271 -0.401276E-05  0.209E-03    0.06       4.7  T
  50   -206.9155275 -0.428002E-06  0.137E-03    0.06       7.2  T
  51   -206.9155276 -0.134450E-06  0.951E-04    0.06      10.4  T
  52   -206.9155278 -0.140356E-06  0.712E-04    0.06      13.8  T
     SCC iter.                  ...        0 min,  1.374 sec
     gradient                   ...        0 min,  0.061 sec
 * total energy  :  -204.0386271 Eh     change       -0.2407444E+00 Eh
   gradient norm :     0.6866557 Eh/α   predicted    -0.4111364E+00 (  70.78%)
   displ. norm   :     0.8376042 α      lambda       -0.5360377E+00
   maximum displ.:     0.4673273 α      in ANC's #200, #219, #209, ...

........................................................................
.............................. CYCLE   16 ..............................
........................................................................

 iter      E             dE          RMSdq      gap      omega  full diag
   1   -205.5499567 -0.205550E+03  0.773E+00    0.11       0.0  T
   2   -153.3871226  0.521628E+02  0.189E+01    0.05       1.0  T
   3   -183.8989876 -0.305119E+02  0.112E+01    0.02       1.0  T
   4   -203.9954297 -0.200964E+02  0.964E+00    0.37       1.0  T
   5   -204.2147801 -0.219350E+00  0.693E+00    0.13       1.0  T
   6   -206.8102247 -0.259544E+01  0.417E+00    0.23       1.0  T
   7   -206.6923776  0.117847E+00  0.355E+00    0.23       1.0  T
   8   -207.2678270 -0.575449E+00  0.296E+00    0.29       1.0  T
   9   -207.5804063 -0.312579E+00  0.192E+00    0.09       1.0  T
  10   -207.4035044  0.176902E+00  0.191E+00    0.09       1.0  T
  11   -207.6050541 -0.201550E+00  0.184E+00    0.10       1.0  T
  12   -207.4972065  0.107848E+00  0.184E+00    0.16       1.0  T
  13   -207.6729288 -0.175722E+00  0.158E+00    0.10       1.0  T
  14   -207.5518501  0.121079E+00  0.175E+00    0.18       1.0  T
  15   -207.6275660 -0.757159E-01  0.161E+00    0.16       1.0  T
  16   -207.6252487  0.231728E-02  0.146E+00    0.12       1.0  T
  17   -207.6107267  0.145220E-01  0.143E+00    0.18       1.0  T
  18   -207.0726236  0.538103E+00  0.199E+00    0.07       1.0  T
  19   -207.5543780 -0.481754E+00  0.133E+00    0.02       1.0  T
  20   -207.5901460 -0.357680E-01  0.126E+00    0.00       1.0  T
  21   -207.4983831  0.917630E-01  0.121E+00    0.04       1.0  T
  22   -207.7806928 -0.282310E+00  0.544E-01    0.07       1.0  T
  23   -207.7816598 -0.966955E-03  0.520E-01    0.06       1.0  T
  24   -207.7544725  0.271873E-01  0.733E-01    0.09       1.0  T
  25   -207.7522101  0.226240E-02  0.707E-01    0.09       1.0  T
  26   -207.7981509 -0.459408E-01  0.306E-01    0.04       1.0  T
  27   -207.7931394  0.501151E-02  0.455E-01    0.03       1.0  T
  28   -207.7976944 -0.455501E-02  0.307E-01    0.04       1.0  T
  29   -207.7981665 -0.472046E-03  0.351E-01    0.04       1.0  T
  30   -207.7994904 -0.132396E-02  0.236E-01    0.04       1.0  T
  31   -207.7986454  0.845024E-03  0.196E-01    0.04       1.0  T
  32   -207.7997493 -0.110386E-02  0.187E-01    0.04       1.0  T
  33   -207.8007560 -0.100669E-02  0.168E-01    0.04       1.0  T
  34   -207.8015167 -0.760762E-03  0.161E-01    0.04       1.0  T
  35   -207.8029455 -0.142874E-02  0.151E-01    0.04       1.0  T
  36   -207.8043656 -0.142013E-02  0.103E-01    0.04       1.0  T
  37   -207.8055556 -0.119001E-02  0.818E-02    0.04       1.0  T
  38   -207.8064219 -0.866259E-03  0.407E-02    0.04       1.0  T
  39   -207.8066028 -0.180953E-03  0.136E-02    0.04       1.0  T
  40   -207.8060415  0.561260E-03  0.529E-02    0.04       1.0  T
  41   -207.8062682 -0.226699E-03  0.426E-02    0.04       1.0  T
  42   -207.8061843  0.839056E-04  0.435E-02    0.04       1.0  T
  43   -207.8065836 -0.399308E-03  0.165E-02    0.04       1.0  T
  44   -207.8066160 -0.323210E-04  0.908E-03    0.04       1.1  T
  45   -207.8066198 -0.382717E-05  0.515E-03    0.04       1.9  T
  46   -207.8066162  0.358610E-05  0.628E-03    0.04       1.6  T
  47   -207.8066228 -0.654450E-05  0.261E-03    0.04       3.8  T
  48   -207.8066190  0.374489E-05  0.428E-03    0.04       2.3  T
  49   -207.8066212 -0.219712E-05  0.312E-03    0.04       3.2  T
  50   -207.8066231 -0.193186E-05  0.145E-03    0.04       6.8  T
  51   -207.8066235 -0.395797E-06  0.662E-04    0.04      14.9  T
  52   -207.8066236 -0.674080E-07  0.520E-04    0.04      19.0  T
     SCC iter.                  ...        0 min,  1.361 sec
     gradient                   ...        0 min,  0.061 sec
 * total energy  :  -203.9747810 Eh     change        0.6384614E-01 Eh
   gradient norm :     2.0016420 Eh/α   predicted    -0.4560559E+00 (-814.30%)
   displ. norm   :     0.3613972 α      lambda       -0.5645230E+00
   maximum displ.:     0.1333083 α      in ANC's #200, #219, #237, ...

........................................................................
.............................. CYCLE   17 ..............................
........................................................................

 iter      E             dE          RMSdq      gap      omega  full diag
   1   -206.7384337 -0.206738E+03  0.274E+00    0.14       0.0  T
   2   -202.0444215  0.469401E+01  0.581E+00    0.01       1.0  T
   3   -206.8036843 -0.475926E+01  0.276E+00    0.21       1.0  T
   4   -205.9640804  0.839604E+00  0.383E+00    0.20       1.0  T
   5   -206.9618077 -0.997727E+00  0.307E+00    0.20       1.0  T
   6   -206.9558624  0.594532E-02  0.198E+00    0.19       1.0  T
   7   -207.3381053 -0.382243E+00  0.147E+00    0.10       1.0  T
   8   -207.3810862 -0.429809E-01  0.106E+00    0.09       1.0  T
   9   -207.3972150 -0.161288E-01  0.699E-01    0.03       1.0  T
  10   -207.3831236  0.140914E-01  0.576E-01    0.02       1.0  T
  11   -207.3766003  0.652330E-02  0.585E-01    0.09       1.0  T
  12   -206.7926615  0.583939E+00  0.152E+00    0.13       1.0  T
  13   -207.3167149 -0.524053E+00  0.667E-01    0.00       1.0  T
  14   -207.4044695 -0.877546E-01  0.309E-01    0.06       1.0  T
  15   -207.4080060 -0.353650E-02  0.262E-01    0.06       1.0  T
  16   -207.4108692 -0.286328E-02  0.232E-01    0.06       1.0  T
  17   -207.4108264  0.428008E-04  0.229E-01    0.06       1.0  T
  18   -207.4103467  0.479701E-03  0.222E-01    0.06       1.0  T
  19   -207.4118250 -0.147822E-02  0.199E-01    0.06       1.0  T
  20   -207.4175452 -0.572022E-02  0.113E-01    0.06       1.0  T
  21   -207.3874667  0.300784E-01  0.368E-01    0.03       1.0  T
  22   -207.4186878 -0.312210E-01  0.921E-02    0.05       1.0  T
  23   -207.4203142 -0.162640E-02  0.289E-02    0.05       1.0  T
  24   -207.4203793 -0.651707E-04  0.300E-02    0.05       1.0  T
  25   -207.4197964  0.582904E-03  0.549E-02    0.05       1.0  T
  26   -207.4204920 -0.695537E-03  0.124E-02    0.05       1.0  T
  27   -207.4201449  0.347048E-03  0.381E-02    0.05       1.0  T
  28   -207.4203916 -0.246673E-03  0.228E-02    0.05       1.0  T
  29   -207.4204884 -0.968185E-04  0.999E-03    0.05       1.0  T
  30   -207.4204873  0.113453E-05  0.942E-03    0.05       1.0  T
  31   -207.4205042 -0.168782E-04  0.448E-03    0.05       2.2  T
  32   -207.4205056 -0.141617E-05  0.348E-03    0.05       2.8  T
  33   -207.4205067 -0.117321E-05  0.261E-03    0.05       3.8  T
  34   -207.4205074 -0.648384E-06  0.196E-03    0.05       5.0  T
  35   -207.4205077 -0.351376E-06  0.133E-03    0.05       7.4  T
  36   -207.4205079 -0.123855E-06  0.986E-04    0.05      10.0  T
  37   -207.4205080 -0.167452E-06  0.348E-04    0.05      28.3  T
     SCC iter.                  ...        0 min,  0.908 sec
     gradient                   ...        0 min,  0.056 sec
 * total energy  :  -204.1467735 Eh     change       -0.1719925E+00 Eh
   gradient norm :     0.6407064 Eh/α   predicted    -0.3191270E+00 (  85.55%)
   displ. norm   :     0.7419640 α      lambda       -0.3523071E+00
   maximum displ.:     0.2024657 α      in ANC's #120, #145, #87, ...

........................................................................
.............................. CYCLE   18 ..............................
........................................................................

 iter      E             dE          RMSdq      gap      omega  full diag
   1   -196.8809163 -0.196881E+03  0.881E+00    0.04       0.0  T
   2    120.4142010  0.317295E+03  0.211E+01    0.07       1.0  T
   3    150.4444683  0.300303E+02  0.247E+01    0.03       1.0  T
   4   -203.1850544 -0.353630E+03  0.823E+00    0.18       1.0  T
   5   -201.9369902  0.124806E+01  0.951E+00    0.02       1.0  T
   6   -205.3585755 -0.342159E+01  0.527E+00    0.03       1.0  T
   7   -206.4916548 -0.113308E+01  0.379E+00    0.22       1.0  T
   8   -206.4793901  0.122647E-01  0.386E+00    0.41       1.0  T
   9   -206.7910089 -0.311619E+00  0.332E+00    0.24       1.0  T
  10   -206.8718961 -0.808873E-01  0.301E+00    0.15       1.0  T
  11   -207.0507836 -0.178887E+00  0.223E+00    0.19       1.0  T
  12   -207.1727837 -0.122000E+00  0.192E+00    0.18       1.0  T
  13   -207.1620117  0.107720E-01  0.177E+00    0.17       1.0  T
  14   -207.2615884 -0.995767E-01  0.122E+00    0.10       1.0  T
  15   -206.8683227  0.393266E+00  0.257E+00    0.36       1.0  T
  16   -207.2517563 -0.383434E+00  0.115E+00    0.04       1.0  T
  17   -207.3298116 -0.780554E-01  0.437E-01    0.05       1.0  T
  18   -207.3194848  0.103268E-01  0.591E-01    0.09       1.0  T
  19   -207.3298920 -0.104072E-01  0.505E-01    0.05       1.0  T
  20   -207.3047501  0.251419E-01  0.808E-01    0.04       1.0  T
  21   -207.3449349 -0.401848E-01  0.279E-01    0.06       1.0  T
  22   -207.3474460 -0.251109E-02  0.192E-01    0.07       1.0  T
  23   -206.9031376  0.444308E+00  0.138E+00    0.09       1.0  T
  24   -207.2600660 -0.356928E+00  0.633E-01    0.00       1.0  T
  25   -206.9905711  0.269495E+00  0.127E+00    0.06       1.0  T
  26   -207.3170395 -0.326468E+00  0.391E-01    0.03       1.0  T
  27   -207.3037737  0.132658E-01  0.448E-01    0.02       1.0  T
  28   -207.3498776 -0.461040E-01  0.844E-02    0.07       1.0  T
  29   -207.3503711 -0.493441E-03  0.734E-02    0.08       1.0  T
  30   -207.3480053  0.236581E-02  0.118E-01    0.07       1.0  T
  31   -207.3472975  0.707736E-03  0.125E-01    0.08       1.0  T
  32   -207.3486677 -0.137018E-02  0.968E-02    0.07       1.0  T
  33   -207.3494613 -0.793629E-03  0.743E-02    0.07       1.0  T
  34   -207.3495116 -0.502051E-04  0.702E-02    0.07       1.0  T
  35   -207.3506480 -0.113644E-02  0.253E-02    0.07       1.0  T
  36   -207.3506194  0.286270E-04  0.335E-02    0.07       1.0  T
  37   -207.3505460  0.733719E-04  0.384E-02    0.07       1.0  T
  38   -207.3506965 -0.150549E-03  0.260E-02    0.07       1.0  T
  39   -207.3504829  0.213615E-03  0.394E-02    0.07       1.0  T
  40   -207.3507155 -0.232582E-03  0.232E-02    0.07       1.0  T
  41   -207.3507870 -0.714408E-04  0.125E-02    0.07       1.0  T
  42   -207.3507902 -0.324520E-05  0.102E-02    0.07       1.0  T
  43   -207.3507998 -0.960398E-05  0.631E-03    0.07       1.6  T
  44   -207.3508078 -0.804347E-05  0.364E-03    0.07       2.7  T
  45   -207.3508098 -0.198995E-05  0.240E-03    0.07       4.1  T
  46   -207.3508107 -0.837662E-06  0.125E-03    0.07       7.9  T
  47   -207.3508107 -0.943115E-08  0.120E-03    0.07       8.2  T
  48   -207.3508107 -0.622513E-07  0.104E-03    0.07       9.5  T
  49   -207.3508109 -0.179446E-06  0.611E-04    0.07      16.1  T
  50   -207.3508110 -0.639411E-07  0.162E-04    0.07      60.8  T
     SCC iter.                  ...        0 min,  1.399 sec
     gradient                   ...        0 min,  0.062 sec
 * total energy  :  -204.1422058 Eh     change        0.4567698E-02 Eh
   gradient norm :     0.8794703 Eh/α   predicted    -0.2731280E+00 (*******%)
   displ. norm   :     0.3890509 α      lambda       -0.2576807E+00
   maximum displ.:     0.1469598 α      in ANC's #145, #200, #223, ...

........................................................................
.............................. CYCLE   19 ..............................
........................................................................

 iter      E             dE          RMSdq      gap      omega  full diag
   1   -207.1946423 -0.207195E+03  0.416E+00    0.03       0.0  T
   2   -197.2834657  0.991118E+01  0.100E+01    0.13       1.0  T
   3   -205.2039721 -0.792051E+01  0.416E+00    0.14       1.0  T
   4   -206.2691691 -0.106520E+01  0.524E+00    0.02       1.0  T
   5   -207.2153441 -0.946175E+00  0.255E+00    0.49       1.0  T
   6   -207.5569698 -0.341626E+00  0.223E+00    0.15       1.0  T
   7   -207.2339677  0.323002E+00  0.221E+00    0.40       1.0  T
   8   -207.6447944 -0.410827E+00  0.137E+00    0.11       1.0  T
   9   -207.6068060  0.379884E-01  0.127E+00    0.14       1.0  T
  10   -207.6609957 -0.541897E-01  0.908E-01    0.11       1.0  T
  11   -204.8524671  0.280853E+01  0.393E+00    0.01       1.0  T
  12   -206.9272022 -0.207474E+01  0.192E+00    0.09       1.0  T
  13   -206.9253758  0.182643E-02  0.197E+00    0.13       1.0  T
  14   -206.9706303 -0.452545E-01  0.192E+00    0.13       1.0  T
  15   -206.9942822 -0.236519E-01  0.185E+00    0.11       1.0  T
  16   -206.9534276  0.408546E-01  0.188E+00    0.09       1.0  T
  17   -207.1032037 -0.149776E+00  0.168E+00    0.09       1.0  T
  18   -207.0744051  0.287986E-01  0.172E+00    0.13       1.0  T
  19   -207.5334203 -0.459015E+00  0.128E+00    0.18       1.0  T
  20   -207.6219788 -0.885585E-01  0.721E-01    0.03       1.0  T
  21   -207.6142222  0.775663E-02  0.102E+00    0.12       1.0  T
  22   -207.6332031 -0.189809E-01  0.881E-01    0.06       1.0  T
  23   -207.5931490  0.400541E-01  0.689E-01    0.01       1.0  T
  24   -207.6746949 -0.815458E-01  0.502E-01    0.07       1.0  T
  25   -207.6817782 -0.708334E-02  0.368E-01    0.05       1.0  T
  26   -207.6935958 -0.118176E-01  0.307E-01    0.06       1.0  T
  27   -207.6949436 -0.134779E-02  0.240E-01    0.04       1.0  T
  28   -207.6795263  0.154173E-01  0.282E-01    0.04       1.0  T
  29   -207.6962421 -0.167158E-01  0.165E-01    0.05       1.0  T
  30   -207.6964793 -0.237193E-03  0.156E-01    0.05       1.0  T
  31   -207.6963589  0.120315E-03  0.131E-01    0.05       1.0  T
  32   -207.6968945 -0.535597E-03  0.122E-01    0.05       1.0  T
  33   -207.6968614  0.331553E-04  0.948E-02    0.05       1.0  T
  34   -207.6970342 -0.172867E-03  0.575E-02    0.05       1.0  T
  35   -207.6967604  0.273814E-03  0.445E-02    0.05       1.0  T
  36   -207.6969516 -0.191131E-03  0.235E-02    0.05       1.0  T
  37   -207.6970384 -0.868306E-04  0.168E-02    0.05       1.0  T
  38   -207.6970664 -0.279688E-04  0.113E-02    0.05       1.0  T
  39   -207.6970686 -0.223769E-05  0.116E-02    0.05       1.0  T
  40   -207.6970708 -0.217975E-05  0.777E-03    0.05       1.3  T
  41   -207.6970721 -0.135249E-05  0.351E-03    0.05       2.8  T
  42   -207.6970725 -0.362781E-06  0.251E-03    0.05       3.9  T
  43   -207.6970726 -0.131786E-06  0.265E-03    0.05       3.7  T
  44   -207.6970727 -0.309435E-07  0.184E-03    0.05       5.4  T
  45   -207.6970727 -0.597268E-07  0.124E-03    0.05       7.9  T
  46   -207.6970727  0.133453E-07  0.786E-04    0.05      12.5  T
  47   -207.6970728 -0.548468E-07  0.517E-04    0.05      19.0  T
     SCC iter.                  ...        0 min,  1.373 sec
     gradient                   ...        0 min,  0.062 sec
 * total energy  :  -204.2889042 Eh     change       -0.1466985E+00 Eh
   gradient norm :     0.1740185 Eh/α   predicted    -0.1483416E+00 (   1.12%)
   displ. norm   :     0.7041084 α      lambda       -0.8514162E-01
   maximum displ.:     0.2691799 α      in ANC's #39, #41, #77, ...

........................................................................
.............................. CYCLE   20 ..............................
........................................................................

 iter      E             dE          RMSdq      gap      omega  full diag
   1   -207.5962954 -0.207596E+03  0.189E+00    0.05       0.0  T
   2   -194.5747509  0.130215E+02  0.973E+00    0.08       1.0  T
   3   -207.4937819 -0.129190E+02  0.216E+00    0.16       1.0  T
   4   -207.2746607  0.219121E+00  0.216E+00    0.59       1.0  T
   5   -207.6289052 -0.354244E+00  0.211E+00    0.11       1.0  T
   6   -207.6572300 -0.283248E-01  0.163E+00    0.12       1.0  T
   7   -207.6564023  0.827729E-03  0.167E+00    0.11       1.0  T
   8   -207.6700353 -0.136330E-01  0.125E+00    0.11       1.0  T
   9   -207.6427542  0.272810E-01  0.128E+00    0.05       1.0  T
  10   -207.7409300 -0.981758E-01  0.353E-01    0.01       1.0  T
  11   -207.7459365 -0.500644E-02  0.281E-01    0.02       1.0  T
  12   -207.7151924  0.307441E-01  0.106E+00    0.09       1.0  T
  13   -207.6959428  0.192496E-01  0.120E+00    0.07       1.0  T
  14   -207.6263982  0.695446E-01  0.132E+00    0.01       1.0  T
  15   -207.3889739  0.237424E+00  0.163E+00    0.04       1.0  T
  16   -207.2434452  0.145529E+00  0.171E+00    0.08       1.0  T
  17   -207.2520042 -0.855902E-02  0.170E+00    0.09       1.0  T
  18   -207.1360546  0.115950E+00  0.178E+00    0.08       1.0  T
  19   -207.4240773 -0.288023E+00  0.137E+00    0.07       1.0  T
  20   -207.3827918  0.412855E-01  0.139E+00    0.08       1.0  T
  21   -207.3527021  0.300897E-01  0.141E+00    0.09       1.0  T
  22   -207.4462962 -0.935941E-01  0.121E+00    0.07       1.0  T
  23   -207.7294334 -0.283137E+00  0.470E-01    0.01       1.0  T
  24   -207.7501995 -0.207661E-01  0.244E-01    0.02       1.0  T
  25   -207.7541022 -0.390275E-02  0.114E-01    0.03       1.0  T
  26   -207.7542122 -0.109950E-03  0.678E-02    0.03       1.0  T
  27   -207.7542217 -0.952725E-05  0.516E-02    0.04       1.0  T
  28   -207.7542967 -0.749701E-04  0.473E-02    0.03       1.0  T
  29   -207.7542522  0.444588E-04  0.473E-02    0.03       1.0  T
  30   -207.7540811  0.171124E-03  0.527E-02    0.03       1.0  T
  31   -207.7543186 -0.237539E-03  0.493E-02    0.03       1.0  T
  32   -207.7544068 -0.881733E-04  0.481E-02    0.03       1.0  T
  33   -207.7544200 -0.132278E-04  0.429E-02    0.03       1.0  T
  34   -207.7544227 -0.271431E-05  0.315E-02    0.03       1.0  T
  35   -207.7544379 -0.151400E-04  0.184E-02    0.03       1.0  T
  36   -207.7544443 -0.639571E-05  0.113E-02    0.03       1.0  T
  37   -207.7544460 -0.171375E-05  0.949E-03    0.03       1.0  T
  38   -207.7544555 -0.952120E-05  0.242E-03    0.03       4.1  T
  39   -207.7544561 -0.546801E-06  0.265E-03    0.03       3.7  T
  40   -207.7544563 -0.237738E-06  0.129E-03    0.03       7.6  T
  41   -207.7544562  0.128568E-06  0.173E-03    0.03       5.7  T
  42   -207.7544564 -0.219851E-06  0.108E-03    0.03       9.1  T
  43   -207.7544564 -0.560442E-07  0.418E-04    0.03      23.6  T
  44   -207.7544565 -0.859572E-08  0.322E-04    0.03      30.6  T
     SCC iter.                  ...        0 min,  1.204 sec
     gradient                   ...        0 min,  0.059 sec
 * total energy  :  -204.2669811 Eh     change        0.2192315E-01 Eh
   gradient norm :     0.5750293 Eh/α   predicted    -0.6367610E-01 (-390.45%)
   displ. norm   :     0.4418987 α      lambda       -0.1390906E+00
   maximum displ.:     0.1211315 α      in ANC's #38, #66, #33, ...
 * RMSD in coord.:     0.5169365 α      energy gain  -0.7101558E+01 Eh

generating ANC from exact Hessian ...
Using Lindh-Hessian (1995)
 Shifting diagonal of input Hessian by   1.356419002859225E-002
 Lowest  eigenvalues of input Hessian
    0.010000    0.013077    0.013161    0.013204    0.013346    0.013548
    0.000000    0.000000    0.000000    0.000000    0.000000    0.000000
    0.013573    0.013574    0.013629    0.013712    0.013748    0.013909
 Highest eigenvalues
    2.309412    2.346698    2.400661    2.484545    5.951663    7.255598
 

........................................................................
.............................. CYCLE   21 ..............................
........................................................................

 iter      E             dE          RMSdq      gap      omega  full diag
   1   -207.1223629 -0.207122E+03  0.374E+00    0.07       0.0  T
   2   -190.1211928  0.170012E+02  0.957E+00    0.05       1.0  T
   3   -205.9171721 -0.157960E+02  0.465E+00    0.22       1.0  T
   4   -207.3159702 -0.139880E+01  0.271E+00    0.50       1.0  T
   5   -207.2589603  0.570099E-01  0.206E+00    0.04       1.0  T
   6   -207.5780978 -0.319137E+00  0.194E+00    0.43       1.0  T
   7   -207.6353906 -0.572929E-01  0.167E+00    0.26       1.0  T
   8   -207.8669690 -0.231578E+00  0.930E-01    0.02       1.0  T
   9   -207.6902804  0.176689E+00  0.141E+00    0.17       1.0  T
  10   -207.8111857 -0.120905E+00  0.206E+00    0.05       1.0  T
  11   -207.7390617  0.721240E-01  0.204E+00    0.15       1.0  T
  12   -207.7266507  0.124111E-01  0.207E+00    0.15       1.0  T
  13   -207.7080699  0.185807E-01  0.215E+00    0.15       1.0  T
  14   -207.6942033  0.138666E-01  0.192E+00    0.13       1.0  T
  15   -207.6024865  0.917168E-01  0.173E+00    0.00       1.0  T
  16   -207.7381930 -0.135706E+00  0.156E+00    0.12       1.0  T
  17   -207.3217859  0.416407E+00  0.188E+00    0.05       1.0  T
  18   -205.9413579  0.138043E+01  0.333E+00    0.09       1.0  T
  19   -206.6947651 -0.753407E+00  0.245E+00    0.01       1.0  T
  20   -206.7545253 -0.597602E-01  0.240E+00    0.00       1.0  T
  21   -207.8592852 -0.110476E+01  0.735E-01    0.02       1.0  T
  22   -207.9050700 -0.457848E-01  0.475E-01    0.02       1.0  T
  23   -207.8935484  0.115216E-01  0.310E-01    0.04       1.0  T
  24   -207.9047348 -0.111865E-01  0.280E-01    0.02       1.0  T
  25   -207.9041994  0.535483E-03  0.349E-01    0.01       1.0  T
  26   -207.8985591  0.564022E-02  0.485E-01    0.02       1.0  T
  27   -207.9012643 -0.270511E-02  0.417E-01    0.01       1.0  T
  28   -207.9044632 -0.319894E-02  0.291E-01    0.01       1.0  T
  29   -207.9065982 -0.213497E-02  0.169E-01    0.02       1.0  T
  30   -207.9069463 -0.348163E-03  0.185E-01    0.01       1.0  T
  31   -207.9096058 -0.265948E-02  0.134E-01    0.02       1.0  T
  32   -207.9122236 -0.261774E-02  0.109E-01    0.02       1.0  T
  33   -207.9101850  0.203855E-02  0.122E-01    0.02       1.0  T
  34   -207.9116357 -0.145065E-02  0.101E-01    0.02       1.0  T
  35   -207.9112800  0.355652E-03  0.954E-02    0.02       1.0  T
  36   -207.9118722 -0.592174E-03  0.807E-02    0.02       1.0  T
  37   -207.9120494 -0.177194E-03  0.739E-02    0.02       1.0  T
  38   -207.9121846 -0.135222E-03  0.666E-02    0.02       1.0  T
  39   -207.9125002 -0.315556E-03  0.611E-02    0.02       1.0  T
  40   -207.9125217 -0.215262E-04  0.536E-02    0.02       1.0  T
  41   -207.9126340 -0.112296E-03  0.489E-02    0.02       1.0  T
  42   -207.9126512 -0.171960E-04  0.410E-02    0.02       1.0  T
  43   -207.9126445  0.666260E-05  0.383E-02    0.02       1.0  T
  44   -207.9126685 -0.240028E-04  0.338E-02    0.02       1.0  T
  45   -207.9126985 -0.300333E-04  0.307E-02    0.02       1.0  T
  46   -207.9126988 -0.208209E-06  0.250E-02    0.02       1.0  T
  47   -207.9127193 -0.205171E-04  0.180E-02    0.02       1.0  T
  48   -207.9127587 -0.394054E-04  0.839E-03    0.02       1.2  T
  49   -207.9127612 -0.249849E-05  0.611E-03    0.02       1.6  T
  50   -207.9127616 -0.412273E-06  0.561E-03    0.02       1.8  T
  51   -207.9127620 -0.456770E-06  0.236E-03    0.02       4.2  T
  52   -207.9127623 -0.282073E-06  0.202E-03    0.02       4.9  T
  53   -207.9127624 -0.474969E-07  0.141E-03    0.02       7.0  T
  54   -207.9127623  0.107076E-06  0.127E-03    0.02       7.7  T
  55   -207.9127623 -0.617036E-07  0.910E-04    0.02      10.8  T
  56   -207.9127625 -0.126275E-06  0.389E-04    0.02      25.3  T
     SCC iter.                  ...        0 min,  1.413 sec
     gradient                   ...        0 min,  0.058 sec
 * total energy  :  -204.3466750 Eh     change       -0.7969391E-01 Eh
   gradient norm :     0.2188148 Eh/α   predicted     0.0000000E+00 (-100.00%)
   displ. norm   :     0.4157571 α      lambda       -0.4200424E-01
   maximum displ.:     0.1664747 α      in ANC's #46, #120, #124, ...

........................................................................
.............................. CYCLE   22 ..............................
........................................................................

 iter      E             dE          RMSdq      gap      omega  full diag
   1   -207.2477943 -0.207248E+03  0.322E+00    0.01       0.0  T
   2   -204.9495102  0.229828E+01  0.596E+00    0.37       1.0  T
   3   -207.3530454 -0.240354E+01  0.321E+00    0.47       1.0  T
   4   -207.5578200 -0.204775E+00  0.337E+00    0.02       1.0  T
   5   -207.5442680  0.135519E-01  0.228E+00    0.67       1.0  T
   6   -207.6421520 -0.978840E-01  0.201E+00    0.39       1.0  T
   7   -207.6597242 -0.175722E-01  0.186E+00    0.33       1.0  T
   8   -207.8875174 -0.227793E+00  0.838E-01    0.03       1.0  T
   9   -207.7986874  0.888300E-01  0.120E+00    0.10       1.0  T
  10   -207.8153059 -0.166185E-01  0.182E+00    0.10       1.0  T
  11   -207.8874437 -0.721378E-01  0.970E-01    0.05       1.0  T
  12   -207.4614779  0.425966E+00  0.156E+00    0.08       1.0  T
  13   -207.8058127 -0.344335E+00  0.954E-01    0.03       1.0  T
  14   -207.8409161 -0.351034E-01  0.808E-01    0.03       1.0  T
  15   -207.3062808  0.534635E+00  0.199E+00    0.03       1.0  T
  16   -207.7880745 -0.481794E+00  0.153E+00    0.04       1.0  T
  17   -207.7946363 -0.656183E-02  0.153E+00    0.08       1.0  T
  18   -207.9086398 -0.114004E+00  0.755E-01    0.04       1.0  T
  19   -207.9151763 -0.653651E-02  0.385E-01    0.03       1.0  T
  20   -207.9076442  0.753214E-02  0.520E-01    0.04       1.0  T
  21   -207.9079003 -0.256062E-03  0.486E-01    0.04       1.0  T
  22   -207.9203412 -0.124409E-01  0.212E-01    0.02       1.0  T
  23   -207.9249711 -0.462992E-02  0.137E-01    0.01       1.0  T
  24   -207.9257462 -0.775135E-03  0.186E-01    0.01       1.0  T
  25   -207.9267145 -0.968297E-03  0.137E-01    0.01       1.0  T
  26   -207.9277898 -0.107525E-02  0.404E-02    0.01       1.0  T
  27   -207.9277427  0.470835E-04  0.372E-02    0.01       1.0  T
  28   -207.9278938 -0.151130E-03  0.357E-02    0.01       1.0  T
  29   -207.9279306 -0.367820E-04  0.220E-02    0.01       1.0  T
  30   -207.9279817 -0.510669E-04  0.277E-02    0.01       1.0  T
  31   -207.9280145 -0.327967E-04  0.797E-03    0.01       1.2  T
  32   -207.9280117  0.278372E-05  0.746E-03    0.01       1.3  T
  33   -207.9280199 -0.826415E-05  0.557E-03    0.01       1.8  T
  34   -207.9280202 -0.256918E-06  0.261E-03    0.01       3.8  T
  35   -207.9280194  0.828670E-06  0.622E-03    0.01       1.6  T
  36   -207.9280197 -0.284356E-06  0.525E-03    0.01       1.9  T
  37   -207.9280204 -0.762509E-06  0.233E-03    0.01       4.2  T
  38   -207.9280204 -0.229029E-07  0.228E-03    0.01       4.3  T
  39   -207.9280207 -0.264016E-06  0.558E-04    0.01      17.6  T
  40   -207.9280207 -0.240454E-07  0.135E-04    0.01      73.2  T
     SCC iter.                  ...        0 min,  1.068 sec
     gradient                   ...        0 min,  0.057 sec
 * total energy  :  -204.3578201 Eh     change       -0.1114515E-01 Eh
   gradient norm :     0.3585925 Eh/α   predicted    -0.2463247E-01 ( 121.02%)
   displ. norm   :     0.4026509 α      lambda       -0.3906280E-01
   maximum displ.:     0.1547970 α      in ANC's #46, #120, #114, ...

........................................................................
.............................. CYCLE   23 ..............................
........................................................................

 iter      E             dE          RMSdq      gap      omega  full diag
   1   -207.7090855 -0.207709E+03  0.215E+00    0.07       0.0  T
   2   -201.7109414  0.599814E+01  0.843E+00    0.00       1.0  T
   3   -207.5750637 -0.586412E+01  0.194E+00    0.57       1.0  T
   4   -207.7853927 -0.210329E+00  0.155E+00    0.06       1.0  T
   5   -207.6102756  0.175117E+00  0.157E+00    0.21       1.0  T
   6   -207.7424007 -0.132125E+00  0.124E+00    0.14       1.0  T
   7   -207.7644668 -0.220661E-01  0.115E+00    0.19       1.0  T
   8   -207.7849601 -0.204932E-01  0.981E-01    0.04       1.0  T
   9   -207.9013185 -0.116358E+00  0.795E-01    0.04       1.0  T
  10   -207.8801547  0.211637E-01  0.702E-01    0.07       1.0  T
  11   -207.8957852 -0.156305E-01  0.114E+00    0.03       1.0  T
  12   -207.9126747 -0.168895E-01  0.828E-01    0.02       1.0  T
  13   -207.5099998  0.402675E+00  0.174E+00    0.07       1.0  T
  14   -207.8926937 -0.382694E+00  0.489E-01    0.03       1.0  T
  15   -207.9033439 -0.106502E-01  0.550E-01    0.05       1.0  T
  16   -207.8750372  0.283067E-01  0.570E-01    0.04       1.0  T
  17   -207.9245339 -0.494967E-01  0.278E-01    0.03       1.0  T
  18   -207.9075112  0.170226E-01  0.468E-01    0.02       1.0  T
  19   -207.9178224 -0.103111E-01  0.276E-01    0.01       1.0  T
  20   -207.9233153 -0.549286E-02  0.315E-01    0.03       1.0  T
  21   -207.9255296 -0.221438E-02  0.216E-01    0.02       1.0  T
  22   -207.9275349 -0.200531E-02  0.367E-02    0.01       1.0  T
  23   -207.9276230 -0.880807E-04  0.322E-02    0.01       1.0  T
  24   -207.9277485 -0.125425E-03  0.119E-02    0.01       1.0  T
  25   -207.9276425  0.105911E-03  0.269E-02    0.01       1.0  T
  26   -207.9276847 -0.421671E-04  0.379E-02    0.01       1.0  T
  27   -207.9277609 -0.762193E-04  0.861E-03    0.01       1.1  T
  28   -207.9277541  0.684733E-05  0.835E-03    0.01       1.2  T
  29   -207.9277663 -0.121681E-04  0.432E-03    0.01       2.3  T
  30   -207.9277695 -0.322485E-05  0.271E-03    0.01       3.6  T
  31   -207.9277667  0.279315E-05  0.539E-03    0.01       1.8  T
  32   -207.9277692 -0.254992E-05  0.333E-03    0.01       3.0  T
  33   -207.9277696 -0.388046E-06  0.160E-03    0.01       6.2  T
  34   -207.9277690  0.638467E-06  0.233E-03    0.01       4.2  T
  35   -207.9277702 -0.118356E-05  0.558E-04    0.01      17.7  T
  36   -207.9277702 -0.446352E-07  0.375E-04    0.01      26.3  T
  37   -207.9277702 -0.338986E-08  0.466E-04    0.01      21.1  T
     SCC iter.                  ...        0 min,  1.050 sec
     gradient                   ...        0 min,  0.058 sec
 * total energy  :  -204.3852861 Eh     change       -0.2746592E-01 Eh
   gradient norm :     0.1645014 Eh/α   predicted    -0.2269804E-01 ( -17.36%)
   displ. norm   :     0.6449477 α      lambda       -0.4033263E-01
   maximum displ.:     0.1856101 α      in ANC's #46, #19, #120, ...

........................................................................
.............................. CYCLE   24 ..............................
........................................................................

 iter      E             dE          RMSdq      gap      omega  full diag
   1   -207.8263379 -0.207826E+03  0.191E+00    0.12       0.0  T
   2   -201.7303876  0.609595E+01  0.819E+00    0.12       1.0  T
   3   -207.7058588 -0.597547E+01  0.202E+00    0.37       1.0  T
   4   -207.7825541 -0.766953E-01  0.145E+00    0.32       1.0  T
   5   -207.8218402 -0.392861E-01  0.217E+00    0.09       1.0  T
   6   -207.8350159 -0.131757E-01  0.121E+00    0.42       1.0  T
   7   -207.9044992 -0.694833E-01  0.990E-01    0.16       1.0  T
   8   -207.9002911  0.420812E-02  0.957E-01    0.18       1.0  T
   9   -207.9474285 -0.471374E-01  0.819E-01    0.10       1.0  T
  10   -207.9818164 -0.343879E-01  0.597E-01    0.06       1.0  T
  11   -207.9794008  0.241555E-02  0.535E-01    0.07       1.0  T
  12   -207.9902077 -0.108069E-01  0.585E-01    0.03       1.0  T
  13   -207.9837861  0.642158E-02  0.637E-01    0.02       1.0  T
  14   -207.9901004 -0.631435E-02  0.372E-01    0.06       1.0  T
  15   -207.2656548  0.724446E+00  0.212E+00    0.07       1.0  T
  16   -207.4030987 -0.137444E+00  0.194E+00    0.08       1.0  T
  17   -207.4336331 -0.305343E-01  0.191E+00    0.08       1.0  T
  18   -207.6457798 -0.212147E+00  0.147E+00    0.05       1.0  T
  19   -207.9587523 -0.312972E+00  0.517E-01    0.03       1.0  T
  20   -207.9955412 -0.367889E-01  0.291E-01    0.03       1.0  T
  21   -207.9958393 -0.298133E-03  0.280E-01    0.04       1.0  T
  22   -207.9918948  0.394455E-02  0.315E-01    0.02       1.0  T
  23   -207.9967642 -0.486938E-02  0.151E-01    0.04       1.0  T
  24   -207.9982064 -0.144225E-02  0.103E-01    0.04       1.0  T
  25   -207.9971612  0.104521E-02  0.209E-01    0.05       1.0  T
  26   -207.9989729 -0.181169E-02  0.877E-02    0.04       1.0  T
  27   -207.9992107 -0.237818E-03  0.560E-02    0.04       1.0  T
  28   -207.9990974  0.113333E-03  0.533E-02    0.04       1.0  T
  29   -207.9991398 -0.424698E-04  0.657E-02    0.03       1.0  T
  30   -207.9993277 -0.187837E-03  0.251E-02    0.03       1.0  T
  31   -207.9993569 -0.292083E-04  0.642E-03    0.03       1.5  T
  32   -207.9993572 -0.290561E-06  0.616E-03    0.03       1.6  T
  33   -207.9993501  0.711767E-05  0.912E-03    0.03       1.1  T
  34   -207.9993597 -0.968966E-05  0.486E-03    0.03       2.0  T
  35   -207.9993614 -0.162580E-05  0.196E-03    0.03       5.0  T
  36   -207.9993618 -0.433512E-06  0.150E-03    0.03       6.6  T
  37   -207.9993620 -0.221398E-06  0.541E-04    0.03      18.2  T
  38   -207.9993619  0.137950E-06  0.167E-03    0.03       5.9  T
  39   -207.9993619 -0.267802E-07  0.988E-04    0.03      10.0  T
     SCC iter.                  ...        0 min,  1.107 sec
     gradient                   ...        0 min,  0.058 sec
 * total energy  :  -204.4034027 Eh     change       -0.1811659E-01 Eh
   gradient norm :     0.3076058 Eh/α   predicted    -0.2855469E-01 (  57.62%)
   displ. norm   :     0.4925905 α      lambda       -0.2425297E-01
   maximum displ.:     0.1454428 α      in ANC's #46, #52, #31, ...

........................................................................
.............................. CYCLE   25 ..............................
........................................................................

 iter      E             dE          RMSdq      gap      omega  full diag
   1   -207.9346617 -0.207935E+03  0.134E+00    0.18       0.0  T
   2   -200.8473196  0.708734E+01  0.852E+00    0.06       1.0  T
   3   -207.9005916 -0.705327E+01  0.128E+00    0.17       1.0  T
   4   -207.8712905  0.293011E-01  0.112E+00    0.45       1.0  T
   5   -207.8812354 -0.994490E-02  0.160E+00    0.09       1.0  T
   6   -207.9571437 -0.759083E-01  0.833E-01    0.15       1.0  T
   7   -207.9435859  0.135577E-01  0.799E-01    0.18       1.0  T
   8   -207.9600312 -0.164453E-01  0.699E-01    0.15       1.0  T
   9   -207.9892728 -0.292415E-01  0.467E-01    0.08       1.0  T
  10   -207.9856860  0.358675E-02  0.474E-01    0.10       1.0  T
  11   -207.9965867 -0.109007E-01  0.373E-01    0.07       1.0  T
  12   -207.9970522 -0.465499E-03  0.306E-01    0.08       1.0  T
  13   -207.9953713  0.168093E-02  0.317E-01    0.09       1.0  T
  14   -207.9125199  0.828514E-01  0.927E-01    0.01       1.0  T
  15   -207.9447245 -0.322046E-01  0.816E-01    0.02       1.0  T
  16   -207.7770760  0.167649E+00  0.145E+00    0.02       1.0  T
  17   -207.7896054 -0.125294E-01  0.142E+00    0.02       1.0  T
  18   -207.4404590  0.349146E+00  0.219E+00    0.08       1.0  T
  19   -207.5526220 -0.112163E+00  0.202E+00    0.07       1.0  T
  20   -207.4745194  0.781026E-01  0.218E+00    0.08       1.0  T
  21   -207.6072075 -0.132688E+00  0.190E+00    0.06       1.0  T
  22   -207.7724980 -0.165290E+00  0.145E+00    0.03       1.0  T
  23   -207.8848351 -0.112337E+00  0.995E-01    0.00       1.0  T
  24   -207.9430519 -0.582168E-01  0.664E-01    0.02       1.0  T
  25   -208.0067931 -0.637412E-01  0.128E-01    0.06       1.0  T
  26   -207.9968667  0.992640E-02  0.234E-01    0.05       1.0  T
  27   -208.0066559 -0.978924E-02  0.788E-02    0.05       1.0  T
  28   -208.0048009  0.185497E-02  0.118E-01    0.06       1.0  T
  29   -208.0057777 -0.976735E-03  0.922E-02    0.06       1.0  T
  30   -208.0069615 -0.118384E-02  0.447E-02    0.06       1.0  T
  31   -208.0070159 -0.543376E-04  0.362E-02    0.06       1.0  T
  32   -208.0070667 -0.508615E-04  0.219E-02    0.06       1.0  T
  33   -208.0070343  0.324195E-04  0.230E-02    0.06       1.0  T
  34   -208.0070070  0.272701E-04  0.241E-02    0.06       1.0  T
  35   -208.0069816  0.254724E-04  0.246E-02    0.06       1.0  T
  36   -208.0070398 -0.582831E-04  0.166E-02    0.06       1.0  T
  37   -208.0070621 -0.222611E-04  0.121E-02    0.06       1.0  T
  38   -208.0070717 -0.960449E-05  0.895E-03    0.06       1.1  T
  39   -208.0070789 -0.720512E-05  0.537E-03    0.06       1.8  T
  40   -208.0070800 -0.113088E-05  0.435E-03    0.06       2.3  T
  41   -208.0070825 -0.246483E-05  0.246E-03    0.06       4.0  T
  42   -208.0070825  0.835769E-09  0.245E-03    0.06       4.0  T
  43   -208.0070829 -0.429849E-06  0.155E-03    0.06       6.4  T
  44   -208.0070831 -0.144320E-06  0.105E-03    0.06       9.4  T
  45   -208.0070832 -0.854798E-07  0.498E-04    0.06      19.8  T
  46   -208.0070832 -0.306515E-07  0.734E-05    0.06     134.2  T
     SCC iter.                  ...        0 min,  1.329 sec
     gradient                   ...        0 min,  0.089 sec
 * total energy  :  -204.4184091 Eh     change       -0.1500640E-01 Eh
   gradient norm :     0.1098845 Eh/α   predicted    -0.1506893E-01 (   0.42%)
   displ. norm   :     0.4040298 α      lambda       -0.1275905E-01
   maximum displ.:     0.1458011 α      in ANC's #52, #26, #76, ...

........................................................................
.............................. CYCLE   26 ..............................
........................................................................

 iter      E             dE          RMSdq      gap      omega  full diag
   1   -208.0562178 -0.208056E+03  0.627E-01    0.07       0.0  T
   2   -206.9412353  0.111498E+01  0.343E+00    0.09       1.0  T
   3   -208.0278102 -0.108657E+01  0.104E+00    0.14       1.0  T
   4   -208.0254842  0.232597E-02  0.789E-01    0.16       1.0  T
   5   -207.8545911  0.170893E+00  0.136E+00    0.02       1.0  T
   6   -208.0584637 -0.203873E+00  0.396E-01    0.05       1.0  T
   7   -208.0482843  0.101794E-01  0.594E-01    0.12       1.0  T
   8   -208.0483583 -0.740246E-04  0.587E-01    0.12       1.0  T
   9   -208.0537956 -0.543734E-02  0.494E-01    0.11       1.0  T
  10   -208.0683973 -0.146016E-01  0.181E-01    0.07       1.0  T
  11   -208.0683801  0.171956E-04  0.176E-01    0.06       1.0  T
  12   -208.0691597 -0.779642E-03  0.155E-01    0.06       1.0  T
  13   -208.0690114  0.148279E-03  0.157E-01    0.06       1.0  T
  14   -208.0697429 -0.731458E-03  0.123E-01    0.06       1.0  T
  15   -208.0617646  0.797829E-02  0.267E-01    0.06       1.0  T
  16   -208.0697978 -0.803322E-02  0.138E-01    0.06       1.0  T
  17   -208.0501864  0.196114E-01  0.418E-01    0.05       1.0  T
  18   -208.0673720 -0.171856E-01  0.183E-01    0.06       1.0  T
  19   -208.0703563 -0.298423E-02  0.683E-02    0.06       1.0  T
  20   -208.0705527 -0.196444E-03  0.315E-02    0.06       1.0  T
  21   -208.0705846 -0.318810E-04  0.283E-02    0.07       1.0  T
  22   -208.0706186 -0.339545E-04  0.248E-02    0.06       1.0  T
  23   -208.0706996 -0.810224E-04  0.120E-02    0.06       1.0  T
  24   -208.0706238  0.757305E-04  0.249E-02    0.06       1.0  T
  25   -208.0706503 -0.264825E-04  0.215E-02    0.06       1.0  T
  26   -208.0706745 -0.241265E-04  0.147E-02    0.06       1.0  T
  27   -208.0707040 -0.295534E-04  0.345E-03    0.06       2.9  T
  28   -208.0707052 -0.124120E-05  0.121E-03    0.06       8.2  T
  29   -208.0707049  0.325672E-06  0.190E-03    0.06       5.2  T
  30   -208.0707054 -0.461919E-06  0.994E-04    0.06       9.9  T
  31   -208.0707054 -0.167086E-07  0.476E-04    0.06      20.7  T
     SCC iter.                  ...        0 min,  1.043 sec
     gradient                   ...        0 min,  0.059 sec
 * total energy  :  -204.4261686 Eh     change       -0.7759546E-02 Eh
   gradient norm :     0.0768077 Eh/α   predicted    -0.7420924E-02 (  -4.36%)
   displ. norm   :     0.5137672 α      lambda       -0.9815301E-02
   maximum displ.:     0.2117401 α      in ANC's #19, #26, #1, ...

........................................................................
.............................. CYCLE   27 ..............................
........................................................................

 iter      E             dE          RMSdq      gap      omega  full diag
   1   -208.0847154 -0.208085E+03  0.977E-01    0.11       0.0  T
   2   -205.5222274  0.256249E+01  0.551E+00    0.01       1.0  T
   3   -208.0421095 -0.251988E+01  0.993E-01    0.29       1.0  T
   4   -208.0555419 -0.134325E-01  0.813E-01    0.20       1.0  T
   5   -208.0653131 -0.977114E-02  0.858E-01    0.11       1.0  T
   6   -208.0603521  0.496101E-02  0.721E-01    0.27       1.0  T
   7   -208.0759483 -0.155962E-01  0.626E-01    0.19       1.0  T
   8   -208.0818782 -0.592994E-02  0.541E-01    0.15       1.0  T
   9   -208.0927494 -0.108712E-01  0.470E-01    0.14       1.0  T
  10   -208.0946872 -0.193782E-02  0.420E-01    0.14       1.0  T
  11   -208.1019196 -0.723236E-02  0.308E-01    0.11       1.0  T
  12   -208.1019120  0.758732E-05  0.308E-01    0.11       1.0  T
  13   -208.1049006 -0.298865E-02  0.204E-01    0.09       1.0  T
  14   -208.1048444  0.562308E-04  0.234E-01    0.10       1.0  T
  15   -208.1044329  0.411478E-03  0.254E-01    0.06       1.0  T
  16   -208.1071447 -0.271180E-02  0.899E-02    0.08       1.0  T
  17   -208.1078894 -0.744669E-03  0.526E-02    0.08       1.0  T
  18   -208.1080498 -0.160377E-03  0.186E-02    0.08       1.0  T
  19   -208.1078137  0.236095E-03  0.722E-02    0.08       1.0  T
  20   -208.1079161 -0.102399E-03  0.504E-02    0.08       1.0  T
  21   -208.1079803 -0.642220E-04  0.385E-02    0.08       1.0  T
  22   -208.1080553 -0.749451E-04  0.103E-02    0.08       1.0  T
  23   -208.1080603 -0.505884E-05  0.902E-03    0.08       1.1  T
  24   -208.1080631 -0.282443E-05  0.679E-03    0.08       1.5  T
  25   -208.1080633 -0.185352E-06  0.689E-03    0.08       1.4  T
  26   -208.1080652 -0.187982E-05  0.263E-03    0.08       3.8  T
  27   -208.1080642  0.102150E-05  0.559E-03    0.08       1.8  T
  28   -208.1080658 -0.161762E-05  0.780E-04    0.08      12.6  T
  29   -208.1080658 -0.323915E-07  0.499E-04    0.08      19.8  T
  30   -208.1080658 -0.278513E-08  0.531E-04    0.08      18.6  T
     SCC iter.                  ...        0 min,  0.824 sec
     gradient                   ...        0 min,  0.065 sec
 * total energy  :  -204.4300153 Eh     change       -0.3846740E-02 Eh
   gradient norm :     0.0652472 Eh/α   predicted    -0.6203080E-02 (  61.26%)
   displ. norm   :     0.4292830 α      lambda       -0.8111396E-02
   maximum displ.:     0.1816124 α      in ANC's #18, #1, #26, ...

........................................................................
.............................. CYCLE   28 ..............................
........................................................................

 iter      E             dE          RMSdq      gap      omega  full diag
   1   -208.0736757 -0.208074E+03  0.740E-01    0.20       0.0  T
   2   -202.9182543  0.515542E+01  0.754E+00    0.11       1.0  T
   3   -208.0682329 -0.514998E+01  0.640E-01    0.20       1.0  T
   4   -208.0533730  0.148599E-01  0.663E-01    0.30       1.0  T
   5   -208.0765122 -0.231392E-01  0.568E-01    0.15       1.0  T
   6   -208.0761277  0.384568E-03  0.469E-01    0.17       1.0  T
   7   -208.0779916 -0.186399E-02  0.442E-01    0.17       1.0  T
   8   -208.0888997 -0.109081E-01  0.288E-01    0.12       1.0  T
   9   -208.0890467 -0.146962E-03  0.283E-01    0.12       1.0  T
  10   -208.0907112 -0.166455E-02  0.245E-01    0.11       1.0  T
  11   -208.0929063 -0.219510E-02  0.197E-01    0.11       1.0  T
  12   -208.0417799  0.511264E-01  0.892E-01    0.03       1.0  T
  13   -207.4999808  0.541799E+00  0.260E+00    0.12       1.0  T
  14   -207.5186098 -0.186290E-01  0.257E+00    0.11       1.0  T
  15   -207.5484103 -0.298006E-01  0.249E+00    0.10       1.0  T
  16   -207.5600623 -0.116520E-01  0.246E+00    0.10       1.0  T
  17   -207.5864044 -0.263421E-01  0.240E+00    0.09       1.0  T
  18   -207.7064283 -0.120024E+00  0.212E+00    0.06       1.0  T
  19   -207.9468677 -0.240439E+00  0.135E+00    0.01       1.0  T
  20   -207.5863995  0.360468E+00  0.236E+00    0.09       1.0  T
  21   -207.6515066 -0.651071E-01  0.221E+00    0.08       1.0  T
  22   -207.9297710 -0.278264E+00  0.140E+00    0.01       1.0  T
  23   -207.7247189  0.205052E+00  0.198E+00    0.06       1.0  T
  24   -208.0949992 -0.370280E+00  0.171E-01    0.07       1.0  T
  25   -208.0962759 -0.127670E-02  0.149E-01    0.09       1.0  T
  26   -208.0959407  0.335154E-03  0.152E-01    0.09       1.0  T
  27   -208.0962781 -0.337364E-03  0.150E-01    0.09       1.0  T
  28   -208.0966747 -0.396625E-03  0.135E-01    0.09       1.0  T
  29   -208.0959082  0.766532E-03  0.145E-01    0.09       1.0  T
  30   -208.0963940 -0.485757E-03  0.124E-01    0.09       1.0  T
  31   -208.0969078 -0.513878E-03  0.936E-02    0.09       1.0  T
  32   -208.0974337 -0.525859E-03  0.524E-02    0.09       1.0  T
  33   -208.0974141  0.195801E-04  0.511E-02    0.09       1.0  T
  34   -208.0974786 -0.644437E-04  0.405E-02    0.09       1.0  T
  35   -208.0975530 -0.744251E-04  0.274E-02    0.09       1.0  T
  36   -208.0975659 -0.129182E-04  0.241E-02    0.09       1.0  T
  37   -208.0975942 -0.282603E-04  0.176E-02    0.09       1.0  T
  38   -208.0976199 -0.257290E-04  0.729E-03    0.09       1.4  T
  39   -208.0976239 -0.405469E-05  0.317E-03    0.09       3.1  T
  40   -208.0976248 -0.882293E-06  0.180E-03    0.09       5.5  T
  41   -208.0976249 -0.756813E-07  0.199E-03    0.09       4.9  T
  42   -208.0976249 -0.139799E-07  0.178E-03    0.09       5.5  T
  43   -208.0976250 -0.866033E-07  0.112E-03    0.09       8.8  T
  44   -208.0976250  0.340879E-07  0.115E-03    0.09       8.5  T
  45   -208.0976249  0.530600E-07  0.130E-03    0.09       7.6  T
  46   -208.0976249 -0.343094E-07  0.112E-03    0.09       8.8  T
  47   -208.0976249  0.132391E-07  0.106E-03    0.09       9.3  T
  48   -208.0976250 -0.850714E-07  0.511E-04    0.09      19.3  T
  49   -208.0976250 -0.111393E-07  0.366E-04    0.09      26.9  T
     SCC iter.                  ...        0 min,  1.408 sec
     gradient                   ...        0 min,  0.061 sec
 * total energy  :  -204.4338195 Eh     change       -0.3804188E-02 Eh
   gradient norm :     0.0381986 Eh/α   predicted    -0.4803138E-02 (  26.26%)
   displ. norm   :     0.4389095 α      lambda       -0.6615036E-02
   maximum displ.:     0.2082396 α      in ANC's #26, #1, #52, ...

........................................................................
.............................. CYCLE   29 ..............................
........................................................................

 iter      E             dE          RMSdq      gap      omega  full diag
   1   -207.9889726 -0.207989E+03  0.117E+00    0.01       0.0  T
   2   -207.8481409  0.140832E+00  0.196E+00    0.60       1.0  T
   3   -208.0253846 -0.177244E+00  0.998E-01    0.13       1.0  T
   4   -208.0214022  0.398239E-02  0.938E-01    0.27       1.0  T
   5   -208.0653018 -0.438996E-01  0.387E-01    0.08       1.0  T
   6   -208.0417494  0.235524E-01  0.747E-01    0.24       1.0  T
   7   -208.0644711 -0.227217E-01  0.449E-01    0.12       1.0  T
   8   -207.7548228  0.309648E+00  0.166E+00    0.04       1.0  T
   9   -208.0661332 -0.311310E+00  0.398E-01    0.12       1.0  T
  10   -208.0730007 -0.686756E-02  0.147E-01    0.09       1.0  T
  11   -208.0711319  0.186880E-02  0.165E-01    0.08       1.0  T
  12   -208.0693568  0.177511E-02  0.290E-01    0.10       1.0  T
  13   -208.0687280  0.628814E-03  0.256E-01    0.07       1.0  T
  14   -208.0744308 -0.570283E-02  0.994E-02    0.08       1.0  T
  15   -208.0642351  0.101958E-01  0.332E-01    0.06       1.0  T
  16   -208.0701007 -0.586561E-02  0.225E-01    0.07       1.0  T
  17   -208.0749605 -0.485980E-02  0.538E-02    0.09       1.0  T
  18   -208.0751111 -0.150562E-03  0.164E-02    0.08       1.0  T
  19   -208.0750712  0.398904E-04  0.313E-02    0.08       1.0  T
  20   -208.0751019 -0.307251E-04  0.158E-02    0.08       1.0  T
  21   -208.0750924  0.944120E-05  0.256E-02    0.09       1.0  T
  22   -208.0751309 -0.384552E-04  0.119E-02    0.08       1.0  T
  23   -208.0751336 -0.272148E-05  0.975E-03    0.08       1.0  T
  24   -208.0751338 -0.172874E-06  0.787E-03    0.08       1.3  T
  25   -208.0751360 -0.224045E-05  0.609E-03    0.08       1.6  T
  26   -208.0751387 -0.269213E-05  0.302E-03    0.08       3.3  T
  27   -208.0751386  0.146223E-06  0.255E-03    0.08       3.9  T
  28   -208.0751389 -0.300620E-06  0.225E-03    0.08       4.4  T
  29   -208.0751391 -0.225171E-06  0.201E-03    0.08       4.9  T
  30   -208.0751394 -0.287566E-06  0.536E-04    0.08      18.4  T
  31   -208.0751394 -0.375570E-08  0.298E-04    0.08      33.1  T
     SCC iter.                  ...        0 min,  0.997 sec
     gradient                   ...        0 min,  0.064 sec
 * total energy  :  -204.4356762 Eh     change       -0.1856645E-02 Eh
   gradient norm :     0.0736435 Eh/α   predicted    -0.3944687E-02 ( 112.46%)
   displ. norm   :     0.3469299 α      lambda       -0.6741946E-02
   maximum displ.:     0.1571633 α      in ANC's #26, #52, #35, ...

........................................................................
.............................. CYCLE   30 ..............................
........................................................................

 iter      E             dE          RMSdq      gap      omega  full diag
   1   -208.1060618 -0.208106E+03  0.407E-01    0.10       0.0  T
   2   -207.4264343  0.679627E+00  0.318E+00    0.11       1.0  T
   3   -208.0961131 -0.669679E+00  0.489E-01    0.10       1.0  T
   4   -208.0326346  0.634784E-01  0.111E+00    0.03       1.0  T
   5   -207.8506838  0.181951E+00  0.188E+00    0.06       1.0  T
   6   -207.9388616 -0.881778E-01  0.151E+00    0.03       1.0  T
   7   -208.0718170 -0.132955E+00  0.631E-01    0.03       1.0  T
   8   -208.1077447 -0.359277E-01  0.274E-01    0.11       1.0  T
   9   -208.1076291  0.115593E-03  0.265E-01    0.11       1.0  T
  10   -208.1103970 -0.276797E-02  0.178E-01    0.10       1.0  T
  11   -208.0974217  0.129754E-01  0.352E-01    0.06       1.0  T
  12   -208.1100119 -0.125903E-01  0.133E-01    0.08       1.0  T
  13   -208.1108997 -0.887769E-03  0.150E-01    0.10       1.0  T
  14   -208.1120338 -0.113408E-02  0.929E-02    0.10       1.0  T
  15   -208.1112894  0.744388E-03  0.133E-01    0.10       1.0  T
  16   -208.1124789 -0.118950E-02  0.210E-02    0.09       1.0  T
  17   -208.1124075  0.713521E-04  0.451E-02    0.09       1.0  T
  18   -208.1123470  0.605670E-04  0.530E-02    0.08       1.0  T
  19   -208.1124497 -0.102701E-03  0.321E-02    0.09       1.0  T
  20   -208.1124662 -0.165015E-04  0.231E-02    0.09       1.0  T
  21   -208.1124868 -0.205793E-04  0.152E-02    0.09       1.0  T
  22   -208.1124996 -0.128289E-04  0.856E-03    0.09       1.2  T
  23   -208.1125004 -0.793039E-06  0.763E-03    0.09       1.3  T
  24   -208.1125076 -0.717112E-05  0.242E-03    0.09       4.1  T
  25   -208.1125075  0.282086E-07  0.257E-03    0.09       3.8  T
  26   -208.1125079 -0.405116E-06  0.498E-04    0.09      19.8  T
  27   -208.1125078  0.939378E-07  0.111E-03    0.09       8.8  T
  28   -208.1125079 -0.579775E-07  0.716E-04    0.09      13.8  T
     SCC iter.                  ...        0 min,  0.831 sec
     gradient                   ...        0 min,  0.063 sec
 * total energy  :  -204.4389864 Eh     change       -0.3310229E-02 Eh
   gradient norm :     0.0374923 Eh/α   predicted    -0.3776706E-02 (  14.09%)
   displ. norm   :     0.4140975 α      lambda       -0.4486840E-02
   maximum displ.:     0.2060345 α      in ANC's #26, #19, #46, ...

........................................................................
.............................. CYCLE   31 ..............................
........................................................................

 iter      E             dE          RMSdq      gap      omega  full diag
   1   -208.1047967 -0.208105E+03  0.562E-01    0.12       0.0  T
   2   -206.5944450  0.151035E+01  0.458E+00    0.02       1.0  T
   3   -208.0823472 -0.148790E+01  0.655E-01    0.21       1.0  T
   4   -208.0898913 -0.754412E-02  0.606E-01    0.15       1.0  T
   5   -208.0770677  0.128236E-01  0.620E-01    0.21       1.0  T
   6   -208.0976944 -0.206267E-01  0.432E-01    0.18       1.0  T
   7   -208.0978724 -0.178011E-03  0.360E-01    0.13       1.0  T
   8   -208.1009677 -0.309527E-02  0.365E-01    0.16       1.0  T
   9   -208.1068762 -0.590852E-02  0.204E-01    0.11       1.0  T
  10   -208.1082071 -0.133088E-02  0.193E-01    0.13       1.0  T
  11   -208.1100288 -0.182167E-02  0.117E-01    0.11       1.0  T
  12   -208.1100497 -0.208793E-04  0.116E-01    0.11       1.0  T
  13   -208.1101146 -0.649759E-04  0.111E-01    0.11       1.0  T
  14   -208.1105229 -0.408241E-03  0.536E-02    0.10       1.0  T
  15   -208.1107379 -0.215042E-03  0.477E-02    0.10       1.0  T
  16   -208.1107430 -0.506068E-05  0.466E-02    0.10       1.0  T
  17   -208.1108780 -0.135040E-03  0.206E-02    0.10       1.0  T
  18   -208.1109114 -0.334215E-04  0.203E-02    0.10       1.0  T
  19   -208.1109129 -0.149086E-05  0.139E-02    0.10       1.0  T
  20   -208.1109203 -0.741887E-05  0.707E-03    0.10       1.4  T
  21   -208.1109247 -0.435012E-05  0.459E-03    0.10       2.1  T
  22   -208.1109252 -0.553904E-06  0.204E-03    0.10       4.8  T
  23   -208.1109255 -0.203305E-06  0.222E-03    0.10       4.4  T
  24   -208.1109258 -0.300757E-06  0.811E-04    0.10      12.2  T
  25   -208.1109257  0.221020E-07  0.788E-04    0.10      12.5  T
     SCC iter.                  ...        0 min,  0.654 sec
     gradient                   ...        0 min,  0.056 sec
 * total energy  :  -204.4413460 Eh     change       -0.2359551E-02 Eh
   gradient norm :     0.0462753 Eh/α   predicted    -0.2628117E-02 (  11.38%)
   displ. norm   :     0.4219076 α      lambda       -0.2977739E-02
   maximum displ.:     0.2194775 α      in ANC's #26, #46, #52, ...

........................................................................
.............................. CYCLE   32 ..............................
........................................................................

 iter      E             dE          RMSdq      gap      omega  full diag
   1   -208.1042551 -0.208104E+03  0.469E-01    0.14       0.0  T
   2   -205.7932382  0.231102E+01  0.598E+00    0.06       1.0  T
   3   -208.0984287 -0.230519E+01  0.471E-01    0.09       1.0  T
   4   -208.1011947 -0.276600E-02  0.341E-01    0.08       1.0  T
   5   -208.1025338 -0.133913E-02  0.258E-01    0.09       1.0  T
   6   -208.1016237  0.910126E-03  0.287E-01    0.10       1.0  T
   7   -208.1099998 -0.837615E-02  0.191E-01    0.12       1.0  T
   8   -208.1101424 -0.142559E-03  0.200E-01    0.13       1.0  T
   9   -208.1095824  0.559952E-03  0.206E-01    0.14       1.0  T
  10   -208.1106753 -0.109292E-02  0.157E-01    0.13       1.0  T
  11   -208.1121014 -0.142610E-02  0.117E-01    0.11       1.0  T
  12   -208.1124265 -0.325099E-03  0.891E-02    0.11       1.0  T
  13   -208.1125112 -0.846517E-04  0.495E-02    0.11       1.0  T
  14   -208.1124086  0.102592E-03  0.376E-02    0.11       1.0  T
  15   -208.1125655 -0.156878E-03  0.304E-02    0.11       1.0  T
  16   -208.1125511  0.143485E-04  0.261E-02    0.11       1.0  T
  17   -208.1125697 -0.186226E-04  0.152E-02    0.11       1.0  T
  18   -208.1125877 -0.179595E-04  0.769E-03    0.11       1.3  T
  19   -208.1125871  0.654692E-06  0.833E-03    0.11       1.2  T
  20   -208.1125906 -0.359495E-05  0.427E-03    0.11       2.3  T
  21   -208.1125917 -0.110123E-05  0.127E-03    0.11       7.8  T
  22   -208.1125917  0.169649E-07  0.115E-03    0.11       8.6  T
  23   -208.1125919 -0.126735E-06  0.521E-04    0.11      18.9  T
  24   -208.1125918  0.852297E-07  0.107E-03    0.11       9.2  T
  25   -208.1125918 -0.513176E-07  0.593E-04    0.11      16.6  T
     SCC iter.                  ...        0 min,  0.652 sec
     gradient                   ...        0 min,  0.060 sec
 * total energy  :  -204.4433021 Eh     change       -0.1956185E-02 Eh
   gradient norm :     0.0231731 Eh/α   predicted    -0.1753899E-02 ( -10.34%)
   displ. norm   :     0.5152000 α      lambda       -0.2655471E-02
   maximum displ.:     0.2378192 α      in ANC's #26, #18, #46, ...

........................................................................
.............................. CYCLE   33 ..............................
........................................................................

 iter      E             dE          RMSdq      gap      omega  full diag
   1   -208.0979857 -0.208098E+03  0.606E-01    0.06       0.0  T
   2   -208.0552085  0.427772E-01  0.947E-01    0.32       1.0  T
   3   -207.6796593  0.375549E+00  0.241E+00    0.09       1.0  T
   4   -208.0951355 -0.415476E+00  0.582E-01    0.17       1.0  T
   5   -208.0837254  0.114101E-01  0.504E-01    0.10       1.0  T
   6   -208.1060375 -0.223121E-01  0.227E-01    0.10       1.0  T
   7   -208.1037479  0.228958E-02  0.251E-01    0.10       1.0  T
   8   -208.1006397  0.310825E-02  0.426E-01    0.19       1.0  T
   9   -208.1064168 -0.577705E-02  0.303E-01    0.14       1.0  T
  10   -208.0970028  0.941398E-02  0.340E-01    0.06       1.0  T
  11   -208.1091965 -0.121938E-01  0.248E-01    0.14       1.0  T
  12   -208.1111664 -0.196991E-02  0.147E-01    0.11       1.0  T
  13   -208.1117128 -0.546384E-03  0.955E-02    0.10       1.0  T
  14   -208.1121303 -0.417502E-03  0.615E-02    0.11       1.0  T
  15   -208.1123314 -0.201100E-03  0.419E-02    0.11       1.0  T
  16   -208.1123378 -0.634826E-05  0.370E-02    0.11       1.0  T
  17   -208.1123874 -0.495731E-04  0.158E-02    0.11       1.0  T
  18   -208.1124151 -0.277102E-04  0.134E-02    0.11       1.0  T
  19   -208.1124134  0.164648E-05  0.916E-03    0.11       1.1  T
  20   -208.1124254 -0.119912E-04  0.489E-03    0.11       2.0  T
  21   -208.1124165  0.890739E-05  0.924E-03    0.11       1.1  T
  22   -208.1124263 -0.975110E-05  0.169E-03    0.11       5.8  T
  23   -208.1124262  0.532523E-08  0.188E-03    0.11       5.3  T
  24   -208.1124264 -0.152936E-06  0.888E-04    0.11      11.1  T
  25   -208.1124264 -0.280770E-07  0.813E-04    0.11      12.1  T
     SCC iter.                  ...        0 min,  0.737 sec
     gradient                   ...        0 min,  0.065 sec
 * total energy  :  -204.4449130 Eh     change       -0.1610836E-02 Eh
   gradient norm :     0.0317514 Eh/α   predicted    -0.1680165E-02 (   4.30%)
   displ. norm   :     0.4077936 α      lambda       -0.2026777E-02
   maximum displ.:     0.1863059 α      in ANC's #26, #31, #13, ...

........................................................................
.............................. CYCLE   34 ..............................
........................................................................

 iter      E             dE          RMSdq      gap      omega  full diag
   1   -208.1288972 -0.208129E+03  0.343E-01    0.09       0.0  T
   2   -208.0909995  0.378977E-01  0.726E-01    0.26       1.0  T
   3   -207.8362908  0.254709E+00  0.207E+00    0.06       1.0  T
   4   -208.0992175 -0.262927E+00  0.613E-01    0.07       1.0  T
   5   -208.0562915  0.429260E-01  0.796E-01    0.03       1.0  T
   6   -208.1259437 -0.696522E-01  0.243E-01    0.13       1.0  T
   7   -208.1261428 -0.199107E-03  0.271E-01    0.16       1.0  T
   8   -208.1287662 -0.262335E-02  0.199E-01    0.14       1.0  T
   9   -208.1304934 -0.172721E-02  0.124E-01    0.11       1.0  T
  10   -208.1268082  0.368512E-02  0.176E-01    0.08       1.0  T
  11   -208.1304278 -0.361955E-02  0.934E-02    0.10       1.0  T
  12   -208.1308817 -0.453865E-03  0.652E-02    0.10       1.0  T
  13   -208.1310893 -0.207665E-03  0.839E-02    0.11       1.0  T
  14   -208.1311220 -0.326331E-04  0.752E-02    0.11       1.0  T
  15   -208.1312917 -0.169709E-03  0.509E-02    0.11       1.0  T
  16   -208.1313211 -0.293744E-04  0.435E-02    0.11       1.0  T
  17   -208.1313944 -0.733228E-04  0.269E-02    0.11       1.0  T
  18   -208.1314107 -0.163659E-04  0.190E-02    0.11       1.0  T
  19   -208.1314273 -0.165234E-04  0.818E-03    0.11       1.2  T
  20   -208.1314312 -0.394140E-05  0.214E-03    0.11       4.6  T
  21   -208.1314314 -0.191327E-06  0.210E-03    0.11       4.7  T
  22   -208.1314314 -0.496735E-07  0.144E-03    0.11       6.8  T
  23   -208.1314313  0.102669E-06  0.156E-03    0.11       6.3  T
  24   -208.1314316 -0.297617E-06  0.826E-04    0.11      11.9  T
  25   -208.1314316  0.247159E-07  0.105E-03    0.11       9.4  T
  26   -208.1314317 -0.738258E-07  0.127E-04    0.11      77.3  T
     SCC iter.                  ...        0 min,  0.827 sec
     gradient                   ...        0 min,  0.059 sec
 * total energy  :  -204.4459603 Eh     change       -0.1047315E-02 Eh
   gradient norm :     0.0250204 Eh/α   predicted    -0.1181915E-02 (  12.85%)
   displ. norm   :     0.3299976 α      lambda       -0.1328595E-02
   maximum displ.:     0.1281226 α      in ANC's #26, #31, #8, ...

........................................................................
.............................. CYCLE   35 ..............................
........................................................................

 iter      E             dE          RMSdq      gap      omega  full diag
   1   -208.1435070 -0.208144E+03  0.301E-01    0.11       0.0  T
   2   -207.6782749  0.465232E+00  0.264E+00    0.10       1.0  T
   3   -208.1327659 -0.454491E+00  0.400E-01    0.19       1.0  T
   4   -207.3968535  0.735912E+00  0.250E+00    0.06       1.0  T
   5   -208.1262759 -0.729422E+00  0.357E-01    0.09       1.0  T
   6   -208.1368117 -0.105358E-01  0.315E-01    0.15       1.0  T
   7   -208.1390317 -0.221997E-02  0.259E-01    0.15       1.0  T
   8   -208.1403415 -0.130981E-02  0.245E-01    0.16       1.0  T
   9   -208.1419424 -0.160093E-02  0.202E-01    0.15       1.0  T
  10   -208.1437193 -0.177684E-02  0.145E-01    0.14       1.0  T
  11   -208.1443719 -0.652621E-03  0.117E-01    0.12       1.0  T
  12   -208.1447705 -0.398636E-03  0.858E-02    0.12       1.0  T
  13   -208.1444581  0.312449E-03  0.665E-02    0.10       1.0  T
  14   -208.1435073  0.950760E-03  0.961E-02    0.09       1.0  T
  15   -208.1441923 -0.685000E-03  0.722E-02    0.10       1.0  T
  16   -208.1448386 -0.646231E-03  0.416E-02    0.10       1.0  T
  17   -208.1448280  0.105266E-04  0.412E-02    0.10       1.0  T
  18   -208.1451020 -0.274017E-03  0.188E-02    0.11       1.0  T
  19   -208.1451276 -0.255226E-04  0.133E-02    0.11       1.0  T
  20   -208.1451567 -0.291512E-04  0.603E-03    0.11       1.6  T
  21   -208.1451594 -0.263815E-05  0.568E-03    0.11       1.7  T
  22   -208.1451626 -0.320033E-05  0.268E-03    0.11       3.7  T
  23   -208.1451627 -0.119094E-06  0.240E-03    0.11       4.1  T
  24   -208.1451629 -0.226913E-06  0.153E-03    0.11       6.4  T
  25   -208.1451630 -0.115000E-06  0.421E-04    0.11      23.4  T
  26   -208.1451630 -0.484769E-08  0.162E-04    0.11      61.0  T
     SCC iter.                  ...        0 min,  0.705 sec
     gradient                   ...        0 min,  0.060 sec
 * total energy  :  -204.4467493 Eh     change       -0.7890167E-03 Eh
   gradient norm :     0.0302033 Eh/α   predicted    -0.7366410E-03 (  -6.64%)
   displ. norm   :     0.3192487 α      lambda       -0.1158006E-02
   maximum displ.:     0.1000085 α      in ANC's #8, #13, #26, ...

........................................................................
.............................. CYCLE   36 ..............................
........................................................................

 iter      E             dE          RMSdq      gap      omega  full diag
   1   -208.1358853 -0.208136E+03  0.289E-01    0.12       0.0  T
   2   -207.7427054  0.393180E+00  0.242E+00    0.07       1.0  T
   3   -208.1218733 -0.379168E+00  0.481E-01    0.20       1.0  T
   4   -207.9392398  0.182634E+00  0.131E+00    0.02       1.0  T
   5   -208.1274388 -0.188199E+00  0.375E-01    0.16       1.0  T
   6   -208.1327517 -0.531296E-02  0.260E-01    0.15       1.0  T
   7   -208.1288323  0.391940E-02  0.335E-01    0.19       1.0  T
   8   -208.1335347 -0.470235E-02  0.244E-01    0.15       1.0  T
   9   -208.1354314 -0.189669E-02  0.179E-01    0.13       1.0  T
  10   -208.1366292 -0.119786E-02  0.746E-02    0.10       1.0  T
  11   -208.1367088 -0.795846E-04  0.659E-02    0.10       1.0  T
  12   -208.1369096 -0.200823E-03  0.574E-02    0.11       1.0  T
  13   -208.1372261 -0.316502E-03  0.388E-02    0.11       1.0  T
  14   -208.1371786  0.475583E-04  0.385E-02    0.11       1.0  T
  15   -208.1373464 -0.167859E-03  0.228E-02    0.11       1.0  T
  16   -208.1373257  0.207643E-04  0.243E-02    0.12       1.0  T
  17   -208.1373615 -0.358419E-04  0.111E-02    0.11       1.0  T
  18   -208.1373679 -0.640294E-05  0.563E-03    0.11       1.7  T
  19   -208.1373711 -0.319715E-05  0.261E-03    0.11       3.8  T
  20   -208.1373701  0.994775E-06  0.506E-03    0.11       1.9  T
  21   -208.1373712 -0.105363E-05  0.345E-03    0.11       2.9  T
  22   -208.1373718 -0.602263E-06  0.118E-03    0.11       8.3  T
  23   -208.1373718 -0.290052E-07  0.652E-04    0.11      15.1  T
  24   -208.1373718 -0.168496E-07  0.382E-04    0.11      25.8  T
     SCC iter.                  ...        0 min,  0.678 sec
     gradient                   ...        0 min,  0.059 sec
 * total energy  :  -204.4473623 Eh     change       -0.6130068E-03 Eh
   gradient norm :     0.0269959 Eh/α   predicted    -0.6380165E-03 (   4.08%)
   displ. norm   :     0.2825407 α      lambda       -0.8312354E-03
   maximum displ.:     0.0995697 α      in ANC's #8, #26, #13, ...

........................................................................
.............................. CYCLE   37 ..............................
........................................................................

 iter      E             dE          RMSdq      gap      omega  full diag
   1   -208.1399045 -0.208140E+03  0.202E-01    0.11       0.0  T
   2   -208.1234294  0.164751E-01  0.464E-01    0.23       1.0  T
   3   -207.9817327  0.141697E+00  0.148E+00    0.01       1.0  T
   4   -208.1341669 -0.152434E+00  0.247E-01    0.12       1.0  T
   5   -208.1326597  0.150723E-02  0.195E-01    0.08       1.0  T
   6   -208.1374851 -0.482541E-02  0.166E-01    0.14       1.0  T
   7   -208.1367184  0.766669E-03  0.217E-01    0.15       1.0  T
   8   -208.1376276 -0.909165E-03  0.191E-01    0.15       1.0  T
   9   -208.1396364 -0.200882E-02  0.112E-01    0.12       1.0  T
  10   -208.1400870 -0.450600E-03  0.629E-02    0.12       1.0  T
  11   -208.1404010 -0.314030E-03  0.245E-02    0.11       1.0  T
  12   -208.1404359 -0.348358E-04  0.905E-03    0.11       1.1  T
  13   -208.1404412 -0.535301E-05  0.586E-03    0.11       1.7  T
  14   -208.1404348  0.646705E-05  0.988E-03    0.11       1.0  T
  15   -208.1404371 -0.235619E-05  0.772E-03    0.11       1.3  T
  16   -208.1404417 -0.457740E-05  0.442E-03    0.11       2.2  T
  17   -208.1404414  0.324897E-06  0.413E-03    0.11       2.4  T
  18   -208.1404430 -0.166643E-05  0.853E-04    0.11      11.5  T
  19   -208.1404428  0.181124E-06  0.185E-03    0.11       5.3  T
  20   -208.1404430 -0.168179E-06  0.114E-03    0.11       8.7  T
  21   -208.1404431 -0.809749E-07  0.322E-04    0.11      30.6  T
  22   -208.1404431 -0.342240E-08  0.193E-04    0.11      50.9  T
     SCC iter.                  ...        0 min,  0.658 sec
     gradient                   ...        0 min,  0.066 sec
 * total energy  :  -204.4479802 Eh     change       -0.6178337E-03 Eh
   gradient norm :     0.0196245 Eh/α   predicted    -0.4487995E-03 ( -27.36%)
   displ. norm   :     0.4376036 α      lambda       -0.1199241E-02
   maximum displ.:     0.1693554 α      in ANC's #8, #13, #14, ...

........................................................................
.............................. CYCLE   38 ..............................
........................................................................

 iter      E             dE          RMSdq      gap      omega  full diag
   1   -208.1538171 -0.208154E+03  0.339E-01    0.10       0.0  T
   2   -208.1117710  0.420460E-01  0.764E-01    0.23       1.0  T
   3   -208.1318659 -0.200948E-01  0.590E-01    0.08       1.0  T
   4   -208.1479166 -0.160507E-01  0.344E-01    0.14       1.0  T
   5   -208.1518494 -0.393287E-02  0.300E-01    0.11       1.0  T
   6   -208.1517832  0.661965E-04  0.288E-01    0.18       1.0  T
   7   -208.1533259 -0.154266E-02  0.171E-01    0.10       1.0  T
   8   -208.1550055 -0.167962E-02  0.201E-01    0.14       1.0  T
   9   -208.1562846 -0.127909E-02  0.140E-01    0.13       1.0  T
  10   -208.1559262  0.358377E-03  0.119E-01    0.09       1.0  T
  11   -208.1571611 -0.123482E-02  0.576E-02    0.11       1.0  T
  12   -208.1574403 -0.279259E-03  0.273E-02    0.11       1.0  T
  13   -208.1575071 -0.668128E-04  0.192E-02    0.11       1.0  T
  14   -208.1575052  0.195248E-05  0.136E-02    0.12       1.0  T
  15   -208.1575131 -0.789159E-05  0.131E-02    0.11       1.0  T
  16   -208.1575184 -0.537876E-05  0.104E-02    0.12       1.0  T
  17   -208.1575021  0.163008E-04  0.149E-02    0.12       1.0  T
  18   -208.1575234 -0.212601E-04  0.285E-03    0.11       3.5  T
  19   -208.1575231  0.259938E-06  0.250E-03    0.11       3.9  T
  20   -208.1575238 -0.609238E-06  0.148E-03    0.11       6.7  T
  21   -208.1575238 -0.505964E-07  0.791E-04    0.11      12.4  T
  22   -208.1575238 -0.375800E-07  0.366E-04    0.11      26.9  T
     SCC iter.                  ...        0 min,  0.711 sec
     gradient                   ...        0 min,  0.062 sec
 * total energy  :  -204.4484828 Eh     change       -0.5026668E-03 Eh
   gradient norm :     0.0290829 Eh/α   predicted    -0.7144498E-03 (  42.13%)
   displ. norm   :     0.3605891 α      lambda       -0.1007226E-02
   maximum displ.:     0.1415190 α      in ANC's #8, #26, #13, ...

........................................................................
.............................. CYCLE   39 ..............................
........................................................................

 iter      E             dE          RMSdq      gap      omega  full diag
   1   -208.1430239 -0.208143E+03  0.290E-01    0.12       0.0  T
   2   -207.8511065  0.291917E+00  0.206E+00    0.06       1.0  T
   3   -208.1291607 -0.278054E+00  0.423E-01    0.21       1.0  T
   4   -207.6093781  0.519783E+00  0.206E+00    0.03       1.0  T
   5   -208.1315791 -0.522201E+00  0.301E-01    0.11       1.0  T
   6   -208.1390546 -0.747550E-02  0.238E-01    0.13       1.0  T
   7   -208.1386683  0.386313E-03  0.263E-01    0.17       1.0  T
   8   -208.1405438 -0.187553E-02  0.224E-01    0.16       1.0  T
   9   -208.1414903 -0.946489E-03  0.196E-01    0.15       1.0  T
  10   -208.1425117 -0.102138E-02  0.159E-01    0.15       1.0  T
  11   -208.1432834 -0.771734E-03  0.122E-01    0.14       1.0  T
  12   -208.1438193 -0.535935E-03  0.876E-02    0.13       1.0  T
  13   -208.1441195 -0.300171E-03  0.519E-02    0.12       1.0  T
  14   -208.1442033 -0.837562E-04  0.288E-02    0.12       1.0  T
  15   -208.1442465 -0.432223E-04  0.169E-02    0.12       1.0  T
  16   -208.1442748 -0.283357E-04  0.123E-02    0.12       1.0  T
  17   -208.1442829 -0.804649E-05  0.787E-03    0.12       1.3  T
  18   -208.1442881 -0.524758E-05  0.362E-03    0.12       2.7  T
  19   -208.1442868  0.129695E-05  0.575E-03    0.12       1.7  T
  20   -208.1442874 -0.547520E-06  0.508E-03    0.12       1.9  T
  21   -208.1442879 -0.524106E-06  0.330E-03    0.12       3.0  T
  22   -208.1442885 -0.630519E-06  0.242E-03    0.12       4.1  T
  23   -208.1442888 -0.246315E-06  0.188E-03    0.12       5.2  T
  24   -208.1442888 -0.537337E-07  0.157E-03    0.12       6.3  T
  25   -208.1442889 -0.123905E-06  0.841E-04    0.12      11.7  T
  26   -208.1442890 -0.251152E-07  0.352E-04    0.12      28.0  T
     SCC iter.                  ...        0 min,  0.622 sec
     gradient                   ...        0 min,  0.064 sec
 * total energy  :  -204.4490331 Eh     change       -0.5503110E-03 Eh
   gradient norm :     0.0173128 Eh/α   predicted    -0.5691005E-03 (   3.41%)
   displ. norm   :     0.2875404 α      lambda       -0.6077203E-03
   maximum displ.:     0.1291925 α      in ANC's #8, #13, #14, ...

........................................................................
.............................. CYCLE   40 ..............................
........................................................................

 iter      E             dE          RMSdq      gap      omega  full diag
   1   -208.1387196 -0.208139E+03  0.278E-01    0.16       0.0  T
   2   -206.3409566  0.179776E+01  0.566E+00    0.09       1.0  T
   3   -208.1355309 -0.179457E+01  0.277E-01    0.14       1.0  T
   4   -208.0618214  0.737095E-01  0.823E-01    0.04       1.0  T
   5   -208.1397207 -0.778993E-01  0.163E-01    0.16       1.0  T
   6   -208.1379111  0.180956E-02  0.183E-01    0.11       1.0  T
   7   -208.1406914 -0.278024E-02  0.128E-01    0.15       1.0  T
   8   -208.1401862  0.505185E-03  0.145E-01    0.16       1.0  T
   9   -208.1411302 -0.944039E-03  0.100E-01    0.15       1.0  T
  10   -208.1416023 -0.472087E-03  0.795E-02    0.14       1.0  T
  11   -208.1418018 -0.199522E-03  0.665E-02    0.13       1.0  T
  12   -208.1418528 -0.509546E-04  0.603E-02    0.13       1.0  T
  13   -208.1419407 -0.879003E-04  0.453E-02    0.13       1.0  T
  14   -208.1420645 -0.123800E-03  0.287E-02    0.13       1.0  T
  15   -208.1420954 -0.309400E-04  0.193E-02    0.12       1.0  T
  16   -208.1421079 -0.125176E-04  0.130E-02    0.12       1.0  T
  17   -208.1421137 -0.575576E-05  0.886E-03    0.12       1.1  T
  18   -208.1421162 -0.246611E-05  0.577E-03    0.12       1.7  T
  19   -208.1421164 -0.278644E-06  0.405E-03    0.12       2.4  T
  20   -208.1421167 -0.308379E-06  0.266E-03    0.12       3.7  T
  21   -208.1421171 -0.312467E-06  0.156E-03    0.12       6.3  T
  22   -208.1421173 -0.193312E-06  0.579E-04    0.12      17.0  T
  23   -208.1421172  0.224519E-07  0.568E-04    0.12      17.4  T
     SCC iter.                  ...        0 min,  0.645 sec
     gradient                   ...        0 min,  0.063 sec
 * total energy  :  -204.4495280 Eh     change       -0.4948259E-03 Eh
   gradient norm :     0.0149740 Eh/α   predicted    -0.3289861E-03 ( -33.51%)
   displ. norm   :     0.5751192 α      lambda       -0.1475375E-02
   maximum displ.:     0.2743243 α      in ANC's #8, #13, #1, ...

........................................................................
.............................. CYCLE   41 ..............................
........................................................................

 iter      E             dE          RMSdq      gap      omega  full diag
   1   -208.1349681 -0.208135E+03  0.485E-01    0.12       0.0  T
   2   -206.4975541  0.163741E+01  0.549E+00    0.08       1.0  T
   3   -208.1123964 -0.161484E+01  0.656E-01    0.19       1.0  T
   4   -208.1270919 -0.146955E-01  0.470E-01    0.15       1.0  T
   5   -208.0381216  0.889703E-01  0.855E-01    0.03       1.0  T
   6   -208.1348275 -0.967059E-01  0.346E-01    0.21       1.0  T
   7   -208.1378262 -0.299865E-02  0.247E-01    0.19       1.0  T
   8   -208.1374111  0.415093E-03  0.262E-01    0.21       1.0  T
   9   -208.1386336 -0.122248E-02  0.218E-01    0.20       1.0  T
  10   -208.1399939 -0.136037E-02  0.177E-01    0.18       1.0  T
  11   -208.1410400 -0.104611E-02  0.141E-01    0.17       1.0  T
  12   -208.1413014 -0.261367E-03  0.125E-01    0.16       1.0  T
  13   -208.1422771 -0.975679E-03  0.689E-02    0.14       1.0  T
  14   -208.1424511 -0.173979E-03  0.476E-02    0.14       1.0  T
  15   -208.1425208 -0.697169E-04  0.288E-02    0.13       1.0  T
  16   -208.1425627 -0.419130E-04  0.211E-02    0.13       1.0  T
  17   -208.1425798 -0.171249E-04  0.165E-02    0.13       1.0  T
  18   -208.1425907 -0.109233E-04  0.966E-03    0.13       1.0  T
  19   -208.1425918 -0.102667E-05  0.616E-03    0.13       1.6  T
  20   -208.1425904  0.134647E-05  0.526E-03    0.13       1.9  T
  21   -208.1425927 -0.227263E-05  0.423E-03    0.13       2.3  T
  22   -208.1425932 -0.533719E-06  0.245E-03    0.13       4.0  T
  23   -208.1425934 -0.178075E-06  0.170E-03    0.13       5.8  T
  24   -208.1425934 -0.257050E-07  0.148E-03    0.13       6.7  T
  25   -208.1425935 -0.730800E-07  0.944E-04    0.13      10.4  T
  26   -208.1425935 -0.136804E-07  0.704E-04    0.13      14.0  T
     SCC iter.                  ...        0 min,  0.708 sec
     gradient                   ...        0 min,  0.057 sec
 * total energy  :  -204.4506588 Eh     change       -0.1130803E-02 Eh
   gradient norm :     0.0255839 Eh/α   predicted    -0.9816903E-03 ( -13.19%)
   displ. norm   :     0.6943140 α      lambda       -0.1745822E-02
   maximum displ.:     0.3235038 α      in ANC's #8, #1, #13, ...

........................................................................
.............................. CYCLE   42 ..............................
........................................................................

 iter      E             dE          RMSdq      gap      omega  full diag
   1   -208.1251230 -0.208125E+03  0.831E-01    0.06       0.0  T
   2   -207.2285020  0.896621E+00  0.346E+00    0.07       1.0  T
   3   -208.0531112 -0.824609E+00  0.118E+00    0.53       1.0  T
   4   -208.1075736 -0.544625E-01  0.674E-01    0.11       1.0  T
   5   -208.1332373 -0.256637E-01  0.527E-01    0.13       1.0  T
   6   -208.1489414 -0.157041E-01  0.338E-01    0.14       1.0  T
   7   -208.1470360  0.190541E-02  0.245E-01    0.10       1.0  T
   8   -208.1481686 -0.113264E-02  0.362E-01    0.21       1.0  T
   9   -208.1503219 -0.215327E-02  0.287E-01    0.18       1.0  T
  10   -208.1537398 -0.341786E-02  0.165E-01    0.17       1.0  T
  11   -208.1544774 -0.737615E-03  0.107E-01    0.12       1.0  T
  12   -208.1550400 -0.562650E-03  0.830E-02    0.15       1.0  T
  13   -208.1547136  0.326370E-03  0.882E-02    0.12       1.0  T
  14   -208.1552103 -0.496625E-03  0.490E-02    0.13       1.0  T
  15   -208.1552226 -0.123242E-04  0.397E-02    0.12       1.0  T
  16   -208.1553277 -0.105128E-03  0.299E-02    0.14       1.0  T
  17   -208.1553932 -0.654763E-04  0.126E-02    0.14       1.0  T
  18   -208.1553783  0.149189E-04  0.177E-02    0.14       1.0  T
  19   -208.1554096 -0.313101E-04  0.669E-03    0.13       1.5  T
  20   -208.1554097 -0.827694E-07  0.675E-03    0.13       1.5  T
  21   -208.1554119 -0.225253E-05  0.227E-03    0.13       4.3  T
  22   -208.1554112  0.762889E-06  0.365E-03    0.13       2.7  T
  23   -208.1554122 -0.991241E-06  0.128E-03    0.13       7.7  T
  24   -208.1554121  0.221575E-07  0.180E-03    0.13       5.5  T
  25   -208.1554122 -0.580768E-07  0.121E-03    0.13       8.1  T
  26   -208.1554122 -0.285040E-07  0.673E-04    0.13      14.6  T
  27   -208.1554123 -0.387703E-07  0.459E-04    0.13      21.5  T
     SCC iter.                  ...        0 min,  0.725 sec
     gradient                   ...        0 min,  0.059 sec
 * total energy  :  -204.4522048 Eh     change       -0.1546025E-02 Eh
   gradient norm :     0.0313152 Eh/α   predicted    -0.1293721E-02 ( -16.32%)
   displ. norm   :     0.6797157 α      lambda       -0.2606630E-02
   maximum displ.:     0.3009488 α      in ANC's #8, #1, #13, ...
 * RMSD in coord.:     0.6567212 α      energy gain  -0.1852237E+00 Eh

generating ANC from exact Hessian ...
Using Lindh-Hessian (1995)
 Shifting diagonal of input Hessian by   1.458543085187866E-002
 Lowest  eigenvalues of input Hessian
    0.010000    0.014148    0.014238    0.014294    0.014575    0.000000
    0.000000    0.000000    0.000000    0.000000    0.000000    0.014597
    0.014598    0.014649    0.014736    0.014776    0.014948    0.014980
 Highest eigenvalues
    2.311151    2.345729    2.401000    2.553624    6.231565    7.457540
 

........................................................................
.............................. CYCLE   43 ..............................
........................................................................

 iter      E             dE          RMSdq      gap      omega  full diag
   1   -208.1391083 -0.208139E+03  0.911E-01    0.05       0.0  T
   2   -207.7377544  0.401354E+00  0.226E+00    0.03       1.0  T
   3   -208.0932677 -0.355513E+00  0.113E+00    0.57       1.0  T
   4   -208.0958842 -0.261650E-02  0.863E-01    0.11       1.0  T
   5   -208.1601436 -0.642594E-01  0.606E-01    0.27       1.0  T
   6   -208.1725724 -0.124288E-01  0.286E-01    0.13       1.0  T
   7   -208.1675270  0.504545E-02  0.441E-01    0.23       1.0  T
   8   -208.1717765 -0.424946E-02  0.342E-01    0.20       1.0  T
   9   -208.1735574 -0.178091E-02  0.269E-01    0.18       1.0  T
  10   -208.1700260  0.353140E-02  0.316E-01    0.08       1.0  T
  11   -208.1759114 -0.588545E-02  0.177E-01    0.18       1.0  T
  12   -208.1772541 -0.134264E-02  0.920E-02    0.15       1.0  T
  13   -208.1775682 -0.314128E-03  0.760E-02    0.12       1.0  T
  14   -208.1759966  0.157163E-02  0.164E-01    0.10       1.0  T
  15   -208.1777843 -0.178773E-02  0.209E-02    0.13       1.0  T
  16   -208.1776802  0.104095E-03  0.480E-02    0.14       1.0  T
  17   -208.1778329 -0.152693E-03  0.113E-02    0.13       1.0  T
  18   -208.1777549  0.780231E-04  0.388E-02    0.13       1.0  T
  19   -208.1777437  0.111581E-04  0.377E-02    0.14       1.0  T
  20   -208.1778380 -0.942952E-04  0.698E-03    0.13       1.4  T
  21   -208.1778310  0.702809E-05  0.118E-02    0.12       1.0  T
  22   -208.1778389 -0.787986E-05  0.573E-03    0.13       1.7  T
  23   -208.1778406 -0.172088E-05  0.259E-03    0.13       3.8  T
  24   -208.1778405  0.953438E-07  0.307E-03    0.13       3.2  T
  25   -208.1778403  0.134498E-06  0.332E-03    0.13       3.0  T
  26   -208.1778411 -0.722043E-06  0.590E-04    0.13      16.7  T
  27   -208.1778411 -0.162387E-07  0.264E-04    0.13      37.4  T
     SCC iter.                  ...        0 min,  0.849 sec
     gradient                   ...        0 min,  0.059 sec
 * total energy  :  -204.4541957 Eh     change       -0.1990919E-02 Eh
   gradient norm :     0.0425720 Eh/α   predicted     0.0000000E+00 (-100.00%)
   displ. norm   :     0.2910951 α      lambda       -0.4345685E-02
   maximum displ.:     0.0998685 α      in ANC's #32, #26, #63, ...

........................................................................
.............................. CYCLE   44 ..............................
........................................................................

 iter      E             dE          RMSdq      gap      omega  full diag
   1   -208.1733749 -0.208173E+03  0.460E-01    0.12       0.0  T
   2   -207.8613553  0.312020E+00  0.199E+00    0.02       1.0  T
   3   -208.1495503 -0.288195E+00  0.699E-01    0.35       1.0  T
   4   -208.1697626 -0.202123E-01  0.320E-01    0.16       1.0  T
   5   -208.1746129 -0.485035E-02  0.356E-01    0.17       1.0  T
   6   -208.1782356 -0.362268E-02  0.240E-01    0.19       1.0  T
   7   -208.1806957 -0.246005E-02  0.142E-01    0.15       1.0  T
   8   -208.1789396  0.175609E-02  0.196E-01    0.19       1.0  T
   9   -208.1808815 -0.194195E-02  0.947E-02    0.11       1.0  T
  10   -208.1821748 -0.129325E-02  0.357E-02    0.12       1.0  T
  11   -208.1822265 -0.517199E-04  0.294E-02    0.13       1.0  T
  12   -208.1819852  0.241288E-03  0.615E-02    0.14       1.0  T
  13   -208.1822247 -0.239440E-03  0.225E-02    0.13       1.0  T
  14   -208.1822657 -0.410190E-04  0.923E-03    0.12       1.1  T
  15   -208.1822725 -0.680919E-05  0.490E-03    0.13       2.0  T
  16   -208.1822731 -0.618158E-06  0.357E-03    0.13       2.8  T
  17   -208.1822737 -0.629675E-06  0.134E-03    0.13       7.3  T
  18   -208.1822728  0.918701E-06  0.328E-03    0.13       3.0  T
  19   -208.1822738 -0.950563E-06  0.901E-04    0.13      10.9  T
  20   -208.1822739 -0.744052E-07  0.295E-04    0.13      33.5  T
     SCC iter.                  ...        0 min,  0.611 sec
     gradient                   ...        0 min,  0.061 sec
 * total energy  :  -204.4568288 Eh     change       -0.2633078E-02 Eh
   gradient norm :     0.0459201 Eh/α   predicted    -0.2358272E-02 ( -10.44%)
   displ. norm   :     0.5317542 α      lambda       -0.6002221E-02
   maximum displ.:     0.2278169 α      in ANC's #26, #14, #63, ...

........................................................................
.............................. CYCLE   45 ..............................
........................................................................

 iter      E             dE          RMSdq      gap      omega  full diag
   1   -208.1670099 -0.208167E+03  0.497E-01    0.12       0.0  T
   2   -208.1497370  0.172729E-01  0.561E-01    0.22       1.0  T
   3   -207.7819679  0.367769E+00  0.236E+00    0.05       1.0  T
   4   -208.1144832 -0.332515E+00  0.757E-01    0.14       1.0  T
   5   -208.1667115 -0.522283E-01  0.283E-01    0.19       1.0  T
   6   -208.1637637  0.294783E-02  0.324E-01    0.18       1.0  T
   7   -208.1670237 -0.326000E-02  0.229E-01    0.19       1.0  T
   8   -208.1681195 -0.109581E-02  0.207E-01    0.18       1.0  T
   9   -208.1681956 -0.760895E-04  0.163E-01    0.18       1.0  T
  10   -208.1705535 -0.235796E-02  0.484E-02    0.14       1.0  T
  11   -208.1705904 -0.369122E-04  0.386E-02    0.13       1.0  T
  12   -208.1706501 -0.596454E-04  0.220E-02    0.13       1.0  T
  13   -208.1706749 -0.247664E-04  0.125E-02    0.13       1.0  T
  14   -208.1706894 -0.145694E-04  0.856E-03    0.13       1.2  T
  15   -208.1706916 -0.217729E-05  0.765E-03    0.13       1.3  T
  16   -208.1706954 -0.377648E-05  0.312E-03    0.13       3.2  T
  17   -208.1706956 -0.211273E-06  0.204E-03    0.13       4.8  T
  18   -208.1706954  0.233231E-06  0.240E-03    0.13       4.1  T
  19   -208.1706958 -0.419236E-06  0.773E-04    0.13      12.7  T
  20   -208.1706957  0.736752E-07  0.992E-04    0.13       9.9  T
     SCC iter.                  ...        0 min,  0.737 sec
     gradient                   ...        0 min,  0.063 sec
 * total energy  :  -204.4607543 Eh     change       -0.3925550E-02 Eh
   gradient norm :     0.0484260 Eh/α   predicted    -0.3849833E-02 (  -1.93%)
   displ. norm   :     0.6932603 α      lambda       -0.7405646E-02
   maximum displ.:     0.2924186 α      in ANC's #26, #1, #19, ...

........................................................................
.............................. CYCLE   46 ..............................
........................................................................

 iter      E             dE          RMSdq      gap      omega  full diag
   1   -208.1650252 -0.208165E+03  0.736E-01    0.09       0.0  T
   2   -208.1398082  0.252171E-01  0.838E-01    0.20       1.0  T
   3   -208.1663867 -0.265785E-01  0.389E-01    0.18       1.0  T
   4   -207.4728680  0.693519E+00  0.312E+00    0.11       1.0  T
   5   -208.1699592 -0.697091E+00  0.352E-01    0.16       1.0  T
   6   -208.1727656 -0.280638E-02  0.206E-01    0.14       1.0  T
   7   -208.1613894  0.113762E-01  0.421E-01    0.06       1.0  T
   8   -208.1775895 -0.162001E-01  0.754E-02    0.12       1.0  T
   9   -208.1762595  0.133000E-02  0.153E-01    0.16       1.0  T
  10   -208.1765302 -0.270748E-03  0.141E-01    0.16       1.0  T
  11   -208.1768228 -0.292616E-03  0.127E-01    0.16       1.0  T
  12   -208.1774019 -0.579065E-03  0.978E-02    0.15       1.0  T
  13   -208.1776633 -0.261440E-03  0.762E-02    0.14       1.0  T
  14   -208.1778949 -0.231579E-03  0.510E-02    0.14       1.0  T
  15   -208.1780063 -0.111423E-03  0.299E-02    0.13       1.0  T
  16   -208.1780626 -0.563196E-04  0.113E-02    0.13       1.0  T
  17   -208.1780645 -0.188806E-05  0.762E-03    0.13       1.3  T
  18   -208.1780684 -0.387376E-05  0.342E-03    0.13       2.9  T
  19   -208.1780688 -0.399113E-06  0.176E-03    0.13       5.6  T
  20   -208.1780691 -0.304087E-06  0.582E-04    0.13      16.9  T
  21   -208.1780691  0.555593E-08  0.676E-04    0.13      14.6  T
     SCC iter.                  ...        0 min,  0.810 sec
     gradient                   ...        0 min,  0.104 sec
 * total energy  :  -204.4672361 Eh     change       -0.6481789E-02 Eh
   gradient norm :     0.0670720 Eh/α   predicted    -0.5482444E-02 ( -15.42%)
   displ. norm   :     0.8202352 α      lambda       -0.1217921E-01
   maximum displ.:     0.3653032 α      in ANC's #26, #19, #54, ...

........................................................................
.............................. CYCLE   47 ..............................
........................................................................

 iter      E             dE          RMSdq      gap      omega  full diag
   1   -208.1643563 -0.208164E+03  0.146E+00    0.07       0.0  T
   2   -208.1250652  0.392911E-01  0.125E+00    0.17       1.0  T
   3   -208.1391129 -0.140477E-01  0.110E+00    0.28       1.0  T
   4   -207.7752504  0.363862E+00  0.238E+00    0.04       1.0  T
   5   -208.1967598 -0.421509E+00  0.478E-01    0.24       1.0  T
   6   -208.1971733 -0.413583E-03  0.303E-01    0.17       1.0  T
   7   -208.1451718  0.520015E-01  0.738E-01    0.04       1.0  T
   8   -208.1948957 -0.497239E-01  0.298E-01    0.09       1.0  T
   9   -208.2049685 -0.100728E-01  0.157E-01    0.12       1.0  T
  10   -208.2045311  0.437392E-03  0.193E-01    0.18       1.0  T
  11   -208.2064086 -0.187742E-02  0.125E-01    0.15       1.0  T
  12   -208.2068617 -0.453150E-03  0.826E-02    0.14       1.0  T
  13   -208.2072272 -0.365473E-03  0.485E-02    0.13       1.0  T
  14   -208.2072519 -0.247400E-04  0.408E-02    0.13       1.0  T
  15   -208.2073484 -0.964975E-04  0.166E-02    0.12       1.0  T
  16   -208.2073784 -0.299953E-04  0.582E-03    0.13       1.7  T
  17   -208.2073737  0.470346E-05  0.809E-03    0.13       1.2  T
  18   -208.2073781 -0.435474E-05  0.517E-03    0.13       1.9  T
  19   -208.2073774  0.675599E-06  0.573E-03    0.12       1.7  T
  20   -208.2073796 -0.217943E-05  0.206E-03    0.13       4.8  T
  21   -208.2073797 -0.100986E-06  0.161E-03    0.13       6.1  T
  22   -208.2073796  0.406644E-07  0.178E-03    0.13       5.5  T
  23   -208.2073798 -0.209376E-06  0.891E-04    0.13      11.1  T
  24   -208.2073799 -0.760080E-07  0.309E-04    0.13      31.9  T
     SCC iter.                  ...        0 min,  1.484 sec
     gradient                   ...        0 min,  0.066 sec
 * total energy  :  -204.4815363 Eh     change       -0.1430016E-01 Eh
   gradient norm :     0.1074075 Eh/α   predicted    -0.1018661E-01 ( -28.77%)
   displ. norm   :     0.7711815 α      lambda       -0.2750754E-01
   maximum displ.:     0.4151502 α      in ANC's #1, #26, #54, ...

........................................................................
.............................. CYCLE   48 ..............................
........................................................................

 iter      E             dE          RMSdq      gap      omega  full diag
   1   -207.5051770 -0.207505E+03  0.468E+00    0.10       0.0  T
   2   -200.6231030  0.688207E+01  0.543E+00    0.10       1.0  T
   3   -151.9071569  0.487159E+02  0.139E+01    0.10       1.0  T
   4   -205.5889805 -0.536818E+02  0.480E+00    0.07       1.0  T
   5   -207.5797852 -0.199080E+01  0.384E+00    0.06       1.0  T
   6   -206.1405874  0.143920E+01  0.455E+00    0.09       1.0  T
   7   -207.3921104 -0.125152E+01  0.334E+00    0.17       1.0  T
   8   -208.2532236 -0.861113E+00  0.157E+00    0.13       1.0  T
   9   -208.2828626 -0.296390E-01  0.125E+00    0.25       1.0  T
  10   -208.2864609 -0.359828E-02  0.105E+00    0.20       1.0  T
  11   -208.2816994  0.476148E-02  0.825E-01    0.22       1.0  T
  12   -208.2638625  0.178369E-01  0.722E-01    0.15       1.0  T
  13   -208.2919936 -0.281311E-01  0.474E-01    0.23       1.0  T
  14   -208.2932203 -0.122672E-02  0.381E-01    0.19       1.0  T
  15   -208.2983426 -0.512224E-02  0.323E-01    0.21       1.0  T
  16   -208.2990395 -0.696905E-03  0.290E-01    0.23       1.0  T
  17   -208.3056919 -0.665240E-02  0.178E-01    0.16       1.0  T
  18   -208.3054534  0.238510E-03  0.170E-01    0.18       1.0  T
  19   -208.2990211  0.643231E-02  0.336E-01    0.08       1.0  T
  20   -208.3070853 -0.806421E-02  0.154E-01    0.11       1.0  T
  21   -208.3048201  0.226514E-02  0.215E-01    0.10       1.0  T
  22   -208.3069705 -0.215035E-02  0.162E-01    0.10       1.0  T
  23   -208.3081461 -0.117565E-02  0.775E-02    0.11       1.0  T
  24   -208.3072199  0.926230E-03  0.134E-01    0.10       1.0  T
  25   -208.3078534 -0.633527E-03  0.891E-02    0.10       1.0  T
  26   -208.3085803 -0.726841E-03  0.317E-02    0.12       1.0  T
  27   -208.3085981 -0.178159E-04  0.315E-02    0.12       1.0  T
  28   -208.3085830  0.150653E-04  0.339E-02    0.12       1.0  T
  29   -208.3084543  0.128669E-03  0.476E-02    0.13       1.0  T
  30   -208.3085086 -0.542856E-04  0.333E-02    0.13       1.0  T
  31   -208.3085994 -0.907229E-04  0.156E-02    0.12       1.0  T
  32   -208.3086286 -0.292597E-04  0.941E-03    0.12       1.0  T
  33   -208.3086217  0.690889E-05  0.212E-02    0.12       1.0  T
  34   -208.3086200  0.175311E-05  0.206E-02    0.12       1.0  T
  35   -208.3086292 -0.921347E-05  0.145E-02    0.12       1.0  T
  36   -208.3086359 -0.671010E-05  0.857E-03    0.12       1.1  T
  37   -208.3086360 -0.163966E-06  0.730E-03    0.12       1.3  T
  38   -208.3086394 -0.338457E-05  0.193E-03    0.12       5.1  T
  39   -208.3086396 -0.218340E-06  0.430E-04    0.12      22.9  T
  40   -208.3086396 -0.390054E-08  0.326E-04    0.12      30.2  T
     SCC iter.                  ...        0 min,  1.745 sec
     gradient                   ...        0 min,  0.062 sec
 * total energy  :  -204.5116857 Eh     change       -0.3014943E-01 Eh
   gradient norm :     0.1566368 Eh/α   predicted    -0.2193344E-01 ( -27.25%)
   displ. norm   :     0.8147015 α      lambda       -0.4081827E-01
   maximum displ.:     0.3417635 α      in ANC's #54, #26, #1, ...

........................................................................
.............................. CYCLE   49 ..............................
........................................................................

 iter      E             dE          RMSdq      gap      omega  full diag
   1   -207.5697312 -0.207570E+03  0.423E+00    0.09       0.0  T
   2   -199.9322758  0.763746E+01  0.556E+00    0.09       1.0  T
   3   -166.2097986  0.337225E+02  0.126E+01    0.00       1.0  T
   4   -207.8093392 -0.415995E+02  0.302E+00    0.02       1.0  T
   5   -207.2780382  0.531301E+00  0.469E+00    0.01       1.0  T
   6   -208.3538152 -0.107578E+01  0.188E+00    0.19       1.0  T
   7   -208.3756134 -0.217982E-01  0.147E+00    0.21       1.0  T
   8   -208.3635358  0.120777E-01  0.140E+00    0.39       1.0  T
   9   -208.3996238 -0.360880E-01  0.957E-01    0.21       1.0  T
  10   -208.4036134 -0.398957E-02  0.717E-01    0.27       1.0  T
  11   -208.4145886 -0.109752E-01  0.305E-01    0.19       1.0  T
  12   -208.4174290 -0.284040E-02  0.245E-01    0.20       1.0  T
  13   -208.4208257 -0.339673E-02  0.265E-01    0.10       1.0  T
  14   -208.4243347 -0.350892E-02  0.159E-01    0.12       1.0  T
  15   -208.3779827  0.463519E-01  0.764E-01    0.04       1.0  T
  16   -208.4204267 -0.424439E-01  0.272E-01    0.19       1.0  T
  17   -208.4189227  0.150397E-02  0.246E-01    0.08       1.0  T
  18   -208.4247590 -0.583635E-02  0.121E-01    0.14       1.0  T
  19   -208.4257505 -0.991484E-03  0.725E-02    0.10       1.0  T
  20   -208.4246210  0.112952E-02  0.138E-01    0.09       1.0  T
  21   -208.4239502  0.670796E-03  0.146E-01    0.09       1.0  T
  22   -208.4256578 -0.170763E-02  0.507E-02    0.10       1.0  T
  23   -208.4257963 -0.138508E-03  0.363E-02    0.10       1.0  T
  24   -208.4258900 -0.936353E-04  0.300E-02    0.11       1.0  T
  25   -208.4259663 -0.763333E-04  0.197E-02    0.11       1.0  T
  26   -208.4260071 -0.408184E-04  0.188E-02    0.11       1.0  T
  27   -208.4259548  0.523520E-04  0.320E-02    0.12       1.0  T
  28   -208.4259138  0.409849E-04  0.359E-02    0.12       1.0  T
  29   -208.4259739 -0.601181E-04  0.220E-02    0.12       1.0  T
  30   -208.4259991 -0.252303E-04  0.136E-02    0.11       1.0  T
  31   -208.4260091 -0.996105E-05  0.894E-03    0.11       1.1  T
  32   -208.4260153 -0.616754E-05  0.475E-03    0.11       2.1  T
  33   -208.4260178 -0.248078E-05  0.234E-03    0.11       4.2  T
  34   -208.4260175  0.221489E-06  0.296E-03    0.11       3.3  T
  35   -208.4260176 -0.281617E-07  0.221E-03    0.11       4.5  T
  36   -208.4260177 -0.126987E-06  0.169E-03    0.11       5.8  T
  37   -208.4260179 -0.203731E-06  0.598E-04    0.11      16.5  T
  38   -208.4260179 -0.311509E-07  0.221E-04    0.11      44.7  T
     SCC iter.                  ...        0 min,  1.325 sec
     gradient                   ...        0 min,  0.059 sec
 * total energy  :  -204.5196809 Eh     change       -0.7995150E-02 Eh
   gradient norm :     0.3694331 Eh/α   predicted    -0.3395550E-01 ( 324.70%)
   displ. norm   :     0.5298077 α      lambda       -0.7288761E-01
   maximum displ.:     0.2719630 α      in ANC's #1, #35, #37, ...

........................................................................
.............................. CYCLE   50 ..............................
........................................................................

 iter      E             dE          RMSdq      gap      omega  full diag
   1   -208.4500183 -0.208450E+03  0.104E+00    0.09       0.0  T
   2   -207.9673146  0.482704E+00  0.358E+00    0.10       1.0  T
   3   -208.4029275 -0.435613E+00  0.101E+00    0.27       1.0  T
   4   -207.6940595  0.708868E+00  0.337E+00    0.10       1.0  T
   5   -208.4229546 -0.728895E+00  0.777E-01    0.11       1.0  T
   6   -208.4491409 -0.261863E-01  0.560E-01    0.12       1.0  T
   7   -208.4508691 -0.172818E-02  0.587E-01    0.21       1.0  T
   8   -208.4556429 -0.477384E-02  0.504E-01    0.21       1.0  T
   9   -208.4528266  0.281636E-02  0.523E-01    0.24       1.0  T
  10   -208.4574413 -0.461469E-02  0.353E-01    0.18       1.0  T
  11   -208.4607265 -0.328523E-02  0.304E-01    0.19       1.0  T
  12   -208.4650336 -0.430713E-02  0.202E-01    0.14       1.0  T
  13   -208.4666384 -0.160477E-02  0.143E-01    0.13       1.0  T
  14   -208.4669004 -0.262064E-03  0.104E-01    0.11       1.0  T
  15   -208.4668489  0.515283E-04  0.688E-02    0.10       1.0  T
  16   -208.4672746 -0.425636E-03  0.437E-02    0.10       1.0  T
  17   -208.4669563  0.318244E-03  0.649E-02    0.10       1.0  T
  18   -208.4672273 -0.270994E-03  0.571E-02    0.12       1.0  T
  19   -208.4674563 -0.228996E-03  0.187E-02    0.11       1.0  T
  20   -208.4673662  0.900896E-04  0.312E-02    0.12       1.0  T
  21   -208.4674621 -0.959298E-04  0.997E-03    0.11       1.0  T
  22   -208.4674504  0.117508E-04  0.144E-02    0.11       1.0  T
  23   -208.4674602 -0.978574E-05  0.868E-03    0.11       1.1  T
  24   -208.4674643 -0.411913E-05  0.507E-03    0.11       1.9  T
  25   -208.4674668 -0.254930E-05  0.174E-03    0.11       5.7  T
  26   -208.4674669 -0.288087E-07  0.129E-03    0.11       7.6  T
  27   -208.4674669 -0.617199E-07  0.616E-04    0.11      16.0  T
  28   -208.4674669  0.569698E-07  0.944E-04    0.11      10.4  T
     SCC iter.                  ...        0 min,  0.924 sec
     gradient                   ...        0 min,  0.067 sec
 * total energy  :  -204.5311918 Eh     change       -0.1151098E-01 Eh
   gradient norm :     0.3184336 Eh/α   predicted    -0.4667343E-01 ( 305.47%)
   displ. norm   :     0.5105588 α      lambda       -0.8799674E-01
   maximum displ.:     0.1557608 α      in ANC's #63, #70, #187, ...

........................................................................
.............................. CYCLE   51 ..............................
........................................................................

 iter      E             dE          RMSdq      gap      omega  full diag
   1   -208.2786872 -0.208279E+03  0.101E+00    0.20       0.0  T
   2   -204.9529844  0.332570E+01  0.595E+00    0.03       1.0  T
   3   -208.2341942 -0.328121E+01  0.112E+00    0.30       1.0  T
   4   -208.2769809 -0.427867E-01  0.669E-01    0.14       1.0  T
   5   -208.2755642  0.141666E-02  0.574E-01    0.26       1.0  T
   6   -208.2900834 -0.145192E-01  0.360E-01    0.19       1.0  T
   7   -208.2903589 -0.275540E-03  0.332E-01    0.20       1.0  T
   8   -208.2888368  0.152216E-02  0.322E-01    0.21       1.0  T
   9   -208.2930397 -0.420290E-02  0.232E-01    0.18       1.0  T
  10   -208.2958955 -0.285580E-02  0.205E-01    0.17       1.0  T
  11   -208.2976115 -0.171601E-02  0.143E-01    0.16       1.0  T
  12   -208.2980349 -0.423380E-03  0.131E-01    0.15       1.0  T
  13   -208.2980738 -0.389597E-04  0.131E-01    0.15       1.0  T
  14   -208.3000057 -0.193186E-02  0.523E-02    0.12       1.0  T
  15   -208.2624276  0.375781E-01  0.643E-01    0.04       1.0  T
  16   -208.2695665 -0.713890E-02  0.579E-01    0.05       1.0  T
  17   -208.2512051  0.183614E-01  0.764E-01    0.03       1.0  T
  18   -208.2928266 -0.416216E-01  0.253E-01    0.08       1.0  T
  19   -208.3000642 -0.723760E-02  0.872E-02    0.12       1.0  T
  20   -208.3000504  0.138919E-04  0.616E-02    0.12       1.0  T
  21   -208.3000566 -0.624752E-05  0.360E-02    0.12       1.0  T
  22   -208.3001118 -0.551559E-04  0.670E-03    0.12       1.5  T
  23   -208.3001140 -0.219937E-05  0.304E-03    0.12       3.2  T
  24   -208.3001143 -0.390895E-06  0.213E-03    0.12       4.6  T
  25   -208.3001114  0.297107E-05  0.684E-03    0.11       1.4  T
  26   -208.3001141 -0.274615E-05  0.225E-03    0.12       4.4  T
  27   -208.3001144 -0.303244E-06  0.513E-04    0.12      19.2  T
  28   -208.3001145 -0.363313E-07  0.193E-04    0.12      51.0  T
     SCC iter.                  ...        0 min,  2.849 sec
     gradient                   ...        0 min,  0.068 sec
 * total energy  :  -204.5594858 Eh     change       -0.2829396E-01 Eh
   gradient norm :     0.2920146 Eh/α   predicted    -0.5546748E-01 (  96.04%)
   displ. norm   :     0.5361308 α      lambda       -0.5249478E-01
   maximum displ.:     0.1986719 α      in ANC's #1, #26, #50, ...

........................................................................
.............................. CYCLE   52 ..............................
........................................................................

 iter      E             dE          RMSdq      gap      omega  full diag
   1   -208.2556605 -0.208256E+03  0.172E+00    0.04       0.0  T
   2   -206.7496017  0.150606E+01  0.573E+00    0.13       1.0  T
   3   -208.2093132 -0.145971E+01  0.188E+00    0.20       1.0  T
   4   -208.3464002 -0.137087E+00  0.927E-01    0.07       1.0  T
   5   -208.3631626 -0.167624E-01  0.862E-01    0.38       1.0  T
   6   -208.3926665 -0.295039E-01  0.554E-01    0.24       1.0  T
   7   -208.3997439 -0.707743E-02  0.371E-01    0.10       1.0  T
   8   -208.3942335  0.551040E-02  0.315E-01    0.17       1.0  T
   9   -208.3954444 -0.121089E-02  0.333E-01    0.08       1.0  T
  10   -208.4031551 -0.771068E-02  0.161E-01    0.11       1.0  T
  11   -208.4037425 -0.587378E-03  0.143E-01    0.11       1.0  T
  12   -208.4056195 -0.187706E-02  0.648E-02    0.12       1.0  T
  13   -208.4053489  0.270661E-03  0.856E-02    0.11       1.0  T
  14   -208.4054209 -0.719744E-04  0.834E-02    0.13       1.0  T
  15   -208.4052224  0.198481E-03  0.933E-02    0.14       1.0  T
  16   -208.4056541 -0.431763E-03  0.447E-02    0.11       1.0  T
  17   -208.4058135 -0.159338E-03  0.152E-02    0.12       1.0  T
  18   -208.4057426  0.708846E-04  0.321E-02    0.11       1.0  T
  19   -208.4058114 -0.687613E-04  0.126E-02    0.12       1.0  T
  20   -208.4058190 -0.763974E-05  0.542E-03    0.12       1.8  T
  21   -208.4058092  0.974958E-05  0.123E-02    0.12       1.0  T
  22   -208.4058198 -0.105381E-04  0.153E-03    0.12       6.4  T
  23   -208.4058194  0.367424E-06  0.252E-03    0.12       3.9  T
  24   -208.4058180  0.138336E-05  0.509E-03    0.12       1.9  T
  25   -208.4058197 -0.165073E-05  0.191E-03    0.12       5.2  T
  26   -208.4058197  0.231117E-07  0.191E-03    0.12       5.2  T
  27   -208.4058199 -0.232018E-06  0.382E-04    0.12      25.8  T
  28   -208.4058199 -0.137321E-07  0.814E-05    0.12     121.0  T
     SCC iter.                  ...        0 min,  1.945 sec
     gradient                   ...        0 min,  0.097 sec
 * total energy  :  -204.5879723 Eh     change       -0.2848648E-01 Eh
   gradient norm :     0.2021473 Eh/α   predicted    -0.3379185E-01 (  18.62%)
   displ. norm   :     0.6006806 α      lambda       -0.3958414E-01
   maximum displ.:     0.2519349 α      in ANC's #26, #22, #58, ...

........................................................................
.............................. CYCLE   53 ..............................
........................................................................

 iter      E             dE          RMSdq      gap      omega  full diag
   1   -207.9644433 -0.207964E+03  0.285E+00    0.02       0.0  T
   2   -204.0921307  0.387231E+01  0.443E+00    0.14       1.0  T
   3   -202.3784413  0.171369E+01  0.655E+00    0.10       1.0  T
   4   -208.1486330 -0.577019E+01  0.241E+00    0.52       1.0  T
   5   -208.4257054 -0.277072E+00  0.143E+00    0.09       1.0  T
   6   -208.4260266 -0.321184E-03  0.124E+00    0.47       1.0  T
   7   -208.4611288 -0.351023E-01  0.104E+00    0.27       1.0  T
   8   -208.4588583  0.227059E-02  0.906E-01    0.28       1.0  T
   9   -208.4711580 -0.122998E-01  0.651E-01    0.21       1.0  T
  10   -208.4775454 -0.638739E-02  0.376E-01    0.15       1.0  T
  11   -208.4804743 -0.292891E-02  0.308E-01    0.17       1.0  T
  12   -208.4820712 -0.159689E-02  0.281E-01    0.19       1.0  T
  13   -208.4860025 -0.393130E-02  0.207E-01    0.14       1.0  T
  14   -208.4863866 -0.384025E-03  0.137E-01    0.16       1.0  T
  15   -208.3856204  0.100766E+00  0.110E+00    0.02       1.0  T
  16   -208.4589137 -0.732933E-01  0.633E-01    0.05       1.0  T
  17   -208.4193857  0.395280E-01  0.887E-01    0.03       1.0  T
  18   -208.4428267 -0.234410E-01  0.730E-01    0.04       1.0  T
  19   -208.4879890 -0.451623E-01  0.151E-01    0.10       1.0  T
  20   -208.4784158  0.957316E-02  0.344E-01    0.07       1.0  T
  21   -208.4891457 -0.107299E-01  0.811E-02    0.10       1.0  T
  22   -208.4898370 -0.691341E-03  0.399E-02    0.12       1.0  T
  23   -208.4898123  0.247508E-04  0.456E-02    0.12       1.0  T
  24   -208.4896723  0.139982E-03  0.600E-02    0.13       1.0  T
  25   -208.4897657 -0.933697E-04  0.460E-02    0.13       1.0  T
  26   -208.4897698 -0.408593E-05  0.444E-02    0.13       1.0  T
  27   -208.4898707 -0.100940E-03  0.256E-02    0.12       1.0  T
  28   -208.4898832 -0.125199E-04  0.215E-02    0.12       1.0  T
  29   -208.4898974 -0.141377E-04  0.168E-02    0.12       1.0  T
  30   -208.4899070 -0.965274E-05  0.133E-02    0.12       1.0  T
  31   -208.4899199 -0.128817E-04  0.676E-03    0.12       1.5  T
  32   -208.4899236 -0.370747E-05  0.363E-03    0.12       2.7  T
  33   -208.4899247 -0.110250E-05  0.242E-03    0.12       4.1  T
  34   -208.4899253 -0.598062E-06  0.845E-04    0.12      11.7  T
  35   -208.4899254 -0.734173E-07  0.119E-04    0.12      82.8  T
     SCC iter.                  ...        0 min,  2.749 sec
     gradient                   ...        0 min,  0.084 sec
 * total energy  :  -204.6043509 Eh     change       -0.1637860E-01 Eh
   gradient norm :     0.2336304 Eh/α   predicted    -0.2693342E-01 (  64.44%)
   displ. norm   :     0.5427502 α      lambda       -0.5305316E-01
   maximum displ.:     0.3090238 α      in ANC's #1, #159, #24, ...

........................................................................
.............................. CYCLE   54 ..............................
........................................................................

 iter      E             dE          RMSdq      gap      omega  full diag
   1   -208.4700610 -0.208470E+03  0.114E+00    0.05       0.0  T
   2   -207.8726034  0.597458E+00  0.285E+00    0.07       1.0  T
   3   -208.4171707 -0.544567E+00  0.127E+00    0.29       1.0  T
   4   -208.5088856 -0.917149E-01  0.453E-01    0.11       1.0  T
   5   -208.5029556  0.593002E-02  0.483E-01    0.11       1.0  T
   6   -208.5222750 -0.193194E-01  0.365E-01    0.16       1.0  T
   7   -208.5245499 -0.227490E-02  0.268E-01    0.15       1.0  T
   8   -208.5227846  0.176527E-02  0.209E-01    0.14       1.0  T
   9   -208.5066233  0.161613E-01  0.483E-01    0.06       1.0  T
  10   -208.5177820 -0.111587E-01  0.312E-01    0.07       1.0  T
  11   -208.5250771 -0.729516E-02  0.109E-01    0.14       1.0  T
  12   -208.5257225 -0.645369E-03  0.501E-02    0.11       1.0  T
  13   -208.5256403  0.822139E-04  0.648E-02    0.11       1.0  T
  14   -208.5260883 -0.447964E-03  0.200E-02    0.12       1.0  T
  15   -208.5260394  0.489020E-04  0.329E-02    0.12       1.0  T
  16   -208.5261030 -0.636532E-04  0.102E-02    0.12       1.0  T
  17   -208.5261058 -0.275813E-05  0.978E-03    0.12       1.0  T
  18   -208.5261096 -0.385688E-05  0.659E-03    0.12       1.5  T
  19   -208.5261115 -0.187628E-05  0.202E-03    0.12       4.9  T
  20   -208.5261112  0.346158E-06  0.283E-03    0.12       3.5  T
  21   -208.5261117 -0.534107E-06  0.147E-03    0.12       6.7  T
  22   -208.5261096  0.213459E-05  0.543E-03    0.12       1.8  T
  23   -208.5261117 -0.213249E-05  0.123E-03    0.12       8.0  T
  24   -208.5261117  0.865626E-08  0.114E-03    0.12       8.7  T
  25   -208.5261118 -0.885069E-07  0.393E-04    0.12      25.1  T
  26   -208.5261118 -0.699876E-08  0.234E-04    0.12      42.1  T
     SCC iter.                  ...        0 min,  2.105 sec
     gradient                   ...        0 min,  0.073 sec
 * total energy  :  -204.6264223 Eh     change       -0.2207143E-01 Eh
   gradient norm :     0.1518240 Eh/α   predicted    -0.3434070E-01 (  55.59%)
   displ. norm   :     0.6689211 α      lambda       -0.4148412E-01
   maximum displ.:     0.2308007 α      in ANC's #58, #63, #74, ...

........................................................................
.............................. CYCLE   55 ..............................
........................................................................

 iter      E             dE          RMSdq      gap      omega  full diag
   1   -208.4196525 -0.208420E+03  0.115E+00    0.10       0.0  T
   2   -204.1999320  0.421972E+01  0.713E+00    0.01       1.0  T
   3   -208.3805168 -0.418058E+01  0.138E+00    0.48       1.0  T
   4   -208.4508952 -0.703784E-01  0.544E-01    0.11       1.0  T
   5   -208.4417273  0.916795E-02  0.649E-01    0.20       1.0  T
   6   -208.4558530 -0.141257E-01  0.502E-01    0.17       1.0  T
   7   -208.4660738 -0.102209E-01  0.380E-01    0.20       1.0  T
   8   -208.4591231  0.695075E-02  0.397E-01    0.17       1.0  T
   9   -208.4645036 -0.538048E-02  0.312E-01    0.21       1.0  T
  10   -208.4673693 -0.286577E-02  0.272E-01    0.21       1.0  T
  11   -208.4670885  0.280880E-03  0.262E-01    0.21       1.0  T
  12   -208.4696006 -0.251213E-02  0.198E-01    0.20       1.0  T
  13   -208.4739144 -0.431380E-02  0.101E-01    0.14       1.0  T
  14   -208.4741051 -0.190727E-03  0.105E-01    0.13       1.0  T
  15   -208.4600205  0.140846E-01  0.471E-01    0.07       1.0  T
  16   -208.4576208  0.239970E-02  0.491E-01    0.07       1.0  T
  17   -208.4581208 -0.499987E-03  0.474E-01    0.07       1.0  T
  18   -208.4601643 -0.204354E-02  0.427E-01    0.07       1.0  T
  19   -208.4720008 -0.118365E-01  0.147E-01    0.10       1.0  T
  20   -208.4743441 -0.234331E-02  0.452E-02    0.13       1.0  T
  21   -208.4742938  0.503879E-04  0.373E-02    0.13       1.0  T
  22   -208.4741926  0.101126E-03  0.479E-02    0.14       1.0  T
  23   -208.4743636 -0.170992E-03  0.201E-02    0.13       1.0  T
  24   -208.4743841 -0.205201E-04  0.819E-03    0.13       1.2  T
  25   -208.4743850 -0.895318E-06  0.566E-03    0.13       1.7  T
  26   -208.4743871 -0.202878E-05  0.300E-03    0.12       3.3  T
  27   -208.4743832  0.391424E-05  0.811E-03    0.12       1.2  T
  28   -208.4743852 -0.205620E-05  0.539E-03    0.12       1.8  T
  29   -208.4743862 -0.943381E-06  0.351E-03    0.12       2.8  T
  30   -208.4743871 -0.932648E-06  0.139E-03    0.12       7.1  T
  31   -208.4743873 -0.187922E-06  0.269E-04    0.12      36.6  T
  32   -208.4743873 -0.662138E-08  0.104E-04    0.12      95.1  T
     SCC iter.                  ...        0 min,  1.415 sec
     gradient                   ...        0 min,  0.066 sec
 * total energy  :  -204.6469648 Eh     change       -0.2054249E-01 Eh
   gradient norm :     0.2037552 Eh/α   predicted    -0.3002320E-01 (  46.15%)
   displ. norm   :     0.5539251 α      lambda       -0.2905380E-01
   maximum displ.:     0.2087485 α      in ANC's #50, #22, #44, ...

........................................................................
.............................. CYCLE   56 ..............................
........................................................................

 iter      E             dE          RMSdq      gap      omega  full diag
   1   -208.5124115 -0.208512E+03  0.163E+00    0.05       0.0  T
   2   -208.3450338  0.167378E+00  0.225E+00    0.05       1.0  T
   3   -208.3695102 -0.244765E-01  0.198E+00    0.12       1.0  T
   4   -208.5501093 -0.180599E+00  0.775E-01    0.33       1.0  T
   5   -208.5616020 -0.114928E-01  0.576E-01    0.14       1.0  T
   6   -208.5685487 -0.694663E-02  0.412E-01    0.13       1.0  T
   7   -208.5700076 -0.145894E-02  0.343E-01    0.18       1.0  T
   8   -208.5236441  0.463635E-01  0.700E-01    0.05       1.0  T
   9   -208.5686245 -0.449805E-01  0.264E-01    0.21       1.0  T
  10   -208.5711043 -0.247976E-02  0.178E-01    0.19       1.0  T
  11   -208.5746207 -0.351644E-02  0.129E-01    0.12       1.0  T
  12   -208.5749002 -0.279463E-03  0.888E-02    0.12       1.0  T
  13   -208.5741176  0.782609E-03  0.120E-01    0.11       1.0  T
  14   -208.5755003 -0.138277E-02  0.471E-02    0.13       1.0  T
  15   -208.5755571 -0.567413E-04  0.356E-02    0.14       1.0  T
  16   -208.5755882 -0.311084E-04  0.273E-02    0.13       1.0  T
  17   -208.5756050 -0.168432E-04  0.174E-02    0.13       1.0  T
  18   -208.5755581  0.469094E-04  0.293E-02    0.12       1.0  T
  19   -208.5755697 -0.115405E-04  0.243E-02    0.12       1.0  T
  20   -208.5756171 -0.473964E-04  0.864E-03    0.13       1.1  T
  21   -208.5756249 -0.779342E-05  0.377E-03    0.13       2.6  T
  22   -208.5756204  0.442393E-05  0.710E-03    0.13       1.4  T
  23   -208.5756251 -0.467405E-05  0.168E-03    0.13       5.9  T
  24   -208.5756248  0.355776E-06  0.285E-03    0.13       3.5  T
  25   -208.5756254 -0.607656E-06  0.775E-04    0.13      12.7  T
  26   -208.5756254 -0.769052E-08  0.610E-04    0.13      16.1  T
     SCC iter.                  ...        0 min,  1.359 sec
     gradient                   ...        0 min,  0.079 sec
 * total energy  :  -204.6604578 Eh     change       -0.1349297E-01 Eh
   gradient norm :     0.1618783 Eh/α   predicted    -0.1898425E-01 (  40.70%)
   displ. norm   :     0.5801700 α      lambda       -0.3234111E-01
   maximum displ.:     0.1597818 α      in ANC's #63, #40, #22, ...

........................................................................
.............................. CYCLE   57 ..............................
........................................................................

 iter      E             dE          RMSdq      gap      omega  full diag
   1   -208.1832417 -0.208183E+03  0.345E+00    0.10       0.0  T
   2   -205.0201420  0.316310E+01  0.507E+00    0.16       1.0  T
   3   -201.9627955  0.305735E+01  0.749E+00    0.05       1.0  T
   4   -208.4515181 -0.648872E+01  0.269E+00    0.29       1.0  T
   5   -208.6443969 -0.192879E+00  0.171E+00    0.15       1.0  T
   6   -208.6561400 -0.117431E-01  0.142E+00    0.48       1.0  T
   7   -208.6870653 -0.309252E-01  0.120E+00    0.27       1.0  T
   8   -208.6939602 -0.689496E-02  0.939E-01    0.29       1.0  T
   9   -208.7034263 -0.946606E-02  0.549E-01    0.22       1.0  T
  10   -208.7081467 -0.472047E-02  0.410E-01    0.24       1.0  T
  11   -208.7103146 -0.216789E-02  0.323E-01    0.26       1.0  T
  12   -208.6912712  0.190435E-01  0.529E-01    0.07       1.0  T
  13   -208.7120796 -0.208084E-01  0.241E-01    0.22       1.0  T
  14   -208.7160456 -0.396598E-02  0.179E-01    0.10       1.0  T
  15   -208.7157430  0.302524E-03  0.137E-01    0.17       1.0  T
  16   -208.6772566  0.384864E-01  0.655E-01    0.05       1.0  T
  17   -208.7042301 -0.269735E-01  0.381E-01    0.07       1.0  T
  18   -208.6919668  0.122633E-01  0.532E-01    0.06       1.0  T
  19   -208.7172157 -0.252489E-01  0.740E-02    0.14       1.0  T
  20   -208.7172565 -0.408171E-04  0.648E-02    0.14       1.0  T
  21   -208.7173564 -0.998678E-04  0.479E-02    0.14       1.0  T
  22   -208.7174721 -0.115727E-03  0.330E-02    0.13       1.0  T
  23   -208.7175486 -0.764929E-04  0.610E-03    0.13       1.6  T
  24   -208.7175459  0.274025E-05  0.826E-03    0.13       1.2  T
  25   -208.7175486 -0.271023E-05  0.560E-03    0.13       1.8  T
  26   -208.7175474  0.118748E-05  0.706E-03    0.13       1.4  T
  27   -208.7175499 -0.248120E-05  0.353E-03    0.13       2.8  T
  28   -208.7175479  0.196413E-05  0.606E-03    0.13       1.6  T
  29   -208.7175502 -0.231278E-05  0.179E-03    0.13       5.5  T
  30   -208.7175504 -0.158092E-06  0.128E-03    0.13       7.7  T
  31   -208.7175504 -0.782438E-07  0.105E-03    0.13       9.4  T
  32   -208.7175505 -0.902400E-07  0.288E-04    0.13      34.2  T
  33   -208.7175505  0.225509E-08  0.361E-04    0.13      27.3  T
     SCC iter.                  ...        0 min,  1.345 sec
     gradient                   ...        0 min,  0.062 sec
 * total energy  :  -204.6689723 Eh     change       -0.8514563E-02 Eh
   gradient norm :     0.2590338 Eh/α   predicted    -0.2161353E-01 ( 153.84%)
   displ. norm   :     0.4747454 α      lambda       -0.2710642E-01
   maximum displ.:     0.1594236 α      in ANC's #19, #50, #40, ...

........................................................................
.............................. CYCLE   58 ..............................
........................................................................

 iter      E             dE          RMSdq      gap      omega  full diag
   1   -208.5219872 -0.208522E+03  0.948E-01    0.12       0.0  T
   2   -208.4035471  0.118440E+00  0.159E+00    0.06       1.0  T
   3   -208.4850747 -0.815275E-01  0.832E-01    0.39       1.0  T
   4   -208.5347084 -0.496337E-01  0.404E-01    0.13       1.0  T
   5   -208.5344133  0.295105E-03  0.284E-01    0.12       1.0  T
   6   -208.5371864 -0.277316E-02  0.195E-01    0.16       1.0  T
   7   -208.5003536  0.368328E-01  0.742E-01    0.04       1.0  T
   8   -208.5370125 -0.366589E-01  0.197E-01    0.14       1.0  T
   9   -208.5360839  0.928552E-03  0.223E-01    0.17       1.0  T
  10   -208.5371393 -0.105535E-02  0.182E-01    0.16       1.0  T
  11   -208.5375819 -0.442617E-03  0.163E-01    0.16       1.0  T
  12   -208.5391036 -0.152173E-02  0.432E-02    0.12       1.0  T
  13   -208.5392988 -0.195141E-03  0.234E-02    0.12       1.0  T
  14   -208.5392593  0.394323E-04  0.348E-02    0.11       1.0  T
  15   -208.5392198  0.395303E-04  0.409E-02    0.11       1.0  T
  16   -208.5393267 -0.106874E-03  0.177E-02    0.11       1.0  T
  17   -208.5393251  0.160954E-05  0.167E-02    0.11       1.0  T
  18   -208.5393335 -0.845509E-05  0.102E-02    0.12       1.0  T
  19   -208.5393368 -0.330917E-05  0.908E-03    0.12       1.1  T
  20   -208.5393408 -0.396389E-05  0.561E-03    0.12       1.8  T
  21   -208.5393428 -0.197217E-05  0.237E-03    0.12       4.2  T
  22   -208.5393429 -0.126244E-06  0.166E-03    0.12       5.9  T
  23   -208.5393428  0.924838E-07  0.217E-03    0.12       4.5  T
  24   -208.5393431 -0.264318E-06  0.967E-04    0.12      10.2  T
  25   -208.5393431 -0.574138E-07  0.235E-04    0.12      41.9  T
     SCC iter.                  ...        0 min,  1.131 sec
     gradient                   ...        0 min,  0.074 sec
 * total energy  :  -204.6774777 Eh     change       -0.8505322E-02 Eh
   gradient norm :     0.1692700 Eh/α   predicted    -0.1660790E-01 (  95.26%)
   displ. norm   :     0.4332191 α      lambda       -0.1818632E-01
   maximum displ.:     0.1997831 α      in ANC's #14, #37, #22, ...

........................................................................
.............................. CYCLE   59 ..............................
........................................................................

 iter      E             dE          RMSdq      gap      omega  full diag
   1   -208.6020766 -0.208602E+03  0.101E+00    0.11       0.0  T
   2   -205.7953619  0.280671E+01  0.638E+00    0.09       1.0  T
   3   -208.5629421 -0.276758E+01  0.138E+00    0.19       1.0  T
   4   -208.5993250 -0.363829E-01  0.695E-01    0.19       1.0  T
   5   -208.5170824  0.822425E-01  0.127E+00    0.01       1.0  T
   6   -208.6156288 -0.985463E-01  0.400E-01    0.29       1.0  T
   7   -208.6131789  0.244988E-02  0.309E-01    0.12       1.0  T
   8   -208.6218976 -0.871869E-02  0.289E-01    0.20       1.0  T
   9   -208.6235368 -0.163928E-02  0.229E-01    0.18       1.0  T
  10   -208.6235943 -0.574843E-04  0.203E-01    0.18       1.0  T
  11   -208.6264236 -0.282932E-02  0.129E-01    0.13       1.0  T
  12   -208.6266218 -0.198159E-03  0.172E-01    0.11       1.0  T
  13   -208.6271958 -0.573956E-03  0.116E-01    0.12       1.0  T
  14   -208.6272127 -0.169723E-04  0.107E-01    0.11       1.0  T
  15   -208.6274070 -0.194240E-03  0.770E-02    0.12       1.0  T
  16   -208.6274228 -0.158319E-04  0.671E-02    0.12       1.0  T
  17   -208.6274851 -0.623235E-04  0.542E-02    0.12       1.0  T
  18   -208.6275666 -0.814995E-04  0.269E-02    0.12       1.0  T
  19   -208.6275853 -0.186300E-04  0.116E-02    0.12       1.0  T
  20   -208.6275840  0.127356E-05  0.163E-02    0.12       1.0  T
  21   -208.6275906 -0.664581E-05  0.854E-03    0.12       1.2  T
  22   -208.6275954 -0.473770E-05  0.184E-03    0.12       5.3  T
  23   -208.6275954 -0.149925E-07  0.229E-03    0.12       4.3  T
  24   -208.6275954  0.365972E-08  0.219E-03    0.12       4.5  T
  25   -208.6275955 -0.145274E-06  0.112E-03    0.12       8.8  T
  26   -208.6275956 -0.471923E-07  0.294E-04    0.12      33.6  T
  27   -208.6275956  0.483945E-08  0.314E-04    0.12      31.4  T
     SCC iter.                  ...        0 min,  2.016 sec
     gradient                   ...        0 min,  0.079 sec
 * total energy  :  -204.6861621 Eh     change       -0.8684416E-02 Eh
   gradient norm :     0.0803189 Eh/α   predicted    -0.1079976E-01 (  24.36%)
   displ. norm   :     0.6136812 α      lambda       -0.1400291E-01
   maximum displ.:     0.2295331 α      in ANC's #19, #40, #32, ...

........................................................................
.............................. CYCLE   60 ..............................
........................................................................

 iter      E             dE          RMSdq      gap      omega  full diag
   1   -208.2982682 -0.208298E+03  0.238E+00    0.05       0.0  T
   2   -206.0317818  0.226649E+01  0.638E+00    0.10       1.0  T
   3   -208.2313947 -0.219961E+01  0.275E+00    0.05       1.0  T
   4   -208.5638393 -0.332445E+00  0.159E+00    0.51       1.0  T
   5   -208.6259153 -0.620760E-01  0.123E+00    0.09       1.0  T
   6   -208.6628407 -0.369254E-01  0.809E-01    0.32       1.0  T
   7   -208.6804019 -0.175613E-01  0.653E-01    0.21       1.0  T
   8   -208.6790178  0.138411E-02  0.546E-01    0.18       1.0  T
   9   -208.6925942 -0.135763E-01  0.434E-01    0.12       1.0  T
  10   -208.6937024 -0.110827E-02  0.286E-01    0.14       1.0  T
  11   -208.1735931  0.520109E+00  0.297E+00    0.10       1.0  T
  12   -208.6173180 -0.443725E+00  0.122E+00    0.01       1.0  T
  13   -208.6357016 -0.183837E-01  0.923E-01    0.03       1.0  T
  14   -208.6233575  0.123442E-01  0.100E+00    0.02       1.0  T
  15   -208.6837245 -0.603671E-01  0.499E-01    0.06       1.0  T
  16   -208.6987115 -0.149870E-01  0.733E-02    0.11       1.0  T
  17   -208.6988558 -0.144243E-03  0.421E-02    0.12       1.0  T
  18   -208.6975043  0.135146E-02  0.145E-01    0.15       1.0  T
  19   -208.6983740 -0.869715E-03  0.103E-01    0.13       1.0  T
  20   -208.6987466 -0.372522E-03  0.631E-02    0.12       1.0  T
  21   -208.6989180 -0.171416E-03  0.252E-02    0.12       1.0  T
  22   -208.6988741  0.438972E-04  0.385E-02    0.11       1.0  T
  23   -208.6987484  0.125703E-03  0.586E-02    0.11       1.0  T
  24   -208.6989478 -0.199387E-03  0.891E-03    0.11       1.1  T
  25   -208.6988674  0.803999E-04  0.362E-02    0.11       1.0  T
  26   -208.6989437 -0.763251E-04  0.124E-02    0.11       1.0  T
  27   -208.6989375  0.622693E-05  0.145E-02    0.11       1.0  T
  28   -208.6989490 -0.115002E-04  0.308E-03    0.11       3.2  T
  29   -208.6989453  0.368389E-05  0.858E-03    0.12       1.1  T
  30   -208.6989480 -0.269010E-05  0.571E-03    0.12       1.7  T
  31   -208.6989480 -0.758456E-07  0.521E-03    0.12       1.9  T
  32   -208.6989495 -0.141387E-05  0.169E-03    0.11       5.8  T
  33   -208.6989495 -0.675121E-07  0.711E-04    0.11      13.9  T
  34   -208.6989495  0.622435E-08  0.941E-04    0.11      10.5  T
     SCC iter.                  ...        0 min,  1.943 sec
     gradient                   ...        0 min,  0.065 sec
 * total energy  :  -204.6912929 Eh     change       -0.5130876E-02 Eh
   gradient norm :     0.1120405 Eh/α   predicted    -0.9638239E-02 (  87.85%)
   displ. norm   :     0.6463662 α      lambda       -0.1778904E-01
   maximum displ.:     0.2565233 α      in ANC's #40, #29, #109, ...

........................................................................
.............................. CYCLE   61 ..............................
........................................................................

 iter      E             dE          RMSdq      gap      omega  full diag
   1   -208.6141341 -0.208614E+03  0.180E+00    0.01       0.0  T
   2   -208.3848845  0.229250E+00  0.270E+00    0.29       1.0  T
   3   -208.6491124 -0.264228E+00  0.157E+00    0.32       1.0  T
   4   -208.7114423 -0.623299E-01  0.840E-01    0.31       1.0  T
   5   -208.7149297 -0.348742E-02  0.738E-01    0.16       1.0  T
   6   -208.7142094  0.720256E-03  0.597E-01    0.38       1.0  T
   7   -208.1766691  0.537540E+00  0.291E+00    0.10       1.0  T
   8   -208.7234350 -0.546766E+00  0.393E-01    0.28       1.0  T
   9   -208.7240664 -0.631314E-03  0.397E-01    0.24       1.0  T
  10   -208.7264408 -0.237446E-02  0.344E-01    0.22       1.0  T
  11   -208.7285222 -0.208143E-02  0.288E-01    0.19       1.0  T
  12   -208.7314752 -0.295294E-02  0.186E-01    0.15       1.0  T
  13   -208.7318744 -0.399196E-03  0.144E-01    0.09       1.0  T
  14   -208.7330708 -0.119641E-02  0.524E-02    0.11       1.0  T
  15   -208.7334424 -0.371659E-03  0.356E-02    0.11       1.0  T
  16   -208.7335017 -0.592265E-04  0.199E-02    0.11       1.0  T
  17   -208.7332646  0.237034E-03  0.631E-02    0.12       1.0  T
  18   -208.7334729 -0.208253E-03  0.299E-02    0.12       1.0  T
  19   -208.7335243 -0.514059E-04  0.108E-02    0.11       1.0  T
  20   -208.7335252 -0.921104E-06  0.113E-02    0.11       1.0  T
  21   -208.7335342 -0.901675E-05  0.262E-03    0.11       3.8  T
  22   -208.7335297  0.452438E-05  0.863E-03    0.11       1.1  T
  23   -208.7335340 -0.426903E-05  0.320E-03    0.11       3.1  T
  24   -208.7335346 -0.652461E-06  0.893E-04    0.11      11.0  T
  25   -208.7335345  0.125956E-06  0.160E-03    0.11       6.1  T
  26   -208.7335346 -0.574383E-07  0.123E-03    0.11       8.0  T
  27   -208.7335347 -0.108194E-06  0.186E-04    0.11      53.1  T
     SCC iter.                  ...        0 min,  1.128 sec
     gradient                   ...        0 min,  0.061 sec
 * total energy  :  -204.7011773 Eh     change       -0.9884385E-02 Eh
   gradient norm :     0.1260530 Eh/α   predicted    -0.1261055E-01 (  27.58%)
   displ. norm   :     0.5988213 α      lambda       -0.1963181E-01
   maximum displ.:     0.2291556 α      in ANC's #50, #32, #74, ...

........................................................................
.............................. CYCLE   62 ..............................
........................................................................

 iter      E             dE          RMSdq      gap      omega  full diag
   1   -208.6499090 -0.208650E+03  0.841E-01    0.12       0.0  T
   2   -208.3857133  0.264196E+00  0.183E+00    0.01       1.0  T
   3   -208.6340266 -0.248313E+00  0.779E-01    0.38       1.0  T
   4   -208.5908217  0.432048E-01  0.944E-01    0.10       1.0  T
   5   -208.6326818 -0.418600E-01  0.674E-01    0.29       1.0  T
   6   -208.6503392 -0.176574E-01  0.453E-01    0.20       1.0  T
   7   -208.6560732 -0.573394E-02  0.324E-01    0.16       1.0  T
   8   -208.6625049 -0.643176E-02  0.171E-01    0.12       1.0  T
   9   -208.6592935  0.321145E-02  0.259E-01    0.18       1.0  T
  10   -208.6631927 -0.389920E-02  0.761E-02    0.11       1.0  T
  11   -208.6603590  0.283369E-02  0.172E-01    0.09       1.0  T
  12   -208.6636587 -0.329968E-02  0.432E-02    0.11       1.0  T
  13   -208.6635421  0.116514E-03  0.570E-02    0.10       1.0  T
  14   -208.6637503 -0.208133E-03  0.220E-02    0.11       1.0  T
  15   -208.6637548 -0.452289E-05  0.158E-02    0.11       1.0  T
  16   -208.6637211  0.337426E-04  0.290E-02    0.11       1.0  T
  17   -208.6637483 -0.272695E-04  0.131E-02    0.11       1.0  T
  18   -208.6637381  0.101852E-04  0.203E-02    0.11       1.0  T
  19   -208.6637339  0.423564E-05  0.217E-02    0.11       1.0  T
  20   -208.6637647 -0.308405E-04  0.295E-03    0.11       3.3  T
  21   -208.6637608  0.392228E-05  0.807E-03    0.11       1.2  T
  22   -208.6637644 -0.359947E-05  0.350E-03    0.11       2.8  T
  23   -208.6637655 -0.104332E-05  0.742E-04    0.11      13.3  T
  24   -208.6637654  0.253451E-07  0.787E-04    0.11      12.5  T
  25   -208.6637655 -0.205620E-07  0.606E-04    0.11      16.3  T
     SCC iter.                  ...        0 min,  0.899 sec
     gradient                   ...        0 min,  0.064 sec
 * total energy  :  -204.7087450 Eh     change       -0.7567627E-02 Eh
   gradient norm :     0.1834986 Eh/α   predicted    -0.1333577E-01 (  76.22%)
   displ. norm   :     0.4775100 α      lambda       -0.1507142E-01
   maximum displ.:     0.1782352 α      in ANC's #40, #14, #74, ...

........................................................................
.............................. CYCLE   63 ..............................
........................................................................

 iter      E             dE          RMSdq      gap      omega  full diag
   1   -208.6356574 -0.208636E+03  0.902E-01    0.07       0.0  T
   2   -208.4844094  0.151248E+00  0.226E+00    0.28       1.0  T
   3   -208.6525020 -0.168093E+00  0.564E-01    0.29       1.0  T
   4   -208.5960964  0.564056E-01  0.128E+00    0.03       1.0  T
   5   -208.6616583 -0.655619E-01  0.367E-01    0.24       1.0  T
   6   -208.6693786 -0.772031E-02  0.154E-01    0.10       1.0  T
   7   -208.6508169  0.185617E-01  0.376E-01    0.11       1.0  T
   8   -208.5988159  0.520009E-01  0.898E-01    0.02       1.0  T
   9   -208.6678669 -0.690510E-01  0.149E-01    0.09       1.0  T
  10   -208.6686665 -0.799606E-03  0.105E-01    0.12       1.0  T
  11   -208.6697197 -0.105317E-02  0.109E-01    0.12       1.0  T
  12   -208.6701086 -0.388926E-03  0.608E-02    0.11       1.0  T
  13   -208.6698534  0.255180E-03  0.799E-02    0.13       1.0  T
  14   -208.6700122 -0.158784E-03  0.542E-02    0.12       1.0  T
  15   -208.6701095 -0.973510E-04  0.367E-02    0.12       1.0  T
  16   -208.6701588 -0.492759E-04  0.216E-02    0.12       1.0  T
  17   -208.6701515  0.730945E-05  0.247E-02    0.11       1.0  T
  18   -208.6701926 -0.411217E-04  0.490E-03    0.11       2.0  T
  19   -208.6701901  0.253770E-05  0.687E-03    0.11       1.4  T
  20   -208.6701881  0.197543E-05  0.835E-03    0.11       1.2  T
  21   -208.6701938 -0.569468E-05  0.349E-03    0.11       2.8  T
  22   -208.6701948 -0.962139E-06  0.160E-03    0.11       6.1  T
  23   -208.6701949 -0.108263E-06  0.996E-04    0.11       9.9  T
  24   -208.6701949  0.683767E-08  0.106E-03    0.11       9.3  T
  25   -208.6701949 -0.695306E-07  0.582E-04    0.11      16.9  T
     SCC iter.                  ...        0 min,  0.827 sec
     gradient                   ...        0 min,  0.065 sec
 * total energy  :  -204.7160044 Eh     change       -0.7259414E-02 Eh
   gradient norm :     0.1111803 Eh/α   predicted    -0.9253982E-02 (  27.48%)
   displ. norm   :     0.6013262 α      lambda       -0.1379335E-01
   maximum displ.:     0.2291514 α      in ANC's #29, #32, #63, ...

........................................................................
.............................. CYCLE   64 ..............................
........................................................................

 iter      E             dE          RMSdq      gap      omega  full diag
   1   -208.6098546 -0.208610E+03  0.173E+00    0.03       0.0  T
   2   -208.3000799  0.309775E+00  0.347E+00    0.08       1.0  T
   3   -208.6642920 -0.364212E+00  0.150E+00    0.32       1.0  T
   4   -208.7179407 -0.536487E-01  0.678E-01    0.23       1.0  T
   5   -208.7171553  0.785347E-03  0.592E-01    0.29       1.0  T
   6   -208.6919963  0.251591E-01  0.843E-01    0.05       1.0  T
   7   -208.7216326 -0.296363E-01  0.423E-01    0.25       1.0  T
   8   -208.0657239  0.655909E+00  0.265E+00    0.06       1.0  T
   9   -208.7278540 -0.662130E+00  0.226E-01    0.12       1.0  T
  10   -208.7237022  0.415184E-02  0.336E-01    0.08       1.0  T
  11   -208.7121731  0.115291E-01  0.450E-01    0.06       1.0  T
  12   -208.6971304  0.150427E-01  0.535E-01    0.05       1.0  T
  13   -208.7278122 -0.306818E-01  0.145E-01    0.10       1.0  T
  14   -208.7294253 -0.161303E-02  0.833E-02    0.13       1.0  T
  15   -208.7291181  0.307182E-03  0.863E-02    0.10       1.0  T
  16   -208.7275266  0.159148E-02  0.153E-01    0.09       1.0  T
  17   -208.7288154 -0.128881E-02  0.939E-02    0.10       1.0  T
  18   -208.7291906 -0.375169E-03  0.719E-02    0.10       1.0  T
  19   -208.7294318 -0.241207E-03  0.536E-02    0.11       1.0  T
  20   -208.7296102 -0.178462E-03  0.324E-02    0.11       1.0  T
  21   -208.7296653 -0.550752E-04  0.212E-02    0.11       1.0  T
  22   -208.7296676 -0.230573E-05  0.212E-02    0.11       1.0  T
  23   -208.7296912 -0.235750E-04  0.140E-02    0.11       1.0  T
  24   -208.7297051 -0.138569E-04  0.736E-03    0.12       1.3  T
  25   -208.7297068 -0.173798E-05  0.630E-03    0.12       1.6  T
  26   -208.7297081 -0.126197E-05  0.541E-03    0.12       1.8  T
  27   -208.7297098 -0.169707E-05  0.312E-03    0.12       3.2  T
  28   -208.7297101 -0.383808E-06  0.242E-03    0.12       4.1  T
  29   -208.7297105 -0.357833E-06  0.149E-03    0.12       6.6  T
  30   -208.7297106 -0.147389E-06  0.892E-04    0.12      11.0  T
  31   -208.7297107 -0.387193E-07  0.663E-04    0.12      14.9  T
     SCC iter.                  ...        0 min,  1.255 sec
     gradient                   ...        0 min,  0.060 sec
 * total energy  :  -204.7131266 Eh     change        0.2877806E-02 Eh
   gradient norm :     0.1807286 Eh/α   predicted    -0.9390471E-02 (-426.31%)
   displ. norm   :     0.3569907 α      lambda       -0.1475435E-01
   maximum displ.:     0.1655228 α      in ANC's #40, #35, #29, ...

........................................................................
.............................. CYCLE   65 ..............................
........................................................................

 iter      E             dE          RMSdq      gap      omega  full diag
   1   -208.6682139 -0.208668E+03  0.142E+00    0.02       0.0  T
   2   -208.5368383  0.131376E+00  0.217E+00    0.34       1.0  T
   3   -208.7099806 -0.173142E+00  0.121E+00    0.35       1.0  T
   4   -208.7335651 -0.235845E-01  0.755E-01    0.43       1.0  T
   5   -208.7432820 -0.971697E-02  0.598E-01    0.29       1.0  T
   6   -208.7465927 -0.331070E-02  0.474E-01    0.31       1.0  T
   7   -208.2055034  0.541089E+00  0.271E+00    0.09       1.0  T
   8   -208.7498279 -0.544325E+00  0.292E-01    0.22       1.0  T
   9   -208.7497945  0.333583E-04  0.288E-01    0.23       1.0  T
  10   -208.7525904 -0.279585E-02  0.206E-01    0.17       1.0  T
  11   -208.7528601 -0.269707E-03  0.201E-01    0.17       1.0  T
  12   -208.7539276 -0.106751E-02  0.160E-01    0.15       1.0  T
  13   -208.7555054 -0.157774E-02  0.624E-02    0.13       1.0  T
  14   -208.7557465 -0.241178E-03  0.282E-02    0.11       1.0  T
  15   -208.7557961 -0.495350E-04  0.128E-02    0.11       1.0  T
  16   -208.7558096 -0.134836E-04  0.934E-03    0.11       1.1  T
  17   -208.7556632  0.146382E-03  0.471E-02    0.11       1.0  T
  18   -208.7557888 -0.125600E-03  0.180E-02    0.11       1.0  T
  19   -208.7558117 -0.228875E-04  0.759E-03    0.11       1.3  T
  20   -208.7558023  0.933701E-05  0.142E-02    0.11       1.0  T
  21   -208.7558167 -0.143433E-04  0.166E-03    0.11       5.9  T
  22   -208.7558164  0.284396E-06  0.274E-03    0.11       3.6  T
  23   -208.7558168 -0.396227E-06  0.140E-03    0.11       7.0  T
  24   -208.7558169 -0.119492E-06  0.344E-04    0.11      28.6  T
  25   -208.7558166  0.293019E-06  0.211E-03    0.11       4.7  T
  26   -208.7558168 -0.239259E-06  0.859E-04    0.11      11.5  T
     SCC iter.                  ...        0 min,  1.283 sec
     gradient                   ...        0 min,  0.063 sec
 * total energy  :  -204.7216980 Eh     change       -0.8571476E-02 Eh
   gradient norm :     0.1014187 Eh/α   predicted    -0.8317342E-02 (  -2.96%)
   displ. norm   :     0.4148138 α      lambda       -0.7317742E-02
   maximum displ.:     0.1547622 α      in ANC's #32, #74, #70, ...

........................................................................
.............................. CYCLE   66 ..............................
........................................................................

 iter      E             dE          RMSdq      gap      omega  full diag
   1   -208.6793570 -0.208679E+03  0.790E-01    0.08       0.0  T
   2   -208.6098648  0.694922E-01  0.135E+00    0.16       1.0  T
   3   -208.6831392 -0.732745E-01  0.553E-01    0.19       1.0  T
   4   -208.6500511  0.330881E-01  0.846E-01    0.03       1.0  T
   5   -208.6806571 -0.306060E-01  0.504E-01    0.32       1.0  T
   6   -208.6855635 -0.490637E-02  0.384E-01    0.21       1.0  T
   7   -208.6882172 -0.265374E-02  0.358E-01    0.22       1.0  T
   8   -208.6948545 -0.663727E-02  0.820E-02    0.12       1.0  T
   9   -208.6946485  0.205995E-03  0.971E-02    0.10       1.0  T
  10   -208.6943450  0.303452E-03  0.110E-01    0.10       1.0  T
  11   -208.6948479 -0.502912E-03  0.382E-02    0.11       1.0  T
  12   -208.6949676 -0.119691E-03  0.395E-02    0.12       1.0  T
  13   -208.6950355 -0.678167E-04  0.347E-02    0.11       1.0  T
  14   -208.6951010 -0.655705E-04  0.138E-02    0.11       1.0  T
  15   -208.6950764  0.245932E-04  0.237E-02    0.12       1.0  T
  16   -208.6951062 -0.297915E-04  0.737E-03    0.11       1.3  T
  17   -208.6950971  0.910006E-05  0.132E-02    0.11       1.0  T
  18   -208.6951055 -0.838730E-05  0.752E-03    0.11       1.3  T
  19   -208.6951080 -0.250940E-05  0.330E-03    0.11       3.0  T
  20   -208.6951085 -0.441060E-06  0.116E-03    0.11       8.5  T
  21   -208.6951085 -0.108884E-07  0.134E-03    0.11       7.4  T
  22   -208.6951084  0.320345E-07  0.148E-03    0.11       6.7  T
  23   -208.6951086 -0.107509E-06  0.306E-04    0.11      32.2  T
  24   -208.6951086 -0.160327E-09  0.400E-04    0.11      24.6  T
     SCC iter.                  ...        0 min,  0.980 sec
     gradient                   ...        0 min,  0.084 sec
 * total energy  :  -204.7220811 Eh     change       -0.3830248E-03 Eh
   gradient norm :     0.0748727 Eh/α   predicted    -0.4288454E-02 (1019.63%)
   displ. norm   :     0.2866991 α      lambda       -0.6413799E-02
   maximum displ.:     0.1447598 α      in ANC's #14, #19, #44, ...
 * RMSD in coord.:     0.6891885 α      energy gain  -0.2698763E+00 Eh

generating ANC from exact Hessian ...
Using Lindh-Hessian (1995)
 Shifting diagonal of input Hessian by   1.038236047244429E-002
 Lowest  eigenvalues of input Hessian
    0.010000    0.010054    0.010104    0.010272    0.010373    0.000000
    0.000000    0.000000    0.000000    0.000000    0.000000    0.010393
    0.010395    0.010446    0.010531    0.010572    0.010744    0.010774
 Highest eigenvalues
    2.307221    2.342459    2.394715    2.666655    7.174977    7.664186
 

........................................................................
.............................. CYCLE   67 ..............................
........................................................................

 iter      E             dE          RMSdq      gap      omega  full diag
   1   -208.6857860 -0.208686E+03  0.484E-01    0.10       0.0  T
   2   -208.6647194  0.210666E-01  0.692E-01    0.32       1.0  T
   3   -208.6376462  0.270732E-01  0.974E-01    0.03       1.0  T
   4   -208.6808445 -0.431983E-01  0.419E-01    0.25       1.0  T
   5   -208.6785783  0.226620E-02  0.364E-01    0.08       1.0  T
   6   -208.6890344 -0.104561E-01  0.154E-01    0.14       1.0  T
   7   -208.6899672 -0.932753E-03  0.116E-01    0.13       1.0  T
   8   -208.6903403 -0.373152E-03  0.841E-02    0.10       1.0  T
   9   -208.6902173  0.122990E-03  0.871E-02    0.10       1.0  T
  10   -208.6908984 -0.681048E-03  0.348E-02    0.11       1.0  T
  11   -208.6909387 -0.403798E-04  0.269E-02    0.11       1.0  T
  12   -208.6909639 -0.251864E-04  0.179E-02    0.11       1.0  T
  13   -208.6909449  0.190064E-04  0.224E-02    0.12       1.0  T
  14   -208.6909671 -0.221720E-04  0.115E-02    0.11       1.0  T
  15   -208.6909685 -0.137501E-05  0.114E-02    0.11       1.0  T
  16   -208.6909754 -0.693938E-05  0.479E-03    0.11       2.1  T
  17   -208.6909763 -0.856179E-06  0.335E-03    0.11       2.9  T
  18   -208.6909772 -0.920006E-06  0.233E-03    0.11       4.2  T
  19   -208.6909775 -0.290625E-06  0.893E-04    0.11      11.0  T
  20   -208.6909774  0.635399E-07  0.129E-03    0.11       7.6  T
  21   -208.6909775 -0.872363E-07  0.773E-04    0.11      12.7  T
     SCC iter.                  ...        0 min,  1.036 sec
     gradient                   ...        0 min,  0.066 sec
 * total energy  :  -204.7248948 Eh     change       -0.2813715E-02 Eh
   gradient norm :     0.0475316 Eh/α   predicted     0.0000000E+00 (-100.00%)
   displ. norm   :     0.2449975 α      lambda       -0.3163301E-02
   maximum displ.:     0.1030137 α      in ANC's #26, #33, #36, ...

........................................................................
.............................. CYCLE   68 ..............................
........................................................................

 iter      E             dE          RMSdq      gap      omega  full diag
   1   -208.7169146 -0.208717E+03  0.471E-01    0.07       0.0  T
   2   -208.6864691  0.304456E-01  0.925E-01    0.53       1.0  T
   3   -208.7172389 -0.307699E-01  0.482E-01    0.26       1.0  T
   4   -208.7184577 -0.121879E-02  0.388E-01    0.27       1.0  T
   5   -208.7263297 -0.787191E-02  0.179E-01    0.15       1.0  T
   6   -208.5813888  0.144941E+00  0.150E+00    0.01       1.0  T
   7   -208.7274641 -0.146075E+00  0.116E-01    0.13       1.0  T
   8   -208.7236989  0.376512E-02  0.275E-01    0.19       1.0  T
   9   -208.7257840 -0.208505E-02  0.197E-01    0.15       1.0  T
  10   -208.7271532 -0.136920E-02  0.135E-01    0.14       1.0  T
  11   -208.7272387 -0.855011E-04  0.130E-01    0.14       1.0  T
  12   -208.7282093 -0.970591E-03  0.362E-02    0.12       1.0  T
  13   -208.7283010 -0.917012E-04  0.156E-02    0.11       1.0  T
  14   -208.7283021 -0.109741E-05  0.138E-02    0.11       1.0  T
  15   -208.7283009  0.118878E-05  0.152E-02    0.11       1.0  T
  16   -208.7283162 -0.153180E-04  0.252E-03    0.11       3.9  T
  17   -208.7283155  0.739737E-06  0.436E-03    0.11       2.3  T
  18   -208.7283165 -0.105454E-05  0.123E-03    0.11       8.0  T
  19   -208.7283155  0.105292E-05  0.438E-03    0.11       2.3  T
  20   -208.7283160 -0.565784E-06  0.281E-03    0.11       3.5  T
  21   -208.7283165 -0.493790E-06  0.102E-03    0.11       9.7  T
  22   -208.7283165  0.246508E-07  0.112E-03    0.11       8.8  T
  23   -208.7283165 -0.365500E-08  0.116E-03    0.11       8.5  T
  24   -208.7283166 -0.684214E-07  0.482E-04    0.11      20.4  T
  25   -208.7283166 -0.123999E-07  0.216E-04    0.11      45.7  T
     SCC iter.                  ...        0 min,  1.215 sec
     gradient                   ...        0 min,  0.061 sec
 * total energy  :  -204.7263974 Eh     change       -0.1502584E-02 Eh
   gradient norm :     0.0395577 Eh/α   predicted    -0.1700375E-02 (  13.16%)
   displ. norm   :     0.3356696 α      lambda       -0.2651814E-02
   maximum displ.:     0.1363664 α      in ANC's #33, #26, #36, ...

........................................................................
.............................. CYCLE   69 ..............................
........................................................................

 iter      E             dE          RMSdq      gap      omega  full diag
   1   -208.7467584 -0.208747E+03  0.357E-01    0.08       0.0  T
   2   -208.7173735  0.293849E-01  0.748E-01    0.45       1.0  T
   3   -208.7446013 -0.272278E-01  0.341E-01    0.20       1.0  T
   4   -208.7317074  0.128939E-01  0.624E-01    0.05       1.0  T
   5   -208.7496097 -0.179023E-01  0.209E-01    0.13       1.0  T
   6   -208.7495618  0.478842E-04  0.166E-01    0.14       1.0  T
   7   -208.7507963 -0.123449E-02  0.699E-02    0.12       1.0  T
   8   -208.7505010  0.295333E-03  0.589E-02    0.11       1.0  T
   9   -208.7510227 -0.521740E-03  0.302E-02    0.11       1.0  T
  10   -208.7510788 -0.560736E-04  0.263E-02    0.11       1.0  T
  11   -208.7509903  0.884912E-04  0.501E-02    0.10       1.0  T
  12   -208.7510752 -0.849477E-04  0.280E-02    0.11       1.0  T
  13   -208.7511217 -0.464710E-04  0.654E-03    0.11       1.5  T
  14   -208.7511049  0.168034E-04  0.181E-02    0.11       1.0  T
  15   -208.7511227 -0.178258E-04  0.425E-03    0.11       2.3  T
  16   -208.7511213  0.137996E-05  0.585E-03    0.11       1.7  T
  17   -208.7511226 -0.121656E-05  0.400E-03    0.11       2.5  T
  18   -208.7511232 -0.627952E-06  0.179E-03    0.11       5.5  T
  19   -208.7511232 -0.511741E-07  0.158E-03    0.11       6.2  T
  20   -208.7511234 -0.119631E-06  0.680E-04    0.11      14.5  T
  21   -208.7511233  0.800744E-07  0.135E-03    0.11       7.3  T
  22   -208.7511234 -0.110053E-06  0.170E-04    0.11      57.9  T
     SCC iter.                  ...        0 min,  0.964 sec
     gradient                   ...        0 min,  0.060 sec
 * total energy  :  -204.7280310 Eh     change       -0.1633614E-02 Eh
   gradient norm :     0.0360316 Eh/α   predicted    -0.1475324E-02 (  -9.69%)
   displ. norm   :     0.4554120 α      lambda       -0.2728530E-02
   maximum displ.:     0.1852441 α      in ANC's #33, #36, #22, ...

........................................................................
.............................. CYCLE   70 ..............................
........................................................................

 iter      E             dE          RMSdq      gap      omega  full diag
   1   -208.7231331 -0.208723E+03  0.761E-01    0.05       0.0  T
   2   -208.6392860  0.838471E-01  0.149E+00    0.50       1.0  T
   3   -208.7333718 -0.940858E-01  0.694E-01    0.31       1.0  T
   4   -208.7371291 -0.375732E-02  0.508E-01    0.32       1.0  T
   5   -208.7438665 -0.673735E-02  0.360E-01    0.22       1.0  T
   6   -208.2707858  0.473081E+00  0.293E+00    0.10       1.0  T
   7   -208.7442532 -0.473467E+00  0.410E-01    0.21       1.0  T
   8   -208.7459077 -0.165450E-02  0.331E-01    0.20       1.0  T
   9   -208.7452602  0.647425E-03  0.345E-01    0.21       1.0  T
  10   -208.7492743 -0.401412E-02  0.213E-01    0.15       1.0  T
  11   -208.7517400 -0.246565E-02  0.351E-02    0.10       1.0  T
  12   -208.7516158  0.124178E-03  0.363E-02    0.10       1.0  T
  13   -208.7517263 -0.110441E-03  0.302E-02    0.10       1.0  T
  14   -208.7516429  0.833704E-04  0.507E-02    0.10       1.0  T
  15   -208.7517768 -0.133926E-03  0.171E-02    0.11       1.0  T
  16   -208.7517896 -0.127426E-04  0.727E-03    0.11       1.4  T
  17   -208.7517854  0.418720E-05  0.113E-02    0.11       1.0  T
  18   -208.7517920 -0.664274E-05  0.438E-03    0.11       2.3  T
  19   -208.7517925 -0.512798E-06  0.306E-03    0.11       3.2  T
  20   -208.7517929 -0.353058E-06  0.194E-03    0.11       5.1  T
  21   -208.7517927  0.195273E-06  0.271E-03    0.11       3.6  T
  22   -208.7517929 -0.220174E-06  0.173E-03    0.11       5.7  T
  23   -208.7517931 -0.158224E-06  0.691E-04    0.11      14.3  T
  24   -208.7517931 -0.281587E-07  0.112E-04    0.11      88.3  T
     SCC iter.                  ...        0 min,  1.147 sec
     gradient                   ...        0 min,  0.075 sec
 * total energy  :  -204.7299649 Eh     change       -0.1933899E-02 Eh
   gradient norm :     0.0397146 Eh/α   predicted    -0.1647214E-02 ( -14.82%)
   displ. norm   :     0.5947903 α      lambda       -0.3422151E-02
   maximum displ.:     0.2378137 α      in ANC's #33, #36, #26, ...

........................................................................
.............................. CYCLE   71 ..............................
........................................................................

 iter      E             dE          RMSdq      gap      omega  full diag
   1   -208.6984238 -0.208698E+03  0.945E-01    0.04       0.0  T
   2   -208.6296823  0.687415E-01  0.155E+00    0.47       1.0  T
   3   -208.7027814 -0.730991E-01  0.901E-01    0.27       1.0  T
   4   -208.7101096 -0.732820E-02  0.640E-01    0.34       1.0  T
   5   -208.7205218 -0.104122E-01  0.450E-01    0.22       1.0  T
   6   -208.2486528  0.471869E+00  0.300E+00    0.10       1.0  T
   7   -208.7187648 -0.470112E+00  0.471E-01    0.32       1.0  T
   8   -208.7230139 -0.424910E-02  0.386E-01    0.22       1.0  T
   9   -208.7278307 -0.481683E-02  0.233E-01    0.15       1.0  T
  10   -208.7292179 -0.138718E-02  0.156E-01    0.13       1.0  T
  11   -208.7298534 -0.635431E-03  0.106E-01    0.12       1.0  T
  12   -208.7302722 -0.418888E-03  0.396E-02    0.11       1.0  T
  13   -208.7294650  0.807212E-03  0.146E-01    0.09       1.0  T
  14   -208.7305451 -0.108011E-02  0.167E-02    0.11       1.0  T
  15   -208.7305141  0.310020E-04  0.277E-02    0.10       1.0  T
  16   -208.7305513 -0.371139E-04  0.138E-02    0.11       1.0  T
  17   -208.7305547 -0.340192E-05  0.872E-03    0.11       1.1  T
  18   -208.7305571 -0.242646E-05  0.575E-03    0.11       1.7  T
  19   -208.7305586 -0.155741E-05  0.328E-03    0.11       3.0  T
  20   -208.7305590 -0.388947E-06  0.129E-03    0.11       7.7  T
  21   -208.7305591 -0.334263E-07  0.989E-04    0.11      10.0  T
  22   -208.7305589  0.120728E-06  0.181E-03    0.11       5.5  T
  23   -208.7305588  0.105435E-06  0.226E-03    0.11       4.4  T
  24   -208.7305591 -0.222532E-06  0.108E-03    0.11       9.1  T
  25   -208.7305591 -0.583513E-07  0.247E-04    0.11      39.9  T
     SCC iter.                  ...        0 min,  1.126 sec
     gradient                   ...        0 min,  0.084 sec
 * total energy  :  -204.7323411 Eh     change       -0.2376243E-02 Eh
   gradient norm :     0.0393812 Eh/α   predicted    -0.2316411E-02 (  -2.52%)
   displ. norm   :     0.6392674 α      lambda       -0.3584454E-02
   maximum displ.:     0.2389130 α      in ANC's #33, #26, #36, ...

........................................................................
.............................. CYCLE   72 ..............................
........................................................................

 iter      E             dE          RMSdq      gap      omega  full diag
   1   -208.6831824 -0.208683E+03  0.964E-01    0.03       0.0  T
   2   -208.6091723  0.740101E-01  0.159E+00    0.51       1.0  T
   3   -208.6910486 -0.818763E-01  0.925E-01    0.26       1.0  T
   4   -208.7015867 -0.105380E-01  0.631E-01    0.32       1.0  T
   5   -208.7112482 -0.966155E-02  0.451E-01    0.21       1.0  T
   6   -208.4951517  0.216096E+00  0.209E+00    0.04       1.0  T
   7   -208.7110434 -0.215892E+00  0.514E-01    0.26       1.0  T
   8   -208.7147138 -0.367041E-02  0.384E-01    0.20       1.0  T
   9   -208.7179243 -0.321050E-02  0.283E-01    0.16       1.0  T
  10   -208.7217857 -0.386135E-02  0.583E-02    0.11       1.0  T
  11   -208.7218969 -0.111196E-03  0.358E-02    0.10       1.0  T
  12   -208.7204293  0.146755E-02  0.157E-01    0.09       1.0  T
  13   -208.7215712 -0.114187E-02  0.628E-02    0.10       1.0  T
  14   -208.7219204 -0.349171E-03  0.248E-02    0.11       1.0  T
  15   -208.7218770  0.433647E-04  0.388E-02    0.10       1.0  T
  16   -208.7219497 -0.726776E-04  0.122E-02    0.11       1.0  T
  17   -208.7219540 -0.429181E-05  0.653E-03    0.10       1.5  T
  18   -208.7219501  0.386604E-05  0.113E-02    0.11       1.0  T
  19   -208.7219563 -0.621097E-05  0.198E-03    0.11       5.0  T
  20   -208.7219480  0.830205E-05  0.127E-02    0.10       1.0  T
  21   -208.7219560 -0.798824E-05  0.248E-03    0.11       4.0  T
  22   -208.7219564 -0.396952E-06  0.121E-03    0.11       8.2  T
  23   -208.7219560  0.362915E-06  0.282E-03    0.11       3.5  T
  24   -208.7219564 -0.369562E-06  0.116E-03    0.11       8.5  T
  25   -208.7219564 -0.203381E-07  0.105E-03    0.11       9.4  T
  26   -208.7219565 -0.544019E-07  0.162E-04    0.11      60.8  T
  27   -208.7219565 -0.188095E-09  0.159E-04    0.11      62.1  T
     SCC iter.                  ...        0 min,  1.730 sec
     gradient                   ...        0 min,  0.062 sec
 * total energy  :  -204.7353018 Eh     change       -0.2960639E-02 Eh
   gradient norm :     0.0380706 Eh/α   predicted    -0.2524657E-02 ( -14.73%)
   displ. norm   :     0.6743701 α      lambda       -0.5334970E-02
   maximum displ.:     0.2388085 α      in ANC's #26, #33, #36, ...

........................................................................
.............................. CYCLE   73 ..............................
........................................................................

 iter      E             dE          RMSdq      gap      omega  full diag
   1   -208.6727389 -0.208673E+03  0.141E+00    0.01       0.0  T
   2   -208.6076008  0.651381E-01  0.195E+00    0.52       1.0  T
   3   -208.7195439 -0.111943E+00  0.114E+00    0.26       1.0  T
   4   -208.7193745  0.169365E-03  0.862E-01    0.36       1.0  T
   5   -208.7370512 -0.176767E-01  0.656E-01    0.24       1.0  T
   6   -208.7420974 -0.504620E-02  0.426E-01    0.22       1.0  T
   7   -208.2162701  0.525827E+00  0.324E+00    0.10       1.0  T
   8   -208.7424116 -0.526142E+00  0.421E-01    0.19       1.0  T
   9   -208.7471550 -0.474333E-02  0.310E-01    0.15       1.0  T
  10   -208.7440609  0.309406E-02  0.383E-01    0.19       1.0  T
  11   -208.7515643 -0.750338E-02  0.107E-01    0.11       1.0  T
  12   -208.7482587  0.330557E-02  0.256E-01    0.07       1.0  T
  13   -208.7481699  0.888072E-04  0.230E-01    0.08       1.0  T
  14   -208.7516888 -0.351886E-02  0.830E-02    0.09       1.0  T
  15   -208.7506105  0.107830E-02  0.162E-01    0.08       1.0  T
  16   -208.7520117 -0.140127E-02  0.194E-02    0.10       1.0  T
  17   -208.7519232  0.885393E-04  0.437E-02    0.10       1.0  T
  18   -208.7520347 -0.111539E-03  0.121E-02    0.10       1.0  T
  19   -208.7520031  0.316863E-04  0.263E-02    0.10       1.0  T
  20   -208.7520208 -0.177476E-04  0.194E-02    0.10       1.0  T
  21   -208.7520415 -0.207067E-04  0.232E-03    0.10       4.2  T
  22   -208.7520273  0.142441E-04  0.163E-02    0.10       1.0  T
  23   -208.7520411 -0.138149E-04  0.377E-03    0.10       2.6  T
  24   -208.7520418 -0.689965E-06  0.132E-03    0.10       7.4  T
  25   -208.7520419 -0.976547E-07  0.357E-04    0.10      27.6  T
  26   -208.7520418  0.902422E-07  0.140E-03    0.10       7.0  T
  27   -208.7520419 -0.100406E-06  0.112E-04    0.10      87.6  T
     SCC iter.                  ...        0 min,  0.876 sec
     gradient                   ...        0 min,  0.064 sec
 * total energy  :  -204.7397797 Eh     change       -0.4477958E-02 Eh
   gradient norm :     0.0410523 Eh/α   predicted    -0.3880627E-02 ( -13.34%)
   displ. norm   :     0.7425030 α      lambda       -0.6880902E-02
   maximum displ.:     0.2447169 α      in ANC's #26, #33, #48, ...

........................................................................
.............................. CYCLE   74 ..............................
........................................................................

 iter      E             dE          RMSdq      gap      omega  full diag
   1   -208.5810686 -0.208581E+03  0.226E+00    0.03       0.0  T
   2   -208.4114389  0.169630E+00  0.298E+00    0.32       1.0  T
   3   -208.6857198 -0.274281E+00  0.199E+00    0.28       1.0  T
   4   -208.7113766 -0.256569E-01  0.127E+00    0.41       1.0  T
   5   -208.7414303 -0.300537E-01  0.101E+00    0.26       1.0  T
   6   -208.7485325 -0.710212E-02  0.789E-01    0.26       1.0  T
   7   -208.7594098 -0.108773E-01  0.263E-01    0.11       1.0  T
   8   -208.5982509  0.161159E+00  0.174E+00    0.02       1.0  T
   9   -208.7570098 -0.158759E+00  0.432E-01    0.15       1.0  T
  10   -208.7563933  0.616488E-03  0.512E-01    0.19       1.0  T
  11   -208.7584019 -0.200858E-02  0.399E-01    0.15       1.0  T
  12   -208.7667478 -0.834584E-02  0.195E-01    0.12       1.0  T
  13   -208.7682865 -0.153877E-02  0.103E-01    0.11       1.0  T
  14   -208.7376398  0.306467E-01  0.717E-01    0.03       1.0  T
  15   -208.7677071 -0.300673E-01  0.129E-01    0.08       1.0  T
  16   -208.7668984  0.808674E-03  0.178E-01    0.08       1.0  T
  17   -208.7684374 -0.153902E-02  0.757E-02    0.09       1.0  T
  18   -208.7681947  0.242747E-03  0.885E-02    0.11       1.0  T
  19   -208.7685796 -0.384880E-03  0.505E-02    0.10       1.0  T
  20   -208.7685018  0.778032E-04  0.574E-02    0.09       1.0  T
  21   -208.7686059 -0.104135E-03  0.443E-02    0.09       1.0  T
  22   -208.7687099 -0.103956E-03  0.137E-02    0.09       1.0  T
  23   -208.7687089  0.983223E-06  0.158E-02    0.09       1.0  T
  24   -208.7687129 -0.402529E-05  0.133E-02    0.09       1.0  T
  25   -208.7687117  0.118568E-05  0.141E-02    0.09       1.0  T
  26   -208.7687191 -0.733483E-05  0.824E-03    0.09       1.2  T
  27   -208.7687225 -0.344797E-05  0.366E-03    0.10       2.7  T
  28   -208.7687232 -0.671043E-06  0.553E-04    0.10      17.8  T
  29   -208.7687232  0.171261E-07  0.585E-04    0.10      16.9  T
     SCC iter.                  ...        0 min,  0.990 sec
     gradient                   ...        0 min,  0.060 sec
 * total energy  :  -204.7464289 Eh     change       -0.6649193E-02 Eh
   gradient norm :     0.0473425 Eh/α   predicted    -0.5337218E-02 ( -19.73%)
   displ. norm   :     0.8234448 α      lambda       -0.1161906E-01
   maximum displ.:     0.2412640 α      in ANC's #64, #127, #48, ...

........................................................................
.............................. CYCLE   75 ..............................
........................................................................

 iter      E             dE          RMSdq      gap      omega  full diag
   1   -208.5852799 -0.208585E+03  0.306E+00    0.00       0.0  T
   2   -207.7395233  0.845757E+00  0.441E+00    0.12       1.0  T
   3   -207.2776903  0.461833E+00  0.489E+00    0.18       1.0  T
   4   -208.6519110 -0.137422E+01  0.199E+00    0.33       1.0  T
   5   -208.7630856 -0.111175E+00  0.135E+00    0.37       1.0  T
   6   -208.7634316 -0.345924E-03  0.114E+00    0.38       1.0  T
   7   -208.7855034 -0.220718E-01  0.876E-01    0.18       1.0  T
   8   -208.4281037  0.357400E+00  0.244E+00    0.10       1.0  T
   9   -208.7759854 -0.347882E+00  0.379E-01    0.07       1.0  T
  10   -208.7945838 -0.185983E-01  0.242E-01    0.08       1.0  T
  11   -208.7993908 -0.480701E-02  0.297E-01    0.11       1.0  T
  12   -208.8026223 -0.323150E-02  0.115E-01    0.09       1.0  T
  13   -208.8020144  0.607897E-03  0.145E-01    0.08       1.0  T
  14   -208.8019741  0.402791E-04  0.125E-01    0.08       1.0  T
  15   -208.8021769 -0.202781E-03  0.138E-01    0.10       1.0  T
  16   -208.8032801 -0.110322E-02  0.588E-02    0.09       1.0  T
  17   -208.8031058  0.174328E-03  0.563E-02    0.09       1.0  T
  18   -208.8028166  0.289132E-03  0.103E-01    0.08       1.0  T
  19   -208.8033132 -0.496583E-03  0.391E-02    0.08       1.0  T
  20   -208.8032852  0.279771E-04  0.367E-02    0.08       1.0  T
  21   -208.8033868 -0.101605E-03  0.848E-03    0.09       1.2  T
  22   -208.8033882 -0.137167E-05  0.614E-03    0.09       1.6  T
  23   -208.8033889 -0.694070E-06  0.429E-03    0.09       2.3  T
  24   -208.8033881  0.781817E-06  0.747E-03    0.09       1.3  T
  25   -208.8033899 -0.178263E-05  0.285E-03    0.09       3.5  T
  26   -208.8033901 -0.134031E-06  0.256E-03    0.09       3.8  T
  27   -208.8033901 -0.637851E-07  0.232E-03    0.09       4.2  T
  28   -208.8033904 -0.236496E-06  0.546E-04    0.09      18.1  T
  29   -208.8033903  0.260342E-07  0.878E-04    0.09      11.2  T
     SCC iter.                  ...        0 min,  1.296 sec
     gradient                   ...        0 min,  0.065 sec
 * total energy  :  -204.7564302 Eh     change       -0.1000125E-01 Eh
   gradient norm :     0.0756521 Eh/α   predicted    -0.9748728E-02 (  -2.52%)
   displ. norm   :     0.8274243 α      lambda       -0.1285489E-01
   maximum displ.:     0.2508157 α      in ANC's #64, #33, #127, ...

........................................................................
.............................. CYCLE   76 ..............................
........................................................................

 iter      E             dE          RMSdq      gap      omega  full diag
   1   -208.5841071 -0.208584E+03  0.291E+00    0.05       0.0  T
   2   -207.6797987  0.904308E+00  0.444E+00    0.12       1.0  T
   3   -207.8748729 -0.195074E+00  0.406E+00    0.14       1.0  T
   4   -208.6277897 -0.752917E+00  0.182E+00    0.27       1.0  T
   5   -208.7455187 -0.117729E+00  0.114E+00    0.14       1.0  T
   6   -208.7500489 -0.453023E-02  0.555E-01    0.05       1.0  T
   7   -208.7648953 -0.148464E-01  0.973E-01    0.17       1.0  T
   8   -208.7695426 -0.464730E-02  0.772E-01    0.15       1.0  T
   9   -208.7715866 -0.204403E-02  0.358E-01    0.05       1.0  T
  10   -208.5890382  0.182548E+00  0.158E+00    0.04       1.0  T
  11   -208.7849811 -0.195943E+00  0.352E-01    0.11       1.0  T
  12   -208.7826681  0.231303E-02  0.224E-01    0.08       1.0  T
  13   -208.7882822 -0.561411E-02  0.175E-01    0.06       1.0  T
  14   -208.7802472  0.803495E-02  0.278E-01    0.05       1.0  T
  15   -208.7865782 -0.633098E-02  0.261E-01    0.06       1.0  T
  16   -208.7892101 -0.263184E-02  0.165E-01    0.07       1.0  T
  17   -208.7899858 -0.775755E-03  0.450E-02    0.08       1.0  T
  18   -208.7898360  0.149806E-03  0.631E-02    0.08       1.0  T
  19   -208.7898402 -0.419743E-05  0.566E-02    0.08       1.0  T
  20   -208.7901158 -0.275596E-03  0.529E-02    0.08       1.0  T
  21   -208.7902462 -0.130357E-03  0.193E-02    0.08       1.0  T
  22   -208.7902566 -0.104928E-04  0.958E-03    0.08       1.0  T
  23   -208.7902587 -0.206139E-05  0.449E-03    0.08       2.2  T
  24   -208.7902587 -0.253063E-07  0.529E-03    0.08       1.9  T
  25   -208.7902507  0.798765E-05  0.912E-03    0.08       1.1  T
  26   -208.7902483  0.241694E-05  0.104E-02    0.08       1.0  T
  27   -208.7902586 -0.102346E-04  0.428E-03    0.08       2.3  T
  28   -208.7902585  0.697241E-07  0.274E-03    0.08       3.6  T
  29   -208.7902590 -0.494235E-06  0.272E-03    0.08       3.6  T
  30   -208.7902595 -0.510826E-06  0.328E-04    0.08      30.1  T
  31   -208.7902594  0.553950E-07  0.620E-04    0.08      15.9  T
     SCC iter.                  ...        0 min,  1.149 sec
     gradient                   ...        0 min,  0.062 sec
 * total energy  :  -204.7687332 Eh     change       -0.1230308E-01 Eh
   gradient norm :     0.1676975 Eh/α   predicted    -0.1082786E-01 ( -11.99%)
   displ. norm   :     0.8270212 α      lambda       -0.2199482E-01
   maximum displ.:     0.2356362 α      in ANC's #216, #91, #127, ...

........................................................................
.............................. CYCLE   77 ..............................
........................................................................

 iter      E             dE          RMSdq      gap      omega  full diag
   1   -208.4089503 -0.208409E+03  0.276E+00    0.05       0.0  T
   2   -207.2930198  0.111593E+01  0.487E+00    0.29       1.0  T
   3   -208.6150737 -0.132205E+01  0.228E+00    0.28       1.0  T
   4   -208.3638338  0.251240E+00  0.244E+00    0.08       1.0  T
   5   -208.7291996 -0.365366E+00  0.934E-01    0.04       1.0  T
   6   -208.6676386  0.615610E-01  0.135E+00    0.25       1.0  T
   7   -208.7411602 -0.735216E-01  0.935E-01    0.13       1.0  T
   8   -208.7554645 -0.143044E-01  0.662E-01    0.11       1.0  T
   9   -207.7082299  0.104723E+01  0.283E+00    0.00       1.0  T
  10   -208.5698647 -0.861635E+00  0.197E+00    0.02       1.0  T
  11   -208.6424372 -0.725725E-01  0.144E+00    0.02       1.0  T
  12   -208.6404320  0.200523E-02  0.140E+00    0.03       1.0  T
  13   -208.7742294 -0.133797E+00  0.492E-01    0.05       1.0  T
  14   -208.7776688 -0.343934E-02  0.283E-01    0.07       1.0  T
  15   -208.7780040 -0.335176E-03  0.299E-01    0.08       1.0  T
  16   -208.7782952 -0.291237E-03  0.163E-01    0.07       1.0  T
  17   -208.7812371 -0.294195E-02  0.660E-02    0.07       1.0  T
  18   -208.7810769  0.160282E-03  0.126E-01    0.06       1.0  T
  19   -208.7815434 -0.466510E-03  0.473E-02    0.06       1.0  T
  20   -208.7815009  0.424396E-04  0.507E-02    0.07       1.0  T
  21   -208.7816006 -0.996195E-04  0.357E-02    0.06       1.0  T
  22   -208.7816916 -0.910763E-04  0.273E-02    0.06       1.0  T
  23   -208.7817024 -0.107973E-04  0.140E-02    0.06       1.0  T
  24   -208.7817035 -0.105075E-05  0.128E-02    0.06       1.0  T
  25   -208.7817066 -0.313308E-05  0.738E-03    0.06       1.3  T
  26   -208.7817056  0.978134E-06  0.101E-02    0.06       1.0  T
  27   -208.7817088 -0.319514E-05  0.614E-03    0.06       1.6  T
  28   -208.7817097 -0.895144E-06  0.328E-03    0.06       3.0  T
  29   -208.7817106 -0.908926E-06  0.153E-03    0.06       6.5  T
  30   -208.7817109 -0.268644E-06  0.891E-04    0.06      11.1  T
  31   -208.7817110 -0.101992E-06  0.714E-04    0.06      13.8  T
     SCC iter.                  ...        0 min,  0.988 sec
     gradient                   ...        0 min,  0.062 sec
 * total energy  :  -204.7825144 Eh     change       -0.1378117E-01 Eh
   gradient norm :     0.3691775 Eh/α   predicted    -0.1851919E-01 (  34.38%)
   displ. norm   :     0.6200923 α      lambda       -0.2167185E-01
   maximum displ.:     0.2148148 α      in ANC's #33, #64, #26, ...

........................................................................
.............................. CYCLE   78 ..............................
........................................................................

 iter      E             dE          RMSdq      gap      omega  full diag
   1   -208.5339296 -0.208534E+03  0.216E+00    0.15       0.0  T
   2   -204.7514532  0.378248E+01  0.610E+00    0.12       1.0  T
   3   -208.3602119 -0.360876E+01  0.283E+00    0.34       1.0  T
   4   -208.6656419 -0.305430E+00  0.141E+00    0.14       1.0  T
   5   -208.7043261 -0.386842E-01  0.591E-01    0.06       1.0  T
   6   -208.6723074  0.320187E-01  0.789E-01    0.05       1.0  T
   7   -208.7175307 -0.452234E-01  0.300E-01    0.04       1.0  T
   8   -208.5308863  0.186644E+00  0.109E+00    0.03       1.0  T
   9   -208.7158315 -0.184945E+00  0.528E-01    0.07       1.0  T
  10   -208.6817407  0.340908E-01  0.514E-01    0.01       1.0  T
  11   -208.7234964 -0.417557E-01  0.442E-01    0.06       1.0  T
  12   -208.7152706  0.822580E-02  0.402E-01    0.03       1.0  T
  13   -208.7313483 -0.160777E-01  0.170E-01    0.04       1.0  T
  14   -208.7328203 -0.147195E-02  0.969E-02    0.04       1.0  T
  15   -208.7328802 -0.599495E-04  0.126E-01    0.05       1.0  T
  16   -208.7331877 -0.307499E-03  0.853E-02    0.05       1.0  T
  17   -208.7333487 -0.160969E-03  0.463E-02    0.05       1.0  T
  18   -208.7327852  0.563558E-03  0.125E-01    0.04       1.0  T
  19   -208.7334400 -0.654856E-03  0.341E-02    0.04       1.0  T
  20   -208.7334018  0.381905E-04  0.295E-02    0.05       1.0  T
  21   -208.7334881 -0.862749E-04  0.146E-02    0.05       1.0  T
  22   -208.7334979 -0.982686E-05  0.108E-02    0.05       1.0  T
  23   -208.7334970  0.948538E-06  0.989E-03    0.05       1.0  T
  24   -208.7334993 -0.229648E-05  0.490E-03    0.05       2.0  T
  25   -208.7335018 -0.256886E-05  0.343E-03    0.05       2.9  T
  26   -208.7335017  0.174139E-06  0.229E-03    0.05       4.3  T
  27   -208.7335020 -0.356486E-06  0.223E-03    0.05       4.4  T
  28   -208.7335022 -0.160209E-06  0.760E-04    0.05      13.0  T
  29   -208.7335022  0.931527E-08  0.103E-03    0.05       9.6  T
  30   -208.7335022 -0.677406E-07  0.449E-04    0.05      22.0  T
     SCC iter.                  ...        0 min,  1.193 sec
     gradient                   ...        0 min,  0.063 sec
 * total energy  :  -204.7986238 Eh     change       -0.1610935E-01 Eh
   gradient norm :     0.2391818 Eh/α   predicted    -0.1500250E-01 (  -6.87%)
   displ. norm   :     0.6800671 α      lambda       -0.5956925E-01
   maximum displ.:     0.2375628 α      in ANC's #86, #54, #149, ...

........................................................................
.............................. CYCLE   79 ..............................
........................................................................

 iter      E             dE          RMSdq      gap      omega  full diag
   1   -208.5220696 -0.208522E+03  0.246E+00    0.07       0.0  T
   2   -205.4375952  0.308447E+01  0.657E+00    0.07       1.0  T
   3   -208.4119045 -0.297431E+01  0.299E+00    0.36       1.0  T
   4   -208.8083953 -0.396491E+00  0.112E+00    0.06       1.0  T
   5   -208.5592103  0.249185E+00  0.175E+00    0.05       1.0  T
   6   -208.7542352 -0.195025E+00  0.111E+00    0.09       1.0  T
   7   -208.7769606 -0.227254E-01  0.161E+00    0.13       1.0  T
   8   -208.8099033 -0.329427E-01  0.120E+00    0.09       1.0  T
   9   -208.8388652 -0.289620E-01  0.505E-01    0.03       1.0  T
  10   -208.7909666  0.478987E-01  0.712E-01    0.01       1.0  T
  11   -208.7889256  0.204094E-02  0.720E-01    0.01       1.0  T
  12   -208.4725966  0.316329E+00  0.146E+00    0.08       1.0  T
  13   -208.6402996 -0.167703E+00  0.112E+00    0.05       1.0  T
  14   -208.7769710 -0.136671E+00  0.641E-01    0.01       1.0  T
  15   -208.8405457 -0.635747E-01  0.557E-01    0.04       1.0  T
  16   -208.8579632 -0.174175E-01  0.257E-01    0.03       1.0  T
  17   -208.8513588  0.660443E-02  0.422E-01    0.01       1.0  T
  18   -208.8566466 -0.528788E-02  0.372E-01    0.01       1.0  T
  19   -208.8648264 -0.817973E-02  0.209E-01    0.01       1.0  T
  20   -208.8663591 -0.153276E-02  0.339E-02    0.01       1.0  T
  21   -208.8661292  0.229938E-03  0.525E-02    0.01       1.0  T
  22   -208.8664932 -0.363991E-03  0.243E-02    0.01       1.0  T
  23   -208.8665098 -0.166506E-04  0.279E-02    0.01       1.0  T
  24   -208.8665176 -0.776552E-05  0.231E-02    0.01       1.0  T
  25   -208.8665559 -0.382889E-04  0.149E-02    0.01       1.0  T
  26   -208.8665781 -0.221617E-04  0.827E-03    0.01       1.2  T
  27   -208.8665860 -0.797092E-05  0.648E-03    0.01       1.5  T
  28   -208.8665882 -0.213118E-05  0.121E-03    0.01       8.1  T
  29   -208.8665881  0.304003E-07  0.134E-03    0.01       7.3  T
  30   -208.8665879  0.202633E-06  0.171E-03    0.01       5.8  T
  31   -208.8665881 -0.146433E-06  0.116E-03    0.01       8.5  T
  32   -208.8665883 -0.205507E-06  0.608E-04    0.01      16.2  T
  33   -208.8665883 -0.355154E-07  0.471E-04    0.01      20.9  T
     SCC iter.                  ...        0 min,  1.279 sec
     gradient                   ...        0 min,  0.069 sec
 * total energy  :  -204.7901947 Eh     change        0.8429078E-02 Eh
   gradient norm :     0.7113216 Eh/α   predicted    -0.4355977E-01 (-616.78%)
   displ. norm   :     0.3665204 α      lambda       -0.7326157E-01
   maximum displ.:     0.0949949 α      in ANC's #33, #112, #97, ...

........................................................................
.............................. CYCLE   80 ..............................
........................................................................

 iter      E             dE          RMSdq      gap      omega  full diag
   1   -208.6904279 -0.208690E+03  0.151E+00    0.00       0.0  T
   2   -208.4479578  0.242470E+00  0.252E+00    0.09       1.0  T
   3   -208.5132452 -0.652874E-01  0.194E+00    0.27       1.0  T
   4   -208.7779384 -0.264693E+00  0.121E+00    0.04       1.0  T
   5   -208.7241236  0.538149E-01  0.137E+00    0.11       1.0  T
   6   -208.7768054 -0.526819E-01  0.696E-01    0.05       1.0  T
   7   -208.4269550  0.349850E+00  0.189E+00    0.10       1.0  T
   8   -208.6956567 -0.268702E+00  0.161E+00    0.15       1.0  T
   9   -208.7528417 -0.571849E-01  0.148E+00    0.05       1.0  T
  10   -208.5781184  0.174723E+00  0.154E+00    0.03       1.0  T
  11   -208.7954264 -0.217308E+00  0.723E-01    0.05       1.0  T
  12   -208.7999773 -0.455090E-02  0.296E-01    0.01       1.0  T
  13   -208.8116583 -0.116810E-01  0.162E-01    0.01       1.0  T
  14   -208.8077264  0.393184E-02  0.187E-01    0.01       1.0  T
  15   -208.8111008 -0.337437E-02  0.199E-01    0.01       1.0  T
  16   -208.8157769 -0.467610E-02  0.423E-02    0.01       1.0  T
  17   -208.8156647  0.112153E-03  0.763E-02    0.01       1.0  T
  18   -208.8155050  0.159758E-03  0.529E-02    0.01       1.0  T
  19   -208.8155091 -0.413995E-05  0.646E-02    0.01       1.0  T
  20   -208.8158746 -0.365509E-03  0.107E-02    0.01       1.0  T
  21   -208.8158170  0.576053E-04  0.180E-02    0.01       1.0  T
  22   -208.8158650 -0.480102E-04  0.102E-02    0.01       1.0  T
  23   -208.8158776 -0.125435E-04  0.398E-03    0.01       2.5  T
  24   -208.8158779 -0.320383E-06  0.563E-03    0.01       1.7  T
  25   -208.8158789 -0.100397E-05  0.204E-03    0.01       4.8  T
  26   -208.8158790 -0.636324E-07  0.142E-03    0.01       6.9  T
  27   -208.8158792 -0.206753E-06  0.101E-03    0.01       9.8  T
  28   -208.8158792 -0.378867E-07  0.468E-04    0.01      21.1  T
  29   -208.8158792 -0.385580E-08  0.163E-04    0.01      60.6  T
     SCC iter.                  ...        0 min,  1.023 sec
     gradient                   ...        0 min,  0.065 sec
 * total energy  :  -204.8295684 Eh     change       -0.3937372E-01 Eh
   gradient norm :     0.1222600 Eh/α   predicted    -0.4155171E-01 (   5.53%)
   displ. norm   :     0.7223405 α      lambda       -0.2951557E-01
   maximum displ.:     0.2934569 α      in ANC's #97, #33, #64, ...

........................................................................
.............................. CYCLE   81 ..............................
........................................................................

 iter      E             dE          RMSdq      gap      omega  full diag
   1   -208.8058923 -0.208806E+03  0.166E+00    0.07       0.0  T
   2   -208.2203760  0.585516E+00  0.341E+00    0.44       1.0  T
   3   -208.8574180 -0.637042E+00  0.923E-01    0.06       1.0  T
   4   -208.2315837  0.625834E+00  0.177E+00    0.09       1.0  T
   5   -208.8691496 -0.637566E+00  0.978E-01    0.03       1.0  T
   6   -208.8836462 -0.144966E-01  0.577E-01    0.03       1.0  T
   7   -208.8739344  0.971179E-02  0.473E-01    0.06       1.0  T
   8   -208.8636474  0.102871E-01  0.517E-01    0.02       1.0  T
   9   -208.8967351 -0.330878E-01  0.324E-01    0.03       1.0  T
  10   -208.8337104  0.630247E-01  0.592E-01    0.01       1.0  T
  11   -208.8877932 -0.540829E-01  0.271E-01    0.02       1.0  T
  12   -208.8537127  0.340805E-01  0.518E-01    0.00       1.0  T
  13   -208.8882888 -0.345761E-01  0.298E-01    0.02       1.0  T
  14   -208.8983804 -0.100916E-01  0.151E-01    0.04       1.0  T
  15   -208.8972601  0.112024E-02  0.164E-01    0.04       1.0  T
  16   -208.8991056 -0.184548E-02  0.144E-01    0.03       1.0  T
  17   -208.9023497 -0.324411E-02  0.632E-02    0.03       1.0  T
  18   -208.9028406 -0.490829E-03  0.297E-02    0.03       1.0  T
  19   -208.9029646 -0.123986E-03  0.243E-02    0.03       1.0  T
  20   -208.9029858 -0.212635E-04  0.241E-02    0.03       1.0  T
  21   -208.9029591  0.267597E-04  0.206E-02    0.03       1.0  T
  22   -208.9030436 -0.845374E-04  0.105E-02    0.03       1.0  T
  23   -208.9030525 -0.886874E-05  0.330E-03    0.03       3.0  T
  24   -208.9030524  0.206513E-07  0.345E-03    0.03       2.9  T
  25   -208.9030498  0.265689E-05  0.389E-03    0.03       2.5  T
  26   -208.9030524 -0.264895E-05  0.178E-03    0.03       5.5  T
  27   -208.9030531 -0.622834E-06  0.663E-04    0.03      14.9  T
  28   -208.9030531  0.293466E-08  0.350E-04    0.03      28.2  T
     SCC iter.                  ...        0 min,  0.999 sec
     gradient                   ...        0 min,  0.067 sec
 * total energy  :  -204.8333425 Eh     change       -0.3774087E-02 Eh
   gradient norm :     0.1980606 Eh/α   predicted    -0.2245804E-01 ( 495.06%)
   displ. norm   :     0.4321316 α      lambda       -0.3239876E-01
   maximum displ.:     0.1339501 α      in ANC's #70, #85, #33, ...

........................................................................
.............................. CYCLE   82 ..............................
........................................................................

 iter      E             dE          RMSdq      gap      omega  full diag
   1   -208.9247303 -0.208925E+03  0.818E-01    0.06       0.0  T
   2   -208.7215008  0.203230E+00  0.193E+00    0.39       1.0  T
   3   -208.6908317  0.306691E-01  0.104E+00    0.03       1.0  T
   4   -208.7274804 -0.366487E-01  0.126E+00    0.26       1.0  T
   5   -208.8980636 -0.170583E+00  0.526E-01    0.07       1.0  T
   6   -208.9154528 -0.173892E-01  0.369E-01    0.07       1.0  T
   7   -208.9187271 -0.327431E-02  0.380E-01    0.06       1.0  T
   8   -208.9213810 -0.265396E-02  0.259E-01    0.06       1.0  T
   9   -208.5369096  0.384471E+00  0.143E+00    0.09       1.0  T
  10   -208.9300341 -0.393124E+00  0.219E-01    0.06       1.0  T
  11   -208.6407983  0.289236E+00  0.126E+00    0.08       1.0  T
  12   -208.5488979  0.919004E-01  0.138E+00    0.10       1.0  T
  13   -208.7984272 -0.249529E+00  0.881E-01    0.03       1.0  T
  14   -208.9231573 -0.124730E+00  0.237E-01    0.07       1.0  T
  15   -208.9205430  0.261425E-02  0.246E-01    0.06       1.0  T
  16   -208.9252850 -0.474196E-02  0.203E-01    0.06       1.0  T
  17   -208.9324261 -0.714107E-02  0.923E-02    0.06       1.0  T
  18   -208.9335951 -0.116905E-02  0.159E-02    0.06       1.0  T
  19   -208.9335409  0.541881E-04  0.247E-02    0.06       1.0  T
  20   -208.9327405  0.800390E-03  0.637E-02    0.06       1.0  T
  21   -208.9333791 -0.638569E-03  0.383E-02    0.06       1.0  T
  22   -208.9334526 -0.735272E-04  0.284E-02    0.06       1.0  T
  23   -208.9334953 -0.426865E-04  0.241E-02    0.06       1.0  T
  24   -208.9335961 -0.100777E-03  0.873E-03    0.06       1.1  T
  25   -208.9336070 -0.109027E-04  0.565E-03    0.06       1.7  T
  26   -208.9336112 -0.420707E-05  0.112E-03    0.06       8.8  T
  27   -208.9336112 -0.359223E-07  0.147E-03    0.06       6.7  T
  28   -208.9336107  0.576476E-06  0.177E-03    0.06       5.6  T
  29   -208.9336113 -0.594541E-06  0.792E-04    0.06      12.4  T
  30   -208.9336113  0.198349E-08  0.540E-04    0.06      18.3  T
     SCC iter.                  ...        0 min,  0.980 sec
     gradient                   ...        0 min,  0.064 sec
 * total energy  :  -204.8442466 Eh     change       -0.1090410E-01 Eh
   gradient norm :     0.1878905 Eh/α   predicted    -0.1922442E-01 (  76.30%)
   displ. norm   :     0.6008242 α      lambda       -0.3321197E-01
   maximum displ.:     0.1883475 α      in ANC's #71, #56, #36, ...

........................................................................
.............................. CYCLE   83 ..............................
........................................................................

 iter      E             dE          RMSdq      gap      omega  full diag
   1   -208.8115341 -0.208812E+03  0.143E+00    0.11       0.0  T
   2   -208.3562821  0.455252E+00  0.298E+00    0.13       1.0  T
   3   -208.4498733 -0.935912E-01  0.161E+00    0.11       1.0  T
   4   -208.6582791 -0.208406E+00  0.122E+00    0.23       1.0  T
   5   -208.7083293 -0.500502E-01  0.181E+00    0.19       1.0  T
   6   -208.7726317 -0.643023E-01  0.140E+00    0.12       1.0  T
   7   -208.8292740 -0.566424E-01  0.815E-01    0.07       1.0  T
   8   -208.5691821  0.260092E+00  0.126E+00    0.06       1.0  T
   9   -208.8561466 -0.286964E+00  0.561E-01    0.09       1.0  T
  10   -208.8592744 -0.312780E-02  0.288E-01    0.07       1.0  T
  11   -208.8604589 -0.118454E-02  0.547E-01    0.06       1.0  T
  12   -208.8567540  0.370495E-02  0.291E-01    0.03       1.0  T
  13   -208.8704583 -0.137043E-01  0.166E-01    0.06       1.0  T
  14   -208.8456305  0.248277E-01  0.368E-01    0.02       1.0  T
  15   -208.8725962 -0.269657E-01  0.121E-01    0.06       1.0  T
  16   -208.8729450 -0.348825E-03  0.914E-02    0.06       1.0  T
  17   -208.8728007  0.144334E-03  0.862E-02    0.06       1.0  T
  18   -208.8734762 -0.675535E-03  0.201E-02    0.06       1.0  T
  19   -208.8734658  0.104465E-04  0.287E-02    0.06       1.0  T
  20   -208.8734780 -0.122372E-04  0.246E-02    0.06       1.0  T
  21   -208.8734921 -0.140639E-04  0.125E-02    0.06       1.0  T
  22   -208.8735093 -0.172081E-04  0.745E-03    0.06       1.3  T
  23   -208.8735176 -0.824221E-05  0.467E-03    0.06       2.1  T
  24   -208.8735142  0.333853E-05  0.485E-03    0.06       2.0  T
  25   -208.8735184 -0.420068E-05  0.226E-03    0.06       4.4  T
  26   -208.8735190 -0.577432E-06  0.192E-03    0.06       5.1  T
  27   -208.8735194 -0.429911E-06  0.977E-04    0.06      10.1  T
  28   -208.8735192  0.227425E-06  0.129E-03    0.06       7.7  T
  29   -208.8735195 -0.292733E-06  0.848E-04    0.06      11.6  T
     SCC iter.                  ...        0 min,  0.760 sec
     gradient                   ...        0 min,  0.060 sec
 * total energy  :  -204.8400863 Eh     change        0.4160328E-02 Eh
   gradient norm :     0.2150166 Eh/α   predicted    -0.2260059E-01 (-643.24%)
   displ. norm   :     0.3563509 α      lambda       -0.3502869E-01
   maximum displ.:     0.1264151 α      in ANC's #97, #59, #43, ...

........................................................................
.............................. CYCLE   84 ..............................
........................................................................

 iter      E             dE          RMSdq      gap      omega  full diag
   1   -208.8425410 -0.208843E+03  0.118E+00    0.06       0.0  T
   2   -207.7823505  0.106019E+01  0.324E+00    0.21       1.0  T
   3   -208.6772524 -0.894902E+00  0.146E+00    0.07       1.0  T
   4   -208.8564130 -0.179161E+00  0.831E-01    0.11       1.0  T
   5   -208.5649606  0.291452E+00  0.120E+00    0.08       1.0  T
   6   -208.8705735 -0.305613E+00  0.499E-01    0.08       1.0  T
   7   -208.8348596  0.357139E-01  0.874E-01    0.13       1.0  T
   8   -208.8561488 -0.212892E-01  0.576E-01    0.11       1.0  T
   9   -208.8665930 -0.104442E-01  0.348E-01    0.09       1.0  T
  10   -208.8761756 -0.958261E-02  0.435E-01    0.08       1.0  T
  11   -208.8803591 -0.418345E-02  0.266E-01    0.08       1.0  T
  12   -208.8863692 -0.601010E-02  0.105E-01    0.06       1.0  T
  13   -208.8867616 -0.392398E-03  0.116E-01    0.06       1.0  T
  14   -208.8836518  0.310980E-02  0.174E-01    0.05       1.0  T
  15   -208.8872855 -0.363370E-02  0.940E-02    0.06       1.0  T
  16   -208.8883181 -0.103263E-02  0.556E-02    0.08       1.0  T
  17   -208.8883856 -0.675513E-04  0.340E-02    0.08       1.0  T
  18   -208.8884912 -0.105539E-03  0.439E-02    0.07       1.0  T
  19   -208.8884746  0.166017E-04  0.320E-02    0.07       1.0  T
  20   -208.8885806 -0.106025E-03  0.576E-03    0.07       1.7  T
  21   -208.8885606  0.199657E-04  0.112E-02    0.07       1.0  T
  22   -208.8885821 -0.215024E-04  0.320E-03    0.07       3.1  T
  23   -208.8885828 -0.618883E-06  0.141E-03    0.07       7.0  T
  24   -208.8885798  0.296730E-05  0.384E-03    0.07       2.6  T
  25   -208.8885826 -0.283445E-05  0.213E-03    0.07       4.6  T
  26   -208.8885828 -0.158109E-06  0.769E-04    0.07      12.8  T
  27   -208.8885828 -0.642740E-08  0.694E-04    0.07      14.2  T
     SCC iter.                  ...        0 min,  0.850 sec
     gradient                   ...        0 min,  0.060 sec
 * total energy  :  -204.8585641 Eh     change       -0.1847785E-01 Eh
   gradient norm :     0.0632022 Eh/α   predicted    -0.1973845E-01 (   6.82%)
   displ. norm   :     0.5344876 α      lambda       -0.9713832E-02
   maximum displ.:     0.1888047 α      in ANC's #64, #33, #70, ...

........................................................................
.............................. CYCLE   85 ..............................
........................................................................

 iter      E             dE          RMSdq      gap      omega  full diag
   1   -208.9498618 -0.208950E+03  0.114E+00    0.11       0.0  T
   2   -208.4915236  0.458338E+00  0.273E+00    0.10       1.0  T
   3   -208.6600843 -0.168561E+00  0.136E+00    0.10       1.0  T
   4   -208.8106564 -0.150572E+00  0.116E+00    0.29       1.0  T
   5   -208.9422906 -0.131634E+00  0.107E+00    0.11       1.0  T
   6   -208.9854887 -0.431981E-01  0.518E-01    0.10       1.0  T
   7   -208.9815077  0.398091E-02  0.550E-01    0.10       1.0  T
   8   -208.9935296 -0.120219E-01  0.276E-01    0.06       1.0  T
   9   -208.9899227  0.360697E-02  0.268E-01    0.11       1.0  T
  10   -209.0035481 -0.136254E-01  0.952E-02    0.08       1.0  T
  11   -209.0018796  0.166850E-02  0.143E-01    0.07       1.0  T
  12   -209.0023893 -0.509714E-03  0.109E-01    0.07       1.0  T
  13   -209.0015532  0.836085E-03  0.104E-01    0.10       1.0  T
  14   -209.0013138  0.239480E-03  0.107E-01    0.06       1.0  T
  15   -209.0032836 -0.196986E-02  0.648E-02    0.08       1.0  T
  16   -209.0033343 -0.506393E-04  0.467E-02    0.07       1.0  T
  17   -209.0035535 -0.219245E-03  0.367E-02    0.09       1.0  T
  18   -209.0036511 -0.976153E-04  0.285E-02    0.08       1.0  T
  19   -209.0036669 -0.158013E-04  0.215E-02    0.08       1.0  T
  20   -209.0037391 -0.721468E-04  0.882E-03    0.08       1.1  T
  21   -209.0036999  0.391693E-04  0.155E-02    0.08       1.0  T
  22   -209.0037489 -0.490306E-04  0.485E-03    0.08       2.0  T
  23   -209.0037512 -0.229510E-05  0.250E-03    0.08       3.9  T
  24   -209.0037474  0.383084E-05  0.480E-03    0.08       2.1  T
  25   -209.0037522 -0.485577E-05  0.104E-03    0.08       9.4  T
  26   -209.0037525 -0.224446E-06  0.304E-04    0.08      32.4  T
  27   -209.0037524  0.304493E-07  0.480E-04    0.08      20.5  T
     SCC iter.                  ...        0 min,  0.727 sec
     gradient                   ...        0 min,  0.063 sec
 * total energy  :  -204.8602230 Eh     change       -0.1658919E-02 Eh
   gradient norm :     0.1189851 Eh/α   predicted    -0.6244473E-02 ( 276.42%)
   displ. norm   :     0.5265795 α      lambda       -0.1278053E-01
   maximum displ.:     0.1795835 α      in ANC's #43, #30, #36, ...

........................................................................
.............................. CYCLE   86 ..............................
........................................................................

 iter      E             dE          RMSdq      gap      omega  full diag
   1   -208.9926506 -0.208993E+03  0.932E-01    0.11       0.0  T
   2   -206.0020972  0.299055E+01  0.508E+00    0.03       1.0  T
   3   -208.9515549 -0.294946E+01  0.104E+00    0.15       1.0  T
   4   -208.8189682  0.132587E+00  0.168E+00    0.28       1.0  T
   5   -208.9652473 -0.146279E+00  0.646E-01    0.14       1.0  T
   6   -208.9812307 -0.159834E-01  0.620E-01    0.11       1.0  T
   7   -208.9935142 -0.122836E-01  0.437E-01    0.11       1.0  T
   8   -208.9936777 -0.163426E-03  0.416E-01    0.12       1.0  T
   9   -208.9891170  0.456062E-02  0.553E-01    0.03       1.0  T
  10   -209.0074793 -0.183623E-01  0.445E-01    0.07       1.0  T
  11   -208.9170008  0.904785E-01  0.796E-01    0.00       1.0  T
  12   -208.8926942  0.243066E-01  0.834E-01    0.02       1.0  T
  13   -208.9515973 -0.589031E-01  0.632E-01    0.01       1.0  T
  14   -208.9838103 -0.322130E-01  0.381E-01    0.03       1.0  T
  15   -209.0123158 -0.285055E-01  0.485E-02    0.08       1.0  T
  16   -209.0044157  0.790012E-02  0.184E-01    0.05       1.0  T
  17   -209.0124388 -0.802315E-02  0.280E-02    0.09       1.0  T
  18   -209.0124517 -0.129003E-04  0.246E-02    0.09       1.0  T
  19   -209.0125130 -0.612951E-04  0.188E-02    0.08       1.0  T
  20   -209.0121835  0.329516E-03  0.419E-02    0.09       1.0  T
  21   -209.0124629 -0.279424E-03  0.214E-02    0.09       1.0  T
  22   -209.0125395 -0.765914E-04  0.800E-03    0.08       1.2  T
  23   -209.0125334  0.609969E-05  0.735E-03    0.08       1.3  T
  24   -209.0125413 -0.792108E-05  0.174E-03    0.08       5.7  T
  25   -209.0125404  0.922305E-06  0.297E-03    0.08       3.3  T
  26   -209.0125363  0.411160E-05  0.509E-03    0.08       1.9  T
  27   -209.0125416 -0.526836E-05  0.104E-03    0.08       9.5  T
  28   -209.0125416 -0.687476E-07  0.383E-04    0.08      25.7  T
  29   -209.0125415  0.104997E-06  0.730E-04    0.08      13.5  T
     SCC iter.                  ...        0 min,  0.748 sec
     gradient                   ...        0 min,  0.057 sec
 * total energy  :  -204.8663634 Eh     change       -0.6140336E-02 Eh
   gradient norm :     0.0844256 Eh/α   predicted    -0.8162179E-02 (  32.93%)
   displ. norm   :     0.5309120 α      lambda       -0.1475610E-01
   maximum displ.:     0.2255358 α      in ANC's #39, #59, #36, ...

........................................................................
.............................. CYCLE   87 ..............................
........................................................................

 iter      E             dE          RMSdq      gap      omega  full diag
   1   -208.8320822 -0.208832E+03  0.941E-01    0.09       0.0  T
   2   -208.4701956  0.361887E+00  0.222E+00    0.06       1.0  T
   3   -208.6542014 -0.184006E+00  0.153E+00    0.13       1.0  T
   4   -208.8303633 -0.176162E+00  0.650E-01    0.13       1.0  T
   5   -208.4885233  0.341840E+00  0.135E+00    0.10       1.0  T
   6   -208.8017356 -0.313212E+00  0.711E-01    0.15       1.0  T
   7   -208.8246177 -0.228822E-01  0.439E-01    0.12       1.0  T
   8   -208.8450925 -0.204748E-01  0.303E-01    0.11       1.0  T
   9   -208.8450454  0.471237E-04  0.309E-01    0.11       1.0  T
  10   -208.8495576 -0.451222E-02  0.134E-01    0.08       1.0  T
  11   -208.8456833  0.387437E-02  0.186E-01    0.11       1.0  T
  12   -208.8469656 -0.128234E-02  0.173E-01    0.11       1.0  T
  13   -208.8483911 -0.142546E-02  0.136E-01    0.11       1.0  T
  14   -208.8515470 -0.315592E-02  0.696E-02    0.09       1.0  T
  15   -208.8517511 -0.204145E-03  0.590E-02    0.09       1.0  T
  16   -208.8523294 -0.578258E-03  0.293E-02    0.08       1.0  T
  17   -208.8524794 -0.150035E-03  0.125E-02    0.08       1.0  T
  18   -208.8524708  0.863959E-05  0.114E-02    0.08       1.0  T
  19   -208.8524718 -0.977788E-06  0.102E-02    0.08       1.0  T
  20   -208.8524803 -0.859780E-05  0.889E-03    0.08       1.1  T
  21   -208.8524886 -0.825332E-05  0.464E-03    0.08       2.1  T
  22   -208.8524904 -0.180083E-05  0.256E-03    0.08       3.8  T
  23   -208.8524903  0.976743E-07  0.200E-03    0.08       4.9  T
  24   -208.8524899  0.455029E-06  0.255E-03    0.08       3.9  T
  25   -208.8524903 -0.494243E-06  0.155E-03    0.08       6.4  T
  26   -208.8524908 -0.416500E-06  0.658E-04    0.08      15.0  T
  27   -208.8524908 -0.831577E-07  0.133E-04    0.08      73.9  T
     SCC iter.                  ...        0 min,  0.843 sec
     gradient                   ...        0 min,  0.060 sec
 * total energy  :  -204.8661152 Eh     change        0.2481857E-03 Eh
   gradient norm :     0.1831307 Eh/α   predicted    -0.9457694E-02 (*******%)
   displ. norm   :     0.2895046 α      lambda       -0.1299129E-01
   maximum displ.:     0.0883729 α      in ANC's #44, #97, #36, ...

........................................................................
.............................. CYCLE   88 ..............................
........................................................................

 iter      E             dE          RMSdq      gap      omega  full diag
   1   -208.9236945 -0.208924E+03  0.668E-01    0.07       0.0  T
   2   -208.6300258  0.293669E+00  0.232E+00    0.46       1.0  T
   3   -208.8723646 -0.242339E+00  0.722E-01    0.18       1.0  T
   4   -208.4837550  0.388610E+00  0.142E+00    0.10       1.0  T
   5   -208.9170582 -0.433303E+00  0.623E-01    0.11       1.0  T
   6   -208.9252575 -0.819927E-02  0.456E-01    0.11       1.0  T
   7   -208.9289086 -0.365113E-02  0.293E-01    0.11       1.0  T
   8   -208.9397798 -0.108712E-01  0.862E-02    0.08       1.0  T
   9   -208.9344231  0.535673E-02  0.199E-01    0.06       1.0  T
  10   -208.9265469  0.787619E-02  0.256E-01    0.05       1.0  T
  11   -208.9396448 -0.130980E-01  0.710E-02    0.09       1.0  T
  12   -208.9391757  0.469103E-03  0.114E-01    0.08       1.0  T
  13   -208.9375046  0.167116E-02  0.106E-01    0.10       1.0  T
  14   -208.9398803 -0.237570E-02  0.380E-02    0.08       1.0  T
  15   -208.9398400  0.403105E-04  0.420E-02    0.08       1.0  T
  16   -208.9395594  0.280544E-03  0.441E-02    0.07       1.0  T
  17   -208.9399217 -0.362287E-03  0.288E-02    0.08       1.0  T
  18   -208.9400040 -0.822502E-04  0.114E-02    0.08       1.0  T
  19   -208.9399779  0.260606E-04  0.140E-02    0.08       1.0  T
  20   -208.9400016 -0.236643E-04  0.672E-03    0.08       1.5  T
  21   -208.9400111 -0.951428E-05  0.197E-03    0.08       5.0  T
  22   -208.9400108  0.301708E-06  0.199E-03    0.08       4.9  T
  23   -208.9400112 -0.472093E-06  0.139E-03    0.08       7.1  T
  24   -208.9400114 -0.190613E-06  0.124E-03    0.08       8.0  T
  25   -208.9400115 -0.375430E-07  0.492E-04    0.08      20.0  T
  26   -208.9400115 -0.351703E-07  0.350E-04    0.08      28.1  T
     SCC iter.                  ...        0 min,  1.153 sec
     gradient                   ...        0 min,  0.070 sec
 * total energy  :  -204.8731105 Eh     change       -0.6995371E-02 Eh
   gradient norm :     0.0450093 Eh/α   predicted    -0.7040062E-02 (   0.64%)
   displ. norm   :     0.4659792 α      lambda       -0.6485480E-02
   maximum displ.:     0.1827189 α      in ANC's #48, #33, #43, ...

........................................................................
.............................. CYCLE   89 ..............................
........................................................................

 iter      E             dE          RMSdq      gap      omega  full diag
   1   -208.9405848 -0.208941E+03  0.760E-01    0.12       0.0  T
   2   -208.0881268  0.852458E+00  0.233E+00    0.08       1.0  T
   3   -208.7764291 -0.688302E+00  0.183E+00    0.30       1.0  T
   4   -208.9327321 -0.156303E+00  0.609E-01    0.15       1.0  T
   5   -208.5798956  0.352837E+00  0.127E+00    0.09       1.0  T
   6   -208.9632701 -0.383375E+00  0.455E-01    0.11       1.0  T
   7   -208.9545985  0.867158E-02  0.626E-01    0.11       1.0  T
   8   -208.9717116 -0.171131E-01  0.235E-01    0.06       1.0  T
   9   -208.9149901  0.567215E-01  0.504E-01    0.02       1.0  T
  10   -208.9195126 -0.452250E-02  0.516E-01    0.01       1.0  T
  11   -208.9579641 -0.384514E-01  0.314E-01    0.03       1.0  T
  12   -208.9758891 -0.179250E-01  0.210E-01    0.09       1.0  T
  13   -208.9769056 -0.101655E-02  0.144E-01    0.09       1.0  T
  14   -208.9784717 -0.156607E-02  0.336E-02    0.08       1.0  T
  15   -208.9775003  0.971422E-03  0.757E-02    0.10       1.0  T
  16   -208.9782340 -0.733744E-03  0.445E-02    0.09       1.0  T
  17   -208.9786053 -0.371341E-03  0.135E-02    0.08       1.0  T
  18   -208.9786033  0.205426E-05  0.126E-02    0.08       1.0  T
  19   -208.9785902  0.130443E-04  0.133E-02    0.08       1.0  T
  20   -208.9786002 -0.100016E-04  0.135E-02    0.08       1.0  T
  21   -208.9786178 -0.175759E-04  0.129E-02    0.08       1.0  T
  22   -208.9786249 -0.712073E-05  0.394E-03    0.08       2.5  T
  23   -208.9786263 -0.140168E-05  0.254E-03    0.08       3.9  T
  24   -208.9786260  0.359629E-06  0.220E-03    0.08       4.5  T
  25   -208.9786268 -0.814447E-06  0.107E-03    0.08       9.2  T
  26   -208.9786270 -0.167512E-06  0.110E-03    0.08       8.9  T
  27   -208.9786270 -0.238392E-07  0.671E-04    0.08      14.7  T
  28   -208.9786269  0.344514E-07  0.620E-04    0.08      15.9  T
     SCC iter.                  ...        0 min,  1.337 sec
     gradient                   ...        0 min,  0.062 sec
 * total energy  :  -204.8735988 Eh     change       -0.4882202E-03 Eh
   gradient norm :     0.0885653 Eh/α   predicted    -0.3946864E-02 ( 708.42%)
   displ. norm   :     0.4310493 α      lambda       -0.6647937E-02
   maximum displ.:     0.1998671 α      in ANC's #36, #26, #39, ...

........................................................................
.............................. CYCLE   90 ..............................
........................................................................

 iter      E             dE          RMSdq      gap      omega  full diag
   1   -208.9482978 -0.208948E+03  0.619E-01    0.12       0.0  T
   2   -208.2536012  0.694697E+00  0.185E+00    0.10       1.0  T
   3   -208.8877191 -0.634118E+00  0.142E+00    0.14       1.0  T
   4   -208.9153902 -0.276711E-01  0.603E-01    0.18       1.0  T
   5   -208.9116558  0.373442E-02  0.991E-01    0.12       1.0  T
   6   -208.9056468  0.600897E-02  0.633E-01    0.02       1.0  T
   7   -208.9545253 -0.488785E-01  0.551E-01    0.11       1.0  T
   8   -208.9512499  0.327542E-02  0.365E-01    0.05       1.0  T
   9   -208.9626181 -0.113682E-01  0.340E-01    0.11       1.0  T
  10   -208.9421047  0.205134E-01  0.358E-01    0.03       1.0  T
  11   -208.9611388 -0.190341E-01  0.254E-01    0.04       1.0  T
  12   -208.9696769 -0.853806E-02  0.138E-01    0.06       1.0  T
  13   -208.9723315 -0.265465E-02  0.662E-02    0.09       1.0  T
  14   -208.9712716  0.105991E-02  0.851E-02    0.10       1.0  T
  15   -208.9724688 -0.119721E-02  0.471E-02    0.09       1.0  T
  16   -208.9728225 -0.353635E-03  0.206E-02    0.08       1.0  T
  17   -208.9728622 -0.397111E-04  0.975E-03    0.08       1.0  T
  18   -208.9728581  0.404154E-05  0.809E-03    0.08       1.2  T
  19   -208.9728565  0.169323E-05  0.747E-03    0.08       1.3  T
  20   -208.9728652 -0.876144E-05  0.442E-03    0.08       2.2  T
  21   -208.9728681 -0.284975E-05  0.230E-03    0.08       4.3  T
  22   -208.9728680  0.957644E-07  0.189E-03    0.08       5.2  T
  23   -208.9728685 -0.522745E-06  0.147E-03    0.08       6.7  T
  24   -208.9728683  0.178279E-06  0.123E-03    0.08       8.0  T
  25   -208.9728684 -0.442040E-07  0.117E-03    0.08       8.4  T
  26   -208.9728685 -0.157821E-06  0.106E-03    0.08       9.3  T
  27   -208.9728686 -0.856487E-07  0.522E-04    0.08      18.9  T
  28   -208.9728686  0.761995E-08  0.543E-04    0.08      18.1  T
     SCC iter.                  ...        0 min,  1.248 sec
     gradient                   ...        0 min,  0.060 sec
 * total energy  :  -204.8768033 Eh     change       -0.3204531E-02 Eh
   gradient norm :     0.0446766 Eh/α   predicted    -0.3941569E-02 (  23.00%)
   displ. norm   :     0.5545434 α      lambda       -0.7977286E-02
   maximum displ.:     0.1943457 α      in ANC's #56, #31, #22, ...

........................................................................
.............................. CYCLE   91 ..............................
........................................................................

 iter      E             dE          RMSdq      gap      omega  full diag
   1   -208.8542794 -0.208854E+03  0.111E+00    0.03       0.0  T
   2   -207.0792648  0.177501E+01  0.428E+00    0.12       1.0  T
   3   -208.7870456 -0.170778E+01  0.154E+00    0.24       1.0  T
   4   -208.7866149  0.430720E-03  0.156E+00    0.21       1.0  T
   5   -208.8499358 -0.633208E-01  0.680E-01    0.00       1.0  T
   6   -208.8568520 -0.691625E-02  0.908E-01    0.17       1.0  T
   7   -208.9179852 -0.611331E-01  0.500E-01    0.11       1.0  T
   8   -208.9199076 -0.192247E-02  0.432E-01    0.11       1.0  T
   9   -208.6373648  0.282543E+00  0.115E+00    0.07       1.0  T
  10   -208.9245081 -0.287143E+00  0.380E-01    0.03       1.0  T
  11   -208.8950728  0.294353E-01  0.496E-01    0.02       1.0  T
  12   -208.8618365  0.332363E-01  0.561E-01    0.00       1.0  T
  13   -208.9360827 -0.742463E-01  0.277E-01    0.09       1.0  T
  14   -208.9383981 -0.231534E-02  0.207E-01    0.09       1.0  T
  15   -208.9407180 -0.231992E-02  0.105E-01    0.09       1.0  T
  16   -208.9425655 -0.184748E-02  0.651E-02    0.07       1.0  T
  17   -208.9429808 -0.415289E-03  0.316E-02    0.08       1.0  T
  18   -208.9426576  0.323136E-03  0.584E-02    0.07       1.0  T
  19   -208.9430963 -0.438645E-03  0.230E-02    0.07       1.0  T
  20   -208.9431286 -0.323481E-04  0.100E-02    0.08       1.0  T
  21   -208.9431287 -0.203858E-07  0.161E-02    0.07       1.0  T
  22   -208.9431393 -0.106980E-04  0.792E-03    0.07       1.2  T
  23   -208.9431433 -0.392295E-05  0.233E-03    0.07       4.2  T
  24   -208.9431413  0.198042E-05  0.413E-03    0.07       2.4  T
  25   -208.9431415 -0.255547E-06  0.296E-03    0.07       3.3  T
  26   -208.9431418 -0.214284E-06  0.275E-03    0.07       3.6  T
  27   -208.9431432 -0.144670E-05  0.139E-03    0.07       7.1  T
  28   -208.9431435 -0.266732E-06  0.957E-04    0.07      10.3  T
  29   -208.9431435 -0.451382E-07  0.567E-04    0.07      17.4  T
     SCC iter.                  ...        0 min,  1.230 sec
     gradient                   ...        0 min,  0.061 sec
 * total energy  :  -204.8727944 Eh     change        0.4008901E-02 Eh
   gradient norm :     0.1072773 Eh/α   predicted    -0.5215228E-02 (-230.09%)
   displ. norm   :     0.2973720 α      lambda       -0.1255403E-01
   maximum displ.:     0.1137481 α      in ANC's #36, #56, #54, ...

........................................................................
.............................. CYCLE   92 ..............................
........................................................................

 iter      E             dE          RMSdq      gap      omega  full diag
   1   -208.9216397 -0.208922E+03  0.723E-01    0.10       0.0  T
   2   -208.5209771  0.400663E+00  0.202E+00    0.02       1.0  T
   3   -208.9242668 -0.403290E+00  0.573E-01    0.10       1.0  T
   4   -208.4694937  0.454773E+00  0.149E+00    0.11       1.0  T
   5   -208.9338478 -0.464354E+00  0.314E-01    0.09       1.0  T
   6   -208.9406888 -0.684092E-02  0.243E-01    0.07       1.0  T
   7   -208.9354057  0.528307E-02  0.289E-01    0.09       1.0  T
   8   -208.9389547 -0.354903E-02  0.208E-01    0.10       1.0  T
   9   -208.9454526 -0.649792E-02  0.245E-01    0.07       1.0  T
  10   -208.9410935  0.435914E-02  0.219E-01    0.04       1.0  T
  11   -208.9488234 -0.772994E-02  0.714E-02    0.07       1.0  T
  12   -208.9475058  0.131759E-02  0.924E-02    0.09       1.0  T
  13   -208.9489702 -0.146437E-02  0.492E-02    0.08       1.0  T
  14   -208.9492102 -0.239992E-03  0.355E-02    0.08       1.0  T
  15   -208.9493116 -0.101433E-03  0.234E-02    0.07       1.0  T
  16   -208.9493501 -0.384202E-04  0.140E-02    0.07       1.0  T
  17   -208.9493227  0.273457E-04  0.129E-02    0.07       1.0  T
  18   -208.9493593 -0.365372E-04  0.408E-03    0.07       2.4  T
  19   -208.9493526  0.661458E-05  0.614E-03    0.08       1.6  T
  20   -208.9493603 -0.761522E-05  0.256E-03    0.07       3.8  T
  21   -208.9493598  0.475344E-06  0.326E-03    0.07       3.0  T
  22   -208.9493608 -0.996001E-06  0.787E-04    0.07      12.5  T
  23   -208.9493608 -0.335088E-07  0.617E-04    0.07      16.0  T
     SCC iter.                  ...        0 min,  0.975 sec
     gradient                   ...        0 min,  0.074 sec
 * total energy  :  -204.8799411 Eh     change       -0.7146729E-02 Eh
   gradient norm :     0.0303365 Eh/α   predicted    -0.6832093E-02 (  -4.40%)
   displ. norm   :     0.3950310 α      lambda       -0.3113404E-02
   maximum displ.:     0.1593851 α      in ANC's #21, #59, #43, ...
 * RMSD in coord.:     0.8097133 α      energy gain  -0.1578601E+00 Eh

generating ANC from exact Hessian ...
Using Lindh-Hessian (1995)
 Shifting diagonal of input Hessian by   1.038566723278929E-002
 Lowest  eigenvalues of input Hessian
    0.010000    0.010051    0.010084    0.010378    0.000000    0.000000
    0.000000    0.000000    0.000000    0.000000    0.010396    0.010399
    0.010450    0.010533    0.010574    0.010743    0.010780    0.010946
 Highest eigenvalues
    2.310519    2.346534    2.393958    2.689876    7.353091    7.764400
 

........................................................................
.............................. CYCLE   93 ..............................
........................................................................

 iter      E             dE          RMSdq      gap      omega  full diag
   1   -208.9168212 -0.208917E+03  0.804E-01    0.14       0.0  T
   2   -207.5495221  0.136730E+01  0.266E+00    0.02       1.0  T
   3   -208.7222021 -0.117268E+01  0.197E+00    0.32       1.0  T
   4   -208.9237755 -0.201573E+00  0.529E-01    0.14       1.0  T
   5   -208.9004320  0.233435E-01  0.106E+00    0.10       1.0  T
   6   -208.9319957 -0.315637E-01  0.792E-01    0.09       1.0  T
   7   -208.9280763  0.391935E-02  0.530E-01    0.04       1.0  T
   8   -208.9543528 -0.262764E-01  0.380E-01    0.08       1.0  T
   9   -208.8902785  0.640743E-01  0.581E-01    0.00       1.0  T
  10   -208.9452167 -0.549382E-01  0.336E-01    0.03       1.0  T
  11   -208.9523737 -0.715693E-02  0.294E-01    0.04       1.0  T
  12   -208.9593768 -0.700311E-02  0.205E-01    0.04       1.0  T
  13   -208.9617377 -0.236097E-02  0.173E-01    0.05       1.0  T
  14   -208.9659043 -0.416654E-02  0.117E-01    0.06       1.0  T
  15   -208.9679672 -0.206293E-02  0.640E-02    0.07       1.0  T
  16   -208.9681029 -0.135713E-03  0.679E-02    0.07       1.0  T
  17   -208.9685805 -0.477533E-03  0.333E-02    0.07       1.0  T
  18   -208.9686736 -0.931438E-04  0.134E-02    0.08       1.0  T
  19   -208.9687092 -0.355636E-04  0.782E-03    0.07       1.3  T
  20   -208.9687003  0.887195E-05  0.806E-03    0.07       1.2  T
  21   -208.9687072 -0.690258E-05  0.661E-03    0.07       1.5  T
  22   -208.9687048  0.234916E-05  0.686E-03    0.07       1.4  T
  23   -208.9687022  0.262507E-05  0.690E-03    0.07       1.4  T
  24   -208.9687109 -0.866739E-05  0.381E-03    0.07       2.6  T
  25   -208.9687135 -0.258086E-05  0.197E-03    0.07       5.0  T
  26   -208.9687139 -0.463230E-06  0.918E-04    0.07      10.7  T
  27   -208.9687140 -0.113538E-06  0.318E-04    0.07      31.0  T
     SCC iter.                  ...        0 min,  1.212 sec
     gradient                   ...        0 min,  0.071 sec
 * total energy  :  -204.8814009 Eh     change       -0.1459771E-02 Eh
   gradient norm :     0.0408303 Eh/α   predicted     0.0000000E+00 (-100.00%)
   displ. norm   :     0.2498210 α      lambda       -0.4292476E-02
   maximum displ.:     0.0879568 α      in ANC's #30, #25, #65, ...

........................................................................
.............................. CYCLE   94 ..............................
........................................................................

 iter      E             dE          RMSdq      gap      omega  full diag
   1   -208.9282770 -0.208928E+03  0.589E-01    0.03       0.0  T
   2   -208.3083980  0.619879E+00  0.213E+00    0.13       1.0  T
   3   -208.9340214 -0.625623E+00  0.648E-01    0.07       1.0  T
   4   -208.9519497 -0.179283E-01  0.419E-01    0.07       1.0  T
   5   -208.8878910  0.640587E-01  0.735E-01    0.03       1.0  T
   6   -208.9466957 -0.588047E-01  0.533E-01    0.11       1.0  T
   7   -208.9347051  0.119907E-01  0.553E-01    0.11       1.0  T
   8   -208.9329501  0.175494E-02  0.528E-01    0.11       1.0  T
   9   -208.9495018 -0.165517E-01  0.415E-01    0.10       1.0  T
  10   -208.9575388 -0.803694E-02  0.237E-01    0.09       1.0  T
  11   -208.9575343  0.449755E-05  0.205E-01    0.04       1.0  T
  12   -208.9607379 -0.320367E-02  0.169E-01    0.08       1.0  T
  13   -208.9595931  0.114487E-02  0.190E-01    0.08       1.0  T
  14   -208.9653123 -0.571925E-02  0.110E-01    0.08       1.0  T
  15   -208.9669528 -0.164053E-02  0.209E-02    0.07       1.0  T
  16   -208.9669775 -0.246871E-04  0.167E-02    0.07       1.0  T
  17   -208.9669894 -0.119106E-04  0.161E-02    0.07       1.0  T
  18   -208.9668391  0.150307E-03  0.295E-02    0.06       1.0  T
  19   -208.9670079 -0.168761E-03  0.167E-02    0.07       1.0  T
  20   -208.9670137 -0.578148E-05  0.726E-03    0.07       1.4  T
  21   -208.9670143 -0.639682E-06  0.783E-03    0.07       1.3  T
  22   -208.9670174 -0.308036E-05  0.627E-03    0.07       1.6  T
  23   -208.9670217 -0.427495E-05  0.335E-03    0.07       2.9  T
  24   -208.9670230 -0.131234E-05  0.180E-03    0.07       5.5  T
  25   -208.9670222  0.741255E-06  0.194E-03    0.07       5.1  T
  26   -208.9670232 -0.940632E-06  0.379E-04    0.07      26.0  T
  27   -208.9670232 -0.102411E-07  0.221E-04    0.07      44.7  T
     SCC iter.                  ...        0 min,  1.433 sec
     gradient                   ...        0 min,  0.067 sec
 * total energy  :  -204.8837857 Eh     change       -0.2384783E-02 Eh
   gradient norm :     0.0592218 Eh/α   predicted    -0.2291518E-02 (  -3.91%)
   displ. norm   :     0.3671708 α      lambda       -0.4140074E-02
   maximum displ.:     0.1461798 α      in ANC's #30, #65, #70, ...

........................................................................
.............................. CYCLE   95 ..............................
........................................................................

 iter      E             dE          RMSdq      gap      omega  full diag
   1   -208.9489196 -0.208949E+03  0.564E-01    0.04       0.0  T
   2   -208.6432429  0.305677E+00  0.208E+00    0.20       1.0  T
   3   -208.8659913 -0.222748E+00  0.110E+00    0.08       1.0  T
   4   -208.9411483 -0.751570E-01  0.733E-01    0.04       1.0  T
   5   -208.9161290  0.250193E-01  0.610E-01    0.10       1.0  T
   6   -208.4989562  0.417173E+00  0.138E+00    0.10       1.0  T
   7   -208.9368640 -0.437908E+00  0.479E-01    0.09       1.0  T
   8   -208.9448052 -0.794112E-02  0.325E-01    0.07       1.0  T
   9   -208.9593958 -0.145906E-01  0.150E-01    0.05       1.0  T
  10   -208.9605171 -0.112134E-02  0.138E-01    0.05       1.0  T
  11   -208.9625633 -0.204616E-02  0.110E-01    0.04       1.0  T
  12   -208.9620311  0.532188E-03  0.102E-01    0.04       1.0  T
  13   -208.9626841 -0.653000E-03  0.834E-02    0.05       1.0  T
  14   -208.9633598 -0.675656E-03  0.423E-02    0.05       1.0  T
  15   -208.9635752 -0.215471E-03  0.136E-02    0.05       1.0  T
  16   -208.9635573  0.179191E-04  0.214E-02    0.05       1.0  T
  17   -208.9635403  0.170296E-04  0.175E-02    0.05       1.0  T
  18   -208.9635775 -0.371568E-04  0.100E-02    0.05       1.0  T
  19   -208.9635983 -0.208377E-04  0.280E-03    0.05       3.5  T
  20   -208.9635983  0.233803E-07  0.243E-03    0.05       4.0  T
  21   -208.9635987 -0.448437E-06  0.217E-03    0.05       4.5  T
  22   -208.9635990 -0.288100E-06  0.104E-03    0.05       9.5  T
  23   -208.9635990  0.263644E-07  0.758E-04    0.05      13.0  T
  24   -208.9635989  0.612359E-07  0.133E-03    0.05       7.4  T
  25   -208.9635989  0.602108E-08  0.830E-04    0.05      11.9  T
     SCC iter.                  ...        0 min,  1.015 sec
     gradient                   ...        0 min,  0.069 sec
 * total energy  :  -204.8862684 Eh     change       -0.2482768E-02 Eh
   gradient norm :     0.0471942 Eh/α   predicted    -0.2349114E-02 (  -5.38%)
   displ. norm   :     0.4972791 α      lambda       -0.4325670E-02
   maximum displ.:     0.2289106 α      in ANC's #30, #65, #70, ...

........................................................................
.............................. CYCLE   96 ..............................
........................................................................

 iter      E             dE          RMSdq      gap      omega  full diag
   1   -208.9393488 -0.208939E+03  0.639E-01    0.06       0.0  T
   2   -208.2482420  0.691107E+00  0.197E+00    0.10       1.0  T
   3   -208.8742677 -0.626026E+00  0.131E+00    0.07       1.0  T
   4   -208.8546093  0.196584E-01  0.895E-01    0.17       1.0  T
   5   -208.5996181  0.254991E+00  0.124E+00    0.06       1.0  T
   6   -208.9075460 -0.307928E+00  0.872E-01    0.04       1.0  T
   7   -208.5297344  0.377812E+00  0.127E+00    0.12       1.0  T
   8   -208.9464463 -0.416712E+00  0.326E-01    0.01       1.0  T
   9   -208.9515182 -0.507191E-02  0.274E-01    0.01       1.0  T
  10   -208.9399843  0.115339E-01  0.277E-01    0.01       1.0  T
  11   -208.9539378 -0.139535E-01  0.133E-01    0.03       1.0  T
  12   -208.9518258  0.211207E-02  0.192E-01    0.04       1.0  T
  13   -208.9483265  0.349923E-02  0.200E-01    0.04       1.0  T
  14   -208.9488602 -0.533616E-03  0.199E-01    0.03       1.0  T
  15   -208.9546236 -0.576341E-02  0.117E-01    0.03       1.0  T
  16   -208.9570390 -0.241547E-02  0.614E-02    0.03       1.0  T
  17   -208.9571400 -0.100921E-03  0.569E-02    0.02       1.0  T
  18   -208.9574369 -0.296974E-03  0.291E-02    0.03       1.0  T
  19   -208.9572823  0.154647E-03  0.335E-02    0.03       1.0  T
  20   -208.9575393 -0.256992E-03  0.196E-02    0.03       1.0  T
  21   -208.9575408 -0.154756E-05  0.149E-02    0.03       1.0  T
  22   -208.9575456 -0.482675E-05  0.941E-03    0.03       1.0  T
  23   -208.9575592 -0.135838E-04  0.711E-03    0.03       1.4  T
  24   -208.9575653 -0.609811E-05  0.358E-03    0.03       2.8  T
  25   -208.9575680 -0.269428E-05  0.146E-03    0.03       6.8  T
  26   -208.9575674  0.650468E-06  0.201E-03    0.03       4.9  T
  27   -208.9575680 -0.588127E-06  0.110E-03    0.03       9.0  T
  28   -208.9575682 -0.196479E-06  0.390E-04    0.03      25.3  T
  29   -208.9575681  0.492353E-07  0.593E-04    0.03      16.6  T
     SCC iter.                  ...        0 min,  1.310 sec
     gradient                   ...        0 min,  0.064 sec
 * total energy  :  -204.8897062 Eh     change       -0.3437787E-02 Eh
   gradient norm :     0.0314619 Eh/α   predicted    -0.2697716E-02 ( -21.53%)
   displ. norm   :     0.6959916 α      lambda       -0.5849569E-02
   maximum displ.:     0.3172464 α      in ANC's #30, #70, #65, ...

........................................................................
.............................. CYCLE   97 ..............................
........................................................................

 iter      E             dE          RMSdq      gap      omega  full diag
   1   -208.9393743 -0.208939E+03  0.816E-01    0.09       0.0  T
   2   -207.3476384  0.159174E+01  0.283E+00    0.06       1.0  T
   3   -208.7930021 -0.144536E+01  0.168E+00    0.20       1.0  T
   4   -208.7283086  0.646934E-01  0.130E+00    0.21       1.0  T
   5   -208.8629373 -0.134629E+00  0.111E+00    0.11       1.0  T
   6   -208.7820674  0.808699E-01  0.872E-01    0.03       1.0  T
   7   -208.9293273 -0.147260E+00  0.562E-01    0.09       1.0  T
   8   -208.9426105 -0.132831E-01  0.328E-01    0.06       1.0  T
   9   -208.9393294  0.328104E-02  0.302E-01    0.09       1.0  T
  10   -208.9377034  0.162605E-02  0.283E-01    0.09       1.0  T
  11   -208.9385718 -0.868456E-03  0.275E-01    0.09       1.0  T
  12   -208.9461826 -0.761077E-02  0.323E-01    0.08       1.0  T
  13   -208.9524229 -0.624030E-02  0.261E-01    0.07       1.0  T
  14   -208.9541652 -0.174233E-02  0.209E-01    0.07       1.0  T
  15   -208.9564608 -0.229559E-02  0.951E-02    0.07       1.0  T
  16   -208.9545910  0.186979E-02  0.102E-01    0.05       1.0  T
  17   -208.9559851 -0.139405E-02  0.629E-02    0.06       1.0  T
  18   -208.9567424 -0.757283E-03  0.268E-02    0.07       1.0  T
  19   -208.9568631 -0.120688E-03  0.239E-02    0.07       1.0  T
  20   -208.9568600  0.305753E-05  0.190E-02    0.06       1.0  T
  21   -208.9568977 -0.376534E-04  0.798E-03    0.07       1.2  T
  22   -208.9568877  0.996375E-05  0.865E-03    0.07       1.1  T
  23   -208.9568929 -0.519508E-05  0.781E-03    0.07       1.3  T
  24   -208.9568999 -0.696872E-05  0.328E-03    0.07       3.0  T
  25   -208.9569009 -0.101113E-05  0.300E-03    0.07       3.3  T
  26   -208.9569018 -0.944345E-06  0.159E-03    0.07       6.2  T
  27   -208.9569019 -0.692733E-07  0.918E-04    0.07      10.7  T
  28   -208.9569016  0.257317E-06  0.203E-03    0.07       4.8  T
  29   -208.9569013  0.334572E-06  0.193E-03    0.07       5.1  T
  30   -208.9569018 -0.533718E-06  0.668E-04    0.07      14.8  T
     SCC iter.                  ...        0 min,  1.229 sec
     gradient                   ...        0 min,  0.064 sec
 * total energy  :  -204.8938862 Eh     change       -0.4179933E-02 Eh
   gradient norm :     0.0423799 Eh/α   predicted    -0.4341544E-02 (   3.87%)
   displ. norm   :     0.4076588 α      lambda       -0.4807258E-02
   maximum displ.:     0.1918951 α      in ANC's #30, #67, #70, ...

........................................................................
.............................. CYCLE   98 ..............................
........................................................................

 iter      E             dE          RMSdq      gap      omega  full diag
   1   -208.9609472 -0.208961E+03  0.631E-01    0.13       0.0  T
   2   -205.8427514  0.311820E+01  0.447E+00    0.03       1.0  T
   3   -208.8739340 -0.303118E+01  0.818E-01    0.16       1.0  T
   4   -208.6427133  0.231221E+00  0.123E+00    0.05       1.0  T
   5   -208.9332250 -0.290512E+00  0.697E-01    0.18       1.0  T
   6   -208.9513538 -0.181288E-01  0.490E-01    0.17       1.0  T
   7   -208.9539645 -0.261066E-02  0.393E-01    0.16       1.0  T
   8   -208.9614142 -0.744973E-02  0.258E-01    0.16       1.0  T
   9   -208.9719666 -0.105524E-01  0.143E-01    0.08       1.0  T
  10   -208.9716652  0.301395E-03  0.990E-02    0.09       1.0  T
  11   -208.9712916  0.373607E-03  0.103E-01    0.08       1.0  T
  12   -208.9722672 -0.975619E-03  0.742E-02    0.07       1.0  T
  13   -208.9722818 -0.145840E-04  0.729E-02    0.07       1.0  T
  14   -208.9726960 -0.414260E-03  0.604E-02    0.07       1.0  T
  15   -208.9729713 -0.275228E-03  0.197E-02    0.08       1.0  T
  16   -208.9729145  0.568175E-04  0.294E-02    0.08       1.0  T
  17   -208.9729900 -0.754987E-04  0.111E-02    0.08       1.0  T
  18   -208.9729861  0.385004E-05  0.100E-02    0.08       1.0  T
  19   -208.9729984 -0.123163E-04  0.137E-02    0.08       1.0  T
  20   -208.9729899  0.848327E-05  0.143E-02    0.08       1.0  T
  21   -208.9730057 -0.157661E-04  0.577E-03    0.08       1.7  T
  22   -208.9730065 -0.804450E-06  0.373E-03    0.08       2.6  T
  23   -208.9730040  0.253439E-05  0.491E-03    0.08       2.0  T
  24   -208.9730069 -0.296269E-05  0.271E-03    0.08       3.6  T
  25   -208.9730071 -0.114303E-06  0.164E-03    0.08       6.0  T
  26   -208.9730075 -0.431180E-06  0.109E-03    0.08       9.1  T
  27   -208.9730075  0.493233E-08  0.127E-03    0.08       7.7  T
  28   -208.9730075 -0.692195E-07  0.458E-04    0.08      21.5  T
  29   -208.9730076 -0.323563E-07  0.218E-04    0.08      45.3  T
     SCC iter.                  ...        0 min,  1.231 sec
     gradient                   ...        0 min,  0.060 sec
 * total energy  :  -204.8973121 Eh     change       -0.3425966E-02 Eh
   gradient norm :     0.0494383 Eh/α   predicted    -0.2803077E-02 ( -18.18%)
   displ. norm   :     0.3895720 α      lambda       -0.6004906E-02
   maximum displ.:     0.1423382 α      in ANC's #67, #45, #30, ...

........................................................................
.............................. CYCLE   99 ..............................
........................................................................

 iter      E             dE          RMSdq      gap      omega  full diag
   1   -208.9821180 -0.208982E+03  0.783E-01    0.18       0.0  T
   2   -202.8424308  0.613969E+01  0.631E+00    0.03       1.0  T
   3   -208.8825834 -0.604015E+01  0.107E+00    0.20       1.0  T
   4   -208.8946313 -0.120479E-01  0.923E-01    0.03       1.0  T
   5   -208.9874182 -0.927869E-01  0.505E-01    0.25       1.0  T
   6   -208.9850188  0.239946E-02  0.514E-01    0.25       1.0  T
   7   -208.9897162 -0.469744E-02  0.401E-01    0.25       1.0  T
   8   -208.9939501 -0.423385E-02  0.285E-01    0.23       1.0  T
   9   -209.0012628 -0.731274E-02  0.190E-01    0.14       1.0  T
  10   -209.0072660 -0.600318E-02  0.141E-01    0.09       1.0  T
  11   -209.0071895  0.764405E-04  0.132E-01    0.09       1.0  T
  12   -208.9720858  0.351038E-01  0.454E-01    0.03       1.0  T
  13   -208.9778949 -0.580909E-02  0.425E-01    0.03       1.0  T
  14   -208.9954770 -0.175821E-01  0.282E-01    0.04       1.0  T
  15   -209.0024700 -0.699302E-02  0.187E-01    0.06       1.0  T
  16   -209.0041323 -0.166233E-02  0.146E-01    0.06       1.0  T
  17   -209.0061841 -0.205177E-02  0.982E-02    0.07       1.0  T
  18   -209.0079169 -0.173282E-02  0.283E-02    0.08       1.0  T
  19   -209.0079229 -0.599052E-05  0.206E-02    0.09       1.0  T
  20   -209.0078999  0.229628E-04  0.241E-02    0.09       1.0  T
  21   -209.0079593 -0.593807E-04  0.160E-02    0.09       1.0  T
  22   -209.0079939 -0.345543E-04  0.101E-02    0.09       1.0  T
  23   -209.0080099 -0.160025E-04  0.569E-03    0.09       1.7  T
  24   -209.0080054  0.442305E-05  0.675E-03    0.09       1.5  T
  25   -209.0080075 -0.207908E-05  0.604E-03    0.09       1.6  T
  26   -209.0080103 -0.276042E-05  0.398E-03    0.09       2.5  T
  27   -209.0080126 -0.231248E-05  0.227E-03    0.09       4.3  T
  28   -209.0080135 -0.919921E-06  0.778E-04    0.09      12.7  T
  29   -209.0080135  0.110859E-07  0.535E-04    0.09      18.4  T
     SCC iter.                  ...        0 min,  1.187 sec
     gradient                   ...        0 min,  0.070 sec
 * total energy  :  -204.9004770 Eh     change       -0.3164888E-02 Eh
   gradient norm :     0.0448104 Eh/α   predicted    -0.3458130E-02 (   9.27%)
   displ. norm   :     0.4592739 α      lambda       -0.3922997E-02
   maximum displ.:     0.2620446 α      in ANC's #30, #65, #25, ...

........................................................................
.............................. CYCLE  100 ..............................
........................................................................

 iter      E             dE          RMSdq      gap      omega  full diag
   1   -208.9678591 -0.208968E+03  0.702E-01    0.14       0.0  T
   2   -204.7121678  0.425569E+01  0.550E+00    0.07       1.0  T
   3   -208.9035773 -0.419141E+01  0.785E-01    0.21       1.0  T
   4   -208.5665441  0.337033E+00  0.134E+00    0.05       1.0  T
   5   -208.9545821 -0.388038E+00  0.615E-01    0.18       1.0  T
   6   -208.9751046 -0.205225E-01  0.395E-01    0.15       1.0  T
   7   -208.9687284  0.637625E-02  0.368E-01    0.22       1.0  T
   8   -208.9728870 -0.415861E-02  0.296E-01    0.20       1.0  T
   9   -208.9753335 -0.244658E-02  0.205E-01    0.17       1.0  T
  10   -208.9839218 -0.858824E-02  0.956E-02    0.10       1.0  T
  11   -208.9840249 -0.103139E-03  0.820E-02    0.10       1.0  T
  12   -208.9828702  0.115473E-02  0.134E-01    0.08       1.0  T
  13   -208.9836384 -0.768217E-03  0.112E-01    0.08       1.0  T
  14   -208.9832390  0.399407E-03  0.101E-01    0.08       1.0  T
  15   -208.9823616  0.877362E-03  0.119E-01    0.07       1.0  T
  16   -208.9840272 -0.166557E-02  0.499E-02    0.09       1.0  T
  17   -208.9843659 -0.338684E-03  0.171E-02    0.09       1.0  T
  18   -208.9844146 -0.487124E-04  0.853E-03    0.09       1.2  T
  19   -208.9844125  0.212658E-05  0.796E-03    0.09       1.2  T
  20   -208.9844183 -0.583427E-05  0.530E-03    0.09       1.9  T
  21   -208.9844210 -0.264708E-05  0.381E-03    0.09       2.6  T
  22   -208.9844209  0.342202E-07  0.229E-03    0.09       4.3  T
  23   -208.9844177  0.319259E-05  0.458E-03    0.09       2.2  T
  24   -208.9844203 -0.256366E-05  0.295E-03    0.09       3.3  T
  25   -208.9844206 -0.309733E-06  0.234E-03    0.09       4.2  T
  26   -208.9844206  0.286812E-07  0.206E-03    0.09       4.8  T
  27   -208.9844214 -0.762955E-06  0.700E-04    0.09      14.1  T
  28   -208.9844213  0.164009E-07  0.458E-04    0.09      21.5  T
     SCC iter.                  ...        0 min,  1.367 sec
     gradient                   ...        0 min,  0.076 sec
 * total energy  :  -204.9020787 Eh     change       -0.1601667E-02 Eh
   gradient norm :     0.0301212 Eh/α   predicted    -0.2375271E-02 (  48.30%)
   displ. norm   :     0.1643085 α      lambda       -0.1876006E-02
   maximum displ.:     0.0548382 α      in ANC's #15, #55, #48, ...

........................................................................
.............................. CYCLE  101 ..............................
........................................................................

 iter      E             dE          RMSdq      gap      omega  full diag
   1   -208.9753394 -0.208975E+03  0.255E-01    0.09       0.0  T
   2   -208.8849637  0.903756E-01  0.657E-01    0.01       1.0  T
   3   -208.9573859 -0.724222E-01  0.413E-01    0.28       1.0  T
   4   -208.9658160 -0.843007E-02  0.212E-01    0.19       1.0  T
   5   -208.9690217 -0.320573E-02  0.264E-01    0.08       1.0  T
   6   -208.9711137 -0.209198E-02  0.163E-01    0.14       1.0  T
   7   -208.9756150 -0.450127E-02  0.117E-01    0.08       1.0  T
   8   -208.9750586  0.556366E-03  0.848E-02    0.11       1.0  T
   9   -208.9755138 -0.455201E-03  0.605E-02    0.10       1.0  T
  10   -208.9760232 -0.509393E-03  0.455E-02    0.09       1.0  T
  11   -208.9762097 -0.186529E-03  0.253E-02    0.09       1.0  T
  12   -208.9761905  0.191936E-04  0.209E-02    0.09       1.0  T
  13   -208.9762227 -0.321388E-04  0.183E-02    0.09       1.0  T
  14   -208.9762741 -0.514087E-04  0.116E-02    0.09       1.0  T
  15   -208.9762714  0.263173E-05  0.982E-03    0.09       1.0  T
  16   -208.9762835 -0.120152E-04  0.504E-03    0.09       2.0  T
  17   -208.9762863 -0.285957E-05  0.198E-03    0.09       5.0  T
  18   -208.9762857  0.617157E-06  0.226E-03    0.09       4.4  T
  19   -208.9762862 -0.513167E-06  0.202E-03    0.09       4.9  T
  20   -208.9762866 -0.369610E-06  0.741E-04    0.09      13.3  T
  21   -208.9762866  0.103512E-07  0.683E-04    0.09      14.4  T
     SCC iter.                  ...        0 min,  1.124 sec
     gradient                   ...        0 min,  0.067 sec
 * total energy  :  -204.9031327 Eh     change       -0.1054046E-02 Eh
   gradient norm :     0.0209233 Eh/α   predicted    -0.9633249E-03 (  -8.61%)
   displ. norm   :     0.2121479 α      lambda       -0.1469005E-02
   maximum displ.:     0.0692644 α      in ANC's #6, #5, #36, ...

........................................................................
.............................. CYCLE  102 ..............................
........................................................................

 iter      E             dE          RMSdq      gap      omega  full diag
   1   -208.9772207 -0.208977E+03  0.357E-01    0.15       0.0  T
   2   -205.1977648  0.377946E+01  0.476E+00    0.09       1.0  T
   3   -208.9683468 -0.377058E+01  0.384E-01    0.27       1.0  T
   4   -208.9600801  0.826665E-02  0.388E-01    0.22       1.0  T
   5   -208.9787984 -0.187183E-01  0.302E-01    0.09       1.0  T
   6   -208.9755396  0.325878E-02  0.237E-01    0.19       1.0  T
   7   -208.9803128 -0.477315E-02  0.177E-01    0.15       1.0  T
   8   -208.9826009 -0.228818E-02  0.122E-01    0.13       1.0  T
   9   -208.9851646 -0.256361E-02  0.733E-02    0.10       1.0  T
  10   -208.9851661 -0.152656E-05  0.728E-02    0.10       1.0  T
  11   -208.9854912 -0.325073E-03  0.513E-02    0.09       1.0  T
  12   -208.9854405  0.506158E-04  0.282E-02    0.10       1.0  T
  13   -208.9845265  0.914071E-03  0.788E-02    0.08       1.0  T
  14   -208.9848301 -0.303608E-03  0.684E-02    0.08       1.0  T
  15   -208.9855869 -0.756854E-03  0.181E-02    0.10       1.0  T
  16   -208.9855805  0.644012E-05  0.897E-03    0.09       1.1  T
  17   -208.9855855 -0.500556E-05  0.117E-02    0.10       1.0  T
  18   -208.9855630  0.224688E-04  0.142E-02    0.10       1.0  T
  19   -208.9855799 -0.168895E-04  0.889E-03    0.10       1.1  T
  20   -208.9855915 -0.116270E-04  0.293E-03    0.10       3.4  T
  21   -208.9855932 -0.164253E-05  0.150E-03    0.09       6.6  T
  22   -208.9855929  0.314398E-06  0.199E-03    0.09       4.9  T
  23   -208.9855932 -0.295144E-06  0.920E-04    0.09      10.7  T
  24   -208.9855932 -0.735698E-07  0.575E-04    0.09      17.1  T
     SCC iter.                  ...        0 min,  0.955 sec
     gradient                   ...        0 min,  0.064 sec
 * total energy  :  -204.9036222 Eh     change       -0.4894966E-03 Eh
   gradient norm :     0.0272511 Eh/α   predicted    -0.7675637E-03 (  56.81%)
   displ. norm   :     0.2195015 α      lambda       -0.1218697E-02
   maximum displ.:     0.0809052 α      in ANC's #6, #15, #5, ...

........................................................................
.............................. CYCLE  103 ..............................
........................................................................

 iter      E             dE          RMSdq      gap      omega  full diag
   1   -208.9935796 -0.208994E+03  0.226E-01    0.10       0.0  T
   2   -208.8535356  0.140044E+00  0.101E+00    0.01       1.0  T
   3   -208.9794208 -0.125885E+00  0.328E-01    0.25       1.0  T
   4   -208.9688452  0.105756E-01  0.422E-01    0.05       1.0  T
   5   -208.9891393 -0.202941E-01  0.189E-01    0.09       1.0  T
   6   -208.9892643 -0.124977E-03  0.218E-01    0.15       1.0  T
   7   -208.9883714  0.892945E-03  0.224E-01    0.15       1.0  T
   8   -208.9921044 -0.373307E-02  0.119E-01    0.13       1.0  T
   9   -208.9937311 -0.162668E-02  0.974E-02    0.08       1.0  T
  10   -208.9946205 -0.889361E-03  0.524E-02    0.09       1.0  T
  11   -208.9944307  0.189726E-03  0.542E-02    0.09       1.0  T
  12   -208.9946309 -0.200133E-03  0.283E-02    0.09       1.0  T
  13   -208.9947477 -0.116805E-03  0.118E-02    0.09       1.0  T
  14   -208.9947690 -0.213577E-04  0.600E-03    0.09       1.6  T
  15   -208.9947704 -0.139308E-05  0.554E-03    0.09       1.8  T
  16   -208.9947699  0.532512E-06  0.521E-03    0.09       1.9  T
  17   -208.9947733 -0.336146E-05  0.202E-03    0.09       4.9  T
  18   -208.9947733  0.211372E-08  0.144E-03    0.09       6.9  T
  19   -208.9947734 -0.109023E-06  0.116E-03    0.09       8.5  T
  20   -208.9947735 -0.127842E-06  0.652E-04    0.09      15.1  T
  21   -208.9947735 -0.146605E-07  0.505E-04    0.09      19.5  T
     SCC iter.                  ...        0 min,  1.058 sec
     gradient                   ...        0 min,  0.062 sec
 * total energy  :  -204.9043540 Eh     change       -0.7317460E-03 Eh
   gradient norm :     0.0246778 Eh/α   predicted    -0.6387104E-03 ( -12.71%)
   displ. norm   :     0.2544759 α      lambda       -0.1045597E-02
   maximum displ.:     0.1140076 α      in ANC's #6, #5, #22, ...

........................................................................
.............................. CYCLE  104 ..............................
........................................................................

 iter      E             dE          RMSdq      gap      omega  full diag
   1   -208.9932550 -0.208993E+03  0.242E-01    0.10       0.0  T
   2   -208.8640663  0.129189E+00  0.103E+00    0.00       1.0  T
   3   -208.9779438 -0.113878E+00  0.379E-01    0.28       1.0  T
   4   -208.9816845 -0.374068E-02  0.324E-01    0.09       1.0  T
   5   -208.9845910 -0.290652E-02  0.288E-01    0.19       1.0  T
   6   -208.9887479 -0.415689E-02  0.221E-01    0.14       1.0  T
   7   -208.9912099 -0.246198E-02  0.137E-01    0.13       1.0  T
   8   -208.9927791 -0.156923E-02  0.112E-01    0.08       1.0  T
   9   -208.9937224 -0.943260E-03  0.639E-02    0.08       1.0  T
  10   -208.9938711 -0.148655E-03  0.464E-02    0.10       1.0  T
  11   -208.9940937 -0.222637E-03  0.272E-02    0.09       1.0  T
  12   -208.9940605  0.331570E-04  0.294E-02    0.09       1.0  T
  13   -208.9942169 -0.156321E-03  0.782E-03    0.09       1.3  T
  14   -208.9942110  0.588730E-05  0.796E-03    0.09       1.2  T
  15   -208.9942206 -0.960118E-05  0.291E-03    0.09       3.4  T
  16   -208.9942206 -0.264855E-07  0.214E-03    0.09       4.6  T
  17   -208.9942202  0.351036E-06  0.215E-03    0.09       4.6  T
  18   -208.9942208 -0.592622E-06  0.138E-03    0.09       7.1  T
  19   -208.9942207  0.135832E-06  0.133E-03    0.09       7.4  T
  20   -208.9942208 -0.549830E-07  0.129E-03    0.09       7.6  T
  21   -208.9942209 -0.169232E-06  0.453E-04    0.09      21.7  T
  22   -208.9942209 -0.120244E-07  0.302E-04    0.09      32.6  T
     SCC iter.                  ...        0 min,  1.096 sec
     gradient                   ...        0 min,  0.072 sec
 * total energy  :  -204.9048889 Eh     change       -0.5349349E-03 Eh
   gradient norm :     0.0229353 Eh/α   predicted    -0.5566581E-03 (   4.06%)
   displ. norm   :     0.3068968 α      lambda       -0.9536572E-03
   maximum displ.:     0.1417872 α      in ANC's #6, #5, #15, ...

........................................................................
.............................. CYCLE  105 ..............................
........................................................................

 iter      E             dE          RMSdq      gap      omega  full diag
   1   -208.9919189 -0.208992E+03  0.316E-01    0.12       0.0  T
   2   -207.7231333  0.126879E+01  0.292E+00    0.04       1.0  T
   3   -208.9790555 -0.125592E+01  0.334E-01    0.27       1.0  T
   4   -208.9858892 -0.683368E-02  0.322E-01    0.17       1.0  T
   5   -208.9838971  0.199210E-02  0.272E-01    0.19       1.0  T
   6   -208.9879554 -0.405827E-02  0.196E-01    0.16       1.0  T
   7   -208.9938346 -0.587926E-02  0.101E-01    0.11       1.0  T
   8   -208.9947422 -0.907588E-03  0.874E-02    0.09       1.0  T
   9   -208.9947416  0.588101E-06  0.875E-02    0.09       1.0  T
  10   -208.9944196  0.322028E-03  0.114E-01    0.09       1.0  T
  11   -208.9945964 -0.176832E-03  0.682E-02    0.09       1.0  T
  12   -208.9932115  0.138499E-02  0.103E-01    0.08       1.0  T
  13   -208.9949233 -0.171188E-02  0.234E-02    0.09       1.0  T
  14   -208.9949275 -0.417040E-05  0.142E-02    0.09       1.0  T
  15   -208.9949437 -0.162122E-04  0.129E-02    0.10       1.0  T
  16   -208.9949508 -0.706054E-05  0.785E-03    0.09       1.3  T
  17   -208.9949585 -0.775937E-05  0.536E-03    0.09       1.8  T
  18   -208.9949587 -0.137918E-06  0.334E-03    0.09       3.0  T
  19   -208.9949602 -0.149395E-05  0.144E-03    0.09       6.8  T
  20   -208.9949602 -0.185053E-07  0.116E-03    0.09       8.5  T
  21   -208.9949603 -0.143558E-06  0.484E-04    0.09      20.4  T
  22   -208.9949603  0.347479E-07  0.822E-04    0.09      12.0  T
     SCC iter.                  ...        0 min,  1.042 sec
     gradient                   ...        0 min,  0.061 sec
 * total energy  :  -204.9054991 Eh     change       -0.6101588E-03 Eh
   gradient norm :     0.0179096 Eh/α   predicted    -0.5217438E-03 ( -14.49%)
   displ. norm   :     0.3837319 α      lambda       -0.1298829E-02
   maximum displ.:     0.1852562 α      in ANC's #6, #5, #22, ...

........................................................................
.............................. CYCLE  106 ..............................
........................................................................

 iter      E             dE          RMSdq      gap      omega  full diag
   1   -209.0205590 -0.209021E+03  0.303E-01    0.11       0.0  T
   2   -208.5360804  0.484479E+00  0.236E+00    0.09       1.0  T
   3   -209.0074387 -0.471358E+00  0.360E-01    0.25       1.0  T
   4   -208.9966957  0.107430E-01  0.376E-01    0.06       1.0  T
   5   -209.0114375 -0.147418E-01  0.308E-01    0.17       1.0  T
   6   -209.0115595 -0.122025E-03  0.261E-01    0.19       1.0  T
   7   -209.0161850 -0.462554E-02  0.225E-01    0.15       1.0  T
   8   -209.0203029 -0.411784E-02  0.116E-01    0.12       1.0  T
   9   -209.0169266  0.337627E-02  0.205E-01    0.06       1.0  T
  10   -209.0216569 -0.473030E-02  0.747E-02    0.08       1.0  T
  11   -209.0206775  0.979372E-03  0.856E-02    0.08       1.0  T
  12   -209.0222667 -0.158920E-02  0.237E-02    0.09       1.0  T
  13   -209.0222810 -0.142842E-04  0.207E-02    0.09       1.0  T
  14   -209.0222731  0.792698E-05  0.210E-02    0.10       1.0  T
  15   -209.0222907 -0.176190E-04  0.737E-03    0.09       1.3  T
  16   -209.0222950 -0.431947E-05  0.631E-03    0.09       1.6  T
  17   -209.0222948  0.262517E-06  0.559E-03    0.09       1.8  T
  18   -209.0222973 -0.255290E-05  0.172E-03    0.09       5.7  T
  19   -209.0222959  0.143073E-05  0.331E-03    0.09       3.0  T
  20   -209.0222975 -0.157820E-05  0.173E-03    0.09       5.7  T
  21   -209.0222976 -0.161331E-06  0.807E-04    0.09      12.2  T
  22   -209.0222976  0.584200E-07  0.916E-04    0.09      10.8  T
     SCC iter.                  ...        0 min,  0.958 sec
     gradient                   ...        0 min,  0.066 sec
 * total energy  :  -204.9062751 Eh     change       -0.7760628E-03 Eh
   gradient norm :     0.0336328 Eh/α   predicted    -0.7450439E-03 (  -4.00%)
   displ. norm   :     0.4575313 α      lambda       -0.1511347E-02
   maximum displ.:     0.2255643 α      in ANC's #6, #5, #10, ...

........................................................................
.............................. CYCLE  107 ..............................
........................................................................

 iter      E             dE          RMSdq      gap      omega  full diag
   1   -209.0223562 -0.209022E+03  0.387E-01    0.12       0.0  T
   2   -207.8122948  0.121006E+01  0.289E+00    0.03       1.0  T
   3   -209.0071297 -0.119483E+01  0.399E-01    0.26       1.0  T
   4   -209.0114954 -0.436575E-02  0.421E-01    0.22       1.0  T
   5   -209.0091414  0.235399E-02  0.295E-01    0.25       1.0  T
   6   -209.0141385 -0.499705E-02  0.311E-01    0.20       1.0  T
   7   -209.0177388 -0.360033E-02  0.242E-01    0.18       1.0  T
   8   -209.0229534 -0.521460E-02  0.131E-01    0.13       1.0  T
   9   -209.0258971 -0.294368E-02  0.910E-02    0.09       1.0  T
  10   -209.0254780  0.419093E-03  0.138E-01    0.08       1.0  T
  11   -209.0242124  0.126566E-02  0.151E-01    0.08       1.0  T
  12   -209.0257020 -0.148962E-02  0.755E-02    0.08       1.0  T
  13   -209.0251153  0.586672E-03  0.725E-02    0.08       1.0  T
  14   -209.0260061 -0.890770E-03  0.154E-02    0.09       1.0  T
  15   -209.0259993  0.674174E-05  0.132E-02    0.09       1.0  T
  16   -209.0260183 -0.189940E-04  0.123E-02    0.09       1.0  T
  17   -209.0260077  0.105936E-04  0.104E-02    0.09       1.0  T
  18   -209.0260212 -0.134843E-04  0.816E-03    0.09       1.2  T
  19   -209.0260188  0.240051E-05  0.760E-03    0.09       1.3  T
  20   -209.0260192 -0.406318E-06  0.680E-03    0.09       1.4  T
  21   -209.0260226 -0.337141E-05  0.414E-03    0.09       2.4  T
  22   -209.0260249 -0.235415E-05  0.166E-03    0.09       5.9  T
  23   -209.0260250 -0.482732E-07  0.718E-04    0.09      13.7  T
  24   -209.0260250 -0.312862E-07  0.590E-04    0.09      16.7  T
     SCC iter.                  ...        0 min,  1.178 sec
     gradient                   ...        0 min,  0.067 sec
 * total energy  :  -204.9072725 Eh     change       -0.9973782E-03 Eh
   gradient norm :     0.0310636 Eh/α   predicted    -0.9138655E-03 (  -8.37%)
   displ. norm   :     0.5114659 α      lambda       -0.1920309E-02
   maximum displ.:     0.2516041 α      in ANC's #6, #5, #10, ...

........................................................................
.............................. CYCLE  108 ..............................
........................................................................

 iter      E             dE          RMSdq      gap      omega  full diag
   1   -209.0274630 -0.209027E+03  0.386E-01    0.11       0.0  T
   2   -208.1492283  0.878235E+00  0.255E+00    0.02       1.0  T
   3   -209.0130667 -0.863838E+00  0.426E-01    0.29       1.0  T
   4   -209.0157899 -0.272314E-02  0.405E-01    0.22       1.0  T
   5   -209.0148796  0.910244E-03  0.347E-01    0.24       1.0  T
   6   -209.0191222 -0.424256E-02  0.301E-01    0.20       1.0  T
   7   -209.0219748 -0.285260E-02  0.267E-01    0.16       1.0  T
   8   -209.0217186  0.256180E-03  0.250E-01    0.17       1.0  T
   9   -209.0273444 -0.562574E-02  0.141E-01    0.12       1.0  T
  10   -209.0296136 -0.226923E-02  0.650E-02    0.10       1.0  T
  11   -209.0292315  0.382074E-03  0.971E-02    0.08       1.0  T
  12   -209.0292245  0.701950E-05  0.973E-02    0.08       1.0  T
  13   -209.0297557 -0.531171E-03  0.453E-02    0.09       1.0  T
  14   -209.0233865  0.636918E-02  0.193E-01    0.06       1.0  T
  15   -209.0297041 -0.631767E-02  0.462E-02    0.08       1.0  T
  16   -209.0300724 -0.368213E-03  0.151E-02    0.09       1.0  T
  17   -209.0300322  0.401816E-04  0.239E-02    0.09       1.0  T
  18   -209.0300754 -0.432629E-04  0.131E-02    0.09       1.0  T
  19   -209.0300928 -0.173195E-04  0.618E-03    0.09       1.6  T
  20   -209.0300933 -0.497432E-06  0.406E-03    0.09       2.4  T
  21   -209.0300880  0.528281E-05  0.597E-03    0.09       1.7  T
  22   -209.0300935 -0.555546E-05  0.298E-03    0.09       3.3  T
  23   -209.0300944 -0.837284E-06  0.124E-03    0.09       7.9  T
  24   -209.0300944 -0.340694E-07  0.109E-03    0.09       9.0  T
  25   -209.0300946 -0.205959E-06  0.333E-04    0.09      29.6  T
  26   -209.0300946  0.149116E-07  0.462E-04    0.09      21.3  T
     SCC iter.                  ...        0 min,  0.943 sec
     gradient                   ...        0 min,  0.066 sec
 * total energy  :  -204.9087861 Eh     change       -0.1513588E-02 Eh
   gradient norm :     0.0355791 Eh/α   predicted    -0.1211338E-02 ( -19.97%)
   displ. norm   :     0.5714062 α      lambda       -0.3248477E-02
   maximum displ.:     0.2639139 α      in ANC's #6, #5, #25, ...

........................................................................
.............................. CYCLE  109 ..............................
........................................................................

 iter      E             dE          RMSdq      gap      omega  full diag
   1   -209.0343991 -0.209034E+03  0.472E-01    0.08       0.0  T
   2   -209.0152770  0.191221E-01  0.575E-01    0.28       1.0  T
   3   -208.5403877  0.474889E+00  0.218E+00    0.10       1.0  T
   4   -209.0193196 -0.478932E+00  0.474E-01    0.22       1.0  T
   5   -209.0257965 -0.647687E-02  0.370E-01    0.16       1.0  T
   6   -209.0240201  0.177644E-02  0.390E-01    0.22       1.0  T
   7   -209.0271621 -0.314205E-02  0.339E-01    0.16       1.0  T
   8   -209.0307172 -0.355504E-02  0.229E-01    0.13       1.0  T
   9   -209.0301580  0.559120E-03  0.267E-01    0.15       1.0  T
  10   -209.0343105 -0.415251E-02  0.145E-01    0.12       1.0  T
  11   -209.0227291  0.115814E-01  0.332E-01    0.05       1.0  T
  12   -209.0246983 -0.196915E-02  0.345E-01    0.05       1.0  T
  13   -209.0276025 -0.290419E-02  0.282E-01    0.05       1.0  T
  14   -209.0363668 -0.876431E-02  0.497E-02    0.08       1.0  T
  15   -209.0367860 -0.419243E-03  0.253E-02    0.09       1.0  T
  16   -209.0368512 -0.651268E-04  0.126E-02    0.09       1.0  T
  17   -209.0368233  0.278090E-04  0.191E-02    0.09       1.0  T
  18   -209.0368452 -0.218486E-04  0.102E-02    0.09       1.0  T
  19   -209.0368535 -0.831527E-05  0.815E-03    0.09       1.2  T
  20   -209.0368454  0.812643E-05  0.907E-03    0.09       1.1  T
  21   -209.0368565 -0.110755E-04  0.458E-03    0.09       2.2  T
  22   -209.0368591 -0.261973E-05  0.159E-03    0.09       6.2  T
  23   -209.0368587  0.410856E-06  0.278E-03    0.09       3.5  T
  24   -209.0368585  0.121998E-06  0.300E-03    0.09       3.3  T
  25   -209.0368593 -0.713612E-06  0.706E-04    0.09      14.0  T
  26   -209.0368593 -0.448570E-07  0.605E-04    0.09      16.3  T
     SCC iter.                  ...        0 min,  0.978 sec
     gradient                   ...        0 min,  0.063 sec
 * total energy  :  -204.9112541 Eh     change       -0.2468041E-02 Eh
   gradient norm :     0.0424746 Eh/α   predicted    -0.2154571E-02 ( -12.70%)
   displ. norm   :     0.5224564 α      lambda       -0.4578213E-02
   maximum displ.:     0.2053933 α      in ANC's #6, #5, #150, ...

........................................................................
.............................. CYCLE  110 ..............................
........................................................................

 iter      E             dE          RMSdq      gap      omega  full diag
   1   -209.0379932 -0.209038E+03  0.624E-01    0.07       0.0  T
   2   -209.0134149  0.245783E-01  0.706E-01    0.29       1.0  T
   3   -208.6930140  0.320401E+00  0.192E+00    0.08       1.0  T
   4   -209.0204552 -0.327441E+00  0.628E-01    0.24       1.0  T
   5   -209.0282881 -0.783294E-02  0.396E-01    0.14       1.0  T
   6   -209.0251209  0.316723E-02  0.522E-01    0.20       1.0  T
   7   -209.0313862 -0.626525E-02  0.409E-01    0.19       1.0  T
   8   -209.0346405 -0.325431E-02  0.213E-01    0.09       1.0  T
   9   -209.0337342  0.906270E-03  0.330E-01    0.17       1.0  T
  10   -209.0385848 -0.485061E-02  0.175E-01    0.09       1.0  T
  11   -209.0396870 -0.110223E-02  0.206E-01    0.13       1.0  T
  12   -209.0333546  0.633244E-02  0.288E-01    0.05       1.0  T
  13   -209.0416921 -0.833749E-02  0.140E-01    0.07       1.0  T
  14   -209.0376327  0.405936E-02  0.233E-01    0.06       1.0  T
  15   -209.0435940 -0.596130E-02  0.189E-02    0.09       1.0  T
  16   -209.0435557  0.382996E-04  0.217E-02    0.09       1.0  T
  17   -209.0435873 -0.315917E-04  0.145E-02    0.09       1.0  T
  18   -209.0435817  0.562345E-05  0.190E-02    0.09       1.0  T
  19   -209.0436159 -0.341891E-04  0.683E-03    0.09       1.4  T
  20   -209.0436069  0.897642E-05  0.941E-03    0.09       1.0  T
  21   -209.0436115 -0.458275E-05  0.766E-03    0.09       1.3  T
  22   -209.0436155 -0.407087E-05  0.505E-03    0.09       2.0  T
  23   -209.0436176 -0.203612E-05  0.196E-03    0.09       5.0  T
  24   -209.0436179 -0.350670E-06  0.150E-03    0.09       6.6  T
  25   -209.0436180 -0.111058E-06  0.997E-04    0.09       9.9  T
  26   -209.0436181 -0.792877E-07  0.286E-04    0.09      34.5  T
     SCC iter.                  ...        0 min,  1.146 sec
     gradient                   ...        0 min,  0.063 sec
 * total energy  :  -204.9147963 Eh     change       -0.3542126E-02 Eh
   gradient norm :     0.0588857 Eh/α   predicted    -0.2913955E-02 ( -17.73%)
   displ. norm   :     0.5207691 α      lambda       -0.6260155E-02
   maximum displ.:     0.1703696 α      in ANC's #6, #150, #137, ...

........................................................................
.............................. CYCLE  111 ..............................
........................................................................

 iter      E             dE          RMSdq      gap      omega  full diag
   1   -209.0438130 -0.209044E+03  0.625E-01    0.11       0.0  T
   2   -208.6680089  0.375804E+00  0.201E+00    0.08       1.0  T
   3   -209.0242730 -0.356264E+00  0.537E-01    0.26       1.0  T
   4   -208.6441152  0.380158E+00  0.158E+00    0.03       1.0  T
   5   -209.0272926 -0.383177E+00  0.485E-01    0.24       1.0  T
   6   -209.0292462 -0.195361E-02  0.430E-01    0.25       1.0  T
   7   -209.0312737 -0.202757E-02  0.391E-01    0.24       1.0  T
   8   -209.0378702 -0.659649E-02  0.299E-01    0.16       1.0  T
   9   -209.0387162 -0.846017E-03  0.243E-01    0.17       1.0  T
  10   -208.9873699  0.513464E-01  0.624E-01    0.02       1.0  T
  11   -209.0397990 -0.524292E-01  0.214E-01    0.07       1.0  T
  12   -209.0397364  0.626484E-04  0.223E-01    0.06       1.0  T
  13   -209.0410311 -0.129473E-02  0.181E-01    0.07       1.0  T
  14   -209.0449964 -0.396522E-02  0.648E-02    0.09       1.0  T
  15   -209.0456951 -0.698768E-03  0.344E-02    0.09       1.0  T
  16   -209.0458265 -0.131355E-03  0.202E-02    0.10       1.0  T
  17   -209.0458033  0.231397E-04  0.198E-02    0.10       1.0  T
  18   -209.0458349 -0.315362E-04  0.989E-03    0.10       1.0  T
  19   -209.0458407 -0.580156E-05  0.726E-03    0.10       1.4  T
  20   -209.0458247  0.159715E-04  0.138E-02    0.10       1.0  T
  21   -209.0458439 -0.192373E-04  0.514E-03    0.10       1.9  T
  22   -209.0458447 -0.804370E-06  0.257E-03    0.10       3.8  T
  23   -209.0458454 -0.668668E-06  0.167E-03    0.10       5.9  T
  24   -209.0458449  0.498438E-06  0.240E-03    0.10       4.1  T
  25   -209.0458456 -0.702345E-06  0.137E-03    0.10       7.2  T
  26   -209.0458459 -0.278312E-06  0.442E-04    0.10      22.3  T
  27   -209.0458459 -0.113492E-07  0.271E-04    0.10      36.4  T
     SCC iter.                  ...        0 min,  1.041 sec
     gradient                   ...        0 min,  0.068 sec
 * total energy  :  -204.9196783 Eh     change       -0.4882025E-02 Eh
   gradient norm :     0.0689194 Eh/α   predicted    -0.3978979E-02 ( -18.50%)
   displ. norm   :     0.5677600 α      lambda       -0.1040103E-01
   maximum displ.:     0.1823971 α      in ANC's #276, #92, #173, ...

........................................................................
.............................. CYCLE  112 ..............................
........................................................................

 iter      E             dE          RMSdq      gap      omega  full diag
   1   -209.0481677 -0.209048E+03  0.731E-01    0.15       0.0  T
   2   -207.1074168  0.194075E+01  0.339E+00    0.09       1.0  T
   3   -209.0268180 -0.191940E+01  0.652E-01    0.26       1.0  T
   4   -208.9186765  0.108142E+00  0.104E+00    0.12       1.0  T
   5   -209.0132381 -0.945616E-01  0.714E-01    0.31       1.0  T
   6   -209.0377603 -0.245222E-01  0.409E-01    0.22       1.0  T
   7   -209.0402093 -0.244902E-02  0.329E-01    0.21       1.0  T
   8   -209.0409351 -0.725757E-03  0.352E-01    0.23       1.0  T
   9   -209.0420526 -0.111750E-02  0.282E-01    0.22       1.0  T
  10   -209.0526502 -0.105976E-01  0.124E-01    0.12       1.0  T
  11   -209.0537271 -0.107689E-02  0.854E-02    0.12       1.0  T
  12   -209.0518860  0.184109E-02  0.129E-01    0.09       1.0  T
  13   -209.0533655 -0.147953E-02  0.969E-02    0.09       1.0  T
  14   -209.0533242  0.413593E-04  0.893E-02    0.09       1.0  T
  15   -209.0546561 -0.133187E-02  0.172E-02    0.11       1.0  T
  16   -209.0543696  0.286480E-03  0.409E-02    0.10       1.0  T
  17   -209.0546534 -0.283835E-03  0.127E-02    0.11       1.0  T
  18   -209.0546593 -0.584186E-05  0.927E-03    0.11       1.1  T
  19   -209.0546644 -0.519263E-05  0.664E-03    0.11       1.5  T
  20   -209.0546628  0.165330E-05  0.673E-03    0.11       1.5  T
  21   -209.0546639 -0.111612E-05  0.508E-03    0.11       1.9  T
  22   -209.0546669 -0.296711E-05  0.223E-03    0.11       4.4  T
  23   -209.0546669  0.198618E-07  0.203E-03    0.11       4.9  T
  24   -209.0546670 -0.128231E-06  0.153E-03    0.11       6.4  T
  25   -209.0546670 -0.542086E-07  0.136E-03    0.11       7.2  T
  26   -209.0546671 -0.766690E-07  0.103E-03    0.11       9.6  T
  27   -209.0546672 -0.129079E-06  0.632E-04    0.11      15.6  T
  28   -209.0546672  0.895997E-08  0.464E-04    0.11      21.2  T
     SCC iter.                  ...        0 min,  1.127 sec
     gradient                   ...        0 min,  0.068 sec
 * total energy  :  -204.9223874 Eh     change       -0.2709097E-02 Eh
   gradient norm :     0.0979369 Eh/α   predicted    -0.6876963E-02 ( 153.85%)
   displ. norm   :     0.5030982 α      lambda       -0.1225336E-01
   maximum displ.:     0.1770159 α      in ANC's #6, #5, #22, ...

........................................................................
.............................. CYCLE  113 ..............................
........................................................................

 iter      E             dE          RMSdq      gap      omega  full diag
   1   -209.0580470 -0.209058E+03  0.650E-01    0.06       0.0  T
   2   -209.0275407  0.305063E-01  0.792E-01    0.19       1.0  T
   3   -208.9089587  0.118582E+00  0.114E+00    0.00       1.0  T
   4   -209.0290589 -0.120100E+00  0.695E-01    0.25       1.0  T
   5   -209.0356048 -0.654593E-02  0.434E-01    0.14       1.0  T
   6   -209.0464519 -0.108471E-01  0.442E-01    0.17       1.0  T
   7   -209.0566238 -0.101719E-01  0.242E-01    0.16       1.0  T
   8   -209.0607443 -0.412042E-02  0.188E-01    0.11       1.0  T
   9   -209.0542854  0.645885E-02  0.250E-01    0.19       1.0  T
  10   -209.0576589 -0.337345E-02  0.179E-01    0.08       1.0  T
  11   -209.0642310 -0.657214E-02  0.898E-02    0.10       1.0  T
  12   -209.0618435  0.238750E-02  0.120E-01    0.08       1.0  T
  13   -209.0616502  0.193342E-03  0.129E-01    0.07       1.0  T
  14   -209.0646273 -0.297714E-02  0.343E-02    0.09       1.0  T
  15   -209.0648218 -0.194495E-03  0.151E-02    0.09       1.0  T
  16   -209.0647785  0.433357E-04  0.171E-02    0.10       1.0  T
  17   -209.0648224 -0.439375E-04  0.929E-03    0.10       1.1  T
  18   -209.0648275 -0.506342E-05  0.825E-03    0.10       1.2  T
  19   -209.0648326 -0.515032E-05  0.606E-03    0.09       1.6  T
  20   -209.0648392 -0.656272E-05  0.300E-03    0.09       3.3  T
  21   -209.0648406 -0.139820E-05  0.143E-03    0.09       6.9  T
  22   -209.0648388  0.175444E-05  0.346E-03    0.09       2.9  T
  23   -209.0648400 -0.121694E-05  0.203E-03    0.09       4.9  T
  24   -209.0648393  0.696528E-06  0.279E-03    0.09       3.5  T
  25   -209.0648406 -0.129515E-05  0.684E-04    0.09      14.4  T
  26   -209.0648404  0.231232E-06  0.130E-03    0.09       7.6  T
  27   -209.0648407 -0.278073E-06  0.361E-04    0.09      27.3  T
  28   -209.0648407 -0.341620E-08  0.380E-04    0.09      26.0  T
     SCC iter.                  ...        0 min,  1.199 sec
     gradient                   ...        0 min,  0.071 sec
 * total energy  :  -204.9257130 Eh     change       -0.3325606E-02 Eh
   gradient norm :     0.1036304 Eh/α   predicted    -0.7677393E-02 ( 130.86%)
   displ. norm   :     0.4206117 α      lambda       -0.1238144E-01
   maximum displ.:     0.1344424 α      in ANC's #25, #144, #53, ...

........................................................................
.............................. CYCLE  114 ..............................
........................................................................

 iter      E             dE          RMSdq      gap      omega  full diag
   1   -209.0873305 -0.209087E+03  0.673E-01    0.08       0.0  T
   2   -209.0643135  0.230169E-01  0.630E-01    0.25       1.0  T
   3   -207.4832324  0.158108E+01  0.325E+00    0.08       1.0  T
   4   -209.0558788 -0.157265E+01  0.557E-01    0.16       1.0  T
   5   -209.0554159  0.462908E-03  0.629E-01    0.09       1.0  T
   6   -209.0773979 -0.219820E-01  0.318E-01    0.21       1.0  T
   7   -209.0771942  0.203652E-03  0.316E-01    0.22       1.0  T
   8   -209.0830016 -0.580740E-02  0.245E-01    0.17       1.0  T
   9   -209.0831326 -0.130942E-03  0.200E-01    0.17       1.0  T
  10   -209.0900874 -0.695481E-02  0.133E-01    0.10       1.0  T
  11   -209.0897189  0.368482E-03  0.117E-01    0.11       1.0  T
  12   -209.0889464  0.772493E-03  0.104E-01    0.10       1.0  T
  13   -209.0905819 -0.163553E-02  0.428E-02    0.10       1.0  T
  14   -209.0905322  0.497477E-04  0.358E-02    0.10       1.0  T
  15   -209.0906521 -0.119934E-03  0.329E-02    0.09       1.0  T
  16   -209.0907532 -0.101045E-03  0.120E-02    0.10       1.0  T
  17   -209.0907036  0.495176E-04  0.178E-02    0.09       1.0  T
  18   -209.0907392 -0.355978E-04  0.117E-02    0.09       1.0  T
  19   -209.0907474 -0.818345E-05  0.101E-02    0.10       1.0  T
  20   -209.0907585 -0.111082E-04  0.337E-03    0.10       2.9  T
  21   -209.0907581  0.380121E-06  0.270E-03    0.10       3.7  T
  22   -209.0907581  0.608511E-07  0.252E-03    0.10       3.9  T
  23   -209.0907587 -0.623460E-06  0.168E-03    0.10       5.9  T
  24   -209.0907590 -0.251313E-06  0.949E-04    0.10      10.4  T
  25   -209.0907589  0.102407E-06  0.103E-03    0.10       9.5  T
  26   -209.0907590 -0.140005E-06  0.318E-04    0.10      30.9  T
     SCC iter.                  ...        0 min,  1.193 sec
     gradient                   ...        0 min,  0.070 sec
 * total energy  :  -204.9280697 Eh     change       -0.2356746E-02 Eh
   gradient norm :     0.0631645 Eh/α   predicted    -0.7285941E-02 ( 209.15%)
   displ. norm   :     0.4382614 α      lambda       -0.5585263E-02
   maximum displ.:     0.1790452 α      in ANC's #6, #5, #22, ...

........................................................................
.............................. CYCLE  115 ..............................
........................................................................

 iter      E             dE          RMSdq      gap      omega  full diag
   1   -209.0566867 -0.209057E+03  0.418E-01    0.08       0.0  T
   2   -208.9344799  0.122207E+00  0.977E-01    0.11       1.0  T
   3   -209.0216924 -0.872124E-01  0.698E-01    0.14       1.0  T
   4   -207.7138635  0.130783E+01  0.264E+00    0.07       1.0  T
   5   -209.0489834 -0.133512E+01  0.366E-01    0.19       1.0  T
   6   -209.0465031  0.248027E-02  0.363E-01    0.19       1.0  T
   7   -209.0531404 -0.663731E-02  0.264E-01    0.16       1.0  T
   8   -209.0538345 -0.694075E-03  0.229E-01    0.16       1.0  T
   9   -209.0569653 -0.313089E-02  0.174E-01    0.13       1.0  T
  10   -209.0588873 -0.192191E-02  0.128E-01    0.12       1.0  T
  11   -209.0598971 -0.100987E-02  0.746E-02    0.11       1.0  T
  12   -209.0600499 -0.152764E-03  0.591E-02    0.10       1.0  T
  13   -209.0607099 -0.660010E-03  0.164E-02    0.09       1.0  T
  14   -209.0606876  0.223492E-04  0.206E-02    0.09       1.0  T
  15   -209.0606357  0.518862E-04  0.262E-02    0.09       1.0  T
  16   -209.0606691 -0.334498E-04  0.204E-02    0.09       1.0  T
  17   -209.0607147 -0.455706E-04  0.101E-02    0.09       1.0  T
  18   -209.0607227 -0.799881E-05  0.659E-03    0.09       1.5  T
  19   -209.0607257 -0.298120E-05  0.308E-03    0.09       3.2  T
  20   -209.0607258 -0.139815E-06  0.226E-03    0.10       4.4  T
  21   -209.0607254  0.423568E-06  0.274E-03    0.10       3.6  T
  22   -209.0607259 -0.471308E-06  0.198E-03    0.10       5.0  T
  23   -209.0607261 -0.242729E-06  0.116E-03    0.10       8.5  T
  24   -209.0607262 -0.119725E-06  0.526E-04    0.09      18.7  T
  25   -209.0607262  0.109312E-07  0.441E-04    0.09      22.4  T
     SCC iter.                  ...        0 min,  1.168 sec
     gradient                   ...        0 min,  0.058 sec
 * total energy  :  -204.9310504 Eh     change       -0.2980665E-02 Eh
   gradient norm :     0.0628224 Eh/α   predicted    -0.3329024E-02 (  11.69%)
   displ. norm   :     0.4069688 α      lambda       -0.3633204E-02
   maximum displ.:     0.1544113 α      in ANC's #6, #5, #276, ...

........................................................................
.............................. CYCLE  116 ..............................
........................................................................

 iter      E             dE          RMSdq      gap      omega  full diag
   1   -209.0511617 -0.209051E+03  0.530E-01    0.09       0.0  T
   2   -208.8766293  0.174532E+00  0.151E+00    0.14       1.0  T
   3   -209.0159352 -0.139306E+00  0.667E-01    0.09       1.0  T
   4   -208.8122537  0.203681E+00  0.131E+00    0.02       1.0  T
   5   -209.0285386 -0.216285E+00  0.444E-01    0.16       1.0  T
   6   -209.0428133 -0.142747E-01  0.298E-01    0.07       1.0  T
   7   -209.0446459 -0.183253E-02  0.313E-01    0.18       1.0  T
   8   -209.0478209 -0.317503E-02  0.238E-01    0.16       1.0  T
   9   -209.0530175 -0.519657E-02  0.143E-01    0.08       1.0  T
  10   -209.0473967  0.562078E-02  0.237E-01    0.05       1.0  T
  11   -209.0546536 -0.725688E-02  0.883E-02    0.08       1.0  T
  12   -209.0557727 -0.111913E-02  0.413E-02    0.10       1.0  T
  13   -209.0559633 -0.190655E-03  0.332E-02    0.10       1.0  T
  14   -209.0559756 -0.122116E-04  0.344E-02    0.09       1.0  T
  15   -209.0558752  0.100371E-03  0.357E-02    0.08       1.0  T
  16   -209.0560433 -0.168105E-03  0.139E-02    0.09       1.0  T
  17   -209.0560689 -0.255932E-04  0.666E-03    0.09       1.5  T
  18   -209.0560704 -0.148660E-05  0.457E-03    0.09       2.2  T
  19   -209.0560710 -0.600784E-06  0.304E-03    0.09       3.2  T
  20   -209.0560713 -0.337219E-06  0.169E-03    0.09       5.8  T
  21   -209.0560715 -0.222391E-06  0.128E-03    0.09       7.7  T
  22   -209.0560715  0.203385E-07  0.121E-03    0.09       8.1  T
  23   -209.0560714  0.775100E-07  0.107E-03    0.09       9.2  T
  24   -209.0560716 -0.131184E-06  0.502E-04    0.09      19.6  T
  25   -209.0560716 -0.257759E-08  0.347E-04    0.09      28.4  T
     SCC iter.                  ...        0 min,  1.070 sec
     gradient                   ...        0 min,  0.066 sec
 * total energy  :  -204.9332702 Eh     change       -0.2219837E-02 Eh
   gradient norm :     0.0457476 Eh/α   predicted    -0.2117476E-02 (  -4.61%)
   displ. norm   :     0.4681263 α      lambda       -0.4012130E-02
   maximum displ.:     0.1840302 α      in ANC's #6, #5, #276, ...

........................................................................
.............................. CYCLE  117 ..............................
........................................................................

 iter      E             dE          RMSdq      gap      omega  full diag
   1   -209.0661806 -0.209066E+03  0.541E-01    0.08       0.0  T
   2   -208.8523294  0.213851E+00  0.136E+00    0.10       1.0  T
   3   -209.0305762 -0.178247E+00  0.645E-01    0.07       1.0  T
   4   -208.9871164  0.434598E-01  0.673E-01    0.01       1.0  T
   5   -209.0516332 -0.645168E-01  0.409E-01    0.18       1.0  T
   6   -209.0460431  0.559011E-02  0.361E-01    0.05       1.0  T
   7   -209.0547015 -0.865847E-02  0.416E-01    0.20       1.0  T
   8   -209.0608639 -0.616235E-02  0.328E-01    0.17       1.0  T
   9   -209.0707276 -0.986370E-02  0.103E-01    0.09       1.0  T
  10   -209.0573386  0.133890E-01  0.322E-01    0.04       1.0  T
  11   -209.0706204 -0.132818E-01  0.678E-02    0.09       1.0  T
  12   -209.0703823  0.238039E-03  0.706E-02    0.10       1.0  T
  13   -209.0708457 -0.463424E-03  0.681E-02    0.08       1.0  T
  14   -209.0712541 -0.408402E-03  0.246E-02    0.09       1.0  T
  15   -209.0713187 -0.645749E-04  0.164E-02    0.09       1.0  T
  16   -209.0712781  0.406167E-04  0.205E-02    0.09       1.0  T
  17   -209.0713288 -0.506759E-04  0.645E-03    0.09       1.5  T
  18   -209.0713230  0.578458E-05  0.829E-03    0.09       1.2  T
  19   -209.0713303 -0.731834E-05  0.544E-03    0.09       1.8  T
  20   -209.0713311 -0.749469E-06  0.374E-03    0.09       2.6  T
  21   -209.0713325 -0.141469E-05  0.222E-03    0.09       4.4  T
  22   -209.0713327 -0.210705E-06  0.228E-03    0.09       4.3  T
  23   -209.0713325  0.232690E-06  0.214E-03    0.09       4.6  T
  24   -209.0713330 -0.535253E-06  0.109E-03    0.09       9.0  T
  25   -209.0713330 -0.223271E-07  0.971E-04    0.09      10.2  T
  26   -209.0713331 -0.111165E-06  0.312E-04    0.09      31.6  T
     SCC iter.                  ...        0 min,  0.922 sec
     gradient                   ...        0 min,  0.069 sec
 * total energy  :  -204.9352580 Eh     change       -0.1987722E-02 Eh
   gradient norm :     0.0554773 Eh/α   predicted    -0.2445678E-02 (  23.04%)
   displ. norm   :     0.2720612 α      lambda       -0.3622534E-02
   maximum displ.:     0.1350005 α      in ANC's #6, #5, #70, ...

........................................................................
.............................. CYCLE  118 ..............................
........................................................................

 iter      E             dE          RMSdq      gap      omega  full diag
   1   -209.0822864 -0.209082E+03  0.296E-01    0.06       0.0  T
   2   -209.0481360  0.341504E-01  0.750E-01    0.24       1.0  T
   3   -209.0571103 -0.897437E-02  0.450E-01    0.15       1.0  T
   4   -209.0741965 -0.170861E-01  0.262E-01    0.05       1.0  T
   5   -209.0830616 -0.886517E-02  0.162E-01    0.11       1.0  T
   6   -209.0841484 -0.108680E-02  0.127E-01    0.12       1.0  T
   7   -209.0854826 -0.133416E-02  0.976E-02    0.08       1.0  T
   8   -209.0869837 -0.150112E-02  0.539E-02    0.09       1.0  T
   9   -209.0868548  0.128890E-03  0.515E-02    0.08       1.0  T
  10   -209.0861610  0.693791E-03  0.985E-02    0.11       1.0  T
  11   -209.0867790 -0.617921E-03  0.553E-02    0.08       1.0  T
  12   -209.0871643 -0.385352E-03  0.267E-02    0.08       1.0  T
  13   -209.0872402 -0.759323E-04  0.140E-02    0.09       1.0  T
  14   -209.0872395  0.690950E-06  0.900E-03    0.09       1.1  T
  15   -209.0872534 -0.138065E-04  0.483E-03    0.09       2.0  T
  16   -209.0872519  0.145125E-05  0.500E-03    0.09       2.0  T
  17   -209.0872551 -0.320889E-05  0.255E-03    0.09       3.9  T
  18   -209.0872557 -0.591606E-06  0.214E-03    0.09       4.6  T
  19   -209.0872560 -0.264484E-06  0.119E-03    0.09       8.3  T
  20   -209.0872550  0.993140E-06  0.265E-03    0.09       3.7  T
  21   -209.0872561 -0.107716E-05  0.518E-04    0.09      19.0  T
  22   -209.0872561 -0.310558E-08  0.437E-04    0.09      22.5  T
  23   -209.0872561 -0.133427E-07  0.208E-04    0.09      47.3  T
     SCC iter.                  ...        0 min,  1.502 sec
     gradient                   ...        0 min,  0.067 sec
 * total energy  :  -204.9375135 Eh     change       -0.2255576E-02 Eh
   gradient norm :     0.0392280 Eh/α   predicted    -0.1945339E-02 ( -13.75%)
   displ. norm   :     0.5063525 α      lambda       -0.3037492E-02
   maximum displ.:     0.2913461 α      in ANC's #6, #5, #4, ...

........................................................................
.............................. CYCLE  119 ..............................
........................................................................

 iter      E             dE          RMSdq      gap      omega  full diag
   1   -209.0668179 -0.209067E+03  0.268E-01    0.10       0.0  T
   2   -208.8332966  0.233521E+00  0.116E+00    0.05       1.0  T
   3   -209.0547395 -0.221443E+00  0.468E-01    0.14       1.0  T
   4   -209.0388439  0.158956E-01  0.562E-01    0.12       1.0  T
   5   -209.0285268  0.103171E-01  0.452E-01    0.03       1.0  T
   6   -209.0581938 -0.296670E-01  0.207E-01    0.07       1.0  T
   7   -209.0661474 -0.795363E-02  0.105E-01    0.08       1.0  T
   8   -209.0668206 -0.673224E-03  0.131E-01    0.11       1.0  T
   9   -209.0669938 -0.173180E-03  0.104E-01    0.11       1.0  T
  10   -209.0677234 -0.729623E-03  0.547E-02    0.10       1.0  T
  11   -209.0680507 -0.327286E-03  0.340E-02    0.08       1.0  T
  12   -209.0681163 -0.656234E-04  0.253E-02    0.08       1.0  T
  13   -209.0677726  0.343749E-03  0.541E-02    0.08       1.0  T
  14   -209.0679226 -0.150021E-03  0.427E-02    0.08       1.0  T
  15   -209.0681521 -0.229463E-03  0.152E-02    0.09       1.0  T
  16   -209.0681529 -0.802203E-06  0.110E-02    0.09       1.0  T
  17   -209.0681672 -0.143303E-04  0.827E-03    0.09       1.2  T
  18   -209.0681689 -0.168419E-05  0.654E-03    0.09       1.5  T
  19   -209.0681718 -0.290873E-05  0.321E-03    0.09       3.1  T
  20   -209.0681724 -0.587781E-06  0.230E-03    0.09       4.3  T
  21   -209.0681725 -0.849470E-07  0.192E-03    0.09       5.1  T
  22   -209.0681729 -0.426658E-06  0.599E-04    0.09      16.4  T
  23   -209.0681729 -0.466017E-08  0.503E-04    0.09      19.6  T
     SCC iter.                  ...        0 min,  1.117 sec
     gradient                   ...        0 min,  0.087 sec
 * total energy  :  -204.9392988 Eh     change       -0.1785222E-02 Eh
   gradient norm :     0.0321626 Eh/α   predicted    -0.1908140E-02 (   6.89%)
   displ. norm   :     0.4640102 α      lambda       -0.2457307E-02
   maximum displ.:     0.2524781 α      in ANC's #6, #5, #15, ...

........................................................................
.............................. CYCLE  120 ..............................
........................................................................

 iter      E             dE          RMSdq      gap      omega  full diag
   1   -209.0515766 -0.209052E+03  0.493E-01    0.05       0.0  T
   2   -209.0264499  0.251267E-01  0.759E-01    0.22       1.0  T
   3   -209.0415458 -0.150958E-01  0.411E-01    0.16       1.0  T
   4   -208.9443503  0.971955E-01  0.828E-01    0.01       1.0  T
   5   -209.0459547 -0.101604E+00  0.395E-01    0.19       1.0  T
   6   -209.0533990 -0.744436E-02  0.210E-01    0.12       1.0  T
   7   -209.0489538  0.444522E-02  0.315E-01    0.19       1.0  T
   8   -209.0576532 -0.869935E-02  0.141E-01    0.12       1.0  T
   9   -209.0589807 -0.132749E-02  0.986E-02    0.08       1.0  T
  10   -209.0593623 -0.381686E-03  0.858E-02    0.08       1.0  T
  11   -209.0607523 -0.138992E-02  0.364E-02    0.09       1.0  T
  12   -209.0596204  0.113191E-02  0.852E-02    0.07       1.0  T
  13   -209.0608437 -0.122330E-02  0.206E-02    0.09       1.0  T
  14   -209.0606384  0.205305E-03  0.439E-02    0.08       1.0  T
  15   -209.0608107 -0.172389E-03  0.251E-02    0.09       1.0  T
  16   -209.0607983  0.124242E-04  0.238E-02    0.09       1.0  T
  17   -209.0608613 -0.630128E-04  0.114E-02    0.09       1.0  T
  18   -209.0608694 -0.806602E-05  0.522E-03    0.09       1.9  T
  19   -209.0608564  0.129689E-04  0.991E-03    0.09       1.0  T
  20   -209.0608725 -0.160702E-04  0.151E-03    0.09       6.5  T
  21   -209.0608723  0.220864E-06  0.213E-03    0.09       4.6  T
  22   -209.0608726 -0.309814E-06  0.742E-04    0.09      13.3  T
  23   -209.0608726 -0.817101E-08  0.541E-04    0.09      18.2  T
     SCC iter.                  ...        0 min,  1.071 sec
     gradient                   ...        0 min,  0.074 sec
 * total energy  :  -204.9411244 Eh     change       -0.1825672E-02 Eh
   gradient norm :     0.0344804 Eh/α   predicted    -0.1493189E-02 ( -18.21%)
   displ. norm   :     0.6179347 α      lambda       -0.3375376E-02
   maximum displ.:     0.3660067 α      in ANC's #6, #5, #4, ...
 * RMSD in coord.:     0.7318490 α      energy gain  -0.6118331E-01 Eh

generating ANC from exact Hessian ...
Using Lindh-Hessian (1995)
 Shifting diagonal of input Hessian by   1.041373117543412E-002
 Lowest  eigenvalues of input Hessian
    0.010000    0.010083    0.010106    0.010408    0.000000    0.000000
    0.000000    0.000000    0.000000    0.000000    0.010428    0.010442
    0.010481    0.010563    0.010598    0.010757    0.010821    0.010970
 Highest eigenvalues
    2.306764    2.345888    2.362827    2.812555    7.686354    7.859848
 

........................................................................
.............................. CYCLE  121 ..............................
........................................................................

 iter      E             dE          RMSdq      gap      omega  full diag
   1   -209.0155156 -0.209016E+03  0.780E-01    0.02       0.0  T
   2   -208.9540522  0.614635E-01  0.141E+00    0.36       1.0  T
   3   -208.9793745 -0.253223E-01  0.863E-01    0.16       1.0  T
   4   -209.0092870 -0.299125E-01  0.808E-01    0.32       1.0  T
   5   -209.0367618 -0.274748E-01  0.480E-01    0.22       1.0  T
   6   -208.9151754  0.121586E+00  0.979E-01    0.03       1.0  T
   7   -209.0359063 -0.120731E+00  0.314E-01    0.16       1.0  T
   8   -209.0413800 -0.547369E-02  0.359E-01    0.20       1.0  T
   9   -209.0481095 -0.672943E-02  0.226E-01    0.14       1.0  T
  10   -209.0529958 -0.488632E-02  0.739E-02    0.10       1.0  T
  11   -209.0531738 -0.177973E-03  0.433E-02    0.09       1.0  T
  12   -209.0517820  0.139179E-02  0.920E-02    0.08       1.0  T
  13   -209.0526544 -0.872449E-03  0.779E-02    0.07       1.0  T
  14   -209.0532809 -0.626494E-03  0.459E-02    0.09       1.0  T
  15   -209.0534561 -0.175199E-03  0.113E-02    0.09       1.0  T
  16   -209.0534641 -0.794970E-05  0.658E-03    0.09       1.5  T
  17   -209.0534636  0.451590E-06  0.540E-03    0.09       1.8  T
  18   -209.0534604  0.319473E-05  0.805E-03    0.09       1.2  T
  19   -209.0534577  0.270306E-05  0.981E-03    0.09       1.0  T
  20   -209.0534648 -0.713446E-05  0.357E-03    0.09       2.8  T
  21   -209.0534641  0.706438E-06  0.384E-03    0.09       2.6  T
  22   -209.0534659 -0.173588E-05  0.814E-04    0.09      12.1  T
  23   -209.0534658  0.671778E-07  0.124E-03    0.09       7.9  T
  24   -209.0534659 -0.837641E-07  0.561E-04    0.09      17.6  T
  25   -209.0534659 -0.142495E-07  0.351E-04    0.09      28.1  T
     SCC iter.                  ...        0 min,  0.954 sec
     gradient                   ...        0 min,  0.080 sec
 * total energy  :  -204.9435292 Eh     change       -0.2404778E-02 Eh
   gradient norm :     0.0346287 Eh/α   predicted     0.0000000E+00 (-100.00%)
   displ. norm   :     0.3090137 α      lambda       -0.3106490E-02
   maximum displ.:     0.1607729 α      in ANC's #6, #21, #24, ...

........................................................................
.............................. CYCLE  122 ..............................
........................................................................

 iter      E             dE          RMSdq      gap      omega  full diag
   1   -209.0611698 -0.209061E+03  0.338E-01    0.07       0.0  T
   2   -208.8878251  0.173345E+00  0.128E+00    0.13       1.0  T
   3   -209.0511279 -0.163303E+00  0.434E-01    0.17       1.0  T
   4   -208.3446951  0.706433E+00  0.200E+00    0.04       1.0  T
   5   -209.0526714 -0.707976E+00  0.379E-01    0.16       1.0  T
   6   -209.0515466  0.112485E-02  0.389E-01    0.17       1.0  T
   7   -209.0567610 -0.521436E-02  0.262E-01    0.15       1.0  T
   8   -209.0585226 -0.176160E-02  0.233E-01    0.14       1.0  T
   9   -209.0611157 -0.259316E-02  0.180E-01    0.12       1.0  T
  10   -209.0625831 -0.146743E-02  0.136E-01    0.11       1.0  T
  11   -209.0639797 -0.139660E-02  0.726E-02    0.09       1.0  T
  12   -209.0643472 -0.367415E-03  0.653E-02    0.09       1.0  T
  13   -209.0647437 -0.396522E-03  0.224E-02    0.09       1.0  T
  14   -209.0644269  0.316767E-03  0.458E-02    0.08       1.0  T
  15   -209.0647060 -0.279103E-03  0.213E-02    0.08       1.0  T
  16   -209.0647590 -0.529958E-04  0.136E-02    0.08       1.0  T
  17   -209.0647465  0.125469E-04  0.165E-02    0.08       1.0  T
  18   -209.0647817 -0.351879E-04  0.531E-03    0.09       1.9  T
  19   -209.0647829 -0.122851E-05  0.224E-03    0.09       4.4  T
  20   -209.0647829  0.329903E-07  0.181E-03    0.09       5.4  T
  21   -209.0647827  0.187652E-06  0.171E-03    0.09       5.8  T
  22   -209.0647828 -0.175843E-06  0.151E-03    0.09       6.5  T
  23   -209.0647831 -0.270853E-06  0.538E-04    0.09      18.3  T
  24   -209.0647831 -0.302330E-08  0.474E-04    0.09      20.8  T
     SCC iter.                  ...        0 min,  1.398 sec
     gradient                   ...        0 min,  0.114 sec
 * total energy  :  -204.9444489 Eh     change       -0.9197403E-03 Eh
   gradient norm :     0.0521306 Eh/α   predicted    -0.1702630E-02 (  85.12%)
   displ. norm   :     0.3593380 α      lambda       -0.3559650E-02
   maximum displ.:     0.2285751 α      in ANC's #6, #21, #7, ...

........................................................................
.............................. CYCLE  123 ..............................
........................................................................

 iter      E             dE          RMSdq      gap      omega  full diag
   1   -209.0719639 -0.209072E+03  0.431E-01    0.08       0.0  T
   2   -209.0088370  0.631269E-01  0.103E+00    0.13       1.0  T
   3   -209.0202699 -0.114329E-01  0.814E-01    0.02       1.0  T
   4   -209.0583337 -0.380638E-01  0.403E-01    0.17       1.0  T
   5   -209.0311560  0.271778E-01  0.475E-01    0.03       1.0  T
   6   -209.0641714 -0.330155E-01  0.374E-01    0.18       1.0  T
   7   -209.0653530 -0.118154E-02  0.306E-01    0.18       1.0  T
   8   -209.0709514 -0.559846E-02  0.159E-01    0.08       1.0  T
   9   -209.0736796 -0.272814E-02  0.153E-01    0.12       1.0  T
  10   -209.0762726 -0.259306E-02  0.648E-02    0.09       1.0  T
  11   -209.0766723 -0.399701E-03  0.524E-02    0.08       1.0  T
  12   -209.0758453  0.827055E-03  0.867E-02    0.07       1.0  T
  13   -209.0768865 -0.104122E-02  0.233E-02    0.09       1.0  T
  14   -209.0768650  0.214984E-04  0.192E-02    0.09       1.0  T
  15   -209.0769054 -0.404373E-04  0.141E-02    0.09       1.0  T
  16   -209.0769336 -0.281655E-04  0.760E-03    0.09       1.3  T
  17   -209.0769378 -0.417105E-05  0.650E-03    0.09       1.5  T
  18   -209.0769385 -0.715775E-06  0.572E-03    0.09       1.7  T
  19   -209.0769407 -0.216696E-05  0.359E-03    0.09       2.7  T
  20   -209.0769376  0.305916E-05  0.560E-03    0.09       1.8  T
  21   -209.0769402 -0.260953E-05  0.353E-03    0.09       2.8  T
  22   -209.0769417 -0.144829E-05  0.158E-03    0.09       6.2  T
  23   -209.0769415  0.141972E-06  0.167E-03    0.09       5.9  T
  24   -209.0769419 -0.352571E-06  0.749E-04    0.09      13.2  T
  25   -209.0769419 -0.128806E-07  0.548E-04    0.09      18.0  T
     SCC iter.                  ...        0 min,  8.155 sec
     gradient                   ...        0 min,  0.071 sec
 * total energy  :  -204.9466405 Eh     change       -0.2191552E-02 Eh
   gradient norm :     0.0343948 Eh/α   predicted    -0.2009675E-02 (  -8.30%)
   displ. norm   :     0.5068464 α      lambda       -0.4202545E-02
   maximum displ.:     0.3343147 α      in ANC's #6, #21, #7, ...

........................................................................
.............................. CYCLE  124 ..............................
........................................................................

 iter      E             dE          RMSdq      gap      omega  full diag
   1   -209.0657362 -0.209066E+03  0.549E-01    0.08       0.0  T
   2   -208.9335454  0.132191E+00  0.140E+00    0.21       1.0  T
   3   -208.8854707  0.480747E-01  0.116E+00    0.04       1.0  T
   4   -209.0280583 -0.142588E+00  0.593E-01    0.14       1.0  T
   5   -209.0441113 -0.160530E-01  0.404E-01    0.05       1.0  T
   6   -209.0599102 -0.157989E-01  0.444E-01    0.18       1.0  T
   7   -209.0625667 -0.265652E-02  0.334E-01    0.16       1.0  T
   8   -209.0682345 -0.566777E-02  0.293E-01    0.16       1.0  T
   9   -209.0726824 -0.444793E-02  0.130E-01    0.10       1.0  T
  10   -209.0742840 -0.160157E-02  0.980E-02    0.09       1.0  T
  11   -209.0749821 -0.698101E-03  0.100E-01    0.11       1.0  T
  12   -209.0752757 -0.293573E-03  0.967E-02    0.07       1.0  T
  13   -209.0760961 -0.820418E-03  0.433E-02    0.08       1.0  T
  14   -209.0763053 -0.209250E-03  0.323E-02    0.09       1.0  T
  15   -209.0762940  0.113045E-04  0.173E-02    0.08       1.0  T
  16   -209.0763409 -0.468269E-04  0.142E-02    0.09       1.0  T
  17   -209.0763411 -0.214996E-06  0.107E-02    0.09       1.0  T
  18   -209.0763484 -0.732972E-05  0.994E-03    0.09       1.0  T
  19   -209.0763600 -0.116421E-04  0.266E-03    0.09       3.7  T
  20   -209.0763540  0.607993E-05  0.715E-03    0.09       1.4  T
  21   -209.0763600 -0.606371E-05  0.162E-03    0.09       6.1  T
  22   -209.0763589  0.108344E-05  0.300E-03    0.09       3.3  T
  23   -209.0763602 -0.129439E-05  0.122E-03    0.09       8.1  T
  24   -209.0763603 -0.416999E-07  0.920E-04    0.09      10.7  T
  25   -209.0763604 -0.954201E-07  0.424E-04    0.09      23.2  T
     SCC iter.                  ...        0 min,  2.997 sec
     gradient                   ...        0 min,  0.080 sec
 * total energy  :  -204.9481650 Eh     change       -0.1524506E-02 Eh
   gradient norm :     0.0747191 Eh/α   predicted    -0.2641136E-02 (  73.25%)
   displ. norm   :     0.4691990 α      lambda       -0.4544772E-02
   maximum displ.:     0.3234982 α      in ANC's #6, #7, #14, ...

........................................................................
.............................. CYCLE  125 ..............................
........................................................................

 iter      E             dE          RMSdq      gap      omega  full diag
   1   -209.0704092 -0.209070E+03  0.441E-01    0.08       0.0  T
   2   -209.0345294  0.358797E-01  0.783E-01    0.14       1.0  T
   3   -209.0022229  0.323066E-01  0.652E-01    0.02       1.0  T
   4   -209.0500616 -0.478388E-01  0.539E-01    0.16       1.0  T
   5   -209.0619157 -0.118541E-01  0.231E-01    0.14       1.0  T
   6   -209.0480553  0.138604E-01  0.410E-01    0.03       1.0  T
   7   -209.0667831 -0.187278E-01  0.299E-01    0.12       1.0  T
   8   -209.0711618 -0.437868E-02  0.144E-01    0.10       1.0  T
   9   -209.0687646  0.239722E-02  0.126E-01    0.08       1.0  T
  10   -209.0716226 -0.285804E-02  0.646E-02    0.08       1.0  T
  11   -209.0721163 -0.493699E-03  0.406E-02    0.09       1.0  T
  12   -209.0723144 -0.198092E-03  0.211E-02    0.09       1.0  T
  13   -209.0723023  0.121077E-04  0.212E-02    0.09       1.0  T
  14   -209.0722954  0.690758E-05  0.193E-02    0.09       1.0  T
  15   -209.0723279 -0.324854E-04  0.119E-02    0.09       1.0  T
  16   -209.0723149  0.129358E-04  0.184E-02    0.09       1.0  T
  17   -209.0723244 -0.941308E-05  0.115E-02    0.09       1.0  T
  18   -209.0723315 -0.717557E-05  0.867E-03    0.09       1.1  T
  19   -209.0723426 -0.110757E-04  0.359E-03    0.09       2.7  T
  20   -209.0723422  0.435201E-06  0.410E-03    0.09       2.4  T
  21   -209.0723396  0.254426E-05  0.450E-03    0.09       2.2  T
  22   -209.0723416 -0.195288E-05  0.321E-03    0.09       3.1  T
  23   -209.0723430 -0.146709E-05  0.837E-04    0.09      11.8  T
  24   -209.0723431 -0.192695E-07  0.504E-04    0.09      19.6  T
  25   -209.0723429  0.164679E-06  0.116E-03    0.09       8.5  T
  26   -209.0723430 -0.129807E-06  0.556E-04    0.09      17.7  T
     SCC iter.                  ...        0 min,  1.496 sec
     gradient                   ...        0 min,  0.065 sec
 * total energy  :  -204.9511079 Eh     change       -0.2942881E-02 Eh
   gradient norm :     0.0575591 Eh/α   predicted    -0.2772708E-02 (  -5.78%)
   displ. norm   :     0.5661666 α      lambda       -0.6486181E-02
   maximum displ.:     0.4075180 α      in ANC's #6, #7, #14, ...

........................................................................
.............................. CYCLE  126 ..............................
........................................................................

 iter      E             dE          RMSdq      gap      omega  full diag
   1   -209.0436144 -0.209044E+03  0.578E-01    0.04       0.0  T
   2   -208.9311250  0.112489E+00  0.117E+00    0.14       1.0  T
   3   -208.9584060 -0.272810E-01  0.127E+00    0.46       1.0  T
   4   -209.0468678 -0.884618E-01  0.553E-01    0.18       1.0  T
   5   -209.0513835 -0.451570E-02  0.429E-01    0.12       1.0  T
   6   -208.9933705  0.580130E-01  0.663E-01    0.02       1.0  T
   7   -209.0517992 -0.584287E-01  0.261E-01    0.12       1.0  T
   8   -208.9654718  0.863274E-01  0.755E-01    0.00       1.0  T
   9   -209.0625499 -0.970782E-01  0.158E-01    0.11       1.0  T
  10   -209.0633924 -0.842502E-03  0.146E-01    0.08       1.0  T
  11   -209.0645524 -0.115994E-02  0.622E-02    0.08       1.0  T
  12   -209.0644737  0.786471E-04  0.798E-02    0.09       1.0  T
  13   -209.0640397  0.433978E-03  0.954E-02    0.10       1.0  T
  14   -209.0640657 -0.259212E-04  0.928E-02    0.10       1.0  T
  15   -209.0646373 -0.571605E-03  0.317E-02    0.09       1.0  T
  16   -209.0647746 -0.137324E-03  0.200E-02    0.09       1.0  T
  17   -209.0648407 -0.661349E-04  0.752E-03    0.08       1.3  T
  18   -209.0648396  0.114218E-05  0.709E-03    0.08       1.4  T
  19   -209.0648403 -0.683593E-06  0.590E-03    0.08       1.7  T
  20   -209.0648421 -0.185068E-05  0.594E-03    0.08       1.7  T
  21   -209.0648444 -0.230619E-05  0.421E-03    0.08       2.3  T
  22   -209.0648452 -0.774285E-06  0.256E-03    0.08       3.8  T
  23   -209.0648461 -0.932125E-06  0.135E-03    0.08       7.3  T
  24   -209.0648460  0.103566E-06  0.127E-03    0.08       7.8  T
  25   -209.0648462 -0.179529E-06  0.762E-04    0.08      12.9  T
  26   -209.0648462 -0.255683E-07  0.499E-04    0.08      19.8  T
     SCC iter.                  ...        0 min,  1.394 sec
     gradient                   ...        0 min,  0.068 sec
 * total energy  :  -204.9550688 Eh     change       -0.3960918E-02 Eh
   gradient norm :     0.0829062 Eh/α   predicted    -0.4282721E-02 (   8.12%)
   displ. norm   :     0.6444211 α      lambda       -0.6459778E-02
   maximum displ.:     0.4664830 α      in ANC's #6, #7, #14, ...

........................................................................
.............................. CYCLE  127 ..............................
........................................................................

 iter      E             dE          RMSdq      gap      omega  full diag
   1   -208.9551539 -0.208955E+03  0.121E+00    0.02       0.0  T
   2   -208.8502250  0.104929E+00  0.215E+00    0.29       1.0  T
   3   -208.9856240 -0.135399E+00  0.106E+00    0.11       1.0  T
   4   -208.9630710  0.225530E-01  0.125E+00    0.38       1.0  T
   5   -209.0341770 -0.711060E-01  0.707E-01    0.16       1.0  T
   6   -209.0260182  0.815882E-02  0.712E-01    0.18       1.0  T
   7   -209.0515167 -0.254985E-01  0.336E-01    0.12       1.0  T
   8   -208.7930743  0.258442E+00  0.143E+00    0.07       1.0  T
   9   -209.0456418 -0.252567E+00  0.327E-01    0.08       1.0  T
  10   -209.0321795  0.134623E-01  0.365E-01    0.04       1.0  T
  11   -209.0462598 -0.140803E-01  0.355E-01    0.12       1.0  T
  12   -209.0498819 -0.362212E-02  0.254E-01    0.11       1.0  T
  13   -209.0563180 -0.643611E-02  0.171E-01    0.11       1.0  T
  14   -209.0581111 -0.179311E-02  0.835E-02    0.07       1.0  T
  15   -209.0588685 -0.757421E-03  0.544E-02    0.08       1.0  T
  16   -209.0594944 -0.625896E-03  0.210E-02    0.08       1.0  T
  17   -209.0594716  0.228396E-04  0.203E-02    0.08       1.0  T
  18   -209.0595335 -0.619232E-04  0.960E-03    0.08       1.0  T
  19   -209.0595378 -0.432261E-05  0.780E-03    0.08       1.3  T
  20   -209.0595338  0.407601E-05  0.765E-03    0.08       1.3  T
  21   -209.0595405 -0.677614E-05  0.427E-03    0.08       2.3  T
  22   -209.0595433 -0.278354E-05  0.182E-03    0.08       5.4  T
  23   -209.0595379  0.537721E-05  0.598E-03    0.08       1.6  T
  24   -209.0595432 -0.524955E-05  0.167E-03    0.08       5.9  T
  25   -209.0595423  0.876265E-06  0.270E-03    0.08       3.7  T
  26   -209.0595435 -0.122557E-05  0.866E-04    0.08      11.4  T
  27   -209.0595415  0.205524E-05  0.348E-03    0.08       2.8  T
  28   -209.0595435 -0.198014E-05  0.874E-04    0.08      11.3  T
  29   -209.0595436 -0.109423E-06  0.574E-04    0.08      17.2  T
  30   -209.0595436 -0.219717E-07  0.334E-04    0.08      29.5  T
     SCC iter.                  ...        0 min,  1.302 sec
     gradient                   ...        0 min,  0.067 sec
 * total energy  :  -204.9606039 Eh     change       -0.5535085E-02 Eh
   gradient norm :     0.0505163 Eh/α   predicted    -0.4571284E-02 ( -17.41%)
   displ. norm   :     0.6882214 α      lambda       -0.9363504E-02
   maximum displ.:     0.4553452 α      in ANC's #6, #7, #148, ...

........................................................................
.............................. CYCLE  128 ..............................
........................................................................

 iter      E             dE          RMSdq      gap      omega  full diag
   1   -208.9334258 -0.208933E+03  0.136E+00    0.03       0.0  T
   2   -208.7403069  0.193119E+00  0.264E+00    0.21       1.0  T
   3   -208.9933836 -0.253077E+00  0.124E+00    0.16       1.0  T
   4   -208.8524497  0.140934E+00  0.143E+00    0.11       1.0  T
   5   -208.9872726 -0.134823E+00  0.112E+00    0.34       1.0  T
   6   -209.0291768 -0.419042E-01  0.823E-01    0.19       1.0  T
   7   -209.0345587 -0.538194E-02  0.429E-01    0.04       1.0  T
   8   -209.0492569 -0.146982E-01  0.515E-01    0.13       1.0  T
   9   -209.0506896 -0.143267E-02  0.354E-01    0.08       1.0  T
  10   -209.0510497 -0.360128E-03  0.372E-01    0.10       1.0  T
  11   -209.0561487 -0.509902E-02  0.276E-01    0.09       1.0  T
  12   -209.0017116  0.544372E-01  0.659E-01    0.01       1.0  T
  13   -209.0606196 -0.589081E-01  0.165E-01    0.08       1.0  T
  14   -209.0001684  0.604513E-01  0.719E-01    0.01       1.0  T
  15   -209.0557414 -0.555730E-01  0.239E-01    0.04       1.0  T
  16   -209.0653458 -0.960438E-02  0.566E-02    0.08       1.0  T
  17   -209.0657596 -0.413862E-03  0.327E-02    0.07       1.0  T
  18   -209.0658001 -0.405205E-04  0.398E-02    0.08       1.0  T
  19   -209.0658689 -0.687816E-04  0.216E-02    0.07       1.0  T
  20   -209.0659194 -0.504783E-04  0.209E-02    0.07       1.0  T
  21   -209.0659491 -0.296641E-04  0.602E-03    0.07       1.6  T
  22   -209.0659202  0.289151E-04  0.135E-02    0.07       1.0  T
  23   -209.0659474 -0.272606E-04  0.613E-03    0.07       1.6  T
  24   -209.0659513 -0.392939E-05  0.472E-03    0.07       2.1  T
  25   -209.0659513  0.516360E-07  0.457E-03    0.07       2.2  T
  26   -209.0659540 -0.274568E-05  0.176E-03    0.07       5.6  T
  27   -209.0659542 -0.162531E-06  0.980E-04    0.07      10.0  T
  28   -209.0659540  0.241279E-06  0.144E-03    0.07       6.8  T
  29   -209.0659543 -0.304024E-06  0.651E-04    0.07      15.1  T
     SCC iter.                  ...        0 min,  1.358 sec
     gradient                   ...        0 min,  0.072 sec
 * total energy  :  -204.9666396 Eh     change       -0.6035668E-02 Eh
   gradient norm :     0.0528829 Eh/α   predicted    -0.6899434E-02 (  14.31%)
   displ. norm   :     0.5889031 α      lambda       -0.5823725E-02
   maximum displ.:     0.4152670 α      in ANC's #6, #7, #14, ...

........................................................................
.............................. CYCLE  129 ..............................
........................................................................

 iter      E             dE          RMSdq      gap      omega  full diag
   1   -208.9968324 -0.208997E+03  0.132E+00    0.03       0.0  T
   2   -208.0593075  0.937525E+00  0.385E+00    0.15       1.0  T
   3   -209.0228745 -0.963567E+00  0.101E+00    0.06       1.0  T
   4   -209.0519945 -0.291200E-01  0.716E-01    0.08       1.0  T
   5   -209.0190748  0.329197E-01  0.558E-01    0.03       1.0  T
   6   -209.0628420 -0.437673E-01  0.558E-01    0.10       1.0  T
   7   -208.7552499  0.307592E+00  0.131E+00    0.06       1.0  T
   8   -209.0657163 -0.310466E+00  0.310E-01    0.07       1.0  T
   9   -209.0680174 -0.230113E-02  0.408E-01    0.10       1.0  T
  10   -209.0740494 -0.603199E-02  0.195E-01    0.07       1.0  T
  11   -209.0589812  0.150682E-01  0.381E-01    0.02       1.0  T
  12   -209.0716644 -0.126831E-01  0.198E-01    0.04       1.0  T
  13   -209.0776510 -0.598664E-02  0.100E-01    0.06       1.0  T
  14   -209.0777770 -0.126042E-03  0.586E-02    0.06       1.0  T
  15   -209.0781352 -0.358132E-03  0.293E-02    0.07       1.0  T
  16   -209.0781960 -0.608261E-04  0.251E-02    0.07       1.0  T
  17   -209.0781001  0.959326E-04  0.455E-02    0.07       1.0  T
  18   -209.0782205 -0.120444E-03  0.208E-02    0.07       1.0  T
  19   -209.0782176  0.289894E-05  0.163E-02    0.07       1.0  T
  20   -209.0782132  0.441200E-05  0.119E-02    0.07       1.0  T
  21   -209.0782316 -0.184206E-04  0.101E-02    0.07       1.0  T
  22   -209.0782373 -0.563902E-05  0.385E-03    0.07       2.6  T
  23   -209.0782362  0.104259E-05  0.510E-03    0.07       1.9  T
  24   -209.0782375 -0.132194E-05  0.236E-03    0.07       4.2  T
  25   -209.0782386 -0.101887E-05  0.924E-04    0.07      10.7  T
  26   -209.0782383  0.211653E-06  0.158E-03    0.07       6.2  T
  27   -209.0782383  0.947797E-07  0.155E-03    0.07       6.3  T
  28   -209.0782385 -0.294537E-06  0.632E-04    0.07      15.6  T
  29   -209.0782386 -0.801055E-07  0.268E-04    0.07      36.8  T
     SCC iter.                  ...        0 min,  1.218 sec
     gradient                   ...        0 min,  0.074 sec
 * total energy  :  -204.9706853 Eh     change       -0.4045772E-02 Eh
   gradient norm :     0.0708164 Eh/α   predicted    -0.3921744E-02 (  -3.07%)
   displ. norm   :     0.5051930 α      lambda       -0.6978563E-02
   maximum displ.:     0.3390423 α      in ANC's #6, #7, #54, ...

........................................................................
.............................. CYCLE  130 ..............................
........................................................................

 iter      E             dE          RMSdq      gap      omega  full diag
   1   -209.0869468 -0.209087E+03  0.716E-01    0.10       0.0  T
   2   -206.9172406  0.216971E+01  0.452E+00    0.04       1.0  T
   3   -209.0466974 -0.212946E+01  0.980E-01    0.18       1.0  T
   4   -209.0649317 -0.182342E-01  0.673E-01    0.13       1.0  T
   5   -209.0765842 -0.116526E-01  0.572E-01    0.13       1.0  T
   6   -209.0850056 -0.842133E-02  0.399E-01    0.10       1.0  T
   7   -209.0853866 -0.381061E-03  0.447E-01    0.12       1.0  T
   8   -209.0905917 -0.520508E-02  0.363E-01    0.10       1.0  T
   9   -209.0812086  0.938310E-02  0.393E-01    0.04       1.0  T
  10   -209.0989859 -0.177773E-01  0.204E-01    0.07       1.0  T
  11   -209.1038972 -0.491126E-02  0.147E-01    0.07       1.0  T
  12   -209.1024230  0.147412E-02  0.206E-01    0.05       1.0  T
  13   -209.1030785 -0.655460E-03  0.194E-01    0.05       1.0  T
  14   -209.0419040  0.611745E-01  0.639E-01    0.01       1.0  T
  15   -209.1018881 -0.599841E-01  0.151E-01    0.05       1.0  T
  16   -209.0946262  0.726194E-02  0.280E-01    0.03       1.0  T
  17   -209.1056428 -0.110166E-01  0.715E-02    0.06       1.0  T
  18   -209.1061640 -0.521230E-03  0.750E-02    0.07       1.0  T
  19   -209.1060552  0.108801E-03  0.474E-02    0.07       1.0  T
  20   -209.1060785 -0.232853E-04  0.552E-02    0.07       1.0  T
  21   -209.1062383 -0.159792E-03  0.275E-02    0.07       1.0  T
  22   -209.1063516 -0.113320E-03  0.133E-02    0.06       1.0  T
  23   -209.1063370  0.146662E-04  0.174E-02    0.06       1.0  T
  24   -209.1062519  0.850335E-04  0.278E-02    0.06       1.0  T
  25   -209.1063760 -0.124068E-03  0.640E-03    0.06       1.5  T
  26   -209.1063089  0.670751E-04  0.221E-02    0.06       1.0  T
  27   -209.1063784 -0.694505E-04  0.485E-03    0.06       2.0  T
  28   -209.1063823 -0.396950E-05  0.361E-03    0.06       2.7  T
  29   -209.1063833 -0.922249E-06  0.167E-03    0.06       5.9  T
  30   -209.1063833 -0.129937E-07  0.838E-04    0.06      11.8  T
  31   -209.1063833  0.139419E-07  0.901E-04    0.06      10.9  T
     SCC iter.                  ...        0 min,  1.202 sec
     gradient                   ...        0 min,  0.073 sec
 * total energy  :  -204.9744575 Eh     change       -0.3772160E-02 Eh
   gradient norm :     0.0788889 Eh/α   predicted    -0.4379836E-02 (  16.11%)
   displ. norm   :     0.7072590 α      lambda       -0.7439196E-02
   maximum displ.:     0.5190185 α      in ANC's #6, #7, #56, ...

........................................................................
.............................. CYCLE  131 ..............................
........................................................................

 iter      E             dE          RMSdq      gap      omega  full diag
   1   -209.0798509 -0.209080E+03  0.774E-01    0.11       0.0  T
   2   -207.4596603  0.162019E+01  0.420E+00    0.04       1.0  T
   3   -209.0310928 -0.157143E+01  0.955E-01    0.25       1.0  T
   4   -209.0711914 -0.400986E-01  0.574E-01    0.10       1.0  T
   5   -209.0413856  0.298058E-01  0.779E-01    0.22       1.0  T
   6   -209.0702780 -0.288924E-01  0.549E-01    0.16       1.0  T
   7   -209.0855741 -0.152961E-01  0.336E-01    0.10       1.0  T
   8   -209.0876538 -0.207977E-02  0.244E-01    0.07       1.0  T
   9   -209.0920360 -0.438212E-02  0.198E-01    0.08       1.0  T
  10   -209.0965369 -0.450094E-02  0.164E-01    0.07       1.0  T
  11   -209.0924035  0.413342E-02  0.176E-01    0.06       1.0  T
  12   -208.8243974  0.268006E+00  0.147E+00    0.08       1.0  T
  13   -208.8704294 -0.460320E-01  0.131E+00    0.06       1.0  T
  14   -208.9534772 -0.830478E-01  0.101E+00    0.03       1.0  T
  15   -209.0941381 -0.140661E+00  0.162E-01    0.06       1.0  T
  16   -209.0902195  0.391858E-02  0.178E-01    0.05       1.0  T
  17   -209.0955884 -0.536885E-02  0.996E-02    0.06       1.0  T
  18   -209.0944454  0.114295E-02  0.159E-01    0.06       1.0  T
  19   -209.0971698 -0.272436E-02  0.584E-02    0.07       1.0  T
  20   -209.0973311 -0.161300E-03  0.502E-02    0.07       1.0  T
  21   -209.0977214 -0.390343E-03  0.303E-02    0.07       1.0  T
  22   -209.0978823 -0.160849E-03  0.194E-02    0.07       1.0  T
  23   -209.0976149  0.267403E-03  0.465E-02    0.08       1.0  T
  24   -209.0979279 -0.312973E-03  0.776E-03    0.07       1.3  T
  25   -209.0979119  0.159074E-04  0.124E-02    0.07       1.0  T
  26   -209.0979111  0.876264E-06  0.105E-02    0.07       1.0  T
  27   -209.0979144 -0.332902E-05  0.899E-03    0.07       1.1  T
  28   -209.0979222 -0.778630E-05  0.722E-03    0.07       1.4  T
  29   -209.0979280 -0.583058E-05  0.513E-03    0.07       1.9  T
  30   -209.0979315 -0.353391E-05  0.363E-03    0.07       2.7  T
  31   -209.0979333 -0.172406E-05  0.280E-03    0.07       3.5  T
  32   -209.0979343 -0.985276E-06  0.149E-03    0.07       6.6  T
  33   -209.0979347 -0.424779E-06  0.737E-04    0.07      13.4  T
  34   -209.0979348 -0.101189E-06  0.258E-04    0.07      38.2  T
     SCC iter.                  ...        0 min,  1.413 sec
     gradient                   ...        0 min,  0.062 sec
 * total energy  :  -204.9793315 Eh     change       -0.4874036E-02 Eh
   gradient norm :     0.0447933 Eh/α   predicted    -0.5580210E-02 (  14.49%)
   displ. norm   :     0.6260588 α      lambda       -0.5559233E-02
   maximum displ.:     0.4627235 α      in ANC's #6, #7, #5, ...

........................................................................
.............................. CYCLE  132 ..............................
........................................................................

 iter      E             dE          RMSdq      gap      omega  full diag
   1   -209.1091322 -0.209109E+03  0.408E-01    0.08       0.0  T
   2   -208.7679208  0.341211E+00  0.188E+00    0.09       1.0  T
   3   -209.0816472 -0.313726E+00  0.674E-01    0.16       1.0  T
   4   -208.9879236  0.937236E-01  0.115E+00    0.04       1.0  T
   5   -209.0878396 -0.999160E-01  0.413E-01    0.07       1.0  T
   6   -209.0995953 -0.117557E-01  0.370E-01    0.10       1.0  T
   7   -209.0966041  0.299115E-02  0.451E-01    0.12       1.0  T
   8   -209.1067474 -0.101433E-01  0.233E-01    0.10       1.0  T
   9   -209.1082552 -0.150776E-02  0.179E-01    0.09       1.0  T
  10   -209.1076884  0.566756E-03  0.177E-01    0.09       1.0  T
  11   -209.1069065  0.781918E-03  0.173E-01    0.06       1.0  T
  12   -209.1067550  0.151473E-03  0.204E-01    0.05       1.0  T
  13   -209.1099175 -0.316252E-02  0.698E-02    0.08       1.0  T
  14   -209.1104450 -0.527429E-03  0.537E-02    0.07       1.0  T
  15   -209.1108177 -0.372737E-03  0.184E-02    0.08       1.0  T
  16   -209.1107293  0.883939E-04  0.273E-02    0.08       1.0  T
  17   -209.1107100  0.192719E-04  0.232E-02    0.08       1.0  T
  18   -209.1107095  0.510293E-06  0.275E-02    0.08       1.0  T
  19   -209.1107956 -0.860684E-04  0.138E-02    0.08       1.0  T
  20   -209.1108342 -0.385655E-04  0.598E-03    0.08       1.6  T
  21   -209.1108056  0.285307E-04  0.142E-02    0.08       1.0  T
  22   -209.1108189 -0.132239E-04  0.853E-03    0.08       1.2  T
  23   -209.1108272 -0.831493E-05  0.783E-03    0.08       1.3  T
  24   -209.1108351 -0.790008E-05  0.297E-03    0.08       3.3  T
  25   -209.1108362 -0.109042E-05  0.805E-04    0.08      12.2  T
  26   -209.1108347  0.148903E-05  0.341E-03    0.08       2.9  T
  27   -209.1108359 -0.125723E-05  0.112E-03    0.08       8.8  T
  28   -209.1108362 -0.271185E-06  0.352E-04    0.08      28.0  T
  29   -209.1108362 -0.414241E-08  0.325E-04    0.08      30.3  T
     SCC iter.                  ...        0 min,  0.900 sec
     gradient                   ...        0 min,  0.061 sec
 * total energy  :  -204.9834828 Eh     change       -0.4151240E-02 Eh
   gradient norm :     0.0450158 Eh/α   predicted    -0.3869099E-02 (  -6.80%)
   displ. norm   :     0.6859073 α      lambda       -0.5790425E-02
   maximum displ.:     0.5250661 α      in ANC's #6, #7, #5, ...

........................................................................
.............................. CYCLE  133 ..............................
........................................................................

 iter      E             dE          RMSdq      gap      omega  full diag
   1   -209.1121086 -0.209112E+03  0.480E-01    0.09       0.0  T
   2   -208.6640577  0.448051E+00  0.244E+00    0.12       1.0  T
   3   -209.0907018 -0.426644E+00  0.667E-01    0.18       1.0  T
   4   -208.6236233  0.467078E+00  0.200E+00    0.09       1.0  T
   5   -209.1155687 -0.491945E+00  0.279E-01    0.10       1.0  T
   6   -209.1129702  0.259849E-02  0.342E-01    0.12       1.0  T
   7   -209.1175202 -0.454995E-02  0.210E-01    0.10       1.0  T
   8   -209.1188199 -0.129975E-02  0.134E-01    0.10       1.0  T
   9   -209.1186812  0.138672E-03  0.784E-02    0.08       1.0  T
  10   -209.1192962 -0.614962E-03  0.912E-02    0.08       1.0  T
  11   -209.1200049 -0.708723E-03  0.340E-02    0.08       1.0  T
  12   -209.1198702  0.134724E-03  0.470E-02    0.08       1.0  T
  13   -209.1199795 -0.109319E-03  0.268E-02    0.08       1.0  T
  14   -209.1200468 -0.673186E-04  0.185E-02    0.08       1.0  T
  15   -209.1200348  0.120119E-04  0.163E-02    0.08       1.0  T
  16   -209.1200773 -0.425178E-04  0.756E-03    0.08       1.3  T
  17   -209.1200777 -0.320622E-06  0.585E-03    0.08       1.7  T
  18   -209.1200616  0.160665E-04  0.118E-02    0.09       1.0  T
  19   -209.1200787 -0.171499E-04  0.422E-03    0.08       2.3  T
  20   -209.1200782  0.505624E-06  0.350E-03    0.08       2.8  T
  21   -209.1200785 -0.255881E-06  0.263E-03    0.08       3.7  T
  22   -209.1200793 -0.821157E-06  0.154E-03    0.08       6.4  T
  23   -209.1200794 -0.117378E-06  0.896E-04    0.08      11.0  T
  24   -209.1200790  0.410519E-06  0.256E-03    0.08       3.8  T
  25   -209.1200794 -0.381262E-06  0.107E-03    0.08       9.2  T
  26   -209.1200795 -0.740864E-07  0.313E-04    0.08      31.4  T
     SCC iter.                  ...        0 min,  1.181 sec
     gradient                   ...        0 min,  0.066 sec
 * total energy  :  -204.9881747 Eh     change       -0.4691958E-02 Eh
   gradient norm :     0.0352367 Eh/α   predicted    -0.4257328E-02 (  -9.26%)
   displ. norm   :     0.7120820 α      lambda       -0.6089681E-02
   maximum displ.:     0.5390286 α      in ANC's #6, #7, #5, ...

........................................................................
.............................. CYCLE  134 ..............................
........................................................................

 iter      E             dE          RMSdq      gap      omega  full diag
   1   -209.1283877 -0.209128E+03  0.565E-01    0.11       0.0  T
   2   -208.6988679  0.429520E+00  0.254E+00    0.05       1.0  T
   3   -209.0739138 -0.375046E+00  0.936E-01    0.26       1.0  T
   4   -209.0693738  0.453996E-02  0.696E-01    0.01       1.0  T
   5   -209.1215695 -0.521957E-01  0.400E-01    0.10       1.0  T
   6   -209.1145059  0.706359E-02  0.536E-01    0.18       1.0  T
   7   -209.1241679 -0.966197E-02  0.426E-01    0.15       1.0  T
   8   -209.1276874 -0.351945E-02  0.336E-01    0.14       1.0  T
   9   -209.1338507 -0.616330E-02  0.135E-01    0.09       1.0  T
  10   -209.1330982  0.752449E-03  0.136E-01    0.10       1.0  T
  11   -209.1328733  0.224897E-03  0.124E-01    0.07       1.0  T
  12   -209.1344554 -0.158207E-02  0.761E-02    0.09       1.0  T
  13   -209.1340561  0.399322E-03  0.966E-02    0.08       1.0  T
  14   -209.1333428  0.713221E-03  0.922E-02    0.10       1.0  T
  15   -209.1344930 -0.115020E-02  0.423E-02    0.09       1.0  T
  16   -209.1347725 -0.279463E-03  0.222E-02    0.09       1.0  T
  17   -209.1347048  0.677008E-04  0.274E-02    0.09       1.0  T
  18   -209.1347364 -0.315517E-04  0.230E-02    0.09       1.0  T
  19   -209.1346051  0.131200E-03  0.362E-02    0.08       1.0  T
  20   -209.1347998 -0.194680E-03  0.106E-02    0.09       1.0  T
  21   -209.1348180 -0.181599E-04  0.478E-03    0.09       2.1  T
  22   -209.1348183 -0.335929E-06  0.366E-03    0.09       2.7  T
  23   -209.1348182  0.170730E-06  0.331E-03    0.09       3.0  T
  24   -209.1348178  0.376814E-06  0.383E-03    0.09       2.6  T
  25   -209.1348186 -0.782653E-06  0.232E-03    0.09       4.2  T
  26   -209.1348194 -0.855210E-06  0.781E-04    0.09      12.6  T
  27   -209.1348195 -0.424975E-07  0.409E-04    0.09      24.1  T
     SCC iter.                  ...        0 min,  0.945 sec
     gradient                   ...        0 min,  0.065 sec
 * total energy  :  -204.9930558 Eh     change       -0.4881028E-02 Eh
   gradient norm :     0.0383335 Eh/α   predicted    -0.4588766E-02 (  -5.99%)
   displ. norm   :     0.7765759 α      lambda       -0.6138658E-02
   maximum displ.:     0.5987950 α      in ANC's #6, #7, #5, ...

........................................................................
.............................. CYCLE  135 ..............................
........................................................................

 iter      E             dE          RMSdq      gap      omega  full diag
   1   -209.1163161 -0.209116E+03  0.572E-01    0.14       0.0  T
   2   -207.8763931  0.123992E+01  0.360E+00    0.08       1.0  T
   3   -209.0890381 -0.121265E+01  0.658E-01    0.25       1.0  T
   4   -209.1125609 -0.235228E-01  0.436E-01    0.16       1.0  T
   5   -209.1073146  0.524628E-02  0.437E-01    0.18       1.0  T
   6   -209.1155865 -0.827190E-02  0.325E-01    0.16       1.0  T
   7   -209.1211689 -0.558237E-02  0.233E-01    0.13       1.0  T
   8   -209.1225223 -0.135344E-02  0.193E-01    0.12       1.0  T
   9   -209.1242011 -0.167884E-02  0.158E-01    0.11       1.0  T
  10   -209.1238209  0.380256E-03  0.146E-01    0.12       1.0  T
  11   -208.9997861  0.124035E+00  0.993E-01    0.01       1.0  T
  12   -209.0250787 -0.252926E-01  0.890E-01    0.00       1.0  T
  13   -209.0736186 -0.485399E-01  0.590E-01    0.02       1.0  T
  14   -209.1257959 -0.521774E-01  0.576E-02    0.09       1.0  T
  15   -209.1248678  0.928147E-03  0.958E-02    0.08       1.0  T
  16   -209.1224490  0.241882E-02  0.163E-01    0.07       1.0  T
  17   -209.1259844 -0.353546E-02  0.308E-02    0.10       1.0  T
  18   -209.1261229 -0.138451E-03  0.157E-02    0.10       1.0  T
  19   -209.1259916  0.131282E-03  0.375E-02    0.10       1.0  T
  20   -209.1260640 -0.723941E-04  0.256E-02    0.10       1.0  T
  21   -209.1261237 -0.597228E-04  0.126E-02    0.10       1.0  T
  22   -209.1261394 -0.156527E-04  0.678E-03    0.09       1.5  T
  23   -209.1261366  0.280113E-05  0.793E-03    0.10       1.2  T
  24   -209.1261443 -0.772979E-05  0.352E-03    0.10       2.8  T
  25   -209.1261450 -0.725494E-06  0.286E-03    0.09       3.4  T
  26   -209.1261456 -0.547010E-06  0.196E-03    0.09       5.0  T
  27   -209.1261447  0.855339E-06  0.311E-03    0.09       3.2  T
  28   -209.1261456 -0.887537E-06  0.137E-03    0.09       7.2  T
  29   -209.1261456  0.154160E-07  0.137E-03    0.09       7.2  T
  30   -209.1261458 -0.249023E-06  0.396E-04    0.09      24.9  T
  31   -209.1261458  0.677051E-08  0.525E-04    0.09      18.8  T
     SCC iter.                  ...        0 min,  0.931 sec
     gradient                   ...        0 min,  0.067 sec
 * total energy  :  -204.9982267 Eh     change       -0.5170961E-02 Eh
   gradient norm :     0.0590021 Eh/α   predicted    -0.4920355E-02 (  -4.85%)
   displ. norm   :     0.7868940 α      lambda       -0.6210206E-02
   maximum displ.:     0.6074666 α      in ANC's #6, #7, #5, ...

........................................................................
.............................. CYCLE  136 ..............................
........................................................................

 iter      E             dE          RMSdq      gap      omega  full diag
   1   -209.1298454 -0.209130E+03  0.500E-01    0.14       0.0  T
   2   -208.3579530  0.771892E+00  0.283E+00    0.13       1.0  T
   3   -209.1055731 -0.747620E+00  0.675E-01    0.21       1.0  T
   4   -209.1293633 -0.237902E-01  0.326E-01    0.13       1.0  T
   5   -209.1247415  0.462175E-02  0.362E-01    0.17       1.0  T
   6   -209.1312860 -0.654443E-02  0.243E-01    0.14       1.0  T
   7   -209.1343883 -0.310230E-02  0.148E-01    0.12       1.0  T
   8   -209.1367570 -0.236867E-02  0.700E-02    0.10       1.0  T
   9   -209.1365955  0.161404E-03  0.597E-02    0.11       1.0  T
  10   -209.0954854  0.411101E-01  0.552E-01    0.03       1.0  T
  11   -209.1254180 -0.299326E-01  0.297E-01    0.06       1.0  T
  12   -209.1346114 -0.919338E-02  0.106E-01    0.08       1.0  T
  13   -209.1362987 -0.168726E-02  0.611E-02    0.09       1.0  T
  14   -209.1349093  0.138932E-02  0.112E-01    0.08       1.0  T
  15   -209.1363664 -0.145702E-02  0.634E-02    0.09       1.0  T
  16   -209.1367313 -0.364967E-03  0.414E-02    0.10       1.0  T
  17   -209.1367591 -0.277241E-04  0.321E-02    0.10       1.0  T
  18   -209.1368003 -0.412567E-04  0.216E-02    0.10       1.0  T
  19   -209.1368386 -0.382507E-04  0.117E-02    0.10       1.0  T
  20   -209.1368003  0.382375E-04  0.218E-02    0.10       1.0  T
  21   -209.1368480 -0.476363E-04  0.553E-03    0.10       1.8  T
  22   -209.1368466  0.138950E-05  0.589E-03    0.10       1.7  T
  23   -209.1368474 -0.840238E-06  0.551E-03    0.10       1.8  T
  24   -209.1368514 -0.402844E-05  0.172E-03    0.10       5.7  T
  25   -209.1368509  0.492921E-06  0.284E-03    0.10       3.5  T
  26   -209.1368516 -0.665439E-06  0.801E-04    0.10      12.3  T
  27   -209.1368517 -0.417608E-07  0.582E-04    0.10      16.9  T
     SCC iter.                  ...        0 min,  1.060 sec
     gradient                   ...        0 min,  0.065 sec
 * total energy  :  -205.0035838 Eh     change       -0.5357086E-02 Eh
   gradient norm :     0.0268130 Eh/α   predicted    -0.5027783E-02 (  -6.15%)
   displ. norm   :     0.8253290 α      lambda       -0.6363703E-02
   maximum displ.:     0.6276726 α      in ANC's #6, #7, #5, ...

........................................................................
.............................. CYCLE  137 ..............................
........................................................................

 iter      E             dE          RMSdq      gap      omega  full diag
   1   -209.1441515 -0.209144E+03  0.439E-01    0.11       0.0  T
   2   -208.7377657  0.406386E+00  0.192E+00    0.09       1.0  T
   3   -209.1184115 -0.380646E+00  0.711E-01    0.23       1.0  T
   4   -209.1328667 -0.144552E-01  0.449E-01    0.06       1.0  T
   5   -209.1373145 -0.444781E-02  0.379E-01    0.13       1.0  T
   6   -209.1432469 -0.593236E-02  0.253E-01    0.14       1.0  T
   7   -209.1444110 -0.116414E-02  0.203E-01    0.13       1.0  T
   8   -209.1448613 -0.450308E-03  0.171E-01    0.12       1.0  T
   9   -209.1457045 -0.843152E-03  0.118E-01    0.11       1.0  T
  10   -209.1467378 -0.103337E-02  0.835E-02    0.10       1.0  T
  11   -209.1471023 -0.364416E-03  0.749E-02    0.09       1.0  T
  12   -209.1471702 -0.679750E-04  0.445E-02    0.10       1.0  T
  13   -209.1470839  0.863295E-04  0.530E-02    0.09       1.0  T
  14   -209.1471953 -0.111362E-03  0.364E-02    0.10       1.0  T
  15   -209.1473815 -0.186224E-03  0.130E-02    0.10       1.0  T
  16   -209.1473686  0.128753E-04  0.144E-02    0.10       1.0  T
  17   -209.1473851 -0.165240E-04  0.834E-03    0.10       1.2  T
  18   -209.1473772  0.792457E-05  0.124E-02    0.10       1.0  T
  19   -209.1473813 -0.410939E-05  0.965E-03    0.10       1.0  T
  20   -209.1473902 -0.892269E-05  0.308E-03    0.10       3.2  T
  21   -209.1473876  0.264374E-05  0.637E-03    0.10       1.5  T
  22   -209.1473900 -0.239439E-05  0.273E-03    0.10       3.6  T
  23   -209.1473909 -0.957571E-06  0.103E-03    0.10       9.6  T
  24   -209.1473910 -0.170068E-07  0.666E-04    0.10      14.8  T
  25   -209.1473910 -0.343988E-07  0.384E-04    0.10      25.7  T
     SCC iter.                  ...        0 min,  0.878 sec
     gradient                   ...        0 min,  0.068 sec
 * total energy  :  -205.0092491 Eh     change       -0.5665311E-02 Eh
   gradient norm :     0.0346216 Eh/α   predicted    -0.5349240E-02 (  -5.58%)
   displ. norm   :     0.8532240 α      lambda       -0.6772543E-02
   maximum displ.:     0.6196691 α      in ANC's #6, #7, #5, ...

........................................................................
.............................. CYCLE  138 ..............................
........................................................................

 iter      E             dE          RMSdq      gap      omega  full diag
   1   -209.1533947 -0.209153E+03  0.475E-01    0.08       0.0  T
   2   -209.1179708  0.354239E-01  0.942E-01    0.12       1.0  T
   3   -209.1240573 -0.608650E-02  0.628E-01    0.04       1.0  T
   4   -209.1374625 -0.134052E-01  0.616E-01    0.22       1.0  T
   5   -209.1444884 -0.702592E-02  0.427E-01    0.15       1.0  T
   6   -209.1522013 -0.771287E-02  0.313E-01    0.14       1.0  T
   7   -209.1542411 -0.203985E-02  0.219E-01    0.12       1.0  T
   8   -209.1562815 -0.204040E-02  0.137E-01    0.11       1.0  T
   9   -209.1574507 -0.116922E-02  0.741E-02    0.10       1.0  T
  10   -209.1535916  0.385914E-02  0.162E-01    0.08       1.0  T
  11   -209.1578169 -0.422532E-02  0.506E-02    0.09       1.0  T
  12   -209.1561320  0.168496E-02  0.108E-01    0.08       1.0  T
  13   -209.1578433 -0.171136E-02  0.291E-02    0.09       1.0  T
  14   -209.1578848 -0.414679E-04  0.223E-02    0.09       1.0  T
  15   -209.1579244 -0.396007E-04  0.139E-02    0.09       1.0  T
  16   -209.1579222  0.218697E-05  0.162E-02    0.09       1.0  T
  17   -209.1579159  0.632289E-05  0.125E-02    0.09       1.0  T
  18   -209.1579329 -0.170542E-04  0.676E-03    0.09       1.5  T
  19   -209.1579310  0.191290E-05  0.628E-03    0.09       1.6  T
  20   -209.1579341 -0.306571E-05  0.383E-03    0.09       2.6  T
  21   -209.1579309  0.315649E-05  0.585E-03    0.09       1.7  T
  22   -209.1579336 -0.264443E-05  0.468E-03    0.09       2.1  T
  23   -209.1579312  0.242072E-05  0.546E-03    0.09       1.8  T
  24   -209.1579348 -0.365050E-05  0.224E-03    0.09       4.4  T
  25   -209.1579353 -0.506927E-06  0.140E-03    0.09       7.1  T
  26   -209.1579355 -0.153580E-06  0.100E-03    0.09       9.8  T
  27   -209.1579356 -0.913841E-07  0.560E-04    0.09      17.6  T
  28   -209.1579356 -0.336112E-07  0.258E-04    0.09      38.2  T
     SCC iter.                  ...        0 min,  0.818 sec
     gradient                   ...        0 min,  0.066 sec
 * total energy  :  -205.0155935 Eh     change       -0.6344433E-02 Eh
   gradient norm :     0.0318659 Eh/α   predicted    -0.5851474E-02 (  -7.77%)
   displ. norm   :     0.8834634 α      lambda       -0.7600293E-02
   maximum displ.:     0.5992613 α      in ANC's #6, #7, #5, ...

........................................................................
.............................. CYCLE  139 ..............................
........................................................................

 iter      E             dE          RMSdq      gap      omega  full diag
   1   -209.1423488 -0.209142E+03  0.757E-01    0.03       0.0  T
   2   -208.9850202  0.157329E+00  0.201E+00    0.26       1.0  T
   3   -209.1300417 -0.145022E+00  0.104E+00    0.22       1.0  T
   4   -209.1286404  0.140139E-02  0.835E-01    0.20       1.0  T
   5   -209.1544250 -0.257846E-01  0.444E-01    0.08       1.0  T
   6   -209.1580233 -0.359832E-02  0.426E-01    0.05       1.0  T
   7   -209.1642269 -0.620357E-02  0.180E-01    0.08       1.0  T
   8   -209.1525867  0.116402E-01  0.539E-01    0.04       1.0  T
   9   -209.1613248 -0.873811E-02  0.293E-01    0.06       1.0  T
  10   -209.1646361 -0.331129E-02  0.921E-02    0.09       1.0  T
  11   -209.1641018  0.534336E-03  0.151E-01    0.10       1.0  T
  12   -209.1645047 -0.402905E-03  0.109E-01    0.09       1.0  T
  13   -209.1650041 -0.499457E-03  0.251E-02    0.08       1.0  T
  14   -209.1650353 -0.312029E-04  0.182E-02    0.08       1.0  T
  15   -209.1650357 -0.400814E-06  0.113E-02    0.08       1.0  T
  16   -209.1650109  0.248209E-04  0.277E-02    0.08       1.0  T
  17   -209.1650405 -0.295417E-04  0.900E-03    0.08       1.1  T
  18   -209.1650428 -0.234524E-05  0.814E-03    0.08       1.2  T
  19   -209.1650443 -0.151266E-05  0.418E-03    0.08       2.4  T
  20   -209.1650426  0.167612E-05  0.728E-03    0.08       1.4  T
  21   -209.1650438 -0.115159E-05  0.504E-03    0.08       2.0  T
  22   -209.1650449 -0.109547E-05  0.190E-03    0.08       5.2  T
  23   -209.1650448  0.122696E-06  0.235E-03    0.08       4.2  T
  24   -209.1650448 -0.196729E-07  0.256E-03    0.08       3.9  T
  25   -209.1650445  0.263744E-06  0.354E-03    0.08       2.8  T
  26   -209.1650448 -0.296509E-06  0.237E-03    0.08       4.2  T
  27   -209.1650450 -0.209116E-06  0.785E-04    0.08      12.5  T
  28   -209.1650450  0.299451E-08  0.851E-04    0.08      11.6  T
     SCC iter.                  ...        0 min,  0.974 sec
     gradient                   ...        0 min,  0.062 sec
 * total energy  :  -205.0227190 Eh     change       -0.7125457E-02 Eh
   gradient norm :     0.0362702 Eh/α   predicted    -0.6766201E-02 (  -5.04%)
   displ. norm   :     0.8810733 α      lambda       -0.8113328E-02
   maximum displ.:     0.5500211 α      in ANC's #6, #5, #7, ...

........................................................................
.............................. CYCLE  140 ..............................
........................................................................

 iter      E             dE          RMSdq      gap      omega  full diag
   1   -209.1125549 -0.209113E+03  0.118E+00    0.02       0.0  T
   2   -207.0303701  0.208218E+01  0.642E+00    0.02       1.0  T
   3   -209.0392542 -0.200888E+01  0.201E+00    0.43       1.0  T
   4   -209.1218670 -0.826129E-01  0.135E+00    0.27       1.0  T
   5   -209.1018660  0.200011E-01  0.130E+00    0.33       1.0  T
   6   -209.1180907 -0.162247E-01  0.106E+00    0.26       1.0  T
   7   -209.1563566 -0.382659E-01  0.794E-01    0.11       1.0  T
   8   -209.1652589 -0.890228E-02  0.570E-01    0.08       1.0  T
   9   -209.1681088 -0.284991E-02  0.580E-01    0.08       1.0  T
  10   -209.1679128  0.196014E-03  0.385E-01    0.09       1.0  T
  11   -209.1697430 -0.183024E-02  0.320E-01    0.08       1.0  T
  12   -209.1713001 -0.155709E-02  0.182E-01    0.08       1.0  T
  13   -209.1711531  0.147007E-03  0.203E-01    0.06       1.0  T
  14   -209.1715902 -0.437023E-03  0.113E-01    0.07       1.0  T
  15   -209.1715823  0.782505E-05  0.474E-02    0.08       1.0  T
  16   -209.1716778 -0.955102E-04  0.191E-02    0.07       1.0  T
  17   -209.1713386  0.339276E-03  0.892E-02    0.06       1.0  T
  18   -209.1716434 -0.304857E-03  0.304E-02    0.07       1.0  T
  19   -209.1716831 -0.396936E-04  0.139E-02    0.07       1.0  T
  20   -209.1716931 -0.996648E-05  0.125E-02    0.07       1.0  T
  21   -209.1716924  0.691697E-06  0.101E-02    0.07       1.0  T
  22   -209.1716919  0.505615E-06  0.989E-03    0.07       1.0  T
  23   -209.1716935 -0.162681E-05  0.538E-03    0.07       1.8  T
  24   -209.1716940 -0.496403E-06  0.201E-03    0.07       4.9  T
  25   -209.1716942 -0.144196E-06  0.815E-04    0.07      12.1  T
  26   -209.1716941  0.340552E-07  0.123E-03    0.07       8.0  T
  27   -209.1716942 -0.391596E-07  0.596E-04    0.07      16.5  T
     SCC iter.                  ...        0 min,  1.046 sec
     gradient                   ...        0 min,  0.061 sec
 * total energy  :  -205.0300563 Eh     change       -0.7337309E-02 Eh
   gradient norm :     0.0333530 Eh/α   predicted    -0.7205828E-02 (  -1.79%)
   displ. norm   :     0.8944993 α      lambda       -0.7865733E-02
   maximum displ.:     0.5892435 α      in ANC's #6, #5, #7, ...

........................................................................
.............................. CYCLE  141 ..............................
........................................................................

 iter      E             dE          RMSdq      gap      omega  full diag
   1   -209.1005202 -0.209101E+03  0.116E+00    0.04       0.0  T
   2   -206.6146021  0.248592E+01  0.695E+00    0.04       1.0  T
   3   -209.0545203 -0.243992E+01  0.185E+00    0.33       1.0  T
   4   -209.1110032 -0.564828E-01  0.140E+00    0.19       1.0  T
   5   -209.0922544  0.187488E-01  0.143E+00    0.27       1.0  T
   6   -209.0988559 -0.660152E-02  0.133E+00    0.26       1.0  T
   7   -209.1237380 -0.248822E-01  0.877E-01    0.13       1.0  T
   8   -209.1329689 -0.923088E-02  0.659E-01    0.11       1.0  T
   9   -209.1527145 -0.197456E-01  0.734E-01    0.08       1.0  T
  10   -209.1545841 -0.186962E-02  0.431E-01    0.07       1.0  T
  11   -209.1560453 -0.146112E-02  0.435E-01    0.07       1.0  T
  12   -209.1550930  0.952260E-03  0.228E-01    0.09       1.0  T
  13   -209.1562326 -0.113955E-02  0.152E-01    0.08       1.0  T
  14   -209.1577180 -0.148545E-02  0.374E-02    0.07       1.0  T
  15   -209.1568761  0.841924E-03  0.156E-01    0.06       1.0  T
  16   -209.1574781 -0.601991E-03  0.875E-02    0.06       1.0  T
  17   -209.1577831 -0.305044E-03  0.245E-02    0.07       1.0  T
  18   -209.1577745  0.865922E-05  0.473E-02    0.07       1.0  T
  19   -209.1577903 -0.158844E-04  0.248E-02    0.07       1.0  T
  20   -209.1577927 -0.235894E-05  0.833E-03    0.07       1.2  T
  21   -209.1577950 -0.228585E-05  0.943E-03    0.07       1.0  T
  22   -209.1577936  0.139149E-05  0.104E-02    0.07       1.0  T
  23   -209.1577960 -0.241549E-05  0.432E-03    0.07       2.3  T
  24   -209.1577964 -0.350985E-06  0.166E-03    0.07       5.9  T
  25   -209.1577965 -0.988734E-07  0.941E-04    0.07      10.5  T
  26   -209.1577965 -0.280002E-07  0.982E-04    0.07      10.0  T
     SCC iter.                  ...        0 min,  0.890 sec
     gradient                   ...        0 min,  0.064 sec
 * total energy  :  -205.0372476 Eh     change       -0.7191269E-02 Eh
   gradient norm :     0.0321964 Eh/α   predicted    -0.7079678E-02 (  -1.55%)
   displ. norm   :     0.8351097 α      lambda       -0.8320329E-02
   maximum displ.:     0.4393529 α      in ANC's #6, #5, #7, ...

........................................................................
.............................. CYCLE  142 ..............................
........................................................................

 iter      E             dE          RMSdq      gap      omega  full diag
   1   -209.1289710 -0.209129E+03  0.113E+00    0.06       0.0  T
   2   -206.8842621  0.224471E+01  0.667E+00    0.01       1.0  T
   3   -209.1254122 -0.224115E+01  0.141E+00    0.17       1.0  T
   4   -209.1436880 -0.182758E-01  0.716E-01    0.06       1.0  T
   5   -209.1251849  0.185031E-01  0.119E+00    0.20       1.0  T
   6   -209.1375282 -0.123432E-01  0.109E+00    0.18       1.0  T
   7   -209.1364213  0.110681E-02  0.108E+00    0.19       1.0  T
   8   -209.1362665  0.154890E-03  0.109E+00    0.19       1.0  T
   9   -209.1696109 -0.333445E-01  0.630E-01    0.06       1.0  T
  10   -209.1696223 -0.113873E-04  0.672E-01    0.06       1.0  T
  11   -209.1739407 -0.431843E-02  0.562E-01    0.07       1.0  T
  12   -209.1768522 -0.291152E-02  0.294E-01    0.07       1.0  T
  13   -209.1770685 -0.216219E-03  0.227E-01    0.08       1.0  T
  14   -209.1771880 -0.119527E-03  0.621E-02    0.07       1.0  T
  15   -209.1772799 -0.919367E-04  0.475E-02    0.07       1.0  T
  16   -209.1773500 -0.701134E-04  0.451E-02    0.08       1.0  T
  17   -209.1773630 -0.129729E-04  0.189E-02    0.08       1.0  T
  18   -209.1773476  0.154489E-04  0.333E-02    0.08       1.0  T
  19   -209.1773752 -0.276670E-04  0.961E-03    0.08       1.0  T
  20   -209.1773780 -0.276119E-05  0.540E-03    0.08       1.8  T
  21   -209.1773789 -0.885478E-06  0.633E-03    0.08       1.6  T
  22   -209.1773789 -0.366367E-08  0.431E-03    0.08       2.3  T
  23   -209.1773790 -0.126472E-06  0.255E-03    0.08       3.9  T
  24   -209.1773791 -0.792711E-07  0.495E-03    0.08       2.0  T
  25   -209.1773792 -0.121603E-06  0.285E-03    0.08       3.5  T
  26   -209.1773793 -0.529115E-07  0.118E-03    0.08       8.4  T
  27   -209.1773792  0.715880E-08  0.117E-03    0.08       8.4  T
  28   -209.1773793 -0.316524E-07  0.397E-04    0.08      24.8  T
  29   -209.1773793 -0.212876E-08  0.200E-04    0.08      49.2  T
     SCC iter.                  ...        0 min,  0.960 sec
     gradient                   ...        0 min,  0.064 sec
 * total energy  :  -205.0436750 Eh     change       -0.6427390E-02 Eh
   gradient norm :     0.0624180 Eh/α   predicted    -0.7061509E-02 (   9.87%)
   displ. norm   :     0.8423420 α      lambda       -0.8179956E-02
   maximum displ.:     0.5664168 α      in ANC's #6, #5, #7, ...

........................................................................
.............................. CYCLE  143 ..............................
........................................................................

 iter      E             dE          RMSdq      gap      omega  full diag
   1   -209.1397720 -0.209140E+03  0.887E-01    0.07       0.0  T
   2   -207.6194909  0.152028E+01  0.582E+00    0.13       1.0  T
   3   -209.1152661 -0.149578E+01  0.143E+00    0.16       1.0  T
   4   -209.1465347 -0.312686E-01  0.614E-01    0.08       1.0  T
   5   -209.1389058  0.762887E-02  0.850E-01    0.15       1.0  T
   6   -209.1476954 -0.878960E-02  0.761E-01    0.12       1.0  T
   7   -209.1570905 -0.939508E-02  0.481E-01    0.11       1.0  T
   8   -209.1632517 -0.616122E-02  0.533E-01    0.07       1.0  T
   9   -209.1602683  0.298346E-02  0.595E-01    0.07       1.0  T
  10   -209.1621810 -0.191277E-02  0.471E-01    0.07       1.0  T
  11   -209.1658161 -0.363511E-02  0.256E-01    0.08       1.0  T
  12   -209.1667002 -0.884064E-03  0.150E-01    0.08       1.0  T
  13   -209.1666740  0.261986E-04  0.103E-01    0.08       1.0  T
  14   -209.1668048 -0.130818E-03  0.550E-02    0.08       1.0  T
  15   -209.1669288 -0.123923E-03  0.623E-02    0.08       1.0  T
  16   -209.1668980  0.307847E-04  0.592E-02    0.08       1.0  T
  17   -209.1669314 -0.334071E-04  0.296E-02    0.08       1.0  T
  18   -209.1669454 -0.139858E-04  0.102E-02    0.08       1.0  T
  19   -209.1669493 -0.389964E-05  0.550E-03    0.08       1.8  T
  20   -209.1669500 -0.741476E-06  0.299E-03    0.08       3.3  T
  21   -209.1669500 -0.813813E-08  0.234E-03    0.08       4.2  T
  22   -209.1669502 -0.151373E-06  0.154E-03    0.08       6.4  T
  23   -209.1669502 -0.694357E-07  0.114E-03    0.08       8.6  T
  24   -209.1669501  0.862785E-07  0.200E-03    0.08       4.9  T
  25   -209.1669502 -0.682911E-07  0.112E-03    0.08       8.8  T
  26   -209.1669502 -0.304580E-07  0.275E-04    0.08      35.8  T
  27   -209.1669502 -0.832188E-10  0.261E-04    0.08      37.8  T
     SCC iter.                  ...        0 min,  1.039 sec
     gradient                   ...        0 min,  0.068 sec
 * total energy  :  -205.0505036 Eh     change       -0.6828633E-02 Eh
   gradient norm :     0.0288516 Eh/α   predicted    -0.6991991E-02 (   2.39%)
   displ. norm   :     0.7833743 α      lambda       -0.8250604E-02
   maximum displ.:     0.5280589 α      in ANC's #6, #5, #7, ...

........................................................................
.............................. CYCLE  144 ..............................
........................................................................

 iter      E             dE          RMSdq      gap      omega  full diag
   1   -209.1557196 -0.209156E+03  0.664E-01    0.08       0.0  T
   2   -208.2721882  0.883531E+00  0.423E+00    0.05       1.0  T
   3   -209.1453944 -0.873206E+00  0.644E-01    0.06       1.0  T
   4   -209.1544907 -0.909632E-02  0.579E-01    0.12       1.0  T
   5   -209.1659550 -0.114643E-01  0.199E-01    0.08       1.0  T
   6   -209.1628480  0.310698E-02  0.461E-01    0.11       1.0  T
   7   -209.1621372  0.710861E-03  0.484E-01    0.11       1.0  T
   8   -209.1608959  0.124131E-02  0.504E-01    0.11       1.0  T
   9   -209.1629712 -0.207535E-02  0.407E-01    0.11       1.0  T
  10   -209.1679813 -0.501008E-02  0.999E-02    0.09       1.0  T
  11   -209.1673053  0.676018E-03  0.188E-01    0.09       1.0  T
  12   -209.1681448 -0.839546E-03  0.345E-02    0.09       1.0  T
  13   -209.1680545  0.903029E-04  0.638E-02    0.09       1.0  T
  14   -209.1680771 -0.225877E-04  0.585E-02    0.09       1.0  T
  15   -209.1681636 -0.864982E-04  0.226E-02    0.09       1.0  T
  16   -209.1681743 -0.107197E-04  0.760E-03    0.09       1.3  T
  17   -209.1681757 -0.133559E-05  0.449E-03    0.09       2.2  T
  18   -209.1681758 -0.993463E-07  0.343E-03    0.09       2.9  T
  19   -209.1681757  0.271350E-07  0.369E-03    0.09       2.7  T
  20   -209.1681760 -0.281379E-06  0.293E-03    0.09       3.4  T
  21   -209.1681761 -0.979971E-07  0.262E-03    0.09       3.8  T
  22   -209.1681763 -0.158791E-06  0.118E-03    0.09       8.3  T
  23   -209.1681763 -0.283245E-07  0.103E-03    0.09       9.6  T
  24   -209.1681763 -0.189681E-07  0.629E-04    0.09      15.7  T
  25   -209.1681763 -0.747329E-08  0.680E-04    0.09      14.5  T
     SCC iter.                  ...        0 min,  0.820 sec
     gradient                   ...        0 min,  0.067 sec
 * total energy  :  -205.0587462 Eh     change       -0.8242558E-02 Eh
   gradient norm :     0.0609086 Eh/α   predicted    -0.6656902E-02 ( -19.24%)
   displ. norm   :     0.8713083 α      lambda       -0.1142642E-01
   maximum displ.:     0.5524102 α      in ANC's #6, #5, #7, ...

........................................................................
.............................. CYCLE  145 ..............................
........................................................................

 iter      E             dE          RMSdq      gap      omega  full diag
   1   -209.1936605 -0.209194E+03  0.622E-01    0.08       0.0  T
   2   -209.0441758  0.149485E+00  0.223E+00    0.20       1.0  T
   3   -209.1527491 -0.108573E+00  0.101E+00    0.08       1.0  T
   4   -209.1642720 -0.115230E-01  0.842E-01    0.17       1.0  T
   5   -209.1936050 -0.293330E-01  0.376E-01    0.11       1.0  T
   6   -209.1956775 -0.207247E-02  0.304E-01    0.10       1.0  T
   7   -209.1966082 -0.930740E-03  0.270E-01    0.11       1.0  T
   8   -209.1977647 -0.115645E-02  0.202E-01    0.10       1.0  T
   9   -209.1994698 -0.170519E-02  0.660E-02    0.09       1.0  T
  10   -209.1996017 -0.131888E-03  0.491E-02    0.09       1.0  T
  11   -209.1995354  0.663202E-04  0.519E-02    0.09       1.0  T
  12   -209.1996320 -0.965844E-04  0.355E-02    0.09       1.0  T
  13   -209.1996236  0.843864E-05  0.373E-02    0.09       1.0  T
  14   -209.1996713 -0.477459E-04  0.141E-02    0.09       1.0  T
  15   -209.1996733 -0.198472E-05  0.960E-03    0.09       1.0  T
  16   -209.1996765 -0.322965E-05  0.530E-03    0.09       1.9  T
  17   -209.1996768 -0.321373E-06  0.444E-03    0.09       2.2  T
  18   -209.1996774 -0.535395E-06  0.185E-03    0.09       5.3  T
  19   -209.1996772  0.200509E-06  0.287E-03    0.09       3.4  T
  20   -209.1996775 -0.276832E-06  0.130E-03    0.09       7.6  T
  21   -209.1996775 -0.209189E-07  0.108E-03    0.09       9.1  T
  22   -209.1996775 -0.438801E-07  0.737E-04    0.09      13.4  T
  23   -209.1996775 -0.107873E-07  0.366E-04    0.09      26.9  T
     SCC iter.                  ...        0 min,  0.827 sec
     gradient                   ...        0 min,  0.065 sec
 * total energy  :  -205.0653369 Eh     change       -0.6590762E-02 Eh
   gradient norm :     0.1115615 Eh/α   predicted    -0.1005055E-01 (  52.49%)
   displ. norm   :     0.7581245 α      lambda       -0.9639343E-02
   maximum displ.:     0.5052216 α      in ANC's #6, #5, #7, ...

........................................................................
.............................. CYCLE  146 ..............................
........................................................................

 iter      E             dE          RMSdq      gap      omega  full diag
   1   -209.1744258 -0.209174E+03  0.775E-01    0.10       0.0  T
   2   -207.6178559  0.155657E+01  0.560E+00    0.08       1.0  T
   3   -209.1406725 -0.152282E+01  0.124E+00    0.17       1.0  T
   4   -209.1429250 -0.225253E-02  0.926E-01    0.12       1.0  T
   5   -209.1871934 -0.442684E-01  0.471E-01    0.12       1.0  T
   6   -209.1888483 -0.165491E-02  0.467E-01    0.11       1.0  T
   7   -209.1899378 -0.108945E-02  0.437E-01    0.11       1.0  T
   8   -209.1753941  0.145436E-01  0.572E-01    0.11       1.0  T
   9   -209.1949871 -0.195929E-01  0.143E-01    0.10       1.0  T
  10   -209.1953827 -0.395591E-03  0.135E-01    0.10       1.0  T
  11   -209.1949090  0.473665E-03  0.173E-01    0.10       1.0  T
  12   -209.1957908 -0.881768E-03  0.824E-02    0.10       1.0  T
  13   -209.1961464 -0.355634E-03  0.475E-02    0.10       1.0  T
  14   -209.1961559 -0.951823E-05  0.509E-02    0.10       1.0  T
  15   -209.1962014 -0.454524E-04  0.241E-02    0.10       1.0  T
  16   -209.1962066 -0.528360E-05  0.181E-02    0.10       1.0  T
  17   -209.1962126 -0.597266E-05  0.879E-03    0.10       1.1  T
  18   -209.1962139 -0.132488E-05  0.828E-03    0.10       1.2  T
  19   -209.1962119  0.201833E-05  0.677E-03    0.10       1.5  T
  20   -209.1962141 -0.218664E-05  0.413E-03    0.10       2.4  T
  21   -209.1962144 -0.304866E-06  0.338E-03    0.10       2.9  T
  22   -209.1962146 -0.221150E-06  0.311E-03    0.10       3.2  T
  23   -209.1962147 -0.649396E-07  0.198E-03    0.10       5.0  T
  24   -209.1962148 -0.747637E-07  0.642E-04    0.10      15.3  T
  25   -209.1962148  0.292232E-08  0.572E-04    0.10      17.2  T
     SCC iter.                  ...        0 min,  0.819 sec
     gradient                   ...        0 min,  0.068 sec
 * total energy  :  -205.0726696 Eh     change       -0.7332629E-02 Eh
   gradient norm :     0.0530857 Eh/α   predicted    -0.7589801E-02 (   3.51%)
   displ. norm   :     0.6860684 α      lambda       -0.9892759E-02
   maximum displ.:     0.3958608 α      in ANC's #6, #5, #7, ...

........................................................................
.............................. CYCLE  147 ..............................
........................................................................

 iter      E             dE          RMSdq      gap      omega  full diag
   1   -209.1817663 -0.209182E+03  0.873E-01    0.11       0.0  T
   2   -206.7774742  0.240429E+01  0.634E+00    0.08       1.0  T
   3   -209.1320923 -0.235462E+01  0.144E+00    0.14       1.0  T
   4   -209.1535679 -0.214756E-01  0.925E-01    0.16       1.0  T
   5   -209.1980753 -0.445074E-01  0.563E-01    0.09       1.0  T
   6   -209.2095242 -0.114489E-01  0.400E-01    0.11       1.0  T
   7   -209.2110934 -0.156925E-02  0.331E-01    0.11       1.0  T
   8   -209.2058302  0.526327E-02  0.449E-01    0.10       1.0  T
   9   -209.2084081 -0.257790E-02  0.400E-01    0.10       1.0  T
  10   -209.2078344  0.573695E-03  0.288E-01    0.09       1.0  T
  11   -209.2118295 -0.399512E-02  0.194E-01    0.10       1.0  T
  12   -209.2132924 -0.146293E-02  0.830E-02    0.10       1.0  T
  13   -209.2136970 -0.404532E-03  0.540E-02    0.10       1.0  T
  14   -209.2136501  0.468439E-04  0.659E-02    0.10       1.0  T
  15   -209.2135942  0.558866E-04  0.650E-02    0.10       1.0  T
  16   -209.2136397 -0.454463E-04  0.549E-02    0.10       1.0  T
  17   -209.2138244 -0.184689E-03  0.402E-02    0.10       1.0  T
  18   -209.2138616 -0.372418E-04  0.207E-02    0.10       1.0  T
  19   -209.2138676 -0.598933E-05  0.728E-03    0.10       1.4  T
  20   -209.2138671  0.458940E-06  0.148E-02    0.10       1.0  T
  21   -209.2138652  0.198020E-05  0.778E-03    0.10       1.3  T
  22   -209.2138722 -0.703955E-05  0.346E-03    0.10       2.8  T
  23   -209.2138713  0.859710E-06  0.413E-03    0.10       2.4  T
  24   -209.2138716 -0.299589E-06  0.384E-03    0.10       2.6  T
  25   -209.2138727 -0.104901E-05  0.247E-03    0.10       4.0  T
  26   -209.2138726  0.417722E-07  0.146E-03    0.10       6.8  T
  27   -209.2138728 -0.126357E-06  0.555E-04    0.10      17.8  T
  28   -209.2138727  0.219940E-07  0.109E-03    0.10       9.0  T
  29   -209.2138728 -0.282982E-07  0.543E-04    0.10      18.1  T
     SCC iter.                  ...        0 min,  0.859 sec
     gradient                   ...        0 min,  0.077 sec
 * total energy  :  -205.0798534 Eh     change       -0.7183844E-02 Eh
   gradient norm :     0.0495109 Eh/α   predicted    -0.7274593E-02 (   1.26%)
   displ. norm   :     0.7797877 α      lambda       -0.9720521E-02
   maximum displ.:     0.5630414 α      in ANC's #6, #5, #7, ...

........................................................................
.............................. CYCLE  148 ..............................
........................................................................

 iter      E             dE          RMSdq      gap      omega  full diag
   1   -209.2168329 -0.209217E+03  0.580E-01    0.09       0.0  T
   2   -207.9246280  0.129220E+01  0.517E+00    0.15       1.0  T
   3   -209.2028465 -0.127822E+01  0.785E-01    0.07       1.0  T
   4   -209.2087155 -0.586901E-02  0.545E-01    0.09       1.0  T
   5   -209.2170979 -0.838238E-02  0.521E-01    0.10       1.0  T
   6   -209.2256664 -0.856859E-02  0.240E-01    0.10       1.0  T
   7   -209.2276142 -0.194771E-02  0.211E-01    0.09       1.0  T
   8   -209.2280003 -0.386193E-03  0.196E-01    0.10       1.0  T
   9   -209.2237581  0.424227E-02  0.273E-01    0.09       1.0  T
  10   -209.2283516 -0.459352E-02  0.111E-01    0.10       1.0  T
  11   -209.2284144 -0.628546E-04  0.725E-02    0.10       1.0  T
  12   -209.2285209 -0.106442E-03  0.558E-02    0.10       1.0  T
  13   -209.2286512 -0.130277E-03  0.359E-02    0.10       1.0  T
  14   -209.2286538 -0.262318E-05  0.351E-02    0.10       1.0  T
  15   -209.2286783 -0.244770E-04  0.255E-02    0.10       1.0  T
  16   -209.2287090 -0.307666E-04  0.961E-03    0.10       1.0  T
  17   -209.2287035  0.555370E-05  0.105E-02    0.10       1.0  T
  18   -209.2287006  0.288043E-05  0.112E-02    0.10       1.0  T
  19   -209.2287102 -0.960557E-05  0.340E-03    0.10       2.9  T
  20   -209.2287107 -0.447128E-06  0.349E-03    0.10       2.8  T
  21   -209.2287105  0.127214E-06  0.337E-03    0.10       2.9  T
  22   -209.2287111 -0.540384E-06  0.329E-03    0.10       3.0  T
  23   -209.2287111 -0.119968E-07  0.264E-03    0.10       3.7  T
  24   -209.2287112 -0.103914E-06  0.106E-03    0.10       9.3  T
  25   -209.2287111  0.852884E-07  0.150E-03    0.10       6.6  T
  26   -209.2287112 -0.126956E-06  0.394E-04    0.10      25.0  T
  27   -209.2287112  0.146454E-08  0.411E-04    0.10      24.0  T
     SCC iter.                  ...        0 min,  0.822 sec
     gradient                   ...        0 min,  0.062 sec
 * total energy  :  -205.0884508 Eh     change       -0.8597411E-02 Eh
   gradient norm :     0.0347596 Eh/α   predicted    -0.7815628E-02 (  -9.09%)
   displ. norm   :     0.8193258 α      lambda       -0.1074695E-01
   maximum displ.:     0.5696431 α      in ANC's #6, #7, #5, ...

........................................................................
.............................. CYCLE  149 ..............................
........................................................................

 iter      E             dE          RMSdq      gap      omega  full diag
   1   -209.2521951 -0.209252E+03  0.463E-01    0.06       0.0  T
   2   -209.2284479  0.237472E-01  0.785E-01    0.13       1.0  T
   3   -209.2217209  0.672703E-02  0.808E-01    0.11       1.0  T
   4   -209.1970838  0.246370E-01  0.967E-01    0.08       1.0  T
   5   -209.2520697 -0.549859E-01  0.327E-01    0.10       1.0  T
   6   -209.2045240  0.475457E-01  0.791E-01    0.07       1.0  T
   7   -209.2469989 -0.424749E-01  0.450E-01    0.08       1.0  T
   8   -209.2536931 -0.669415E-02  0.294E-01    0.08       1.0  T
   9   -209.2592921 -0.559906E-02  0.921E-02    0.09       1.0  T
  10   -209.2598051 -0.512925E-03  0.614E-02    0.09       1.0  T
  11   -209.2599762 -0.171107E-03  0.391E-02    0.08       1.0  T
  12   -209.2600450 -0.688489E-04  0.264E-02    0.08       1.0  T
  13   -209.2600899 -0.448444E-04  0.150E-02    0.09       1.0  T
  14   -209.2600738  0.160542E-04  0.183E-02    0.09       1.0  T
  15   -209.2600894 -0.155499E-04  0.119E-02    0.09       1.0  T
  16   -209.2600935 -0.417153E-05  0.102E-02    0.08       1.0  T
  17   -209.2600961 -0.258957E-05  0.800E-03    0.08       1.2  T
  18   -209.2601003 -0.418409E-05  0.330E-03    0.09       3.0  T
  19   -209.2601008 -0.509604E-06  0.202E-03    0.09       4.9  T
  20   -209.2601001  0.724184E-06  0.324E-03    0.08       3.0  T
  21   -209.2601009 -0.825631E-06  0.119E-03    0.08       8.2  T
  22   -209.2601008  0.786829E-07  0.144E-03    0.09       6.9  T
  23   -209.2601010 -0.109264E-06  0.906E-04    0.09      10.9  T
  24   -209.2601010 -0.416717E-07  0.587E-04    0.09      16.8  T
     SCC iter.                  ...        0 min,  0.771 sec
     gradient                   ...        0 min,  0.063 sec
 * total energy  :  -205.0976270 Eh     change       -0.9176173E-02 Eh
   gradient norm :     0.0520761 Eh/α   predicted    -0.8980661E-02 (  -2.13%)
   displ. norm   :     0.8762259 α      lambda       -0.1051016E-01
   maximum displ.:     0.6428980 α      in ANC's #6, #7, #5, ...

........................................................................
.............................. CYCLE  150 ..............................
........................................................................

 iter      E             dE          RMSdq      gap      omega  full diag
   1   -209.2333299 -0.209233E+03  0.411E-01    0.05       0.0  T
   2   -209.1728848  0.604451E-01  0.958E-01    0.13       1.0  T
   3   -209.1682076  0.467717E-02  0.129E+00    0.12       1.0  T
   4   -209.2243114 -0.561038E-01  0.597E-01    0.06       1.0  T
   5   -209.2319119 -0.760054E-02  0.329E-01    0.08       1.0  T
   6   -209.1305647  0.101347E+00  0.958E-01    0.08       1.0  T
   7   -209.2395723 -0.109008E+00  0.191E-01    0.08       1.0  T
   8   -209.2409883 -0.141594E-02  0.146E-01    0.07       1.0  T
   9   -209.2417014 -0.713105E-03  0.798E-02    0.07       1.0  T
  10   -209.2418583 -0.156931E-03  0.520E-02    0.07       1.0  T
  11   -209.2419363 -0.779625E-04  0.293E-02    0.07       1.0  T
  12   -209.2412510  0.685332E-03  0.805E-02    0.07       1.0  T
  13   -209.2419077 -0.656720E-03  0.281E-02    0.07       1.0  T
  14   -209.2419657 -0.580746E-04  0.172E-02    0.07       1.0  T
  15   -209.2419913 -0.255542E-04  0.765E-03    0.07       1.3  T
  16   -209.2419838  0.749455E-05  0.101E-02    0.07       1.0  T
  17   -209.2419914 -0.762158E-05  0.594E-03    0.07       1.7  T
  18   -209.2419930 -0.161124E-05  0.440E-03    0.07       2.2  T
  19   -209.2419925  0.586716E-06  0.431E-03    0.07       2.3  T
  20   -209.2419937 -0.127115E-05  0.270E-03    0.07       3.6  T
  21   -209.2419934  0.308543E-06  0.282E-03    0.07       3.5  T
  22   -209.2419933  0.815197E-07  0.290E-03    0.07       3.4  T
  23   -209.2419943 -0.961005E-06  0.660E-04    0.07      14.9  T
  24   -209.2419943  0.350594E-07  0.827E-04    0.07      11.9  T
     SCC iter.                  ...        0 min,  0.863 sec
     gradient                   ...        0 min,  0.070 sec
 * total energy  :  -205.1067479 Eh     change       -0.9120955E-02 Eh
   gradient norm :     0.0361517 Eh/α   predicted    -0.9289798E-02 (   1.85%)
   displ. norm   :     0.8484335 α      lambda       -0.9619819E-02
   maximum displ.:     0.6202489 α      in ANC's #6, #7, #5, ...
 * RMSD in coord.:     1.8512083 α      energy gain  -0.1656235E+00 Eh

generating ANC from exact Hessian ...
Using Lindh-Hessian (1995)
 Shifting diagonal of input Hessian by   1.033394410098415E-002
 Lowest  eigenvalues of input Hessian
    0.010000    0.010153    0.010201    0.000000    0.000000    0.000000
    0.000000    0.000000    0.000000    0.010400    0.010466    0.010548
    0.010616    0.010722    0.010879    0.011002    0.011067    0.011500
 Highest eigenvalues
    2.192773    2.226776    2.283627    2.895624    7.636138    7.832333
 

........................................................................
.............................. CYCLE  151 ..............................
........................................................................

 iter      E             dE          RMSdq      gap      omega  full diag
   1   -209.2474822 -0.209247E+03  0.374E-01    0.07       0.0  T
   2   -209.2000960  0.473862E-01  0.814E-01    0.04       1.0  T
   3   -209.2010012 -0.905155E-03  0.772E-01    0.09       1.0  T
   4   -209.2049879 -0.398669E-02  0.100E+00    0.09       1.0  T
   5   -209.2465238 -0.415359E-01  0.223E-01    0.06       1.0  T
   6   -209.2424536  0.407019E-02  0.284E-01    0.08       1.0  T
   7   -209.2487524 -0.629886E-02  0.116E-01    0.06       1.0  T
   8   -209.2479757  0.776700E-03  0.136E-01    0.07       1.0  T
   9   -209.2477920  0.183759E-03  0.148E-01    0.06       1.0  T
  10   -209.2494642 -0.167220E-02  0.711E-02    0.06       1.0  T
  11   -209.2498798 -0.415624E-03  0.352E-02    0.06       1.0  T
  12   -209.2499504 -0.705504E-04  0.178E-02    0.06       1.0  T
  13   -209.2499499  0.489169E-06  0.163E-02    0.06       1.0  T
  14   -209.2499616 -0.117152E-04  0.948E-03    0.06       1.0  T
  15   -209.2499519  0.967214E-05  0.112E-02    0.06       1.0  T
  16   -209.2499643 -0.123938E-04  0.344E-03    0.06       2.9  T
  17   -209.2499642  0.981783E-07  0.341E-03    0.06       2.9  T
  18   -209.2499610  0.316594E-05  0.595E-03    0.06       1.7  T
  19   -209.2499643 -0.331297E-05  0.191E-03    0.06       5.2  T
  20   -209.2499645 -0.124883E-06  0.214E-03    0.06       4.6  T
  21   -209.2499645  0.198834E-07  0.227E-03    0.06       4.3  T
  22   -209.2499635  0.964084E-06  0.352E-03    0.06       2.8  T
  23   -209.2499647 -0.118967E-05  0.781E-04    0.06      12.6  T
  24   -209.2499643  0.418517E-06  0.209E-03    0.06       4.7  T
  25   -209.2499646 -0.309490E-06  0.124E-03    0.06       7.9  T
  26   -209.2499646 -0.310781E-07  0.103E-03    0.06       9.6  T
  27   -209.2499647 -0.725907E-07  0.601E-04    0.06      16.4  T
  28   -209.2499647 -0.369837E-07  0.111E-04    0.06      88.9  T
     SCC iter.                  ...        0 min,  1.226 sec
     gradient                   ...        0 min,  0.060 sec
 * total energy  :  -205.1149936 Eh     change       -0.8245710E-02 Eh
   gradient norm :     0.0399689 Eh/α   predicted     0.0000000E+00 (-100.00%)
   displ. norm   :     0.4932757 α      lambda       -0.6589353E-02
   maximum displ.:     0.2572595 α      in ANC's #12, #17, #26, ...

........................................................................
.............................. CYCLE  152 ..............................
........................................................................

 iter      E             dE          RMSdq      gap      omega  full diag
   1   -209.2502334 -0.209250E+03  0.404E-01    0.08       0.0  T
   2   -208.9099766  0.340257E+00  0.164E+00    0.16       1.0  T
   3   -209.2102671 -0.300290E+00  0.981E-01    0.12       1.0  T
   4   -209.2382953 -0.280282E-01  0.600E-01    0.06       1.0  T
   5   -209.2540016 -0.157063E-01  0.284E-01    0.05       1.0  T
   6   -209.2611257 -0.712410E-02  0.137E-01    0.06       1.0  T
   7   -209.2612135 -0.878109E-04  0.117E-01    0.07       1.0  T
   8   -209.2617782 -0.564699E-03  0.775E-02    0.07       1.0  T
   9   -209.2622097 -0.431473E-03  0.253E-02    0.07       1.0  T
  10   -209.2621601  0.496347E-04  0.321E-02    0.07       1.0  T
  11   -209.2619745  0.185553E-03  0.496E-02    0.07       1.0  T
  12   -209.2622136 -0.239113E-03  0.194E-02    0.07       1.0  T
  13   -209.2622292 -0.155228E-04  0.117E-02    0.07       1.0  T
  14   -209.2621884  0.407894E-04  0.222E-02    0.07       1.0  T
  15   -209.2622324 -0.440190E-04  0.592E-03    0.07       1.7  T
  16   -209.2622319  0.463988E-06  0.625E-03    0.07       1.6  T
  17   -209.2622290  0.295425E-05  0.789E-03    0.07       1.2  T
  18   -209.2622347 -0.571044E-05  0.214E-03    0.07       4.6  T
  19   -209.2622345  0.190634E-06  0.230E-03    0.07       4.3  T
  20   -209.2622343  0.137913E-06  0.257E-03    0.07       3.8  T
  21   -209.2622348 -0.471950E-06  0.121E-03    0.07       8.1  T
  22   -209.2622349 -0.748782E-07  0.661E-04    0.07      14.9  T
  23   -209.2622348  0.440857E-07  0.975E-04    0.07      10.1  T
     SCC iter.                  ...        0 min,  0.755 sec
     gradient                   ...        0 min,  0.070 sec
 * total energy  :  -205.1207142 Eh     change       -0.5720543E-02 Eh
   gradient norm :     0.0258823 Eh/α   predicted    -0.4099518E-02 ( -28.34%)
   displ. norm   :     0.8322645 α      lambda       -0.9506765E-02
   maximum displ.:     0.4238605 α      in ANC's #12, #17, #26, ...

........................................................................
.............................. CYCLE  153 ..............................
........................................................................

 iter      E             dE          RMSdq      gap      omega  full diag
   1   -209.2495377 -0.209250E+03  0.549E-01    0.08       0.0  T
   2   -207.9681484  0.128139E+01  0.398E+00    0.06       1.0  T
   3   -209.0001409 -0.103199E+01  0.152E+00    0.21       1.0  T
   4   -209.2380170 -0.237876E+00  0.568E-01    0.10       1.0  T
   5   -209.2101988  0.278182E-01  0.111E+00    0.10       1.0  T
   6   -209.2688390 -0.586401E-01  0.244E-01    0.08       1.0  T
   7   -209.2640203  0.481865E-02  0.312E-01    0.06       1.0  T
   8   -209.2561302  0.789009E-02  0.405E-01    0.06       1.0  T
   9   -209.2694254 -0.132951E-01  0.152E-01    0.07       1.0  T
  10   -209.2676182  0.180715E-02  0.184E-01    0.08       1.0  T
  11   -209.2699560 -0.233780E-02  0.100E-01    0.08       1.0  T
  12   -209.2701002 -0.144203E-03  0.805E-02    0.07       1.0  T
  13   -209.2705354 -0.435202E-03  0.253E-02    0.07       1.0  T
  14   -209.2702109  0.324578E-03  0.565E-02    0.07       1.0  T
  15   -209.2703651 -0.154235E-03  0.445E-02    0.07       1.0  T
  16   -209.2705612 -0.196110E-03  0.115E-02    0.07       1.0  T
  17   -209.2705547  0.646488E-05  0.128E-02    0.07       1.0  T
  18   -209.2705566 -0.187939E-05  0.113E-02    0.07       1.0  T
  19   -209.2705625 -0.588333E-05  0.768E-03    0.07       1.3  T
  20   -209.2705648 -0.225566E-05  0.634E-03    0.07       1.6  T
  21   -209.2705657 -0.988677E-06  0.367E-03    0.07       2.7  T
  22   -209.2705665 -0.793767E-06  0.255E-03    0.07       3.9  T
  23   -209.2705661  0.414622E-06  0.294E-03    0.07       3.4  T
  24   -209.2705664 -0.298466E-06  0.169E-03    0.07       5.8  T
  25   -209.2705666 -0.160296E-06  0.145E-03    0.07       6.8  T
  26   -209.2705661  0.481895E-06  0.257E-03    0.07       3.8  T
  27   -209.2705666 -0.532230E-06  0.655E-04    0.07      15.1  T
  28   -209.2705667 -0.166220E-07  0.438E-04    0.07      22.5  T
     SCC iter.                  ...        0 min,  0.959 sec
     gradient                   ...        0 min,  0.067 sec
 * total energy  :  -205.1285912 Eh     change       -0.7877045E-02 Eh
   gradient norm :     0.0403142 Eh/α   predicted    -0.8045901E-02 (   2.14%)
   displ. norm   :     0.8395093 α      lambda       -0.8646023E-02
   maximum displ.:     0.4379488 α      in ANC's #12, #26, #17, ...

........................................................................
.............................. CYCLE  154 ..............................
........................................................................

 iter      E             dE          RMSdq      gap      omega  full diag
   1   -209.2584318 -0.209258E+03  0.709E-01    0.09       0.0  T
   2   -208.6716814  0.586750E+00  0.234E+00    0.06       1.0  T
   3   -209.1760786 -0.504397E+00  0.148E+00    0.21       1.0  T
   4   -209.2344536 -0.583751E-01  0.939E-01    0.07       1.0  T
   5   -209.2797535 -0.452998E-01  0.296E-01    0.10       1.0  T
   6   -209.2463329  0.334205E-01  0.601E-01    0.07       1.0  T
   7   -209.2812336 -0.349006E-01  0.274E-01    0.08       1.0  T
   8   -209.2799290  0.130455E-02  0.231E-01    0.07       1.0  T
   9   -209.2847510 -0.482200E-02  0.607E-02    0.08       1.0  T
  10   -209.2838295  0.921554E-03  0.117E-01    0.09       1.0  T
  11   -209.2844243 -0.594867E-03  0.708E-02    0.09       1.0  T
  12   -209.2847465 -0.322137E-03  0.565E-02    0.08       1.0  T
  13   -209.2843025  0.443995E-03  0.850E-02    0.08       1.0  T
  14   -209.2845772 -0.274720E-03  0.613E-02    0.08       1.0  T
  15   -209.2848805 -0.303281E-03  0.156E-02    0.08       1.0  T
  16   -209.2848553  0.251184E-04  0.249E-02    0.08       1.0  T
  17   -209.2848898 -0.344142E-04  0.864E-03    0.08       1.1  T
  18   -209.2848892  0.542282E-06  0.933E-03    0.08       1.1  T
  19   -209.2848902 -0.951177E-06  0.695E-03    0.08       1.4  T
  20   -209.2848942 -0.402575E-05  0.308E-03    0.08       3.2  T
  21   -209.2848942  0.190888E-07  0.282E-03    0.08       3.5  T
  22   -209.2848940  0.200999E-06  0.328E-03    0.08       3.0  T
  23   -209.2848947 -0.757717E-06  0.903E-04    0.08      10.9  T
  24   -209.2848947  0.130910E-07  0.890E-04    0.08      11.1  T
     SCC iter.                  ...        0 min,  1.118 sec
     gradient                   ...        0 min,  0.064 sec
 * total energy  :  -205.1362349 Eh     change       -0.7643648E-02 Eh
   gradient norm :     0.0349271 Eh/α   predicted    -0.7369768E-02 (  -3.58%)
   displ. norm   :     0.8612410 α      lambda       -0.8357874E-02
   maximum displ.:     0.4504017 α      in ANC's #12, #26, #17, ...

........................................................................
.............................. CYCLE  155 ..............................
........................................................................

 iter      E             dE          RMSdq      gap      omega  full diag
   1   -209.2653273 -0.209265E+03  0.925E-01    0.10       0.0  T
   2   -208.8026399  0.462687E+00  0.239E+00    0.19       1.0  T
   3   -209.1848948 -0.382255E+00  0.162E+00    0.20       1.0  T
   4   -209.1983390 -0.134442E-01  0.121E+00    0.09       1.0  T
   5   -209.2801187 -0.817797E-01  0.415E-01    0.10       1.0  T
   6   -209.2611356  0.189831E-01  0.606E-01    0.07       1.0  T
   7   -209.2952905 -0.341549E-01  0.247E-01    0.10       1.0  T
   8   -209.2977824 -0.249189E-02  0.103E-01    0.10       1.0  T
   9   -209.2982168 -0.434424E-03  0.584E-02    0.09       1.0  T
  10   -209.2980468  0.170053E-03  0.694E-02    0.09       1.0  T
  11   -209.2981855 -0.138752E-03  0.497E-02    0.09       1.0  T
  12   -209.2981254  0.600916E-04  0.621E-02    0.10       1.0  T
  13   -209.2982909 -0.165508E-03  0.292E-02    0.09       1.0  T
  14   -209.2982903  0.586168E-06  0.269E-02    0.09       1.0  T
  15   -209.2983283 -0.379473E-04  0.125E-02    0.09       1.0  T
  16   -209.2983179  0.104250E-04  0.137E-02    0.09       1.0  T
  17   -209.2983282 -0.103520E-04  0.968E-03    0.09       1.0  T
  18   -209.2982919  0.363297E-04  0.201E-02    0.09       1.0  T
  19   -209.2983278 -0.359529E-04  0.853E-03    0.09       1.2  T
  20   -209.2983344 -0.661154E-05  0.281E-03    0.09       3.5  T
  21   -209.2983338  0.654758E-06  0.367E-03    0.09       2.7  T
  22   -209.2983344 -0.619449E-06  0.278E-03    0.09       3.5  T
  23   -209.2983350 -0.579736E-06  0.950E-04    0.09      10.4  T
  24   -209.2983350 -0.234876E-07  0.794E-04    0.09      12.4  T
     SCC iter.                  ...        0 min,  0.809 sec
     gradient                   ...        0 min,  0.063 sec
 * total energy  :  -205.1439368 Eh     change       -0.7701871E-02 Eh
   gradient norm :     0.0364356 Eh/α   predicted    -0.7278625E-02 (  -5.50%)
   displ. norm   :     0.8746540 α      lambda       -0.8856884E-02
   maximum displ.:     0.4424637 α      in ANC's #12, #26, #17, ...

........................................................................
.............................. CYCLE  156 ..............................
........................................................................

 iter      E             dE          RMSdq      gap      omega  full diag
   1   -209.2862468 -0.209286E+03  0.725E-01    0.08       0.0  T
   2   -208.6250437  0.661203E+00  0.252E+00    0.04       1.0  T
   3   -209.2686095 -0.643566E+00  0.814E-01    0.11       1.0  T
   4   -209.2474577  0.211517E-01  0.127E+00    0.13       1.0  T
   5   -209.3062224 -0.587646E-01  0.271E-01    0.09       1.0  T
   6   -209.3043797  0.184268E-02  0.326E-01    0.09       1.0  T
   7   -209.2577393  0.466404E-01  0.703E-01    0.08       1.0  T
   8   -209.2938111 -0.360719E-01  0.423E-01    0.09       1.0  T
   9   -209.3093631 -0.155519E-01  0.113E-01    0.10       1.0  T
  10   -209.3066477  0.271540E-02  0.209E-01    0.09       1.0  T
  11   -209.3086919 -0.204420E-02  0.126E-01    0.09       1.0  T
  12   -209.3096970 -0.100508E-02  0.689E-02    0.10       1.0  T
  13   -209.3098960 -0.199060E-03  0.805E-02    0.10       1.0  T
  14   -209.3101252 -0.229197E-03  0.443E-02    0.10       1.0  T
  15   -209.3101883 -0.630686E-04  0.175E-02    0.10       1.0  T
  16   -209.3102108 -0.224785E-04  0.998E-03    0.10       1.0  T
  17   -209.3102110 -0.243174E-06  0.737E-03    0.10       1.3  T
  18   -209.3102126 -0.156056E-05  0.594E-03    0.10       1.7  T
  19   -209.3102129 -0.311509E-06  0.594E-03    0.10       1.7  T
  20   -209.3102123  0.600002E-06  0.550E-03    0.10       1.8  T
  21   -209.3102153 -0.299419E-05  0.175E-03    0.10       5.6  T
  22   -209.3102153 -0.805621E-07  0.126E-03    0.10       7.8  T
  23   -209.3102153  0.540669E-07  0.114E-03    0.10       8.6  T
  24   -209.3102153 -0.348092E-07  0.988E-04    0.10      10.0  T
  25   -209.3102154 -0.395094E-07  0.741E-04    0.10      13.3  T
     SCC iter.                  ...        0 min,  0.860 sec
     gradient                   ...        0 min,  0.065 sec
 * total energy  :  -205.1516277 Eh     change       -0.7690912E-02 Eh
   gradient norm :     0.0412543 Eh/α   predicted    -0.7816329E-02 (   1.63%)
   displ. norm   :     0.8482098 α      lambda       -0.7978664E-02
   maximum displ.:     0.4258565 α      in ANC's #12, #26, #17, ...

........................................................................
.............................. CYCLE  157 ..............................
........................................................................

 iter      E             dE          RMSdq      gap      omega  full diag
   1   -209.2760445 -0.209276E+03  0.120E+00    0.10       0.0  T
   2   -208.6994592  0.576585E+00  0.312E+00    0.17       1.0  T
   3   -209.1952023 -0.495743E+00  0.191E+00    0.20       1.0  T
   4   -209.2037420 -0.853963E-02  0.122E+00    0.10       1.0  T
   5   -209.2909082 -0.871663E-01  0.542E-01    0.08       1.0  T
   6   -209.3104746 -0.195664E-01  0.314E-01    0.08       1.0  T
   7   -209.3109218 -0.447207E-03  0.341E-01    0.09       1.0  T
   8   -209.3044721  0.644969E-02  0.340E-01    0.09       1.0  T
   9   -209.3144980 -0.100259E-01  0.128E-01    0.09       1.0  T
  10   -209.3150542 -0.556178E-03  0.857E-02    0.09       1.0  T
  11   -209.3153851 -0.330902E-03  0.634E-02    0.09       1.0  T
  12   -209.3145202  0.864877E-03  0.941E-02    0.09       1.0  T
  13   -209.3153698 -0.849512E-03  0.687E-02    0.09       1.0  T
  14   -209.3154762 -0.106439E-03  0.445E-02    0.09       1.0  T
  15   -209.3155136 -0.374297E-04  0.229E-02    0.09       1.0  T
  16   -209.3155618 -0.481400E-04  0.846E-03    0.09       1.2  T
  17   -209.3155528  0.900309E-05  0.137E-02    0.09       1.0  T
  18   -209.3155594 -0.661349E-05  0.135E-02    0.09       1.0  T
  19   -209.3155574  0.196448E-05  0.849E-03    0.09       1.2  T
  20   -209.3155641 -0.666994E-05  0.319E-03    0.09       3.1  T
  21   -209.3155636  0.463487E-06  0.367E-03    0.09       2.7  T
  22   -209.3155636  0.115751E-07  0.358E-03    0.09       2.8  T
  23   -209.3155647 -0.106101E-05  0.138E-03    0.09       7.1  T
  24   -209.3155648 -0.923631E-07  0.123E-03    0.09       8.0  T
  25   -209.3155648 -0.975405E-09  0.676E-04    0.09      14.6  T
  26   -209.3155648 -0.173608E-07  0.515E-04    0.09      19.1  T
     SCC iter.                  ...        0 min,  0.835 sec
     gradient                   ...        0 min,  0.069 sec
 * total energy  :  -205.1581234 Eh     change       -0.6495723E-02 Eh
   gradient norm :     0.0410938 Eh/α   predicted    -0.6859494E-02 (   5.60%)
   displ. norm   :     0.7861849 α      lambda       -0.6311295E-02
   maximum displ.:     0.4257312 α      in ANC's #12, #26, #17, ...

........................................................................
.............................. CYCLE  158 ..............................
........................................................................

 iter      E             dE          RMSdq      gap      omega  full diag
   1   -209.3103782 -0.209310E+03  0.591E-01    0.06       0.0  T
   2   -208.8073726  0.503006E+00  0.204E+00    0.10       1.0  T
   3   -209.3071191 -0.499747E+00  0.448E-01    0.07       1.0  T
   4   -209.3185891 -0.114699E-01  0.358E-01    0.06       1.0  T
   5   -209.3223616 -0.377254E-02  0.237E-01    0.08       1.0  T
   6   -209.3144817  0.787991E-02  0.477E-01    0.08       1.0  T
   7   -209.3217985 -0.731679E-02  0.198E-01    0.07       1.0  T
   8   -209.3193033  0.249520E-02  0.223E-01    0.08       1.0  T
   9   -209.3232338 -0.393055E-02  0.154E-01    0.07       1.0  T
  10   -209.3223131  0.920720E-03  0.156E-01    0.07       1.0  T
  11   -209.3244332 -0.212007E-02  0.401E-02    0.07       1.0  T
  12   -209.3244143  0.188758E-04  0.329E-02    0.07       1.0  T
  13   -209.3241757  0.238618E-03  0.545E-02    0.07       1.0  T
  14   -209.3244475 -0.271796E-03  0.315E-02    0.07       1.0  T
  15   -209.3244409  0.656350E-05  0.210E-02    0.07       1.0  T
  16   -209.3244680 -0.271033E-04  0.145E-02    0.07       1.0  T
  17   -209.3244778 -0.980685E-05  0.922E-03    0.07       1.1  T
  18   -209.3244832 -0.537234E-05  0.175E-03    0.07       5.6  T
  19   -209.3244833 -0.689286E-07  0.174E-03    0.07       5.6  T
  20   -209.3244829  0.382199E-06  0.201E-03    0.07       4.9  T
  21   -209.3244830 -0.914057E-07  0.227E-03    0.07       4.3  T
  22   -209.3244831 -0.103316E-06  0.181E-03    0.07       5.4  T
  23   -209.3244833 -0.257698E-06  0.733E-04    0.07      13.4  T
  24   -209.3244833  0.169021E-08  0.564E-04    0.07      17.5  T
     SCC iter.                  ...        0 min,  0.800 sec
     gradient                   ...        0 min,  0.066 sec
 * total energy  :  -205.1633517 Eh     change       -0.5228278E-02 Eh
   gradient norm :     0.0336297 Eh/α   predicted    -0.5106115E-02 (  -2.34%)
   displ. norm   :     0.7166753 α      lambda       -0.6143751E-02
   maximum displ.:     0.4044943 α      in ANC's #12, #17, #26, ...

........................................................................
.............................. CYCLE  159 ..............................
........................................................................

 iter      E             dE          RMSdq      gap      omega  full diag
   1   -209.3302201 -0.209330E+03  0.523E-01    0.05       0.0  T
   2   -208.8905700  0.439650E+00  0.195E+00    0.20       1.0  T
   3   -209.3126462 -0.422076E+00  0.601E-01    0.07       1.0  T
   4   -209.2795111  0.331351E-01  0.131E+00    0.12       1.0  T
   5   -209.3317319 -0.522207E-01  0.302E-01    0.05       1.0  T
   6   -209.3356660 -0.393410E-02  0.149E-01    0.06       1.0  T
   7   -209.3364993 -0.833300E-03  0.158E-01    0.07       1.0  T
   8   -209.3370240 -0.524689E-03  0.113E-01    0.06       1.0  T
   9   -209.3377631 -0.739103E-03  0.588E-02    0.06       1.0  T
  10   -209.3376153  0.147712E-03  0.749E-02    0.06       1.0  T
  11   -209.3377387 -0.123380E-03  0.500E-02    0.06       1.0  T
  12   -209.3375621  0.176631E-03  0.547E-02    0.06       1.0  T
  13   -209.3377992 -0.237069E-03  0.436E-02    0.06       1.0  T
  14   -209.3377972  0.198784E-05  0.302E-02    0.06       1.0  T
  15   -209.3378529 -0.557046E-04  0.182E-02    0.06       1.0  T
  16   -209.3378649 -0.120526E-04  0.173E-02    0.06       1.0  T
  17   -209.3378626  0.228750E-05  0.111E-02    0.06       1.0  T
  18   -209.3378704 -0.779389E-05  0.833E-03    0.06       1.2  T
  19   -209.3378714 -0.924932E-06  0.930E-03    0.06       1.1  T
  20   -209.3378670  0.433536E-05  0.954E-03    0.06       1.0  T
  21   -209.3378727 -0.570760E-05  0.617E-03    0.06       1.6  T
  22   -209.3378740 -0.129815E-05  0.253E-03    0.06       3.9  T
  23   -209.3378741 -0.429549E-07  0.190E-03    0.06       5.2  T
  24   -209.3378742 -0.149379E-06  0.156E-03    0.06       6.3  T
  25   -209.3378743 -0.279540E-07  0.679E-04    0.06      14.5  T
  26   -209.3378742  0.832660E-07  0.126E-03    0.06       7.8  T
  27   -209.3378743 -0.123110E-06  0.468E-04    0.06      21.0  T
     SCC iter.                  ...        0 min,  0.873 sec
     gradient                   ...        0 min,  0.067 sec
 * total energy  :  -205.1681727 Eh     change       -0.4821009E-02 Eh
   gradient norm :     0.0378013 Eh/α   predicted    -0.4649669E-02 (  -3.55%)
   displ. norm   :     0.7470485 α      lambda       -0.5084168E-02
   maximum displ.:     0.4275445 α      in ANC's #12, #17, #8, ...

........................................................................
.............................. CYCLE  160 ..............................
........................................................................

 iter      E             dE          RMSdq      gap      omega  full diag
   1   -209.3410834 -0.209341E+03  0.610E-01    0.05       0.0  T
   2   -208.8861565  0.454927E+00  0.242E+00    0.18       1.0  T
   3   -209.3028072 -0.416651E+00  0.905E-01    0.07       1.0  T
   4   -209.3032891 -0.481829E-03  0.124E+00    0.10       1.0  T
   5   -209.3394637 -0.361747E-01  0.486E-01    0.05       1.0  T
   6   -209.3444841 -0.502033E-02  0.234E-01    0.05       1.0  T
   7   -209.3498575 -0.537343E-02  0.125E-01    0.05       1.0  T
   8   -209.3405543  0.930322E-02  0.299E-01    0.06       1.0  T
   9   -209.3491457 -0.859141E-02  0.137E-01    0.05       1.0  T
  10   -209.3499473 -0.801638E-03  0.665E-02    0.05       1.0  T
  11   -209.3492911  0.656193E-03  0.993E-02    0.05       1.0  T
  12   -209.3499962 -0.705105E-03  0.393E-02    0.06       1.0  T
  13   -209.3498653  0.130895E-03  0.512E-02    0.06       1.0  T
  14   -209.3499778 -0.112507E-03  0.327E-02    0.06       1.0  T
  15   -209.3500316 -0.537263E-04  0.258E-02    0.06       1.0  T
  16   -209.3500499 -0.182922E-04  0.227E-02    0.05       1.0  T
  17   -209.3500368  0.130896E-04  0.166E-02    0.05       1.0  T
  18   -209.3500403 -0.351807E-05  0.179E-02    0.05       1.0  T
  19   -209.3500639 -0.236019E-04  0.809E-03    0.06       1.2  T
  20   -209.3500606  0.333315E-05  0.837E-03    0.06       1.2  T
  21   -209.3500652 -0.459442E-05  0.552E-03    0.06       1.8  T
  22   -209.3500677 -0.254213E-05  0.191E-03    0.05       5.1  T
  23   -209.3500671  0.604681E-06  0.283E-03    0.05       3.5  T
  24   -209.3500678 -0.717441E-06  0.109E-03    0.05       9.1  T
  25   -209.3500677  0.144033E-06  0.146E-03    0.05       6.7  T
  26   -209.3500677 -0.167527E-07  0.128E-03    0.05       7.7  T
  27   -209.3500678 -0.144797E-06  0.551E-04    0.05      17.9  T
  28   -209.3500678  0.538651E-08  0.560E-04    0.05      17.6  T
     SCC iter.                  ...        0 min,  0.935 sec
     gradient                   ...        0 min,  0.077 sec
 * total energy  :  -205.1720952 Eh     change       -0.3922536E-02 Eh
   gradient norm :     0.0519409 Eh/α   predicted    -0.3960794E-02 (   0.98%)
   displ. norm   :     0.7153974 α      lambda       -0.4392018E-02
   maximum displ.:     0.4206447 α      in ANC's #12, #17, #8, ...

........................................................................
.............................. CYCLE  161 ..............................
........................................................................

 iter      E             dE          RMSdq      gap      omega  full diag
   1   -209.3431818 -0.209343E+03  0.547E-01    0.05       0.0  T
   2   -209.2286847  0.114497E+00  0.200E+00    0.15       1.0  T
   3   -209.3327302 -0.104046E+00  0.531E-01    0.06       1.0  T
   4   -209.3323347  0.395472E-03  0.492E-01    0.03       1.0  T
   5   -209.3291813  0.315349E-02  0.746E-01    0.05       1.0  T
   6   -209.3426433 -0.134621E-01  0.398E-01    0.04       1.0  T
   7   -209.3379095  0.473387E-02  0.313E-01    0.04       1.0  T
   8   -209.3438199 -0.591041E-02  0.281E-01    0.04       1.0  T
   9   -209.3458261 -0.200623E-02  0.237E-01    0.05       1.0  T
  10   -209.3466978 -0.871704E-03  0.159E-01    0.04       1.0  T
  11   -209.3460798  0.618008E-03  0.157E-01    0.04       1.0  T
  12   -209.3469722 -0.892362E-03  0.155E-01    0.04       1.0  T
  13   -209.3480080 -0.103584E-02  0.698E-02    0.04       1.0  T
  14   -209.3481843 -0.176273E-03  0.213E-02    0.04       1.0  T
  15   -209.3481684  0.158557E-04  0.293E-02    0.04       1.0  T
  16   -209.3481786 -0.101496E-04  0.184E-02    0.04       1.0  T
  17   -209.3482053 -0.267632E-04  0.716E-03    0.04       1.4  T
  18   -209.3481966  0.879802E-05  0.168E-02    0.04       1.0  T
  19   -209.3482024 -0.586433E-05  0.785E-03    0.04       1.3  T
  20   -209.3482047 -0.232567E-05  0.715E-03    0.04       1.4  T
  21   -209.3482020  0.274467E-05  0.689E-03    0.04       1.4  T
  22   -209.3482062 -0.416507E-05  0.229E-03    0.04       4.3  T
  23   -209.3482066 -0.415630E-06  0.118E-03    0.04       8.3  T
  24   -209.3482066 -0.210044E-07  0.656E-04    0.04      15.0  T
  25   -209.3482066  0.587150E-08  0.104E-03    0.04       9.5  T
  26   -209.3482065  0.576682E-07  0.925E-04    0.04      10.7  T
     SCC iter.                  ...        0 min,  1.139 sec
     gradient                   ...        0 min,  0.067 sec
 * total energy  :  -205.1756035 Eh     change       -0.3508303E-02 Eh
   gradient norm :     0.0358325 Eh/α   predicted    -0.3319916E-02 (  -5.37%)
   displ. norm   :     0.7026926 α      lambda       -0.4290198E-02
   maximum displ.:     0.3897163 α      in ANC's #12, #8, #17, ...

........................................................................
.............................. CYCLE  162 ..............................
........................................................................

 iter      E             dE          RMSdq      gap      omega  full diag
   1   -209.2980909 -0.209298E+03  0.820E-01    0.06       0.0  T
   2   -208.8089324  0.489158E+00  0.267E+00    0.01       1.0  T
   3   -209.2827797 -0.473847E+00  0.122E+00    0.05       1.0  T
   4   -209.2663024  0.164773E-01  0.133E+00    0.11       1.0  T
   5   -209.3254703 -0.591679E-01  0.730E-01    0.03       1.0  T
   6   -209.3407417 -0.152715E-01  0.385E-01    0.02       1.0  T
   7   -209.3470332 -0.629146E-02  0.243E-01    0.02       1.0  T
   8   -209.3296024  0.174308E-01  0.424E-01    0.04       1.0  T
   9   -209.3444712 -0.148688E-01  0.257E-01    0.02       1.0  T
  10   -209.3512488 -0.677759E-02  0.965E-02    0.03       1.0  T
  11   -209.3505190  0.729797E-03  0.102E-01    0.03       1.0  T
  12   -209.3509109 -0.391850E-03  0.885E-02    0.03       1.0  T
  13   -209.3497789  0.113201E-02  0.126E-01    0.03       1.0  T
  14   -209.3515338 -0.175495E-02  0.441E-02    0.03       1.0  T
  15   -209.3517286 -0.194794E-03  0.185E-02    0.03       1.0  T
  16   -209.3517329 -0.427218E-05  0.163E-02    0.03       1.0  T
  17   -209.3516541  0.787951E-04  0.278E-02    0.03       1.0  T
  18   -209.3516960 -0.418812E-04  0.225E-02    0.03       1.0  T
  19   -209.3517429 -0.469396E-04  0.658E-03    0.03       1.5  T
  20   -209.3517442 -0.129720E-05  0.440E-03    0.03       2.2  T
  21   -209.3517453 -0.110092E-05  0.307E-03    0.03       3.2  T
  22   -209.3517334  0.119458E-04  0.100E-02    0.03       1.0  T
  23   -209.3517437 -0.103281E-04  0.416E-03    0.03       2.4  T
  24   -209.3517417  0.196076E-05  0.576E-03    0.03       1.7  T
  25   -209.3517440 -0.224755E-05  0.382E-03    0.03       2.6  T
  26   -209.3517457 -0.173258E-05  0.953E-04    0.03      10.3  T
  27   -209.3517457 -0.153038E-07  0.752E-04    0.03      13.1  T
  28   -209.3517456  0.764440E-07  0.105E-03    0.03       9.4  T
  29   -209.3517458 -0.118602E-06  0.374E-04    0.03      26.3  T
     SCC iter.                  ...        0 min,  1.330 sec
     gradient                   ...        0 min,  0.162 sec
 * total energy  :  -205.1788114 Eh     change       -0.3207927E-02 Eh
   gradient norm :     0.0331290 Eh/α   predicted    -0.3204304E-02 (  -0.11%)
   displ. norm   :     0.7396388 α      lambda       -0.4129348E-02
   maximum displ.:     0.4116250 α      in ANC's #12, #8, #17, ...

........................................................................
.............................. CYCLE  163 ..............................
........................................................................

 iter      E             dE          RMSdq      gap      omega  full diag
   1   -209.3398944 -0.209340E+03  0.550E-01    0.02       0.0  T
   2   -209.1972133  0.142681E+00  0.170E+00    0.12       1.0  T
   3   -209.2684164 -0.712031E-01  0.170E+00    0.11       1.0  T
   4   -209.3416647 -0.732484E-01  0.437E-01    0.01       1.0  T
   5   -209.1709600  0.170705E+00  0.114E+00    0.09       1.0  T
   6   -209.3334536 -0.162494E+00  0.469E-01    0.00       1.0  T
   7   -209.3396730 -0.621941E-02  0.291E-01    0.02       1.0  T
   8   -209.3432940 -0.362104E-02  0.256E-01    0.01       1.0  T
   9   -209.3469428 -0.364881E-02  0.172E-01    0.02       1.0  T
  10   -209.3501579 -0.321509E-02  0.922E-02    0.02       1.0  T
  11   -209.3503517 -0.193785E-03  0.757E-02    0.02       1.0  T
  12   -209.3505545 -0.202825E-03  0.518E-02    0.02       1.0  T
  13   -209.3508036 -0.249034E-03  0.281E-02    0.02       1.0  T
  14   -209.3508272 -0.236686E-04  0.180E-02    0.02       1.0  T
  15   -209.3508393 -0.120743E-04  0.138E-02    0.02       1.0  T
  16   -209.3507983  0.409647E-04  0.245E-02    0.02       1.0  T
  17   -209.3508483 -0.499730E-04  0.842E-03    0.02       1.2  T
  18   -209.3508509 -0.256535E-05  0.653E-03    0.02       1.5  T
  19   -209.3508518 -0.926095E-06  0.532E-03    0.02       1.9  T
  20   -209.3508526 -0.749598E-06  0.250E-03    0.02       3.9  T
  21   -209.3508519  0.684443E-06  0.298E-03    0.02       3.3  T
  22   -209.3508527 -0.816238E-06  0.180E-03    0.02       5.5  T
  23   -209.3508492  0.347346E-05  0.559E-03    0.02       1.8  T
  24   -209.3508528 -0.358943E-05  0.116E-03    0.02       8.5  T
  25   -209.3508526  0.220893E-06  0.157E-03    0.02       6.3  T
  26   -209.3508528 -0.251680E-06  0.621E-04    0.02      15.9  T
  27   -209.3508528 -0.918499E-08  0.209E-04    0.02      47.2  T
     SCC iter.                  ...        0 min,  1.377 sec
     gradient                   ...        0 min,  0.067 sec
 * total energy  :  -205.1819975 Eh     change       -0.3186015E-02 Eh
   gradient norm :     0.0222949 Eh/α   predicted    -0.3194190E-02 (   0.26%)
   displ. norm   :     0.7158515 α      lambda       -0.3980910E-02
   maximum displ.:     0.3282196 α      in ANC's #12, #8, #7, ...

........................................................................
.............................. CYCLE  164 ..............................
........................................................................

 iter      E             dE          RMSdq      gap      omega  full diag
   1   -209.2734722 -0.209273E+03  0.951E-01    0.06       0.0  T
   2   -208.1443018  0.112917E+01  0.351E+00    0.11       1.0  T
   3   -209.2393290 -0.109503E+01  0.169E+00    0.09       1.0  T
   4   -209.2352657  0.406336E-02  0.154E+00    0.15       1.0  T
   5   -209.3257356 -0.904699E-01  0.580E-01    0.02       1.0  T
   6   -209.3326758 -0.694019E-02  0.461E-01    0.04       1.0  T
   7   -209.3424370 -0.976123E-02  0.319E-01    0.04       1.0  T
   8   -209.2514994  0.909377E-01  0.883E-01    0.06       1.0  T
   9   -209.3508319 -0.993325E-01  0.224E-01    0.03       1.0  T
  10   -209.3536400 -0.280814E-02  0.840E-02    0.03       1.0  T
  11   -209.3541603 -0.520229E-03  0.471E-02    0.03       1.0  T
  12   -209.3536537  0.506582E-03  0.772E-02    0.03       1.0  T
  13   -209.3541857 -0.532036E-03  0.460E-02    0.03       1.0  T
  14   -209.3539485  0.237227E-03  0.516E-02    0.03       1.0  T
  15   -209.3542500 -0.301561E-03  0.169E-02    0.03       1.0  T
  16   -209.3542495  0.563824E-06  0.192E-02    0.03       1.0  T
  17   -209.3542642 -0.147497E-04  0.977E-03    0.03       1.0  T
  18   -209.3542289  0.353757E-04  0.176E-02    0.03       1.0  T
  19   -209.3542610 -0.321847E-04  0.994E-03    0.03       1.0  T
  20   -209.3542610  0.170406E-07  0.867E-03    0.03       1.1  T
  21   -209.3542453  0.157439E-04  0.139E-02    0.03       1.0  T
  22   -209.3542681 -0.227899E-04  0.314E-03    0.03       3.1  T
  23   -209.3542653  0.278064E-05  0.502E-03    0.03       2.0  T
  24   -209.3542669 -0.156433E-05  0.355E-03    0.03       2.8  T
  25   -209.3542684 -0.149943E-05  0.108E-03    0.03       9.1  T
  26   -209.3542684 -0.184926E-07  0.841E-04    0.03      11.7  T
  27   -209.3542682  0.148569E-06  0.136E-03    0.03       7.2  T
  28   -209.3542681  0.908247E-07  0.156E-03    0.03       6.3  T
  29   -209.3542684 -0.303102E-06  0.382E-04    0.03      25.8  T
     SCC iter.                  ...        0 min,  1.157 sec
     gradient                   ...        0 min,  0.075 sec
 * total energy  :  -205.1845724 Eh     change       -0.2574944E-02 Eh
   gradient norm :     0.0530684 Eh/α   predicted    -0.3010456E-02 (  16.91%)
   displ. norm   :     0.6666521 α      lambda       -0.3725759E-02
   maximum displ.:     0.3366370 α      in ANC's #12, #8, #7, ...

........................................................................
.............................. CYCLE  165 ..............................
........................................................................

 iter      E             dE          RMSdq      gap      omega  full diag
   1   -209.3382951 -0.209338E+03  0.351E-01    0.04       0.0  T
   2   -209.2950018  0.432933E-01  0.851E-01    0.09       1.0  T
   3   -209.1949766  0.100025E+00  0.117E+00    0.04       1.0  T
   4   -209.2988137 -0.103837E+00  0.940E-01    0.05       1.0  T
   5   -209.3290876 -0.302740E-01  0.338E-01    0.04       1.0  T
   6   -209.3379570 -0.886943E-02  0.143E-01    0.04       1.0  T
   7   -209.3265584  0.113986E-01  0.334E-01    0.04       1.0  T
   8   -209.3369051 -0.103467E-01  0.166E-01    0.04       1.0  T
   9   -209.3369855 -0.803834E-04  0.137E-01    0.04       1.0  T
  10   -209.3370194 -0.338855E-04  0.159E-01    0.05       1.0  T
  11   -209.3382920 -0.127260E-02  0.114E-01    0.05       1.0  T
  12   -209.3388612 -0.569232E-03  0.702E-02    0.04       1.0  T
  13   -209.3391247 -0.263480E-03  0.467E-02    0.04       1.0  T
  14   -209.3393000 -0.175267E-03  0.252E-02    0.04       1.0  T
  15   -209.3391505  0.149408E-03  0.385E-02    0.04       1.0  T
  16   -209.3392898 -0.139235E-03  0.205E-02    0.04       1.0  T
  17   -209.3393350 -0.452130E-04  0.318E-03    0.04       3.1  T
  18   -209.3393345  0.525960E-06  0.517E-03    0.04       1.9  T
  19   -209.3393352 -0.682576E-06  0.226E-03    0.04       4.4  T
  20   -209.3393352 -0.207429E-07  0.216E-03    0.04       4.6  T
  21   -209.3393353 -0.837235E-07  0.159E-03    0.04       6.2  T
  22   -209.3393354 -0.184991E-06  0.761E-04    0.04      12.9  T
  23   -209.3393354  0.577927E-08  0.463E-04    0.04      21.3  T
     SCC iter.                  ...        0 min,  0.806 sec
     gradient                   ...        0 min,  0.064 sec
 * total energy  :  -205.1873692 Eh     change       -0.2796819E-02 Eh
   gradient norm :     0.0281692 Eh/α   predicted    -0.2690795E-02 (  -3.79%)
   displ. norm   :     0.6474531 α      lambda       -0.3613846E-02
   maximum displ.:     0.2985950 α      in ANC's #12, #8, #7, ...

........................................................................
.............................. CYCLE  166 ..............................
........................................................................

 iter      E             dE          RMSdq      gap      omega  full diag
   1   -209.3275629 -0.209328E+03  0.399E-01    0.05       0.0  T
   2   -209.2369015  0.906615E-01  0.115E+00    0.03       1.0  T
   3   -209.3052389 -0.683374E-01  0.557E-01    0.07       1.0  T
   4   -209.3135418 -0.830292E-02  0.473E-01    0.04       1.0  T
   5   -209.3014092  0.121326E-01  0.624E-01    0.08       1.0  T
   6   -209.3257630 -0.243538E-01  0.241E-01    0.07       1.0  T
   7   -209.3297273 -0.396424E-02  0.109E-01    0.06       1.0  T
   8   -209.3295926  0.134676E-03  0.109E-01    0.06       1.0  T
   9   -209.3286462  0.946326E-03  0.138E-01    0.05       1.0  T
  10   -209.3268288  0.181749E-02  0.164E-01    0.07       1.0  T
  11   -209.3297824 -0.295369E-02  0.754E-02    0.06       1.0  T
  12   -209.3290811  0.701384E-03  0.860E-02    0.05       1.0  T
  13   -209.3299370 -0.855949E-03  0.236E-02    0.06       1.0  T
  14   -209.3298933  0.437428E-04  0.277E-02    0.06       1.0  T
  15   -209.3299791 -0.858034E-04  0.958E-03    0.06       1.0  T
  16   -209.3299745  0.459732E-05  0.114E-02    0.06       1.0  T
  17   -209.3299776 -0.314387E-05  0.813E-03    0.06       1.2  T
  18   -209.3299822 -0.459403E-05  0.376E-03    0.06       2.6  T
  19   -209.3299825 -0.335155E-06  0.353E-03    0.06       2.8  T
  20   -209.3299830 -0.460013E-06  0.204E-03    0.06       4.8  T
  21   -209.3299831 -0.874333E-07  0.100E-03    0.06       9.8  T
  22   -209.3299831  0.359042E-07  0.137E-03    0.06       7.2  T
  23   -209.3299831 -0.642928E-07  0.441E-04    0.06      22.3  T
  24   -209.3299831  0.750447E-08  0.394E-04    0.06      25.0  T
     SCC iter.                  ...        0 min,  0.902 sec
     gradient                   ...        0 min,  0.066 sec
 * total energy  :  -205.1900129 Eh     change       -0.2643670E-02 Eh
   gradient norm :     0.0422246 Eh/α   predicted    -0.2564382E-02 (  -3.00%)
   displ. norm   :     0.6671099 α      lambda       -0.3759679E-02
   maximum displ.:     0.3209770 α      in ANC's #8, #12, #7, ...

........................................................................
.............................. CYCLE  167 ..............................
........................................................................

 iter      E             dE          RMSdq      gap      omega  full diag
   1   -209.3420451 -0.209342E+03  0.483E-01    0.07       0.0  T
   2   -209.2666971  0.753479E-01  0.127E+00    0.07       1.0  T
   3   -209.2472144  0.194827E-01  0.102E+00    0.03       1.0  T
   4   -209.2974108 -0.501964E-01  0.848E-01    0.13       1.0  T
   5   -209.3303128 -0.329019E-01  0.435E-01    0.10       1.0  T
   6   -209.3411972 -0.108844E-01  0.252E-01    0.09       1.0  T
   7   -209.3458722 -0.467504E-02  0.892E-02    0.07       1.0  T
   8   -209.3456855  0.186717E-03  0.794E-02    0.07       1.0  T
   9   -209.3458946 -0.209101E-03  0.554E-02    0.07       1.0  T
  10   -209.3454592  0.435396E-03  0.101E-01    0.08       1.0  T
  11   -209.3456852 -0.225929E-03  0.720E-02    0.08       1.0  T
  12   -209.3458322 -0.147085E-03  0.488E-02    0.07       1.0  T
  13   -209.3459856 -0.153395E-03  0.250E-02    0.07       1.0  T
  14   -209.3459837  0.198001E-05  0.283E-02    0.07       1.0  T
  15   -209.3459236  0.600354E-04  0.299E-02    0.07       1.0  T
  16   -209.3460057 -0.820816E-04  0.161E-02    0.07       1.0  T
  17   -209.3460108 -0.511726E-05  0.110E-02    0.07       1.0  T
  18   -209.3459979  0.129084E-04  0.128E-02    0.08       1.0  T
  19   -209.3460108 -0.128834E-04  0.718E-03    0.07       1.4  T
  20   -209.3460160 -0.520232E-05  0.228E-03    0.07       4.3  T
  21   -209.3460138  0.216438E-05  0.426E-03    0.07       2.3  T
  22   -209.3460159 -0.204999E-05  0.233E-03    0.07       4.2  T
  23   -209.3460158  0.125067E-06  0.226E-03    0.07       4.4  T
  24   -209.3460157  0.582265E-07  0.211E-03    0.07       4.7  T
  25   -209.3460160 -0.351844E-06  0.872E-04    0.07      11.3  T
  26   -209.3460161 -0.567657E-07  0.496E-04    0.07      19.9  T
     SCC iter.                  ...        0 min,  0.914 sec
     gradient                   ...        0 min,  0.061 sec
 * total energy  :  -205.1924925 Eh     change       -0.2479634E-02 Eh
   gradient norm :     0.0378448 Eh/α   predicted    -0.2716438E-02 (   9.55%)
   displ. norm   :     0.6712378 α      lambda       -0.3543531E-02
   maximum displ.:     0.3387064 α      in ANC's #8, #12, #7, ...

........................................................................
.............................. CYCLE  168 ..............................
........................................................................

 iter      E             dE          RMSdq      gap      omega  full diag
   1   -209.3254283 -0.209325E+03  0.417E-01    0.08       0.0  T
   2   -209.2692540  0.561743E-01  0.122E+00    0.05       1.0  T
   3   -209.2935913 -0.243374E-01  0.791E-01    0.15       1.0  T
   4   -209.1982181  0.953733E-01  0.129E+00    0.02       1.0  T
   5   -209.3067166 -0.108499E+00  0.482E-01    0.12       1.0  T
   6   -209.3207981 -0.140816E-01  0.320E-01    0.13       1.0  T
   7   -209.3254178 -0.461964E-02  0.191E-01    0.10       1.0  T
   8   -209.3247475  0.670231E-03  0.183E-01    0.11       1.0  T
   9   -209.3267694 -0.202181E-02  0.106E-01    0.08       1.0  T
  10   -209.3261995  0.569834E-03  0.105E-01    0.07       1.0  T
  11   -209.3273025 -0.110296E-02  0.528E-02    0.08       1.0  T
  12   -209.3272586  0.438932E-04  0.387E-02    0.09       1.0  T
  13   -209.3274060 -0.147432E-03  0.202E-02    0.08       1.0  T
  14   -209.3273891  0.168886E-04  0.197E-02    0.08       1.0  T
  15   -209.3274213 -0.321190E-04  0.805E-03    0.08       1.2  T
  16   -209.3274086  0.126113E-04  0.133E-02    0.08       1.0  T
  17   -209.3274210 -0.123223E-04  0.611E-03    0.08       1.6  T
  18   -209.3274136  0.739668E-05  0.969E-03    0.08       1.0  T
  19   -209.3274215 -0.789739E-05  0.473E-03    0.08       2.1  T
  20   -209.3274230 -0.153937E-05  0.208E-03    0.08       4.7  T
  21   -209.3274230 -0.931786E-08  0.153E-03    0.08       6.4  T
  22   -209.3274231 -0.854240E-07  0.127E-03    0.08       7.7  T
  23   -209.3274230  0.639467E-07  0.111E-03    0.08       8.8  T
  24   -209.3274231 -0.966805E-07  0.749E-04    0.08      13.2  T
  25   -209.3274231 -0.552373E-08  0.568E-04    0.08      17.4  T
     SCC iter.                  ...        0 min,  1.093 sec
     gradient                   ...        0 min,  0.066 sec
 * total energy  :  -205.1949537 Eh     change       -0.2461208E-02 Eh
   gradient norm :     0.0318478 Eh/α   predicted    -0.2570076E-02 (   4.42%)
   displ. norm   :     0.6264821 α      lambda       -0.2696453E-02
   maximum displ.:     0.3318193 α      in ANC's #8, #7, #12, ...

........................................................................
.............................. CYCLE  169 ..............................
........................................................................

 iter      E             dE          RMSdq      gap      omega  full diag
   1   -209.3165141 -0.209317E+03  0.424E-01    0.08       0.0  T
   2   -209.1939449  0.122569E+00  0.192E+00    0.16       1.0  T
   3   -209.3170899 -0.123145E+00  0.337E-01    0.09       1.0  T
   4   -209.3179027 -0.812855E-03  0.297E-01    0.08       1.0  T
   5   -209.3056624  0.122403E-01  0.379E-01    0.15       1.0  T
   6   -209.3158002 -0.101378E-01  0.204E-01    0.07       1.0  T
   7   -209.3183847 -0.258451E-02  0.137E-01    0.11       1.0  T
   8   -209.3197655 -0.138073E-02  0.682E-02    0.10       1.0  T
   9   -209.3201700 -0.404521E-03  0.340E-02    0.09       1.0  T
  10   -209.3200480  0.121974E-03  0.453E-02    0.08       1.0  T
  11   -209.3201528 -0.104804E-03  0.303E-02    0.09       1.0  T
  12   -209.3202203 -0.674601E-04  0.140E-02    0.09       1.0  T
  13   -209.3202244 -0.408876E-05  0.851E-03    0.09       1.2  T
  14   -209.3202252 -0.863088E-06  0.712E-03    0.09       1.4  T
  15   -209.3202097  0.155260E-04  0.148E-02    0.09       1.0  T
  16   -209.3202265 -0.167968E-04  0.337E-03    0.09       2.9  T
  17   -209.3202265  0.501063E-07  0.437E-03    0.09       2.3  T
  18   -209.3202270 -0.500353E-06  0.167E-03    0.09       5.9  T
  19   -209.3202270 -0.648767E-07  0.116E-03    0.09       8.5  T
  20   -209.3202271 -0.577765E-07  0.801E-04    0.09      12.3  T
  21   -209.3202271  0.784107E-08  0.744E-04    0.09      13.2  T
     SCC iter.                  ...        0 min,  0.701 sec
     gradient                   ...        0 min,  0.075 sec
 * total energy  :  -205.1970501 Eh     change       -0.2096328E-02 Eh
   gradient norm :     0.0250425 Eh/α   predicted    -0.1877390E-02 ( -10.44%)
   displ. norm   :     0.6014734 α      lambda       -0.3077459E-02
   maximum displ.:     0.3429360 α      in ANC's #8, #7, #6, ...

........................................................................
.............................. CYCLE  170 ..............................
........................................................................

 iter      E             dE          RMSdq      gap      omega  full diag
   1   -209.3249018 -0.209325E+03  0.380E-01    0.15       0.0  T
   2   -208.7396947  0.585207E+00  0.282E+00    0.12       1.0  T
   3   -209.1592450 -0.419550E+00  0.124E+00    0.01       1.0  T
   4   -209.3142952 -0.155050E+00  0.482E-01    0.13       1.0  T
   5   -209.3274531 -0.131579E-01  0.345E-01    0.11       1.0  T
   6   -209.3240205  0.343267E-02  0.350E-01    0.16       1.0  T
   7   -209.3259096 -0.188915E-02  0.269E-01    0.15       1.0  T
   8   -209.3261226 -0.212997E-03  0.243E-01    0.15       1.0  T
   9   -209.3307358 -0.461318E-02  0.149E-01    0.13       1.0  T
  10   -209.3317984 -0.106265E-02  0.103E-01    0.09       1.0  T
  11   -209.3319316 -0.133173E-03  0.899E-02    0.09       1.0  T
  12   -209.3325388 -0.607231E-03  0.406E-02    0.09       1.0  T
  13   -209.3327062 -0.167319E-03  0.278E-02    0.10       1.0  T
  14   -209.3327223 -0.161198E-04  0.231E-02    0.10       1.0  T
  15   -209.3327231 -0.864502E-06  0.127E-02    0.10       1.0  T
  16   -209.3327329 -0.973384E-05  0.104E-02    0.10       1.0  T
  17   -209.3327347 -0.180409E-05  0.700E-03    0.10       1.4  T
  18   -209.3327356 -0.916424E-06  0.639E-03    0.10       1.5  T
  19   -209.3327365 -0.875906E-06  0.311E-03    0.10       3.2  T
  20   -209.3327336  0.283270E-05  0.568E-03    0.10       1.7  T
  21   -209.3327367 -0.307208E-05  0.162E-03    0.10       6.1  T
  22   -209.3327367 -0.303242E-07  0.129E-03    0.10       7.6  T
  23   -209.3327367  0.780750E-07  0.143E-03    0.10       6.9  T
  24   -209.3327368 -0.150644E-06  0.447E-04    0.10      22.0  T
  25   -209.3327367  0.139352E-06  0.135E-03    0.10       7.3  T
  26   -209.3327368 -0.141038E-06  0.245E-04    0.10      40.2  T
     SCC iter.                  ...        0 min,  0.811 sec
     gradient                   ...        0 min,  0.065 sec
 * total energy  :  -205.1993824 Eh     change       -0.2332368E-02 Eh
   gradient norm :     0.0310662 Eh/α   predicted    -0.2095409E-02 ( -10.16%)
   displ. norm   :     0.6584535 α      lambda       -0.3286283E-02
   maximum displ.:     0.3873315 α      in ANC's #8, #7, #6, ...

........................................................................
.............................. CYCLE  171 ..............................
........................................................................

 iter      E             dE          RMSdq      gap      omega  full diag
   1   -209.3232825 -0.209323E+03  0.433E-01    0.18       0.0  T
   2   -208.7808041  0.542478E+00  0.269E+00    0.15       1.0  T
   3   -209.3257814 -0.544977E+00  0.307E-01    0.12       1.0  T
   4   -209.3219337  0.384769E-02  0.366E-01    0.12       1.0  T
   5   -209.3261059 -0.417221E-02  0.211E-01    0.15       1.0  T
   6   -209.3287352 -0.262934E-02  0.124E-01    0.09       1.0  T
   7   -209.3298727 -0.113749E-02  0.102E-01    0.12       1.0  T
   8   -209.3294821  0.390641E-03  0.115E-01    0.12       1.0  T
   9   -209.3301451 -0.662976E-03  0.546E-02    0.12       1.0  T
  10   -209.3302665 -0.121493E-03  0.274E-02    0.11       1.0  T
  11   -209.3301075  0.159070E-03  0.463E-02    0.12       1.0  T
  12   -209.3302860 -0.178497E-03  0.174E-02    0.11       1.0  T
  13   -209.3302960 -0.100579E-04  0.126E-02    0.11       1.0  T
  14   -209.3303033 -0.726685E-05  0.705E-03    0.11       1.4  T
  15   -209.3302949  0.844113E-05  0.115E-02    0.11       1.0  T
  16   -209.3303030 -0.816943E-05  0.524E-03    0.11       1.9  T
  17   -209.3303037 -0.642641E-06  0.445E-03    0.11       2.2  T
  18   -209.3303019  0.173644E-05  0.539E-03    0.11       1.8  T
  19   -209.3303045 -0.254754E-05  0.255E-03    0.11       3.9  T
  20   -209.3303043  0.220791E-06  0.238E-03    0.11       4.1  T
  21   -209.3303046 -0.356171E-06  0.122E-03    0.11       8.1  T
  22   -209.3303046  0.125613E-07  0.103E-03    0.11       9.5  T
  23   -209.3303047 -0.823434E-07  0.607E-04    0.11      16.2  T
  24   -209.3303047 -0.235919E-07  0.236E-04    0.11      41.8  T
     SCC iter.                  ...        0 min,  0.810 sec
     gradient                   ...        0 min,  0.066 sec
 * total energy  :  -205.2019493 Eh     change       -0.2566865E-02 Eh
   gradient norm :     0.0294203 Eh/α   predicted    -0.2355558E-02 (  -8.23%)
   displ. norm   :     0.6627913 α      lambda       -0.3195840E-02
   maximum displ.:     0.3974284 α      in ANC's #8, #7, #6, ...

........................................................................
.............................. CYCLE  172 ..............................
........................................................................

 iter      E             dE          RMSdq      gap      omega  full diag
   1   -209.3147784 -0.209315E+03  0.414E-01    0.19       0.0  T
   2   -208.7619256  0.552853E+00  0.283E+00    0.16       1.0  T
   3   -209.3117251 -0.549800E+00  0.380E-01    0.19       1.0  T
   4   -209.3082480  0.347717E-02  0.527E-01    0.10       1.0  T
   5   -209.3173678 -0.911987E-02  0.316E-01    0.14       1.0  T
   6   -209.3190935 -0.172569E-02  0.148E-01    0.14       1.0  T
   7   -209.3195352 -0.441701E-03  0.110E-01    0.14       1.0  T
   8   -209.3200202 -0.484957E-03  0.691E-02    0.13       1.0  T
   9   -209.3202650 -0.244780E-03  0.299E-02    0.12       1.0  T
  10   -209.3202356  0.293502E-04  0.300E-02    0.13       1.0  T
  11   -209.3202753 -0.396489E-04  0.228E-02    0.12       1.0  T
  12   -209.3202475  0.277592E-04  0.273E-02    0.13       1.0  T
  13   -209.3203029 -0.553459E-04  0.126E-02    0.12       1.0  T
  14   -209.3202933  0.958322E-05  0.141E-02    0.13       1.0  T
  15   -209.3203079 -0.146093E-04  0.632E-03    0.12       1.6  T
  16   -209.3203033  0.459541E-05  0.963E-03    0.12       1.0  T
  17   -209.3203084 -0.515222E-05  0.539E-03    0.12       1.8  T
  18   -209.3203101 -0.163307E-05  0.244E-03    0.12       4.0  T
  19   -209.3203096  0.437762E-06  0.254E-03    0.12       3.9  T
  20   -209.3203102 -0.522685E-06  0.104E-03    0.12       9.5  T
  21   -209.3203101  0.103430E-06  0.133E-03    0.12       7.4  T
  22   -209.3203102 -0.133643E-06  0.512E-04    0.12      19.3  T
  23   -209.3203102 -0.232299E-08  0.457E-04    0.12      21.5  T
     SCC iter.                  ...        0 min,  0.748 sec
     gradient                   ...        0 min,  0.068 sec
 * total energy  :  -205.2042989 Eh     change       -0.2349598E-02 Eh
   gradient norm :     0.0248034 Eh/α   predicted    -0.2299888E-02 (  -2.12%)
   displ. norm   :     0.6301528 α      lambda       -0.2670513E-02
   maximum displ.:     0.3610571 α      in ANC's #8, #7, #2, ...

........................................................................
.............................. CYCLE  173 ..............................
........................................................................

 iter      E             dE          RMSdq      gap      omega  full diag
   1   -209.3244124 -0.209324E+03  0.373E-01    0.20       0.0  T
   2   -208.8290250  0.495387E+00  0.267E+00    0.15       1.0  T
   3   -209.3144466 -0.485422E+00  0.444E-01    0.19       1.0  T
   4   -209.3228626 -0.841596E-02  0.399E-01    0.17       1.0  T
   5   -209.3234785 -0.615923E-03  0.324E-01    0.17       1.0  T
   6   -209.3264093 -0.293085E-02  0.177E-01    0.17       1.0  T
   7   -209.3267628 -0.353487E-03  0.138E-01    0.16       1.0  T
   8   -209.3275353 -0.772471E-03  0.867E-02    0.15       1.0  T
   9   -209.3279454 -0.410077E-03  0.316E-02    0.13       1.0  T
  10   -209.3279787 -0.333286E-04  0.183E-02    0.13       1.0  T
  11   -209.3279817 -0.304020E-05  0.150E-02    0.13       1.0  T
  12   -209.3279443  0.374651E-04  0.255E-02    0.14       1.0  T
  13   -209.3279885 -0.442282E-04  0.118E-02    0.13       1.0  T
  14   -209.3279861  0.242098E-05  0.983E-03    0.13       1.0  T
  15   -209.3279925 -0.639695E-05  0.560E-03    0.13       1.8  T
  16   -209.3279913  0.121023E-05  0.686E-03    0.13       1.4  T
  17   -209.3279935 -0.221296E-05  0.385E-03    0.13       2.6  T
  18   -209.3279939 -0.390073E-06  0.204E-03    0.13       4.8  T
  19   -209.3279939 -0.379570E-07  0.175E-03    0.13       5.6  T
  20   -209.3279940 -0.932211E-07  0.106E-03    0.13       9.3  T
  21   -209.3279940  0.323570E-07  0.108E-03    0.13       9.1  T
  22   -209.3279941 -0.826496E-07  0.460E-04    0.13      21.4  T
  23   -209.3279940  0.997971E-08  0.486E-04    0.13      20.3  T
     SCC iter.                  ...        0 min,  0.754 sec
     gradient                   ...        0 min,  0.069 sec
 * total energy  :  -205.2061133 Eh     change       -0.1814459E-02 Eh
   gradient norm :     0.0304586 Eh/α   predicted    -0.1865483E-02 (   2.81%)
   displ. norm   :     0.5626172 α      lambda       -0.2193541E-02
   maximum displ.:     0.3018523 α      in ANC's #8, #7, #12, ...

........................................................................
.............................. CYCLE  174 ..............................
........................................................................

 iter      E             dE          RMSdq      gap      omega  full diag
   1   -209.3307461 -0.209331E+03  0.237E-01    0.16       0.0  T
   2   -209.2003131  0.130433E+00  0.152E+00    0.03       1.0  T
   3   -209.3223487 -0.122036E+00  0.380E-01    0.20       1.0  T
   4   -209.3288597 -0.651102E-02  0.313E-01    0.16       1.0  T
   5   -209.3306638 -0.180412E-02  0.159E-01    0.15       1.0  T
   6   -209.3310262 -0.362431E-03  0.113E-01    0.16       1.0  T
   7   -209.3314598 -0.433528E-03  0.620E-02    0.14       1.0  T
   8   -209.3315475 -0.877316E-04  0.404E-02    0.14       1.0  T
   9   -209.3316166 -0.691080E-04  0.212E-02    0.13       1.0  T
  10   -209.3316345 -0.179018E-04  0.126E-02    0.14       1.0  T
  11   -209.3316174  0.171029E-04  0.163E-02    0.13       1.0  T
  12   -209.3316139  0.355997E-05  0.166E-02    0.14       1.0  T
  13   -209.3316362 -0.223185E-04  0.722E-03    0.14       1.4  T
  14   -209.3316387 -0.257651E-05  0.376E-03    0.14       2.6  T
  15   -209.3316389 -0.181446E-06  0.284E-03    0.14       3.5  T
  16   -209.3316392 -0.259884E-06  0.260E-03    0.14       3.8  T
  17   -209.3316392  0.136122E-07  0.212E-03    0.14       4.7  T
  18   -209.3316394 -0.195890E-06  0.118E-03    0.14       8.4  T
  19   -209.3316394 -0.383704E-07  0.769E-04    0.14      12.8  T
  20   -209.3316394  0.155936E-08  0.800E-04    0.14      12.3  T
     SCC iter.                  ...        0 min,  0.629 sec
     gradient                   ...        0 min,  0.069 sec
 * total energy  :  -205.2077407 Eh     change       -0.1627361E-02 Eh
   gradient norm :     0.0227328 Eh/α   predicted    -0.1443952E-02 ( -11.27%)
   displ. norm   :     0.5374013 α      lambda       -0.2158627E-02
   maximum displ.:     0.2881386 α      in ANC's #8, #7, #2, ...

........................................................................
.............................. CYCLE  175 ..............................
........................................................................

 iter      E             dE          RMSdq      gap      omega  full diag
   1   -209.3437207 -0.209344E+03  0.310E-01    0.18       0.0  T
   2   -208.9630857  0.380635E+00  0.241E+00    0.10       1.0  T
   3   -209.3387562 -0.375670E+00  0.269E-01    0.18       1.0  T
   4   -209.3406626 -0.190641E-02  0.373E-01    0.15       1.0  T
   5   -209.3436619 -0.299929E-02  0.244E-01    0.16       1.0  T
   6   -209.3441850 -0.523082E-03  0.174E-01    0.17       1.0  T
   7   -209.3441822  0.284645E-05  0.128E-01    0.17       1.0  T
   8   -209.3452049 -0.102270E-02  0.591E-02    0.15       1.0  T
   9   -209.3452582 -0.533146E-04  0.373E-02    0.14       1.0  T
  10   -209.3453162 -0.580114E-04  0.243E-02    0.14       1.0  T
  11   -209.3453312 -0.149774E-04  0.136E-02    0.14       1.0  T
  12   -209.3453346 -0.347845E-05  0.136E-02    0.14       1.0  T
  13   -209.3453377 -0.305115E-05  0.876E-03    0.14       1.1  T
  14   -209.3453407 -0.298990E-05  0.425E-03    0.14       2.3  T
  15   -209.3453406  0.668213E-07  0.398E-03    0.14       2.5  T
  16   -209.3453409 -0.281782E-06  0.393E-03    0.14       2.5  T
  17   -209.3453410 -0.134706E-06  0.277E-03    0.14       3.6  T
  18   -209.3453412 -0.186932E-06  0.154E-03    0.14       6.4  T
  19   -209.3453413 -0.773640E-07  0.906E-04    0.14      10.9  T
  20   -209.3453413  0.287752E-07  0.986E-04    0.14      10.0  T
     SCC iter.                  ...        0 min,  0.644 sec
     gradient                   ...        0 min,  0.067 sec
 * total energy  :  -205.2092624 Eh     change       -0.1521685E-02 Eh
   gradient norm :     0.0217929 Eh/α   predicted    -0.1391018E-02 (  -8.59%)
   displ. norm   :     0.5945839 α      lambda       -0.1993997E-02
   maximum displ.:     0.3304747 α      in ANC's #8, #7, #2, ...

........................................................................
.............................. CYCLE  176 ..............................
........................................................................

 iter      E             dE          RMSdq      gap      omega  full diag
   1   -209.3620679 -0.209362E+03  0.319E-01    0.17       0.0  T
   2   -208.9890065  0.373061E+00  0.251E+00    0.08       1.0  T
   3   -209.3455169 -0.356510E+00  0.712E-01    0.20       1.0  T
   4   -209.3637307 -0.182138E-01  0.187E-01    0.14       1.0  T
   5   -209.3624573  0.127334E-02  0.171E-01    0.16       1.0  T
   6   -209.3635773 -0.112000E-02  0.128E-01    0.13       1.0  T
   7   -209.3649444 -0.136709E-02  0.367E-02    0.15       1.0  T
   8   -209.3646823  0.262145E-03  0.631E-02    0.15       1.0  T
   9   -209.3649060 -0.223732E-03  0.330E-02    0.15       1.0  T
  10   -209.3649312 -0.251567E-04  0.267E-02    0.15       1.0  T
  11   -209.3648882  0.430276E-04  0.273E-02    0.15       1.0  T
  12   -209.3649738 -0.856151E-04  0.938E-03    0.15       1.1  T
  13   -209.3649737  0.299314E-07  0.680E-03    0.15       1.4  T
  14   -209.3649710  0.271149E-05  0.861E-03    0.14       1.1  T
  15   -209.3649759 -0.490833E-05  0.482E-03    0.15       2.0  T
  16   -209.3649740  0.190086E-05  0.626E-03    0.15       1.6  T
  17   -209.3649750 -0.100802E-05  0.498E-03    0.15       2.0  T
  18   -209.3649756 -0.582410E-06  0.376E-03    0.15       2.6  T
  19   -209.3649764 -0.814346E-06  0.172E-03    0.15       5.7  T
  20   -209.3649765 -0.750429E-07  0.101E-03    0.15       9.8  T
  21   -209.3649765 -0.184545E-07  0.730E-04    0.15      13.5  T
  22   -209.3649765 -0.949248E-08  0.475E-04    0.15      20.8  T
     SCC iter.                  ...        0 min,  0.772 sec
     gradient                   ...        0 min,  0.075 sec
 * total energy  :  -205.2105919 Eh     change       -0.1329457E-02 Eh
   gradient norm :     0.0240856 Eh/α   predicted    -0.1349469E-02 (   1.51%)
   displ. norm   :     0.5866451 α      lambda       -0.1727333E-02
   maximum displ.:     0.3280024 α      in ANC's #8, #7, #2, ...

........................................................................
.............................. CYCLE  177 ..............................
........................................................................

 iter      E             dE          RMSdq      gap      omega  full diag
   1   -209.3535738 -0.209354E+03  0.313E-01    0.16       0.0  T
   2   -209.1392223  0.214351E+00  0.194E+00    0.03       1.0  T
   3   -209.3445329 -0.205311E+00  0.530E-01    0.20       1.0  T
   4   -209.3526854 -0.815251E-02  0.320E-01    0.16       1.0  T
   5   -209.3524568  0.228580E-03  0.206E-01    0.16       1.0  T
   6   -209.3553074 -0.285057E-02  0.105E-01    0.16       1.0  T
   7   -209.3555191 -0.211636E-03  0.562E-02    0.16       1.0  T
   8   -209.3554626  0.564200E-04  0.565E-02    0.15       1.0  T
   9   -209.3555447 -0.820560E-04  0.356E-02    0.14       1.0  T
  10   -209.3556173 -0.725995E-04  0.259E-02    0.15       1.0  T
  11   -209.3556195 -0.226165E-05  0.186E-02    0.15       1.0  T
  12   -209.3556161  0.344063E-05  0.152E-02    0.15       1.0  T
  13   -209.3556349 -0.188140E-04  0.907E-03    0.15       1.1  T
  14   -209.3556390 -0.405118E-05  0.579E-03    0.15       1.7  T
  15   -209.3556383  0.646176E-06  0.442E-03    0.15       2.2  T
  16   -209.3556394 -0.105660E-05  0.346E-03    0.15       2.8  T
  17   -209.3556395 -0.126859E-06  0.333E-03    0.15       3.0  T
  18   -209.3556393  0.166569E-06  0.283E-03    0.15       3.5  T
  19   -209.3556397 -0.340370E-06  0.177E-03    0.15       5.6  T
  20   -209.3556399 -0.191388E-06  0.743E-04    0.15      13.3  T
  21   -209.3556399 -0.605704E-08  0.641E-04    0.15      15.4  T
     SCC iter.                  ...        0 min,  0.795 sec
     gradient                   ...        0 min,  0.067 sec
 * total energy  :  -205.2117711 Eh     change       -0.1179217E-02 Eh
   gradient norm :     0.0223728 Eh/α   predicted    -0.1160905E-02 (  -1.55%)
   displ. norm   :     0.5681958 α      lambda       -0.1850110E-02
   maximum displ.:     0.3111670 α      in ANC's #8, #7, #2, ...

........................................................................
.............................. CYCLE  178 ..............................
........................................................................

 iter      E             dE          RMSdq      gap      omega  full diag
   1   -209.3739627 -0.209374E+03  0.279E-01    0.15       0.0  T
   2   -209.2985536  0.754091E-01  0.968E-01    0.04       1.0  T
   3   -209.3723184 -0.737648E-01  0.297E-01    0.18       1.0  T
   4   -209.3699839  0.233452E-02  0.405E-01    0.16       1.0  T
   5   -209.3694865  0.497380E-03  0.322E-01    0.16       1.0  T
   6   -209.3741275 -0.464095E-02  0.131E-01    0.16       1.0  T
   7   -209.3747498 -0.622332E-03  0.123E-01    0.17       1.0  T
   8   -209.3747823 -0.325094E-04  0.975E-02    0.16       1.0  T
   9   -209.3749932 -0.210862E-03  0.710E-02    0.16       1.0  T
  10   -209.3752243 -0.231117E-03  0.319E-02    0.16       1.0  T
  11   -209.3752377 -0.134629E-04  0.199E-02    0.15       1.0  T
  12   -209.3752535 -0.157851E-04  0.108E-02    0.15       1.0  T
  13   -209.3752533  0.238832E-06  0.104E-02    0.15       1.0  T
  14   -209.3752561 -0.283404E-05  0.775E-03    0.15       1.3  T
  15   -209.3752568 -0.660592E-06  0.544E-03    0.15       1.8  T
  16   -209.3752577 -0.925243E-06  0.397E-03    0.15       2.5  T
  17   -209.3752578 -0.656079E-07  0.335E-03    0.15       2.9  T
  18   -209.3752581 -0.296849E-06  0.255E-03    0.15       3.9  T
  19   -209.3752582 -0.103902E-06  0.127E-03    0.15       7.8  T
  20   -209.3752582 -0.191048E-07  0.109E-03    0.15       9.0  T
  21   -209.3752582 -0.282561E-07  0.501E-04    0.15      19.7  T
  22   -209.3752582  0.230779E-08  0.548E-04    0.15      18.0  T
     SCC iter.                  ...        0 min,  0.747 sec
     gradient                   ...        0 min,  0.063 sec
 * total energy  :  -205.2129544 Eh     change       -0.1183342E-02 Eh
   gradient norm :     0.0228552 Eh/α   predicted    -0.1223707E-02 (   3.41%)
   displ. norm   :     0.5672359 α      lambda       -0.1684956E-02
   maximum displ.:     0.3211606 α      in ANC's #8, #7, #2, ...

........................................................................
.............................. CYCLE  179 ..............................
........................................................................

 iter      E             dE          RMSdq      gap      omega  full diag
   1   -209.3768914 -0.209377E+03  0.346E-01    0.13       0.0  T
   2   -209.3233014  0.535900E-01  0.135E+00    0.19       1.0  T
   3   -209.3753742 -0.520728E-01  0.326E-01    0.17       1.0  T
   4   -209.3779274 -0.255321E-02  0.177E-01    0.13       1.0  T
   5   -209.3788754 -0.947928E-03  0.726E-02    0.15       1.0  T
   6   -209.3790282 -0.152876E-03  0.509E-02    0.15       1.0  T
   7   -209.3790965 -0.682943E-04  0.351E-02    0.15       1.0  T
   8   -209.3791163 -0.198100E-04  0.211E-02    0.15       1.0  T
   9   -209.3791222 -0.590466E-05  0.183E-02    0.15       1.0  T
  10   -209.3791253 -0.310510E-05  0.147E-02    0.15       1.0  T
  11   -209.3791325 -0.717443E-05  0.863E-03    0.15       1.1  T
  12   -209.3791311  0.146334E-05  0.880E-03    0.15       1.1  T
  13   -209.3791290  0.203191E-05  0.123E-02    0.15       1.0  T
  14   -209.3791332 -0.421287E-05  0.756E-03    0.15       1.3  T
  15   -209.3791347 -0.150461E-05  0.352E-03    0.15       2.8  T
  16   -209.3791347  0.716078E-07  0.383E-03    0.15       2.6  T
  17   -209.3791351 -0.418151E-06  0.170E-03    0.15       5.8  T
  18   -209.3791351  0.371264E-08  0.148E-03    0.15       6.7  T
  19   -209.3791351  0.989195E-08  0.164E-03    0.15       6.0  T
  20   -209.3791352 -0.810435E-07  0.672E-04    0.15      14.7  T
  21   -209.3791352 -0.985818E-08  0.451E-04    0.15      21.8  T
     SCC iter.                  ...        0 min,  0.839 sec
     gradient                   ...        0 min,  0.064 sec
 * total energy  :  -205.2140640 Eh     change       -0.1109553E-02 Eh
   gradient norm :     0.0229700 Eh/α   predicted    -0.1113554E-02 (   0.36%)
   displ. norm   :     0.5689545 α      lambda       -0.1521583E-02
   maximum displ.:     0.3062838 α      in ANC's #8, #2, #7, ...

........................................................................
.............................. CYCLE  180 ..............................
........................................................................

 iter      E             dE          RMSdq      gap      omega  full diag
   1   -209.3761176 -0.209376E+03  0.294E-01    0.13       0.0  T
   2   -209.3394416  0.366761E-01  0.114E+00    0.18       1.0  T
   3   -209.3754345 -0.359930E-01  0.257E-01    0.16       1.0  T
   4   -209.3758271 -0.392561E-03  0.228E-01    0.12       1.0  T
   5   -209.3771585 -0.133143E-02  0.590E-02    0.14       1.0  T
   6   -209.3770799  0.785752E-04  0.763E-02    0.15       1.0  T
   7   -209.3773285 -0.248540E-03  0.322E-02    0.14       1.0  T
   8   -209.3773304 -0.195615E-05  0.203E-02    0.14       1.0  T
   9   -209.3773448 -0.143663E-04  0.157E-02    0.14       1.0  T
  10   -209.3773473 -0.249720E-05  0.129E-02    0.14       1.0  T
  11   -209.3773506 -0.329859E-05  0.955E-03    0.14       1.0  T
  12   -209.3773528 -0.224330E-05  0.777E-03    0.14       1.3  T
  13   -209.3773543 -0.148016E-05  0.462E-03    0.14       2.1  T
  14   -209.3773547 -0.435855E-06  0.401E-03    0.14       2.5  T
  15   -209.3773550 -0.230200E-06  0.275E-03    0.14       3.6  T
  16   -209.3773551 -0.175210E-06  0.177E-03    0.14       5.6  T
  17   -209.3773552 -0.386825E-07  0.128E-03    0.14       7.7  T
  18   -209.3773552 -0.231514E-07  0.109E-03    0.14       9.0  T
  19   -209.3773552 -0.821282E-08  0.888E-04    0.14      11.1  T
  20   -209.3773552 -0.112105E-07  0.589E-04    0.14      16.7  T
     SCC iter.                  ...        0 min,  0.868 sec
     gradient                   ...        0 min,  0.066 sec
 * total energy  :  -205.2151036 Eh     change       -0.1039680E-02 Eh
   gradient norm :     0.0181509 Eh/α   predicted    -0.1007070E-02 (  -3.14%)
   displ. norm   :     0.5812353 α      lambda       -0.1264718E-02
   maximum displ.:     0.2976066 α      in ANC's #8, #2, #7, ...

........................................................................
.............................. CYCLE  181 ..............................
........................................................................

 iter      E             dE          RMSdq      gap      omega  full diag
   1   -209.3719194 -0.209372E+03  0.246E-01    0.13       0.0  T
   2   -209.3682251  0.369423E-02  0.357E-01    0.17       1.0  T
   3   -209.3668708  0.135432E-02  0.401E-01    0.13       1.0  T
   4   -209.3710994 -0.422864E-02  0.226E-01    0.13       1.0  T
   5   -209.3719534 -0.853987E-03  0.786E-02    0.14       1.0  T
   6   -209.3723847 -0.431305E-03  0.540E-02    0.14       1.0  T
   7   -209.3724040 -0.192474E-04  0.276E-02    0.14       1.0  T
   8   -209.3724468 -0.428540E-04  0.140E-02    0.14       1.0  T
   9   -209.3724495 -0.270363E-05  0.105E-02    0.14       1.0  T
  10   -209.3724515 -0.192403E-05  0.967E-03    0.14       1.0  T
  11   -209.3724534 -0.191794E-05  0.637E-03    0.14       1.5  T
  12   -209.3724546 -0.122007E-05  0.369E-03    0.14       2.7  T
  13   -209.3724549 -0.281914E-06  0.264E-03    0.14       3.7  T
  14   -209.3724550 -0.859723E-07  0.223E-03    0.14       4.4  T
  15   -209.3724551 -0.120362E-06  0.134E-03    0.14       7.3  T
  16   -209.3724551 -0.304592E-07  0.987E-04    0.14      10.0  T
  17   -209.3724551 -0.536696E-08  0.774E-04    0.14      12.7  T
     SCC iter.                  ...        0 min,  0.602 sec
     gradient                   ...        0 min,  0.066 sec
 * total energy  :  -205.2160232 Eh     change       -0.9195273E-03 Eh
   gradient norm :     0.0149431 Eh/α   predicted    -0.8459936E-03 (  -8.00%)
   displ. norm   :     0.5910493 α      lambda       -0.1216849E-02
   maximum displ.:     0.2907590 α      in ANC's #2, #8, #3, ...

........................................................................
.............................. CYCLE  182 ..............................
........................................................................

 iter      E             dE          RMSdq      gap      omega  full diag
   1   -209.3776721 -0.209378E+03  0.217E-01    0.14       0.0  T
   2   -209.3716942  0.597783E-02  0.418E-01    0.13       1.0  T
   3   -209.3709023  0.791944E-03  0.484E-01    0.15       1.0  T
   4   -209.3763728 -0.547051E-02  0.216E-01    0.15       1.0  T
   5   -209.3779211 -0.154833E-02  0.806E-02    0.13       1.0  T
   6   -209.3780801 -0.158934E-03  0.349E-02    0.14       1.0  T
   7   -209.3780680  0.120979E-04  0.287E-02    0.14       1.0  T
   8   -209.3780754 -0.745589E-05  0.208E-02    0.14       1.0  T
   9   -209.3781061 -0.306385E-04  0.850E-03    0.14       1.2  T
  10   -209.3781068 -0.707006E-06  0.827E-03    0.14       1.2  T
  11   -209.3781082 -0.139444E-05  0.522E-03    0.14       1.9  T
  12   -209.3781087 -0.575844E-06  0.386E-03    0.14       2.6  T
  13   -209.3781092 -0.406145E-06  0.281E-03    0.14       3.5  T
  14   -209.3781093 -0.177926E-06  0.113E-03    0.14       8.7  T
  15   -209.3781094 -0.409428E-07  0.819E-04    0.14      12.0  T
  16   -209.3781094 -0.786997E-08  0.617E-04    0.14      16.0  T
     SCC iter.                  ...        0 min,  0.603 sec
     gradient                   ...        0 min,  0.066 sec
 * total energy  :  -205.2168798 Eh     change       -0.8566368E-03 Eh
   gradient norm :     0.0170395 Eh/α   predicted    -0.8209746E-03 (  -4.16%)
   displ. norm   :     0.5947458 α      lambda       -0.1120343E-02
   maximum displ.:     0.2990816 α      in ANC's #2, #8, #3, ...

........................................................................
.............................. CYCLE  183 ..............................
........................................................................

 iter      E             dE          RMSdq      gap      omega  full diag
   1   -209.3825340 -0.209383E+03  0.190E-01    0.14       0.0  T
   2   -209.3756166  0.691734E-02  0.476E-01    0.14       1.0  T
   3   -209.3787100 -0.309334E-02  0.370E-01    0.14       1.0  T
   4   -209.3817729 -0.306290E-02  0.175E-01    0.15       1.0  T
   5   -209.3827164 -0.943551E-03  0.520E-02    0.14       1.0  T
   6   -209.3827744 -0.579655E-04  0.310E-02    0.14       1.0  T
   7   -209.3827981 -0.237219E-04  0.184E-02    0.14       1.0  T
   8   -209.3828038 -0.569224E-05  0.131E-02    0.14       1.0  T
   9   -209.3828112 -0.745472E-05  0.808E-03    0.14       1.2  T
  10   -209.3828118 -0.576339E-06  0.640E-03    0.14       1.5  T
  11   -209.3828125 -0.648167E-06  0.531E-03    0.14       1.9  T
  12   -209.3828132 -0.738487E-06  0.323E-03    0.14       3.0  T
  13   -209.3828131  0.825628E-07  0.237E-03    0.14       4.2  T
  14   -209.3828132 -0.119161E-06  0.180E-03    0.14       5.5  T
  15   -209.3828134 -0.171110E-06  0.868E-04    0.14      11.3  T
  16   -209.3828134 -0.391293E-08  0.736E-04    0.14      13.4  T
     SCC iter.                  ...        0 min,  0.494 sec
     gradient                   ...        0 min,  0.066 sec
 * total energy  :  -205.2177057 Eh     change       -0.8259383E-03 Eh
   gradient norm :     0.0182459 Eh/α   predicted    -0.7583223E-03 (  -8.19%)
   displ. norm   :     0.6224467 α      lambda       -0.1096843E-02
   maximum displ.:     0.3105133 α      in ANC's #2, #8, #3, ...
 * RMSD in coord.:     1.7102254 α      energy gain  -0.1109578E+00 Eh

generating ANC from exact Hessian ...
Using Lindh-Hessian (1995)
 Shifting diagonal of input Hessian by   1.023781089465524E-002
 Lowest  eigenvalues of input Hessian
    0.010000    0.010058    0.010142    0.000000    0.000000    0.000000
    0.000000    0.000000    0.000000    0.010322    0.010377    0.010484
    0.010542    0.010729    0.010829    0.010930    0.011130    0.011641
 Highest eigenvalues
    2.205913    2.300786    2.311251    3.047300    7.871026    8.064002
 

........................................................................
.............................. CYCLE  184 ..............................
........................................................................

 iter      E             dE          RMSdq      gap      omega  full diag
   1   -209.3823930 -0.209382E+03  0.249E-01    0.13       0.0  T
   2   -209.3554176  0.269753E-01  0.959E-01    0.19       1.0  T
   3   -209.3810357 -0.256181E-01  0.287E-01    0.16       1.0  T
   4   -209.3828246 -0.178889E-02  0.153E-01    0.13       1.0  T
   5   -209.3831713 -0.346703E-03  0.655E-02    0.15       1.0  T
   6   -209.3831937 -0.223762E-04  0.396E-02    0.14       1.0  T
   7   -209.3831435  0.502067E-04  0.435E-02    0.14       1.0  T
   8   -209.3832505 -0.107037E-03  0.166E-02    0.14       1.0  T
   9   -209.3832466  0.395653E-05  0.148E-02    0.14       1.0  T
  10   -209.3832585 -0.119577E-04  0.827E-03    0.14       1.2  T
  11   -209.3832586 -0.541123E-07  0.792E-03    0.14       1.2  T
  12   -209.3832609 -0.236575E-05  0.395E-03    0.14       2.5  T
  13   -209.3832606  0.349292E-06  0.390E-03    0.14       2.5  T
  14   -209.3832613 -0.747856E-06  0.188E-03    0.14       5.3  T
  15   -209.3832614 -0.450761E-07  0.121E-03    0.14       8.2  T
  16   -209.3832614 -0.433354E-08  0.899E-04    0.14      11.0  T
  17   -209.3832614 -0.132528E-08  0.877E-04    0.14      11.2  T
     SCC iter.                  ...        0 min,  0.648 sec
     gradient                   ...        0 min,  0.065 sec
 * total energy  :  -205.2185690 Eh     change       -0.8632672E-03 Eh
   gradient norm :     0.0132758 Eh/α   predicted     0.0000000E+00 (-100.00%)
   displ. norm   :     0.1762837 α      lambda       -0.6088566E-03
   maximum displ.:     0.0971772 α      in ANC's #4, #5, #2, ...

........................................................................
.............................. CYCLE  185 ..............................
........................................................................

 iter      E             dE          RMSdq      gap      omega  full diag
   1   -209.3869208 -0.209387E+03  0.970E-02    0.15       0.0  T
   2   -209.3856748  0.124607E-02  0.220E-01    0.13       1.0  T
   3   -209.3865004 -0.825617E-03  0.133E-01    0.15       1.0  T
   4   -209.3866669 -0.166555E-03  0.117E-01    0.15       1.0  T
   5   -209.3869795 -0.312578E-03  0.295E-02    0.15       1.0  T
   6   -209.3869874 -0.791097E-05  0.190E-02    0.14       1.0  T
   7   -209.3869995 -0.120300E-04  0.125E-02    0.14       1.0  T
   8   -209.3870019 -0.243783E-05  0.113E-02    0.14       1.0  T
   9   -209.3870060 -0.411947E-05  0.513E-03    0.14       1.9  T
  10   -209.3870067 -0.733443E-06  0.329E-03    0.14       3.0  T
  11   -209.3870068 -0.418359E-07  0.325E-03    0.14       3.0  T
  12   -209.3870069 -0.102878E-06  0.282E-03    0.14       3.5  T
  13   -209.3870070 -0.755482E-07  0.187E-03    0.14       5.3  T
  14   -209.3870071 -0.136672E-06  0.111E-03    0.14       8.8  T
  15   -209.3870071 -0.306401E-07  0.793E-04    0.14      12.4  T
  16   -209.3870071 -0.246666E-08  0.652E-04    0.14      15.1  T
     SCC iter.                  ...        0 min,  0.575 sec
     gradient                   ...        0 min,  0.068 sec
 * total energy  :  -205.2190413 Eh     change       -0.4722850E-03 Eh
   gradient norm :     0.0106541 Eh/α   predicted    -0.3139927E-03 ( -33.52%)
   displ. norm   :     0.4702764 α      lambda       -0.1171822E-02
   maximum displ.:     0.2543492 α      in ANC's #4, #5, #2, ...

........................................................................
.............................. CYCLE  186 ..............................
........................................................................

 iter      E             dE          RMSdq      gap      omega  full diag
   1   -209.3824852 -0.209382E+03  0.212E-01    0.15       0.0  T
   2   -209.3744919  0.799333E-02  0.533E-01    0.16       1.0  T
   3   -209.3804781 -0.598624E-02  0.284E-01    0.15       1.0  T
   4   -209.3807185 -0.240448E-03  0.223E-01    0.14       1.0  T
   5   -209.3827450 -0.202642E-02  0.656E-02    0.16       1.0  T
   6   -209.3828348 -0.898630E-04  0.327E-02    0.15       1.0  T
   7   -209.3828146  0.202465E-04  0.273E-02    0.15       1.0  T
   8   -209.3828347 -0.200998E-04  0.190E-02    0.15       1.0  T
   9   -209.3828499 -0.152119E-04  0.116E-02    0.15       1.0  T
  10   -209.3828515 -0.157643E-05  0.982E-03    0.15       1.0  T
  11   -209.3828545 -0.300859E-05  0.661E-03    0.15       1.5  T
  12   -209.3828540  0.448254E-06  0.634E-03    0.15       1.6  T
  13   -209.3828546 -0.540326E-06  0.513E-03    0.15       1.9  T
  14   -209.3828552 -0.622233E-06  0.317E-03    0.15       3.1  T
  15   -209.3828555 -0.261060E-06  0.215E-03    0.15       4.6  T
  16   -209.3828554  0.150428E-07  0.217E-03    0.15       4.5  T
  17   -209.3828555 -0.102578E-06  0.141E-03    0.15       7.0  T
  18   -209.3828556 -0.541776E-07  0.600E-04    0.15      16.4  T
  19   -209.3828556 -0.461992E-08  0.429E-04    0.15      23.0  T
     SCC iter.                  ...        0 min,  0.683 sec
     gradient                   ...        0 min,  0.067 sec
 * total energy  :  -205.2198094 Eh     change       -0.7680988E-03 Eh
   gradient norm :     0.0128285 Eh/α   predicted    -0.7154929E-03 (  -6.85%)
   displ. norm   :     0.4521208 α      lambda       -0.8045135E-03
   maximum displ.:     0.2567441 α      in ANC's #4, #2, #5, ...

........................................................................
.............................. CYCLE  187 ..............................
........................................................................

 iter      E             dE          RMSdq      gap      omega  full diag
   1   -209.3784356 -0.209378E+03  0.288E-01    0.16       0.0  T
   2   -209.3228645  0.555710E-01  0.134E+00    0.16       1.0  T
   3   -209.3787471 -0.558825E-01  0.201E-01    0.15       1.0  T
   4   -209.3794351 -0.688012E-03  0.138E-01    0.17       1.0  T
   5   -209.3799145 -0.479422E-03  0.470E-02    0.16       1.0  T
   6   -209.3799250 -0.105097E-04  0.539E-02    0.15       1.0  T
   7   -209.3799785 -0.534965E-04  0.378E-02    0.16       1.0  T
   8   -209.3800397 -0.612367E-04  0.131E-02    0.15       1.0  T
   9   -209.3800465 -0.677901E-05  0.905E-03    0.15       1.1  T
  10   -209.3800463  0.223693E-06  0.944E-03    0.15       1.0  T
  11   -209.3800493 -0.296106E-05  0.471E-03    0.15       2.1  T
  12   -209.3800493 -0.382497E-07  0.434E-03    0.15       2.3  T
  13   -209.3800496 -0.251947E-06  0.357E-03    0.15       2.8  T
  14   -209.3800498 -0.256934E-06  0.224E-03    0.15       4.4  T
  15   -209.3800499 -0.981510E-07  0.183E-03    0.15       5.4  T
  16   -209.3800499  0.468488E-07  0.194E-03    0.15       5.1  T
  17   -209.3800500 -0.117519E-06  0.823E-04    0.15      12.0  T
  18   -209.3800500 -0.205306E-07  0.504E-04    0.15      19.6  T
     SCC iter.                  ...        0 min,  0.785 sec
     gradient                   ...        0 min,  0.064 sec
 * total energy  :  -205.2204398 Eh     change       -0.6304194E-03 Eh
   gradient norm :     0.0181116 Eh/α   predicted    -0.4844889E-03 ( -23.15%)
   displ. norm   :     0.5596624 α      lambda       -0.1014348E-02
   maximum displ.:     0.3189322 α      in ANC's #4, #2, #5, ...

........................................................................
.............................. CYCLE  188 ..............................
........................................................................

 iter      E             dE          RMSdq      gap      omega  full diag
   1   -209.3765939 -0.209377E+03  0.210E-01    0.16       0.0  T
   2   -209.3556714  0.209225E-01  0.809E-01    0.16       1.0  T
   3   -209.3770042 -0.213328E-01  0.942E-02    0.16       1.0  T
   4   -209.3758488  0.115545E-02  0.203E-01    0.15       1.0  T
   5   -209.3771578 -0.130904E-02  0.575E-02    0.16       1.0  T
   6   -209.3772096 -0.517866E-04  0.346E-02    0.16       1.0  T
   7   -209.3772244 -0.147855E-04  0.199E-02    0.16       1.0  T
   8   -209.3772251 -0.656461E-06  0.156E-02    0.16       1.0  T
   9   -209.3772316 -0.657398E-05  0.102E-02    0.16       1.0  T
  10   -209.3772373 -0.569574E-05  0.787E-03    0.16       1.3  T
  11   -209.3772389 -0.162581E-05  0.477E-03    0.16       2.1  T
  12   -209.3772396 -0.617286E-06  0.319E-03    0.16       3.1  T
  13   -209.3772391  0.476903E-06  0.422E-03    0.16       2.3  T
  14   -209.3772395 -0.433555E-06  0.301E-03    0.16       3.3  T
  15   -209.3772397 -0.218235E-06  0.183E-03    0.16       5.4  T
  16   -209.3772397 -0.959295E-08  0.131E-03    0.16       7.5  T
  17   -209.3772398 -0.784758E-07  0.709E-04    0.16      13.9  T
  18   -209.3772398 -0.313361E-08  0.624E-04    0.16      15.8  T
     SCC iter.                  ...        0 min,  0.603 sec
     gradient                   ...        0 min,  0.067 sec
 * total energy  :  -205.2212619 Eh     change       -0.8221188E-03 Eh
   gradient norm :     0.0164243 Eh/α   predicted    -0.6660325E-03 ( -18.99%)
   displ. norm   :     0.6459647 α      lambda       -0.1244756E-02
   maximum displ.:     0.3730583 α      in ANC's #4, #2, #6, ...

........................................................................
.............................. CYCLE  189 ..............................
........................................................................

 iter      E             dE          RMSdq      gap      omega  full diag
   1   -209.3726721 -0.209373E+03  0.323E-01    0.18       0.0  T
   2   -209.3201917  0.524805E-01  0.133E+00    0.14       1.0  T
   3   -209.3706968 -0.505051E-01  0.347E-01    0.15       1.0  T
   4   -209.3740690 -0.337226E-02  0.151E-01    0.18       1.0  T
   5   -209.3743252 -0.256205E-03  0.561E-02    0.17       1.0  T
   6   -209.3743203  0.497568E-05  0.557E-02    0.17       1.0  T
   7   -209.3743868 -0.665069E-04  0.315E-02    0.17       1.0  T
   8   -209.3744216 -0.348543E-04  0.214E-02    0.17       1.0  T
   9   -209.3744329 -0.113098E-04  0.149E-02    0.17       1.0  T
  10   -209.3744402 -0.729815E-05  0.949E-03    0.17       1.0  T
  11   -209.3744431 -0.288473E-05  0.540E-03    0.17       1.8  T
  12   -209.3744432 -0.993487E-07  0.432E-03    0.17       2.3  T
  13   -209.3744432 -0.479668E-08  0.417E-03    0.17       2.4  T
  14   -209.3744438 -0.568302E-06  0.243E-03    0.17       4.1  T
  15   -209.3744440 -0.187752E-06  0.170E-03    0.17       5.8  T
  16   -209.3744439  0.470488E-07  0.213E-03    0.17       4.6  T
  17   -209.3744441 -0.128182E-06  0.933E-04    0.17      10.6  T
  18   -209.3744441 -0.158952E-07  0.547E-04    0.17      18.0  T
     SCC iter.                  ...        0 min,  0.585 sec
     gradient                   ...        0 min,  0.069 sec
 * total energy  :  -205.2222772 Eh     change       -0.1015264E-02 Eh
   gradient norm :     0.0154654 Eh/α   predicted    -0.8820815E-03 ( -13.12%)
   displ. norm   :     0.7184052 α      lambda       -0.1244248E-02
   maximum displ.:     0.4167408 α      in ANC's #4, #2, #6, ...

........................................................................
.............................. CYCLE  190 ..............................
........................................................................

 iter      E             dE          RMSdq      gap      omega  full diag
   1   -209.3705498 -0.209371E+03  0.203E-01    0.16       0.0  T
   2   -209.3689711  0.157874E-02  0.250E-01    0.19       1.0  T
   3   -209.3693705 -0.399385E-03  0.223E-01    0.16       1.0  T
   4   -209.3679980  0.137244E-02  0.276E-01    0.17       1.0  T
   5   -209.3707137 -0.271565E-02  0.517E-02    0.17       1.0  T
   6   -209.3706834  0.302598E-04  0.467E-02    0.17       1.0  T
   7   -209.3707365 -0.530740E-04  0.336E-02    0.17       1.0  T
   8   -209.3707821 -0.456083E-04  0.163E-02    0.17       1.0  T
   9   -209.3707820  0.103595E-06  0.132E-02    0.17       1.0  T
  10   -209.3707888 -0.678270E-05  0.759E-03    0.17       1.3  T
  11   -209.3707889 -0.129249E-06  0.578E-03    0.17       1.7  T
  12   -209.3707889  0.132465E-07  0.510E-03    0.17       1.9  T
  13   -209.3707893 -0.366309E-06  0.336E-03    0.17       2.9  T
  14   -209.3707897 -0.400546E-06  0.231E-03    0.17       4.3  T
  15   -209.3707898 -0.986306E-07  0.209E-03    0.17       4.7  T
  16   -209.3707899 -0.144604E-06  0.146E-03    0.17       6.8  T
  17   -209.3707899 -0.141388E-07  0.141E-03    0.17       7.0  T
  18   -209.3707900 -0.554389E-07  0.461E-04    0.17      21.4  T
  19   -209.3707900 -0.358804E-08  0.315E-04    0.17      31.2  T
     SCC iter.                  ...        0 min,  0.585 sec
     gradient                   ...        0 min,  0.069 sec
 * total energy  :  -205.2233046 Eh     change       -0.1027414E-02 Eh
   gradient norm :     0.0236345 Eh/α   predicted    -0.9432178E-03 (  -8.19%)
   displ. norm   :     0.7513253 α      lambda       -0.1293807E-02
   maximum displ.:     0.4356298 α      in ANC's #4, #2, #6, ...

........................................................................
.............................. CYCLE  191 ..............................
........................................................................

 iter      E             dE          RMSdq      gap      omega  full diag
   1   -209.3703674 -0.209370E+03  0.202E-01    0.18       0.0  T
   2   -209.3695237  0.843664E-03  0.226E-01    0.15       1.0  T
   3   -209.3699582 -0.434472E-03  0.168E-01    0.19       1.0  T
   4   -209.3689830  0.975216E-03  0.219E-01    0.18       1.0  T
   5   -209.3705292 -0.154618E-02  0.434E-02    0.17       1.0  T
   6   -209.3704622  0.669130E-04  0.436E-02    0.17       1.0  T
   7   -209.3705060 -0.437761E-04  0.369E-02    0.18       1.0  T
   8   -209.3705425 -0.364950E-04  0.226E-02    0.17       1.0  T
   9   -209.3705563 -0.137496E-04  0.128E-02    0.17       1.0  T
  10   -209.3705659 -0.967131E-05  0.718E-03    0.17       1.4  T
  11   -209.3705659  0.593731E-07  0.627E-03    0.17       1.6  T
  12   -209.3705660 -0.760325E-07  0.596E-03    0.17       1.7  T
  13   -209.3705671 -0.114808E-05  0.315E-03    0.17       3.1  T
  14   -209.3705674 -0.300847E-06  0.193E-03    0.17       5.1  T
  15   -209.3705674  0.219538E-07  0.211E-03    0.17       4.7  T
  16   -209.3705675 -0.141718E-06  0.105E-03    0.17       9.4  T
  17   -209.3705675 -0.724003E-08  0.115E-03    0.17       8.6  T
  18   -209.3705676 -0.335216E-07  0.566E-04    0.17      17.4  T
  19   -209.3705676 -0.363087E-08  0.366E-04    0.17      26.9  T
     SCC iter.                  ...        0 min,  0.561 sec
     gradient                   ...        0 min,  0.069 sec
 * total energy  :  -205.2244795 Eh     change       -0.1174886E-02 Eh
   gradient norm :     0.0189330 Eh/α   predicted    -0.1012076E-02 ( -13.86%)
   displ. norm   :     0.7847366 α      lambda       -0.1512780E-02
   maximum displ.:     0.4550950 α      in ANC's #4, #2, #6, ...

........................................................................
.............................. CYCLE  192 ..............................
........................................................................

 iter      E             dE          RMSdq      gap      omega  full diag
   1   -209.3766642 -0.209377E+03  0.191E-01    0.18       0.0  T
   2   -209.3747779  0.188628E-02  0.275E-01    0.16       1.0  T
   3   -209.3761999 -0.142202E-02  0.155E-01    0.19       1.0  T
   4   -209.3762899 -0.899482E-04  0.114E-01    0.18       1.0  T
   5   -209.3765116 -0.221713E-03  0.114E-01    0.18       1.0  T
   6   -209.3767554 -0.243817E-03  0.466E-02    0.18       1.0  T
   7   -209.3768507 -0.952327E-04  0.319E-02    0.18       1.0  T
   8   -209.3768999 -0.492697E-04  0.158E-02    0.18       1.0  T
   9   -209.3769041 -0.422226E-05  0.141E-02    0.18       1.0  T
  10   -209.3769117 -0.755771E-05  0.810E-03    0.18       1.2  T
  11   -209.3769114  0.337559E-06  0.753E-03    0.18       1.3  T
  12   -209.3769108  0.553429E-06  0.881E-03    0.18       1.1  T
  13   -209.3769134 -0.254063E-05  0.330E-03    0.18       3.0  T
  14   -209.3769137 -0.370100E-06  0.202E-03    0.18       4.9  T
  15   -209.3769137 -0.235064E-07  0.159E-03    0.18       6.2  T
  16   -209.3769138 -0.494575E-07  0.113E-03    0.18       8.7  T
  17   -209.3769138 -0.153273E-07  0.893E-04    0.18      11.0  T
  18   -209.3769138 -0.244835E-07  0.508E-04    0.18      19.4  T
     SCC iter.                  ...        0 min,  0.545 sec
     gradient                   ...        0 min,  0.070 sec
 * total energy  :  -205.2258241 Eh     change       -0.1344579E-02 Eh
   gradient norm :     0.0173594 Eh/α   predicted    -0.1222206E-02 (  -9.10%)
   displ. norm   :     0.8159916 α      lambda       -0.1621475E-02
   maximum displ.:     0.4744109 α      in ANC's #4, #2, #6, ...

........................................................................
.............................. CYCLE  193 ..............................
........................................................................

 iter      E             dE          RMSdq      gap      omega  full diag
   1   -209.3803368 -0.209380E+03  0.190E-01    0.17       0.0  T
   2   -209.3780783  0.225845E-02  0.274E-01    0.18       1.0  T
   3   -209.3760755  0.200281E-02  0.376E-01    0.18       1.0  T
   4   -209.3792203 -0.314476E-02  0.168E-01    0.17       1.0  T
   5   -209.3804395 -0.121921E-02  0.478E-02    0.18       1.0  T
   6   -209.3803330  0.106447E-03  0.523E-02    0.17       1.0  T
   7   -209.3804701 -0.137017E-03  0.299E-02    0.18       1.0  T
   8   -209.3804894 -0.193527E-04  0.150E-02    0.17       1.0  T
   9   -209.3804956 -0.623566E-05  0.899E-03    0.18       1.1  T
  10   -209.3804959 -0.236439E-06  0.768E-03    0.17       1.3  T
  11   -209.3804959 -0.399200E-07  0.760E-03    0.18       1.3  T
  12   -209.3804963 -0.336226E-06  0.638E-03    0.17       1.5  T
  13   -209.3804972 -0.929852E-06  0.308E-03    0.17       3.2  T
  14   -209.3804976 -0.392473E-06  0.205E-03    0.17       4.8  T
  15   -209.3804978 -0.193945E-06  0.171E-03    0.17       5.8  T
  16   -209.3804978 -0.666423E-07  0.950E-04    0.17      10.4  T
  17   -209.3804979 -0.192954E-07  0.687E-04    0.17      14.3  T
     SCC iter.                  ...        0 min,  0.604 sec
     gradient                   ...        0 min,  0.067 sec
 * total energy  :  -205.2272671 Eh     change       -0.1443046E-02 Eh
   gradient norm :     0.0245960 Eh/α   predicted    -0.1350563E-02 (  -6.41%)
   displ. norm   :     0.8504141 α      lambda       -0.1609071E-02
   maximum displ.:     0.4973479 α      in ANC's #4, #2, #6, ...

........................................................................
.............................. CYCLE  194 ..............................
........................................................................

 iter      E             dE          RMSdq      gap      omega  full diag
   1   -209.3766590 -0.209377E+03  0.208E-01    0.17       0.0  T
   2   -209.3747723  0.188670E-02  0.286E-01    0.18       1.0  T
   3   -209.3717156  0.305668E-02  0.405E-01    0.17       1.0  T
   4   -209.3753075 -0.359190E-02  0.223E-01    0.16       1.0  T
   5   -209.3767543 -0.144680E-02  0.479E-02    0.17       1.0  T
   6   -209.3767405  0.138299E-04  0.386E-02    0.17       1.0  T
   7   -209.3767283  0.121792E-04  0.371E-02    0.17       1.0  T
   8   -209.3767858 -0.574558E-04  0.176E-02    0.17       1.0  T
   9   -209.3767906 -0.482955E-05  0.121E-02    0.17       1.0  T
  10   -209.3767958 -0.521206E-05  0.914E-03    0.17       1.1  T
  11   -209.3767974 -0.156969E-05  0.695E-03    0.17       1.4  T
  12   -209.3767972  0.211459E-06  0.757E-03    0.17       1.3  T
  13   -209.3767982 -0.102797E-05  0.418E-03    0.17       2.4  T
  14   -209.3767991 -0.936316E-06  0.220E-03    0.17       4.5  T
  15   -209.3767992 -0.916841E-07  0.176E-03    0.17       5.6  T
  16   -209.3767992  0.125409E-07  0.141E-03    0.17       7.0  T
  17   -209.3767993 -0.113343E-06  0.820E-04    0.17      12.0  T
  18   -209.3767993 -0.147127E-07  0.551E-04    0.17      17.9  T
     SCC iter.                  ...        0 min,  0.611 sec
     gradient                   ...        0 min,  0.070 sec
 * total energy  :  -205.2287792 Eh     change       -0.1512089E-02 Eh
   gradient norm :     0.0148782 Eh/α   predicted    -0.1386382E-02 (  -8.31%)
   displ. norm   :     0.8484190 α      lambda       -0.1750154E-02
   maximum displ.:     0.5002238 α      in ANC's #4, #2, #6, ...

........................................................................
.............................. CYCLE  195 ..............................
........................................................................

 iter      E             dE          RMSdq      gap      omega  full diag
   1   -209.3772119 -0.209377E+03  0.227E-01    0.16       0.0  T
   2   -209.3736302  0.358176E-02  0.391E-01    0.19       1.0  T
   3   -209.3728211  0.809046E-03  0.383E-01    0.17       1.0  T
   4   -209.3748233 -0.200218E-02  0.317E-01    0.15       1.0  T
   5   -209.3773359 -0.251263E-02  0.554E-02    0.17       1.0  T
   6   -209.3772537  0.822270E-04  0.553E-02    0.17       1.0  T
   7   -209.3774300 -0.176349E-03  0.256E-02    0.17       1.0  T
   8   -209.3774404 -0.103855E-04  0.167E-02    0.17       1.0  T
   9   -209.3774403  0.121642E-06  0.147E-02    0.17       1.0  T
  10   -209.3774495 -0.916959E-05  0.950E-03    0.17       1.0  T
  11   -209.3774504 -0.946874E-06  0.805E-03    0.17       1.2  T
  12   -209.3774523 -0.186601E-05  0.603E-03    0.17       1.6  T
  13   -209.3774513  0.948884E-06  0.621E-03    0.17       1.6  T
  14   -209.3774531 -0.178211E-05  0.288E-03    0.17       3.4  T
  15   -209.3774535 -0.332957E-06  0.153E-03    0.17       6.4  T
  16   -209.3774535  0.303814E-08  0.121E-03    0.17       8.1  T
  17   -209.3774535 -0.375373E-07  0.871E-04    0.17      11.3  T
  18   -209.3774535 -0.964144E-08  0.562E-04    0.17      17.5  T
     SCC iter.                  ...        0 min,  0.605 sec
     gradient                   ...        0 min,  0.066 sec
 * total energy  :  -205.2303896 Eh     change       -0.1610430E-02 Eh
   gradient norm :     0.0125117 Eh/α   predicted    -0.1504974E-02 (  -6.55%)
   displ. norm   :     0.8878927 α      lambda       -0.1740564E-02
   maximum displ.:     0.5264088 α      in ANC's #4, #2, #6, ...

........................................................................
.............................. CYCLE  196 ..............................
........................................................................

 iter      E             dE          RMSdq      gap      omega  full diag
   1   -209.3739151 -0.209374E+03  0.235E-01    0.16       0.0  T
   2   -209.3709095  0.300560E-02  0.345E-01    0.18       1.0  T
   3   -209.3676436  0.326594E-02  0.451E-01    0.16       1.0  T
   4   -209.3713905 -0.374693E-02  0.327E-01    0.14       1.0  T
   5   -209.3740212 -0.263066E-02  0.512E-02    0.16       1.0  T
   6   -209.3738989  0.122301E-03  0.531E-02    0.16       1.0  T
   7   -209.3740576 -0.158783E-03  0.296E-02    0.16       1.0  T
   8   -209.3740805 -0.228977E-04  0.180E-02    0.16       1.0  T
   9   -209.3740788  0.175379E-05  0.166E-02    0.16       1.0  T
  10   -209.3740961 -0.173206E-04  0.812E-03    0.16       1.2  T
  11   -209.3740964 -0.283046E-06  0.698E-03    0.16       1.4  T
  12   -209.3740969 -0.480176E-06  0.664E-03    0.16       1.5  T
  13   -209.3740967  0.173787E-06  0.479E-03    0.16       2.1  T
  14   -209.3740974 -0.745305E-06  0.303E-03    0.16       3.3  T
  15   -209.3740979 -0.422186E-06  0.171E-03    0.16       5.8  T
  16   -209.3740980 -0.110640E-06  0.116E-03    0.16       8.5  T
  17   -209.3740980 -0.266861E-07  0.823E-04    0.16      12.0  T
  18   -209.3740980 -0.846009E-08  0.749E-04    0.16      13.2  T
     SCC iter.                  ...        0 min,  0.639 sec
     gradient                   ...        0 min,  0.067 sec
 * total energy  :  -205.2320303 Eh     change       -0.1640664E-02 Eh
   gradient norm :     0.0165257 Eh/α   predicted    -0.1556379E-02 (  -5.14%)
   displ. norm   :     0.8896955 α      lambda       -0.1779733E-02
   maximum displ.:     0.5341091 α      in ANC's #4, #2, #6, ...

........................................................................
.............................. CYCLE  197 ..............................
........................................................................

 iter      E             dE          RMSdq      gap      omega  full diag
   1   -209.3761668 -0.209376E+03  0.241E-01    0.15       0.0  T
   2   -209.3717868  0.437997E-02  0.388E-01    0.17       1.0  T
   3   -209.3691513  0.263548E-02  0.483E-01    0.16       1.0  T
   4   -209.3753440 -0.619273E-02  0.174E-01    0.15       1.0  T
   5   -209.3762601 -0.916046E-03  0.610E-02    0.16       1.0  T
   6   -209.3761787  0.813484E-04  0.435E-02    0.16       1.0  T
   7   -209.3762047 -0.259330E-04  0.472E-02    0.16       1.0  T
   8   -209.3763220 -0.117284E-03  0.228E-02    0.16       1.0  T
   9   -209.3763411 -0.191787E-04  0.161E-02    0.16       1.0  T
  10   -209.3763495 -0.834870E-05  0.917E-03    0.16       1.1  T
  11   -209.3763501 -0.640201E-06  0.908E-03    0.16       1.1  T
  12   -209.3763515 -0.133583E-05  0.573E-03    0.16       1.7  T
  13   -209.3763511  0.313052E-06  0.538E-03    0.16       1.8  T
  14   -209.3763526 -0.144160E-05  0.258E-03    0.16       3.8  T
  15   -209.3763527 -0.114933E-06  0.190E-03    0.16       5.2  T
  16   -209.3763528 -0.739577E-07  0.128E-03    0.16       7.7  T
  17   -209.3763528 -0.565583E-07  0.782E-04    0.16      12.6  T
  18   -209.3763528  0.314805E-07  0.877E-04    0.16      11.2  T
     SCC iter.                  ...        0 min,  0.578 sec
     gradient                   ...        0 min,  0.065 sec
 * total energy  :  -205.2336888 Eh     change       -0.1658469E-02 Eh
   gradient norm :     0.0167806 Eh/α   predicted    -0.1594257E-02 (  -3.87%)
   displ. norm   :     0.9016640 α      lambda       -0.1800091E-02
   maximum displ.:     0.5445053 α      in ANC's #4, #2, #6, ...

........................................................................
.............................. CYCLE  198 ..............................
........................................................................

 iter      E             dE          RMSdq      gap      omega  full diag
   1   -209.3803168 -0.209380E+03  0.237E-01    0.15       0.0  T
   2   -209.3769078  0.340899E-02  0.348E-01    0.15       1.0  T
   3   -209.3723919  0.451588E-02  0.516E-01    0.16       1.0  T
   4   -209.3799567 -0.756473E-02  0.114E-01    0.16       1.0  T
   5   -209.3802722 -0.315494E-03  0.685E-02    0.15       1.0  T
   6   -209.3803417 -0.695323E-04  0.516E-02    0.15       1.0  T
   7   -209.3804434 -0.101765E-03  0.200E-02    0.15       1.0  T
   8   -209.3804524 -0.893421E-05  0.164E-02    0.15       1.0  T
   9   -209.3804544 -0.196720E-05  0.125E-02    0.15       1.0  T
  10   -209.3804612 -0.684893E-05  0.887E-03    0.15       1.1  T
  11   -209.3804534  0.779339E-05  0.120E-02    0.15       1.0  T
  12   -209.3804621 -0.872022E-05  0.623E-03    0.15       1.6  T
  13   -209.3804630 -0.828102E-06  0.331E-03    0.15       3.0  T
  14   -209.3804634 -0.428601E-06  0.228E-03    0.15       4.3  T
  15   -209.3804634 -0.146822E-07  0.207E-03    0.15       4.8  T
  16   -209.3804634  0.153563E-07  0.178E-03    0.15       5.5  T
  17   -209.3804636 -0.187233E-06  0.833E-04    0.15      11.8  T
  18   -209.3804636 -0.108917E-07  0.531E-04    0.15      18.6  T
     SCC iter.                  ...        0 min,  0.634 sec
     gradient                   ...        0 min,  0.069 sec
 * total energy  :  -205.2353574 Eh     change       -0.1668671E-02 Eh
   gradient norm :     0.0113354 Eh/α   predicted    -0.1631785E-02 (  -2.21%)
   displ. norm   :     0.9014475 α      lambda       -0.1809220E-02
   maximum displ.:     0.5473800 α      in ANC's #4, #2, #6, ...

........................................................................
.............................. CYCLE  199 ..............................
........................................................................

 iter      E             dE          RMSdq      gap      omega  full diag
   1   -209.3822028 -0.209382E+03  0.247E-01    0.15       0.0  T
   2   -209.3748196  0.738313E-02  0.507E-01    0.14       1.0  T
   3   -209.3777622 -0.294251E-02  0.389E-01    0.15       1.0  T
   4   -209.3814164 -0.365425E-02  0.171E-01    0.16       1.0  T
   5   -209.3823377 -0.921325E-03  0.539E-02    0.15       1.0  T
   6   -209.3823438 -0.612133E-05  0.460E-02    0.15       1.0  T
   7   -209.3823998 -0.559408E-04  0.228E-02    0.15       1.0  T
   8   -209.3823869  0.128902E-04  0.249E-02    0.15       1.0  T
   9   -209.3824213 -0.344415E-04  0.144E-02    0.15       1.0  T
  10   -209.3824320 -0.107127E-04  0.920E-03    0.15       1.1  T
  11   -209.3824300  0.208838E-05  0.956E-03    0.15       1.0  T
  12   -209.3824323 -0.233777E-05  0.799E-03    0.15       1.2  T
  13   -209.3824333 -0.984695E-06  0.430E-03    0.15       2.3  T
  14   -209.3824332  0.429383E-07  0.381E-03    0.15       2.6  T
  15   -209.3824341 -0.809994E-06  0.212E-03    0.15       4.7  T
  16   -209.3824342 -0.163632E-06  0.167E-03    0.15       5.9  T
  17   -209.3824343 -0.970355E-07  0.104E-03    0.15       9.5  T
  18   -209.3824343 -0.333645E-07  0.613E-04    0.15      16.1  T
  19   -209.3824344 -0.752240E-08  0.425E-04    0.15      23.2  T
     SCC iter.                  ...        0 min,  0.593 sec
     gradient                   ...        0 min,  0.065 sec
 * total energy  :  -205.2370610 Eh     change       -0.1703599E-02 Eh
   gradient norm :     0.0099259 Eh/α   predicted    -0.1639713E-02 (  -3.75%)
   displ. norm   :     0.8863047 α      lambda       -0.1872502E-02
   maximum displ.:     0.5410600 α      in ANC's #4, #2, #5, ...

........................................................................
.............................. CYCLE  200 ..............................
........................................................................

 iter      E             dE          RMSdq      gap      omega  full diag
   1   -209.3979811 -0.209398E+03  0.279E-01    0.15       0.0  T
   2   -209.3841770  0.138040E-01  0.676E-01    0.10       1.0  T
   3   -209.3941942 -0.100171E-01  0.387E-01    0.16       1.0  T
   4   -209.3922288  0.196538E-02  0.427E-01    0.17       1.0  T
   5   -209.3980994 -0.587057E-02  0.104E-01    0.15       1.0  T
   6   -209.3981563 -0.569292E-04  0.660E-02    0.15       1.0  T
   7   -209.3980377  0.118626E-03  0.746E-02    0.14       1.0  T
   8   -209.3984159 -0.378187E-03  0.354E-02    0.15       1.0  T
   9   -209.3984401 -0.242129E-04  0.263E-02    0.15       1.0  T
  10   -209.3984642 -0.241595E-04  0.140E-02    0.15       1.0  T
  11   -209.3984587  0.551878E-05  0.166E-02    0.15       1.0  T
  12   -209.3984723 -0.135877E-04  0.893E-03    0.15       1.1  T
  13   -209.3984749 -0.258348E-05  0.679E-03    0.15       1.5  T
  14   -209.3984770 -0.211401E-05  0.407E-03    0.15       2.4  T
  15   -209.3984773 -0.333493E-06  0.294E-03    0.15       3.4  T
  16   -209.3984776 -0.281803E-06  0.184E-03    0.15       5.3  T
  17   -209.3984776  0.106498E-07  0.173E-03    0.15       5.7  T
  18   -209.3984776 -0.313364E-08  0.125E-03    0.15       7.9  T
  19   -209.3984777 -0.819747E-07  0.666E-04    0.15      14.8  T
  20   -209.3984777 -0.285434E-08  0.536E-04    0.15      18.4  T
     SCC iter.                  ...        0 min,  0.697 sec
     gradient                   ...        0 min,  0.072 sec
 * total energy  :  -205.2387693 Eh     change       -0.1708217E-02 Eh
   gradient norm :     0.0175486 Eh/α   predicted    -0.1671715E-02 (  -2.14%)
   displ. norm   :     0.9272192 α      lambda       -0.1928929E-02
   maximum displ.:     0.5537155 α      in ANC's #4, #2, #5, ...

........................................................................
.............................. CYCLE  201 ..............................
........................................................................

 iter      E             dE          RMSdq      gap      omega  full diag
   1   -209.3849024 -0.209385E+03  0.253E-01    0.14       0.0  T
   2   -209.3813451  0.355732E-02  0.306E-01    0.14       1.0  T
   3   -209.3762907  0.505441E-02  0.489E-01    0.13       1.0  T
   4   -209.3792967 -0.300594E-02  0.390E-01    0.14       1.0  T
   5   -209.3849346 -0.563795E-02  0.784E-02    0.15       1.0  T
   6   -209.3840701  0.864481E-03  0.117E-01    0.13       1.0  T
   7   -209.3851288 -0.105865E-02  0.532E-02    0.15       1.0  T
   8   -209.3851582 -0.294467E-04  0.382E-02    0.14       1.0  T
   9   -209.3852401 -0.818401E-04  0.174E-02    0.14       1.0  T
  10   -209.3852451 -0.498625E-05  0.124E-02    0.14       1.0  T
  11   -209.3852409  0.415496E-05  0.122E-02    0.15       1.0  T
  12   -209.3852399  0.958723E-06  0.107E-02    0.14       1.0  T
  13   -209.3852492 -0.929587E-05  0.566E-03    0.14       1.7  T
  14   -209.3852502 -0.924139E-06  0.381E-03    0.14       2.6  T
  15   -209.3852506 -0.482084E-06  0.219E-03    0.14       4.5  T
  16   -209.3852505  0.119298E-06  0.197E-03    0.14       5.0  T
  17   -209.3852507 -0.133264E-06  0.154E-03    0.14       6.4  T
  18   -209.3852507 -0.895891E-07  0.681E-04    0.14      14.5  T
  19   -209.3852508 -0.111197E-07  0.459E-04    0.14      21.5  T
     SCC iter.                  ...        0 min,  0.639 sec
     gradient                   ...        0 min,  0.072 sec
 * total energy  :  -205.2405257 Eh     change       -0.1756425E-02 Eh
   gradient norm :     0.0176106 Eh/α   predicted    -0.1793658E-02 (   2.12%)
   displ. norm   :     0.8544770 α      lambda       -0.1972144E-02
   maximum displ.:     0.5077999 α      in ANC's #4, #2, #5, ...

........................................................................
.............................. CYCLE  202 ..............................
........................................................................

 iter      E             dE          RMSdq      gap      omega  full diag
   1   -209.3929161 -0.209393E+03  0.258E-01    0.13       0.0  T
   2   -209.3910698  0.184631E-02  0.161E-01    0.13       1.0  T
   3   -209.3796702  0.113996E-01  0.412E-01    0.13       1.0  T
   4   -209.3896708 -0.100006E-01  0.334E-01    0.13       1.0  T
   5   -209.3925369 -0.286618E-02  0.116E-01    0.13       1.0  T
   6   -209.3927656 -0.228648E-03  0.779E-02    0.14       1.0  T
   7   -209.3928938 -0.128252E-03  0.674E-02    0.14       1.0  T
   8   -209.3927349  0.158904E-03  0.696E-02    0.13       1.0  T
   9   -209.3931491 -0.414143E-03  0.359E-02    0.14       1.0  T
  10   -209.3931461  0.295737E-05  0.213E-02    0.14       1.0  T
  11   -209.3931761 -0.299450E-04  0.138E-02    0.14       1.0  T
  12   -209.3931829 -0.679540E-05  0.890E-03    0.14       1.1  T
  13   -209.3931837 -0.847135E-06  0.653E-03    0.14       1.5  T
  14   -209.3931854 -0.168124E-05  0.430E-03    0.14       2.3  T
  15   -209.3931860 -0.644137E-06  0.310E-03    0.14       3.2  T
  16   -209.3931861 -0.104846E-06  0.232E-03    0.14       4.3  T
  17   -209.3931862 -0.325442E-07  0.170E-03    0.14       5.8  T
  18   -209.3931863 -0.855345E-07  0.102E-03    0.14       9.6  T
  19   -209.3931863 -0.230442E-07  0.885E-04    0.14      11.1  T
  20   -209.3931863  0.182516E-08  0.708E-04    0.14      13.9  T
     SCC iter.                  ...        0 min,  0.675 sec
     gradient                   ...        0 min,  0.065 sec
 * total energy  :  -205.2422576 Eh     change       -0.1731953E-02 Eh
   gradient norm :     0.0145889 Eh/α   predicted    -0.1706039E-02 (  -1.50%)
   displ. norm   :     0.8925873 α      lambda       -0.2009606E-02
   maximum displ.:     0.5349732 α      in ANC's #4, #2, #5, ...

........................................................................
.............................. CYCLE  203 ..............................
........................................................................

 iter      E             dE          RMSdq      gap      omega  full diag
   1   -209.3863065 -0.209386E+03  0.286E-01    0.14       0.0  T
   2   -209.3691199  0.171866E-01  0.528E-01    0.07       1.0  T
   3   -209.3808974 -0.117775E-01  0.376E-01    0.16       1.0  T
   4   -209.3794259  0.147151E-02  0.402E-01    0.15       1.0  T
   5   -209.3852396 -0.581371E-02  0.156E-01    0.14       1.0  T
   6   -209.3855466 -0.306984E-03  0.125E-01    0.14       1.0  T
   7   -209.3861959 -0.649300E-03  0.899E-02    0.14       1.0  T
   8   -209.3863460 -0.150094E-03  0.536E-02    0.14       1.0  T
   9   -209.3854515  0.894463E-03  0.100E-01    0.12       1.0  T
  10   -209.3865719 -0.112037E-02  0.329E-02    0.14       1.0  T
  11   -209.3865287  0.431705E-04  0.279E-02    0.14       1.0  T
  12   -209.3866094 -0.806559E-04  0.138E-02    0.14       1.0  T
  13   -209.3866155 -0.607564E-05  0.906E-03    0.14       1.1  T
  14   -209.3866155 -0.185377E-07  0.798E-03    0.14       1.2  T
  15   -209.3866189 -0.342972E-05  0.583E-03    0.14       1.7  T
  16   -209.3866196 -0.668595E-06  0.350E-03    0.14       2.8  T
  17   -209.3866187  0.871936E-06  0.389E-03    0.14       2.5  T
  18   -209.3866200 -0.123291E-05  0.173E-03    0.14       5.7  T
  19   -209.3866200 -0.853873E-07  0.940E-04    0.14      10.5  T
  20   -209.3866200  0.259860E-08  0.822E-04    0.14      12.0  T
     SCC iter.                  ...        0 min,  0.711 sec
     gradient                   ...        0 min,  0.066 sec
 * total energy  :  -205.2441442 Eh     change       -0.1886607E-02 Eh
   gradient norm :     0.0141348 Eh/α   predicted    -0.1805346E-02 (  -4.31%)
   displ. norm   :     0.8576365 α      lambda       -0.2224214E-02
   maximum displ.:     0.4939663 α      in ANC's #4, #2, #5, ...

........................................................................
.............................. CYCLE  204 ..............................
........................................................................

 iter      E             dE          RMSdq      gap      omega  full diag
   1   -209.4035491 -0.209404E+03  0.308E-01    0.14       0.0  T
   2   -209.2702452  0.133304E+00  0.125E+00    0.01       1.0  T
   3   -209.3998997 -0.129654E+00  0.262E-01    0.15       1.0  T
   4   -209.3985089  0.139085E-02  0.420E-01    0.16       1.0  T
   5   -209.4020953 -0.358647E-02  0.210E-01    0.14       1.0  T
   6   -209.4022702 -0.174887E-03  0.160E-01    0.14       1.0  T
   7   -209.4030790 -0.808786E-03  0.139E-01    0.15       1.0  T
   8   -209.4035311 -0.452064E-03  0.104E-01    0.14       1.0  T
   9   -209.4039062 -0.375185E-03  0.745E-02    0.14       1.0  T
  10   -209.4042009 -0.294662E-03  0.463E-02    0.14       1.0  T
  11   -209.4042360 -0.350655E-04  0.331E-02    0.14       1.0  T
  12   -209.4042814 -0.454580E-04  0.120E-02    0.14       1.0  T
  13   -209.4042809  0.569941E-06  0.127E-02    0.13       1.0  T
  14   -209.4042743  0.656669E-05  0.106E-02    0.14       1.0  T
  15   -209.4042754 -0.112958E-05  0.989E-03    0.14       1.0  T
  16   -209.4042855 -0.100484E-04  0.457E-03    0.14       2.2  T
  17   -209.4042851  0.360235E-06  0.363E-03    0.14       2.7  T
  18   -209.4042859 -0.785171E-06  0.251E-03    0.14       3.9  T
  19   -209.4042862 -0.277780E-06  0.199E-03    0.14       5.0  T
  20   -209.4042861  0.267743E-07  0.152E-03    0.14       6.5  T
  21   -209.4042862 -0.570394E-07  0.104E-03    0.14       9.5  T
  22   -209.4042862 -0.334123E-07  0.968E-04    0.14      10.2  T
  23   -209.4042863 -0.692847E-07  0.498E-04    0.14      19.8  T
     SCC iter.                  ...        0 min,  0.723 sec
     gradient                   ...        0 min,  0.069 sec
 * total energy  :  -205.2460831 Eh     change       -0.1938802E-02 Eh
   gradient norm :     0.0166112 Eh/α   predicted    -0.1930112E-02 (  -0.45%)
   displ. norm   :     0.9341973 α      lambda       -0.2189708E-02
   maximum displ.:     0.5453345 α      in ANC's #4, #2, #5, ...

........................................................................
.............................. CYCLE  205 ..............................
........................................................................

 iter      E             dE          RMSdq      gap      omega  full diag
   1   -209.3900032 -0.209390E+03  0.290E-01    0.14       0.0  T
   2   -209.3873173  0.268589E-02  0.229E-01    0.11       1.0  T
   3   -209.3826924  0.462487E-02  0.394E-01    0.16       1.0  T
   4   -209.3879886 -0.529622E-02  0.188E-01    0.13       1.0  T
   5   -209.3892075 -0.121888E-02  0.157E-01    0.13       1.0  T
   6   -209.3900202 -0.812726E-03  0.731E-02    0.14       1.0  T
   7   -209.3900602 -0.399140E-04  0.487E-02    0.13       1.0  T
   8   -209.3885029  0.155722E-02  0.126E-01    0.11       1.0  T
   9   -209.3901581 -0.165514E-02  0.320E-02    0.13       1.0  T
  10   -209.3901613 -0.317392E-05  0.205E-02    0.13       1.0  T
  11   -209.3901958 -0.345566E-04  0.105E-02    0.13       1.0  T
  12   -209.3901941  0.172891E-05  0.102E-02    0.13       1.0  T
  13   -209.3901865  0.755853E-05  0.107E-02    0.13       1.0  T
  14   -209.3901983 -0.118125E-04  0.597E-03    0.13       1.7  T
  15   -209.3901990 -0.643312E-06  0.457E-03    0.13       2.2  T
  16   -209.3901993 -0.330435E-06  0.334E-03    0.13       3.0  T
  17   -209.3901999 -0.601767E-06  0.202E-03    0.13       4.9  T
  18   -209.3901999  0.834325E-08  0.151E-03    0.13       6.5  T
  19   -209.3902000 -0.679746E-07  0.116E-03    0.13       8.5  T
  20   -209.3902000 -0.462950E-07  0.812E-04    0.13      12.1  T
  21   -209.3902001 -0.409820E-07  0.435E-04    0.13      22.6  T
     SCC iter.                  ...        0 min,  1.127 sec
     gradient                   ...        0 min,  0.067 sec
 * total energy  :  -205.2482310 Eh     change       -0.2147983E-02 Eh
   gradient norm :     0.0142427 Eh/α   predicted    -0.2050365E-02 (  -4.54%)
   displ. norm   :     0.8853858 α      lambda       -0.2568332E-02
   maximum displ.:     0.4465869 α      in ANC's #4, #2, #5, ...

........................................................................
.............................. CYCLE  206 ..............................
........................................................................

 iter      E             dE          RMSdq      gap      omega  full diag
   1   -209.3845812 -0.209385E+03  0.294E-01    0.14       0.0  T
   2   -209.3811660  0.341521E-02  0.311E-01    0.11       1.0  T
   3   -209.3762261  0.493992E-02  0.518E-01    0.16       1.0  T
   4   -209.3792280 -0.300194E-02  0.353E-01    0.14       1.0  T
   5   -209.3843417 -0.511367E-02  0.112E-01    0.13       1.0  T
   6   -209.3847417 -0.399976E-03  0.655E-02    0.14       1.0  T
   7   -209.3847715 -0.298585E-04  0.519E-02    0.13       1.0  T
   8   -209.3845030  0.268516E-03  0.687E-02    0.13       1.0  T
   9   -209.3845578 -0.547896E-04  0.548E-02    0.13       1.0  T
  10   -209.3848970 -0.339175E-03  0.157E-02    0.13       1.0  T
  11   -209.3849068 -0.979518E-05  0.132E-02    0.13       1.0  T
  12   -209.3848872  0.195673E-04  0.153E-02    0.13       1.0  T
  13   -209.3849113 -0.241207E-04  0.689E-03    0.13       1.4  T
  14   -209.3849126 -0.131125E-05  0.492E-03    0.13       2.0  T
  15   -209.3849133 -0.618040E-06  0.318E-03    0.13       3.1  T
  16   -209.3849132  0.291442E-07  0.312E-03    0.13       3.2  T
  17   -209.3849133 -0.559696E-07  0.263E-03    0.13       3.7  T
  18   -209.3849133  0.301154E-07  0.197E-03    0.13       5.0  T
  19   -209.3849135 -0.281568E-06  0.101E-03    0.13       9.8  T
  20   -209.3849136 -0.191444E-07  0.822E-04    0.13      12.0  T
  21   -209.3849136 -0.303759E-07  0.540E-04    0.13      18.2  T
     SCC iter.                  ...        0 min,  0.744 sec
     gradient                   ...        0 min,  0.067 sec
 * total energy  :  -205.2504013 Eh     change       -0.2170295E-02 Eh
   gradient norm :     0.0183137 Eh/α   predicted    -0.2290838E-02 (   5.55%)
   displ. norm   :     0.9281360 α      lambda       -0.2429111E-02
   maximum displ.:     0.5177956 α      in ANC's #4, #2, #5, ...

........................................................................
.............................. CYCLE  207 ..............................
........................................................................

 iter      E             dE          RMSdq      gap      omega  full diag
   1   -209.3686866 -0.209369E+03  0.314E-01    0.14       0.0  T
   2   -209.3286617  0.400249E-01  0.696E-01    0.05       1.0  T
   3   -209.3607629 -0.321013E-01  0.374E-01    0.15       1.0  T
   4   -209.3579404  0.282250E-02  0.592E-01    0.15       1.0  T
   5   -209.3658450 -0.790459E-02  0.232E-01    0.14       1.0  T
   6   -209.3670535 -0.120845E-02  0.170E-01    0.14       1.0  T
   7   -209.3678970 -0.843539E-03  0.142E-01    0.14       1.0  T
   8   -209.3683349 -0.437844E-03  0.939E-02    0.13       1.0  T
   9   -209.3689226 -0.587738E-03  0.537E-02    0.13       1.0  T
  10   -209.3690139 -0.912567E-04  0.506E-02    0.13       1.0  T
  11   -209.3688083  0.205560E-03  0.529E-02    0.12       1.0  T
  12   -209.3691418 -0.333534E-03  0.145E-02    0.13       1.0  T
  13   -209.3691454 -0.353696E-05  0.129E-02    0.13       1.0  T
  14   -209.3691381  0.723330E-05  0.122E-02    0.13       1.0  T
  15   -209.3691450 -0.685190E-05  0.894E-03    0.13       1.1  T
  16   -209.3691502 -0.517492E-05  0.453E-03    0.13       2.2  T
  17   -209.3691500  0.156521E-06  0.483E-03    0.13       2.0  T
  18   -209.3691508 -0.742903E-06  0.308E-03    0.13       3.2  T
  19   -209.3691509 -0.150281E-06  0.157E-03    0.13       6.3  T
  20   -209.3691508  0.125792E-06  0.180E-03    0.13       5.5  T
  21   -209.3691509 -0.150837E-06  0.961E-04    0.13      10.2  T
  22   -209.3691509  0.232918E-07  0.113E-03    0.13       8.7  T
  23   -209.3691510 -0.816104E-07  0.525E-04    0.13      18.8  T
     SCC iter.                  ...        0 min,  0.761 sec
     gradient                   ...        0 min,  0.070 sec
 * total energy  :  -205.2527210 Eh     change       -0.2319700E-02 Eh
   gradient norm :     0.0199606 Eh/α   predicted    -0.2260828E-02 (  -2.54%)
   displ. norm   :     0.7919248 α      lambda       -0.3117030E-02
   maximum displ.:     0.3745966 α      in ANC's #2, #5, #4, ...

........................................................................
.............................. CYCLE  208 ..............................
........................................................................

 iter      E             dE          RMSdq      gap      omega  full diag
   1   -209.3867936 -0.209387E+03  0.359E-01    0.15       0.0  T
   2   -208.9498014  0.436992E+00  0.225E+00    0.08       1.0  T
   3   -209.3845774 -0.434776E+00  0.263E-01    0.14       1.0  T
   4   -209.3769532  0.762424E-02  0.525E-01    0.15       1.0  T
   5   -209.3864021 -0.944892E-02  0.260E-01    0.15       1.0  T
   6   -209.3870757 -0.673599E-03  0.158E-01    0.14       1.0  T
   7   -209.3875398 -0.464059E-03  0.135E-01    0.14       1.0  T
   8   -209.3880759 -0.536133E-03  0.105E-01    0.14       1.0  T
   9   -209.3884817 -0.405842E-03  0.762E-02    0.14       1.0  T
  10   -209.3887814 -0.299634E-03  0.437E-02    0.14       1.0  T
  11   -209.3888562 -0.748021E-04  0.274E-02    0.13       1.0  T
  12   -209.3888636 -0.742237E-05  0.183E-02    0.13       1.0  T
  13   -209.3888831 -0.194706E-04  0.148E-02    0.13       1.0  T
  14   -209.3888924 -0.936306E-05  0.103E-02    0.13       1.0  T
  15   -209.3888943 -0.192506E-05  0.732E-03    0.13       1.3  T
  16   -209.3888947 -0.392533E-06  0.643E-03    0.13       1.5  T
  17   -209.3888961 -0.136325E-05  0.335E-03    0.13       2.9  T
  18   -209.3888961 -0.151936E-07  0.428E-03    0.13       2.3  T
  19   -209.3888967 -0.572844E-06  0.169E-03    0.13       5.8  T
  20   -209.3888966  0.545177E-07  0.151E-03    0.13       6.5  T
  21   -209.3888967 -0.969082E-07  0.950E-04    0.13      10.4  T
  22   -209.3888968 -0.243190E-07  0.549E-04    0.13      18.0  T
     SCC iter.                  ...        0 min,  0.683 sec
     gradient                   ...        0 min,  0.066 sec
 * total energy  :  -205.2545009 Eh     change       -0.1779905E-02 Eh
   gradient norm :     0.0378130 Eh/α   predicted    -0.2535934E-02 (  42.48%)
   displ. norm   :     0.7700109 α      lambda       -0.3277789E-02
   maximum displ.:     0.4192045 α      in ANC's #4, #2, #5, ...

........................................................................
.............................. CYCLE  209 ..............................
........................................................................

 iter      E             dE          RMSdq      gap      omega  full diag
   1   -209.3752015 -0.209375E+03  0.267E-01    0.11       0.0  T
   2   -209.3695787  0.562276E-02  0.327E-01    0.15       1.0  T
   3   -209.3716729 -0.209414E-02  0.368E-01    0.13       1.0  T
   4   -209.3693042  0.236870E-02  0.415E-01    0.10       1.0  T
   5   -209.3755963 -0.629211E-02  0.140E-01    0.14       1.0  T
   6   -209.3764276 -0.831295E-03  0.536E-02    0.13       1.0  T
   7   -209.3760724  0.355181E-03  0.758E-02    0.12       1.0  T
   8   -209.3765062 -0.433786E-03  0.380E-02    0.13       1.0  T
   9   -209.3761897  0.316480E-03  0.545E-02    0.13       1.0  T
  10   -209.3765318 -0.342138E-03  0.333E-02    0.14       1.0  T
  11   -209.3765850 -0.531872E-04  0.135E-02    0.13       1.0  T
  12   -209.3765858 -0.808367E-06  0.963E-03    0.13       1.0  T
  13   -209.3765891 -0.323534E-05  0.694E-03    0.13       1.4  T
  14   -209.3765895 -0.478460E-06  0.525E-03    0.13       1.9  T
  15   -209.3765904 -0.884388E-06  0.356E-03    0.13       2.8  T
  16   -209.3765913 -0.891303E-06  0.199E-03    0.13       5.0  T
  17   -209.3765913  0.169566E-07  0.154E-03    0.13       6.4  T
  18   -209.3765913 -0.105635E-07  0.128E-03    0.13       7.7  T
  19   -209.3765914 -0.979425E-07  0.880E-04    0.13      11.2  T
  20   -209.3765914  0.140700E-07  0.742E-04    0.13      13.3  T
     SCC iter.                  ...        0 min,  0.651 sec
     gradient                   ...        0 min,  0.060 sec
 * total energy  :  -205.2572229 Eh     change       -0.2721928E-02 Eh
   gradient norm :     0.0259438 Eh/α   predicted    -0.2610625E-02 (  -4.09%)
   displ. norm   :     0.7621903 α      lambda       -0.3405168E-02
   maximum displ.:     0.3663467 α      in ANC's #2, #4, #5, ...

........................................................................
.............................. CYCLE  210 ..............................
........................................................................

 iter      E             dE          RMSdq      gap      omega  full diag
   1   -209.3635718 -0.209364E+03  0.301E-01    0.13       0.0  T
   2   -209.3486099  0.149618E-01  0.390E-01    0.08       1.0  T
   3   -209.3392057  0.940425E-02  0.755E-01    0.15       1.0  T
   4   -209.3590581 -0.198524E-01  0.245E-01    0.13       1.0  T
   5   -209.3617496 -0.269158E-02  0.160E-01    0.13       1.0  T
   6   -209.3623894 -0.639730E-03  0.127E-01    0.14       1.0  T
   7   -209.3632160 -0.826667E-03  0.819E-02    0.13       1.0  T
   8   -209.3638736 -0.657590E-03  0.434E-02    0.13       1.0  T
   9   -209.3639691 -0.954877E-04  0.433E-02    0.13       1.0  T
  10   -209.3639993 -0.302276E-04  0.287E-02    0.13       1.0  T
  11   -209.3640382 -0.388900E-04  0.179E-02    0.13       1.0  T
  12   -209.3640399 -0.164905E-05  0.170E-02    0.13       1.0  T
  13   -209.3640430 -0.311885E-05  0.102E-02    0.13       1.0  T
  14   -209.3640467 -0.364816E-05  0.553E-03    0.13       1.8  T
  15   -209.3640457  0.909114E-06  0.609E-03    0.13       1.6  T
  16   -209.3640472 -0.142889E-05  0.315E-03    0.13       3.1  T
  17   -209.3640473 -0.174977E-06  0.279E-03    0.13       3.5  T
  18   -209.3640475 -0.174925E-06  0.165E-03    0.13       6.0  T
  19   -209.3640476 -0.387729E-07  0.123E-03    0.13       8.0  T
  20   -209.3640475  0.747822E-07  0.135E-03    0.13       7.3  T
  21   -209.3640476 -0.111407E-06  0.684E-04    0.13      14.4  T
  22   -209.3640476  0.210129E-07  0.752E-04    0.13      13.1  T
     SCC iter.                  ...        0 min,  0.750 sec
     gradient                   ...        0 min,  0.066 sec
 * total energy  :  -205.2597538 Eh     change       -0.2530925E-02 Eh
   gradient norm :     0.0232176 Eh/α   predicted    -0.2691682E-02 (   6.35%)
   displ. norm   :     0.8346006 α      lambda       -0.3423255E-02
   maximum displ.:     0.4023125 α      in ANC's #2, #4, #5, ...

........................................................................
.............................. CYCLE  211 ..............................
........................................................................

 iter      E             dE          RMSdq      gap      omega  full diag
   1   -209.3771338 -0.209377E+03  0.283E-01    0.14       0.0  T
   2   -209.3673225  0.981131E-02  0.286E-01    0.09       1.0  T
   3   -209.3577002  0.962236E-02  0.570E-01    0.16       1.0  T
   4   -209.3722372 -0.145370E-01  0.309E-01    0.14       1.0  T
   5   -209.3749833 -0.274620E-02  0.176E-01    0.14       1.0  T
   6   -209.3760663 -0.108300E-02  0.137E-01    0.14       1.0  T
   7   -209.3766380 -0.571684E-03  0.870E-02    0.14       1.0  T
   8   -209.3772591 -0.621090E-03  0.701E-02    0.13       1.0  T
   9   -209.3773655 -0.106424E-03  0.404E-02    0.13       1.0  T
  10   -209.3773013  0.642811E-04  0.584E-02    0.13       1.0  T
  11   -209.3774913 -0.190071E-03  0.213E-02    0.14       1.0  T
  12   -209.3774994 -0.807280E-05  0.198E-02    0.13       1.0  T
  13   -209.3775133 -0.139051E-04  0.115E-02    0.13       1.0  T
  14   -209.3775198 -0.653808E-05  0.781E-03    0.13       1.3  T
  15   -209.3775219 -0.202527E-05  0.505E-03    0.13       1.9  T
  16   -209.3775223 -0.410120E-06  0.338E-03    0.13       2.9  T
  17   -209.3775223 -0.355421E-07  0.400E-03    0.13       2.5  T
  18   -209.3775227 -0.379118E-06  0.199E-03    0.13       5.0  T
  19   -209.3775227 -0.454052E-07  0.134E-03    0.13       7.4  T
  20   -209.3775228 -0.192231E-07  0.111E-03    0.13       8.9  T
  21   -209.3775227  0.449907E-07  0.118E-03    0.13       8.3  T
  22   -209.3775228 -0.359607E-07  0.936E-04    0.13      10.5  T
  23   -209.3775228 -0.641870E-07  0.330E-04    0.13      29.9  T
     SCC iter.                  ...        0 min,  0.718 sec
     gradient                   ...        0 min,  0.056 sec
 * total energy  :  -205.2628997 Eh     change       -0.3145912E-02 Eh
   gradient norm :     0.0236575 Eh/α   predicted    -0.2903882E-02 (  -7.69%)
   displ. norm   :     0.7983824 α      lambda       -0.4401617E-02
   maximum displ.:     0.3523397 α      in ANC's #2, #5, #4, ...

........................................................................
.............................. CYCLE  212 ..............................
........................................................................

 iter      E             dE          RMSdq      gap      omega  full diag
   1   -209.4367465 -0.209437E+03  0.323E-01    0.14       0.0  T
   2   -209.1100764  0.326670E+00  0.178E+00    0.05       1.0  T
   3   -209.4340790 -0.324003E+00  0.306E-01    0.16       1.0  T
   4   -209.4241108  0.996825E-02  0.560E-01    0.14       1.0  T
   5   -209.4356631 -0.115524E-01  0.175E-01    0.14       1.0  T
   6   -209.4368688 -0.120561E-02  0.162E-01    0.14       1.0  T
   7   -209.4371986 -0.329827E-03  0.154E-01    0.15       1.0  T
   8   -209.4371817  0.169120E-04  0.118E-01    0.14       1.0  T
   9   -209.4379222 -0.740546E-03  0.954E-02    0.15       1.0  T
  10   -209.4383144 -0.392218E-03  0.687E-02    0.14       1.0  T
  11   -209.4385133 -0.198853E-03  0.462E-02    0.14       1.0  T
  12   -209.4386061 -0.927751E-04  0.268E-02    0.14       1.0  T
  13   -209.4386350 -0.289449E-04  0.146E-02    0.14       1.0  T
  14   -209.4386349  0.150014E-06  0.146E-02    0.14       1.0  T
  15   -209.4386375 -0.260751E-05  0.112E-02    0.14       1.0  T
  16   -209.4386438 -0.634478E-05  0.827E-03    0.14       1.2  T
  17   -209.4386454 -0.159367E-05  0.606E-03    0.14       1.6  T
  18   -209.4386467 -0.127017E-05  0.412E-03    0.14       2.4  T
  19   -209.4386474 -0.713198E-06  0.337E-03    0.14       2.9  T
  20   -209.4386477 -0.321718E-06  0.178E-03    0.14       5.5  T
  21   -209.4386478 -0.811878E-07  0.139E-03    0.14       7.1  T
  22   -209.4386478 -0.836846E-08  0.110E-03    0.14       9.0  T
  23   -209.4386478  0.345801E-08  0.820E-04    0.14      12.0  T
  24   -209.4386478 -0.272674E-07  0.624E-04    0.14      15.8  T
     SCC iter.                  ...        0 min,  0.791 sec
     gradient                   ...        0 min,  0.071 sec
 * total energy  :  -205.2660783 Eh     change       -0.3178619E-02 Eh
   gradient norm :     0.0315250 Eh/α   predicted    -0.3603643E-02 (  13.37%)
   displ. norm   :     0.8700446 α      lambda       -0.4243304E-02
   maximum displ.:     0.4161692 α      in ANC's #2, #5, #4, ...

........................................................................
.............................. CYCLE  213 ..............................
........................................................................

 iter      E             dE          RMSdq      gap      omega  full diag
   1   -209.4335735 -0.209434E+03  0.322E-01    0.15       0.0  T
   2   -209.3264274  0.107146E+00  0.104E+00    0.03       1.0  T
   3   -209.4264071 -0.999797E-01  0.430E-01    0.17       1.0  T
   4   -209.4267998 -0.392698E-03  0.312E-01    0.15       1.0  T
   5   -209.4319236 -0.512379E-02  0.212E-01    0.14       1.0  T
   6   -209.4337847 -0.186114E-02  0.132E-01    0.15       1.0  T
   7   -209.4334488  0.335929E-03  0.138E-01    0.15       1.0  T
   8   -209.4339582 -0.509390E-03  0.958E-02    0.15       1.0  T
   9   -209.4346552 -0.697007E-03  0.732E-02    0.15       1.0  T
  10   -209.4347979 -0.142742E-03  0.469E-02    0.14       1.0  T
  11   -209.4347872  0.107129E-04  0.423E-02    0.14       1.0  T
  12   -209.4348640 -0.767590E-04  0.212E-02    0.14       1.0  T
  13   -209.4348706 -0.665011E-05  0.179E-02    0.14       1.0  T
  14   -209.4348737 -0.304214E-05  0.133E-02    0.14       1.0  T
  15   -209.4348812 -0.748983E-05  0.712E-03    0.14       1.4  T
  16   -209.4348834 -0.219803E-05  0.490E-03    0.14       2.0  T
  17   -209.4348831  0.271201E-06  0.382E-03    0.14       2.6  T
  18   -209.4348838 -0.682118E-06  0.270E-03    0.14       3.7  T
  19   -209.4348836  0.222156E-06  0.302E-03    0.14       3.3  T
  20   -209.4348838 -0.279781E-06  0.189E-03    0.14       5.2  T
  21   -209.4348840 -0.186146E-06  0.119E-03    0.14       8.3  T
  22   -209.4348840 -0.114267E-07  0.974E-04    0.14      10.1  T
  23   -209.4348841 -0.236953E-07  0.634E-04    0.14      15.5  T
     SCC iter.                  ...        0 min,  0.719 sec
     gradient                   ...        0 min,  0.066 sec
 * total energy  :  -205.2699714 Eh     change       -0.3893102E-02 Eh
   gradient norm :     0.0264433 Eh/α   predicted    -0.3727703E-02 (  -4.25%)
   displ. norm   :     0.8750062 α      lambda       -0.4669024E-02
   maximum displ.:     0.4168046 α      in ANC's #5, #2, #4, ...

........................................................................
.............................. CYCLE  214 ..............................
........................................................................

 iter      E             dE          RMSdq      gap      omega  full diag
   1   -209.4038910 -0.209404E+03  0.323E-01    0.15       0.0  T
   2   -209.3732709  0.306201E-01  0.642E-01    0.09       1.0  T
   3   -209.3881549 -0.148841E-01  0.635E-01    0.17       1.0  T
   4   -209.3978802 -0.972523E-02  0.300E-01    0.15       1.0  T
   5   -209.4034834 -0.560328E-02  0.159E-01    0.14       1.0  T
   6   -209.4049149 -0.143150E-02  0.801E-02    0.15       1.0  T
   7   -209.4050248 -0.109864E-03  0.727E-02    0.14       1.0  T
   8   -209.4048528  0.171960E-03  0.576E-02    0.15       1.0  T
   9   -209.4045725  0.280359E-03  0.833E-02    0.14       1.0  T
  10   -209.4050703 -0.497817E-03  0.426E-02    0.14       1.0  T
  11   -209.4050808 -0.104754E-04  0.341E-02    0.15       1.0  T
  12   -209.4051330 -0.522101E-04  0.240E-02    0.15       1.0  T
  13   -209.4051445 -0.115378E-04  0.166E-02    0.15       1.0  T
  14   -209.4051510 -0.645785E-05  0.103E-02    0.15       1.0  T
  15   -209.4051529 -0.191880E-05  0.768E-03    0.15       1.3  T
  16   -209.4051557 -0.275820E-05  0.526E-03    0.14       1.9  T
  17   -209.4051566 -0.952377E-06  0.323E-03    0.14       3.0  T
  18   -209.4051568 -0.157232E-06  0.209E-03    0.14       4.7  T
  19   -209.4051569 -0.109085E-06  0.141E-03    0.14       7.0  T
  20   -209.4051569 -0.597182E-07  0.946E-04    0.14      10.4  T
  21   -209.4051570 -0.416451E-07  0.624E-04    0.14      15.8  T
     SCC iter.                  ...        0 min,  0.761 sec
     gradient                   ...        0 min,  0.066 sec
 * total energy  :  -205.2740290 Eh     change       -0.4057588E-02 Eh
   gradient norm :     0.0213918 Eh/α   predicted    -0.4121906E-02 (   1.59%)
   displ. norm   :     0.9206718 α      lambda       -0.4595446E-02
   maximum displ.:     0.4506733 α      in ANC's #5, #2, #4, ...

........................................................................
.............................. CYCLE  215 ..............................
........................................................................

 iter      E             dE          RMSdq      gap      omega  full diag
   1   -209.4004683 -0.209400E+03  0.339E-01    0.16       0.0  T
   2   -209.3675417  0.329266E-01  0.668E-01    0.09       1.0  T
   3   -209.3875561 -0.200144E-01  0.596E-01    0.18       1.0  T
   4   -209.3936458 -0.608969E-02  0.371E-01    0.16       1.0  T
   5   -209.4009300 -0.728420E-02  0.151E-01    0.15       1.0  T
   6   -209.4017884 -0.858483E-03  0.117E-01    0.16       1.0  T
   7   -209.4017647  0.237199E-04  0.108E-01    0.15       1.0  T
   8   -209.4016655  0.991985E-04  0.947E-02    0.15       1.0  T
   9   -209.4018011 -0.135588E-03  0.990E-02    0.15       1.0  T
  10   -209.4019882 -0.187046E-03  0.816E-02    0.15       1.0  T
  11   -209.4019519  0.362459E-04  0.756E-02    0.15       1.0  T
  12   -209.4021252 -0.173287E-03  0.597E-02    0.15       1.0  T
  13   -209.4022089 -0.837467E-04  0.474E-02    0.15       1.0  T
  14   -209.4022127 -0.373267E-05  0.486E-02    0.15       1.0  T
  15   -209.4022192 -0.652916E-05  0.494E-02    0.15       1.0  T
  16   -209.4022012  0.180498E-04  0.565E-02    0.15       1.0  T
  17   -209.4021998  0.132280E-05  0.561E-02    0.15       1.0  T
  18   -209.4021808  0.190564E-04  0.561E-02    0.15       1.0  T
  19   -209.4022031 -0.223676E-04  0.542E-02    0.15       1.0  T
  20   -209.4021961  0.706200E-05  0.899E-02    0.15       1.0  T
  21   -209.4022615 -0.654516E-04  0.462E-02    0.15       1.0  T
  22   -209.4021968  0.647626E-04  0.570E-02    0.15       1.0  T
  23   -209.4018331  0.363716E-03  0.115E-01    0.15       1.0  T
  24   -209.4022492 -0.416111E-03  0.562E-02    0.15       1.0  T
  25   -209.4021392  0.109985E-03  0.112E-01    0.15       1.0  T
  26   -209.4018840  0.255200E-03  0.177E-01    0.15       1.0  T
  27   -209.4018904 -0.642291E-05  0.176E-01    0.15       1.0  T
  28   -209.4021907 -0.300275E-03  0.926E-02    0.15       1.0  T
  29   -209.4022396 -0.489013E-04  0.601E-02    0.15       1.0  T
  30   -209.4022275  0.121030E-04  0.568E-02    0.15       1.0  T
  31   -209.4022236  0.391881E-05  0.565E-02    0.15       1.0  T
  32   -209.4021939  0.296257E-04  0.598E-02    0.15       1.0  T
  33   -209.4021120  0.819326E-04  0.737E-02    0.15       1.0  T
  34   -209.4020228  0.891569E-04  0.882E-02    0.15       1.0  T
  35   -209.4019620  0.608900E-04  0.971E-02    0.15       1.0  T
  36   -209.4020100 -0.479959E-04  0.901E-02    0.15       1.0  T
  37   -209.4021083 -0.983121E-04  0.744E-02    0.15       1.0  T
  38   -209.4022034 -0.951744E-04  0.584E-02    0.15       1.0  T
  39   -209.4022370 -0.335809E-04  0.589E-02    0.15       1.0  T
  40   -209.4022380 -0.961406E-06  0.600E-02    0.15       1.0  T
  41   -209.4022337  0.428509E-05  0.574E-02    0.15       1.0  T
  42   -209.4022090  0.247445E-04  0.579E-02    0.15       1.0  T
  43   -209.4021413  0.676559E-04  0.689E-02    0.15       1.0  T
  44   -209.4021743 -0.330415E-04  0.632E-02    0.15       1.0  T
  45   -209.4022223 -0.479919E-04  0.567E-02    0.15       1.0  T
  46   -209.4022318 -0.944883E-05  0.710E-02    0.15       1.0  T
  47   -209.4021321  0.996586E-04  0.115E-01    0.15       1.0  T
  48   -209.4015020  0.630122E-03  0.248E-01    0.14       1.0  T
  49   -209.3964180  0.508398E-02  0.941E-01    0.08       1.0  T
  50   -209.3985782 -0.216023E-02  0.632E-01    0.11       1.0  T
  51   -209.4142646 -0.156864E-01  0.251E+00    0.03       1.0  T
  52   -209.5340456 -0.119781E+00  0.353E+00    0.14       1.0  T
  53   -209.3970387  0.137007E+00  0.833E-01    0.09       1.0  T
  54   -209.3957448  0.129395E-02  0.122E+00    0.06       1.0  T
  55   -209.3959340 -0.189249E-03  0.115E+00    0.06       1.0  T
  56   -209.7391892 -0.343255E+00  0.396E+00    0.24       1.0  T
  57   -209.3972225  0.341967E+00  0.143E+00    0.04       1.0  T
  58   -209.5562894 -0.159067E+00  0.354E+00    0.14       1.0  T
  59   -209.4937779  0.625115E-01  0.330E+00    0.11       1.0  T
  60   -209.4001485  0.936294E-01  0.183E+00    0.02       1.0  T
  61   -209.4469905 -0.468420E-01  0.290E+00    0.06       1.0  T
  62   -209.4316833  0.153071E-01  0.272E+00    0.05       1.0  T
  63   -209.4642677 -0.325844E-01  0.307E+00    0.08       1.0  T
  64   -209.4897726 -0.255049E-01  0.325E+00    0.10       1.0  T
  65   -209.5251031 -0.353305E-01  0.343E+00    0.12       1.0  T
  66   -209.5910461 -0.659430E-01  0.364E+00    0.16       1.0  T
  67   -209.5233984  0.676477E-01  0.341E+00    0.12       1.0  T
  68   -209.4691301  0.542683E-01  0.309E+00    0.08       1.0  T
  69   -209.4097153  0.594148E-01  0.214E+00    0.01       1.0  T
  70   -209.5031924 -0.934771E-01  0.328E+00    0.11       1.0  T
  71   -209.5925207 -0.893284E-01  0.363E+00    0.16       1.0  T
  72   -209.5907849  0.173580E-02  0.362E+00    0.16       1.0  T
  73   -209.4767136  0.114071E+00  0.308E+00    0.08       1.0  T
  74   -209.4146103  0.621033E-01  0.216E+00    0.02       1.0  T
  75   -209.6018747 -0.187264E+00  0.362E+00    0.16       1.0  T
  76   -209.7098371 -0.107962E+00  0.385E+00    0.21       1.0  T
  77   -209.5541592  0.155678E+00  0.344E+00    0.13       1.0  T
  78   -209.5899233 -0.357641E-01  0.354E+00    0.14       1.0  T
  79   -209.6756833 -0.857599E-01  0.375E+00    0.19       1.0  T
  80   -209.7331087 -0.574255E-01  0.385E+00    0.21       1.0  T
  81   -209.7022300  0.308788E-01  0.380E+00    0.20       1.0  T
  82   -209.7461398 -0.439099E-01  0.387E+00    0.22       1.0  T
  83   -209.7570401 -0.109003E-01  0.389E+00    0.22       1.0  T
  84   -209.7596470 -0.260694E-02  0.389E+00    0.22       1.0  T
  85   -209.8142314 -0.545844E-01  0.398E+00    0.24       1.0  T
  86   -209.8397877 -0.255563E-01  0.401E+00    0.25       1.0  T
  87   -209.8348186  0.496908E-02  0.401E+00    0.25       1.0  T
  88   -209.7699917  0.648269E-01  0.391E+00    0.23       1.0  T
  89   -209.8262366 -0.562449E-01  0.400E+00    0.25       1.0  T
  90   -209.7895108  0.367258E-01  0.394E+00    0.23       1.0  T
  91   -209.8127304 -0.232196E-01  0.398E+00    0.24       1.0  T
  92   -209.8093326  0.339786E-02  0.397E+00    0.24       1.0  T
  93   -209.7975532  0.117794E-01  0.395E+00    0.24       1.0  T
  94   -209.8152956 -0.177425E-01  0.398E+00    0.25       1.0  T
  95   -209.7998809  0.154147E-01  0.396E+00    0.24       1.0  T
  96   -209.8058156 -0.593469E-02  0.397E+00    0.24       1.0  T
  97   -209.8058802 -0.645634E-04  0.397E+00    0.24       1.0  T
  98   -209.7857204  0.201598E-01  0.394E+00    0.23       1.0  T
  99   -209.7779606  0.775972E-02  0.391E+00    0.23       1.0  T
 100   -209.6122822  0.165678E+00  0.347E+00    0.13       1.0  T
 101   -209.4299744  0.182308E+00  0.201E+00    0.03       1.0  T
 102   -209.8096269 -0.379653E+00  0.393E+00    0.23       1.0  T
 103   -209.8988501 -0.892232E-01  0.403E+00    0.25       1.0  T
 104   -209.6490877  0.249762E+00  0.349E+00    0.13       1.0  T
 105   -209.4211816  0.227906E+00  0.173E+00    0.05       1.0  T
 106   -211.0234797 -0.160230E+01  0.490E+00    0.32       1.0  T
 107   -213.8170089 -0.279353E+01  0.589E+00    0.25       1.0  T
 108   -213.5650413  0.251968E+00  0.594E+00    0.20       1.0  T
 109   -213.7256059 -0.160565E+00  0.592E+00    0.24       1.0  T
 110   -213.9408395 -0.215234E+00  0.587E+00    0.26       1.0  T
 111   -213.1539224  0.786917E+00  0.583E+00    0.04       1.0  T
 112   -212.5686409  0.585281E+00  0.551E+00    0.10       1.0  T
 113   -211.7857146  0.782926E+00  0.526E+00    0.23       1.0  T
 114   -209.3766630  0.240905E+01  0.938E-01    0.16       1.0  T
 115   -212.0697133 -0.269305E+01  0.533E+00    0.22       1.0  T
 116   -209.3868232  0.268289E+01  0.810E-01    0.16       1.0  T
 117   -211.5745192 -0.218770E+01  0.513E+00    0.28       1.0  T
 118   -209.3579488  0.221657E+01  0.128E+00    0.18       1.0  T
 119   -210.7988600 -0.144091E+01  0.476E+00    0.35       1.0  T
 120   -209.3877072  0.141115E+01  0.923E-01    0.17       1.0  T
 121   -209.3820789  0.562834E-02  0.132E+00    0.16       1.0  T
 122   -209.3852781 -0.319925E-02  0.995E-01    0.17       1.0  T
 123   -209.3830985  0.217963E-02  0.125E+00    0.16       1.0  T
 124   -209.2808937  0.102205E+00  0.199E+00    0.18       1.0  T
 125   -209.3481493 -0.672557E-01  0.137E+00    0.17       1.0  T
 126   -209.1161446  0.232005E+00  0.663E+00    0.33       1.0  T
 127   -209.3926741 -0.276529E+00  0.758E-01    0.17       1.0  T
 128   -210.2545932 -0.861919E+00  0.439E+00    0.33       1.0  T
 129   -210.4602074 -0.205614E+00  0.455E+00    0.38       1.0  T
 130   -209.3966173  0.106359E+01  0.660E-01    0.18       1.0  T
 131   -209.3955981  0.101918E-02  0.643E-01    0.16       1.0  T
 132   -209.3951663  0.431875E-03  0.621E-01    0.16       1.0  T
 133   -209.3945001  0.666205E-03  0.634E-01    0.16       1.0  T
 134   -209.3960360 -0.153596E-02  0.586E-01    0.16       1.0  T
 135   -209.3972081 -0.117206E-02  0.538E-01    0.16       1.0  T
 136   -209.3983682 -0.116013E-02  0.468E-01    0.16       1.0  T
 137   -209.3986747 -0.306530E-03  0.423E-01    0.16       1.0  T
 138   -209.3996928 -0.101805E-02  0.375E-01    0.16       1.0  T
 139   -209.3998965 -0.203727E-03  0.364E-01    0.16       1.0  T
 140   -209.3998944  0.211569E-05  0.340E-01    0.16       1.0  T
 141   -209.4003698 -0.475375E-03  0.296E-01    0.16       1.0  T
 142   -209.4006859 -0.316087E-03  0.260E-01    0.16       1.0  T
 143   -209.4005875  0.983363E-04  0.253E-01    0.16       1.0  T
 144   -209.4004401  0.147410E-03  0.261E-01    0.16       1.0  T
 145   -209.4004441 -0.400528E-05  0.261E-01    0.16       1.0  T
 146   -209.4007855 -0.341336E-03  0.239E-01    0.16       1.0  T
 147   -209.4009322 -0.146764E-03  0.233E-01    0.16       1.0  T
 148   -209.4009072  0.250317E-04  0.249E-01    0.16       1.0  T
 149   -209.4002282  0.678983E-03  0.339E-01    0.15       1.0  T
 150   -209.3976752  0.255299E-02  0.661E-01    0.13       1.0  T
 151   -209.4266358 -0.289606E-01  0.232E+00    0.02       1.0  T
 152   -209.3996443  0.269916E-01  0.403E-01    0.17       1.0  T
 153   -209.3981233  0.152099E-02  0.544E-01    0.15       1.0  T
 154   -209.4950278 -0.969046E-01  0.301E+00    0.07       1.0  T
 155   -209.3963302  0.986977E-01  0.548E-01    0.17       1.0  T
 156   -209.4020333 -0.570309E-02  0.137E+00    0.07       1.0  T
 157   -209.3963735  0.565978E-02  0.870E-01    0.12       1.0  T
 158   -209.8117411 -0.415368E+00  0.397E+00    0.23       1.0  T
 159   -209.3988727  0.412868E+00  0.449E-01    0.17       1.0  T
 160   -209.4001944 -0.132164E-02  0.320E-01    0.16       1.0  T
 161   -209.4047054 -0.451104E-02  0.151E+00    0.05       1.0  T
 162   -209.3964890  0.821639E-02  0.943E-01    0.11       1.0  T
 163   -210.0326010 -0.636112E+00  0.424E+00    0.31       1.0  T
 164   -209.3986079  0.633993E+00  0.481E-01    0.17       1.0  T
 165   -209.3965504  0.205753E-02  0.927E-01    0.11       1.0  T
 166   -209.6004755 -0.203925E+00  0.351E+00    0.13       1.0  T
 167   -209.3981968  0.202279E+00  0.486E-01    0.17       1.0  T
 168   -209.4127604 -0.145636E-01  0.172E+00    0.04       1.0  T
 169   -209.3964168  0.163436E-01  0.102E+00    0.10       1.0  T
 170   -209.9372411 -0.540824E+00  0.411E+00    0.27       1.0  T
 171   -209.3978525  0.539389E+00  0.517E-01    0.17       1.0  T
 172   -209.4052457 -0.739320E-02  0.148E+00    0.06       1.0  T
 173   -209.4352482 -0.300025E-01  0.217E+00    0.03       1.0  T
 174   -209.4235584  0.116898E-01  0.189E+00    0.03       1.0  T
 175   -209.4317116 -0.815324E-02  0.203E+00    0.03       1.0  T
 176   -209.4026883  0.290233E-01  0.138E+00    0.07       1.0  T
 177   -209.6056099 -0.202922E+00  0.342E+00    0.12       1.0  T
 178   -209.3942773  0.211333E+00  0.792E-01    0.16       1.0  T
 179   -209.7069266 -0.312649E+00  0.370E+00    0.17       1.0  T
 180   -209.3957464  0.311180E+00  0.624E-01    0.17       1.0  T
 181   -209.5927375 -0.196991E+00  0.335E+00    0.11       1.0  T
 182   -209.3953155  0.197422E+00  0.654E-01    0.17       1.0  T
 183   -209.6578617 -0.262546E+00  0.356E+00    0.14       1.0  T
 184   -209.3946063  0.263255E+00  0.681E-01    0.17       1.0  T
 185   -209.6409100 -0.246304E+00  0.350E+00    0.13       1.0  T
 186   -209.3952148  0.245695E+00  0.641E-01    0.17       1.0  T
 187   -209.5626588 -0.167444E+00  0.318E+00    0.09       1.0  T
 188   -209.3958143  0.166844E+00  0.624E-01    0.17       1.0  T
 189   -209.6043054 -0.208491E+00  0.336E+00    0.11       1.0  T
 190   -209.3948930  0.209412E+00  0.664E-01    0.17       1.0  T
 191   -209.7309718 -0.336079E+00  0.372E+00    0.17       1.0  T
 192   -209.3936905  0.337281E+00  0.704E-01    0.17       1.0  T
 193   -209.8939193 -0.500229E+00  0.400E+00    0.23       1.0  T
 194   -209.3932990  0.500620E+00  0.705E-01    0.18       1.0  T
 195   -210.0249047 -0.631606E+00  0.417E+00    0.28       1.0  T
 196   -209.3937435  0.631161E+00  0.667E-01    0.18       1.0  T
 197   -210.0542899 -0.660546E+00  0.420E+00    0.28       1.0  T
 198   -209.3941262  0.660164E+00  0.636E-01    0.17       1.0  T
 199   -210.1233032 -0.729177E+00  0.427E+00    0.30       1.0  T
 200   -209.3939466  0.729357E+00  0.639E-01    0.17       1.0  T
 201   -210.2507483 -0.856802E+00  0.438E+00    0.33       1.0  T
 202   -209.3933487  0.857400E+00  0.661E-01    0.17       1.0  T
 203   -210.3604960 -0.967147E+00  0.447E+00    0.35       1.0  T
 204   -209.3925612  0.967935E+00  0.684E-01    0.17       1.0  T
 205   -210.4403026 -0.104774E+01  0.453E+00    0.35       1.0  T
 206   -209.3917327  0.104857E+01  0.705E-01    0.17       1.0  T
 207   -210.5326244 -0.114089E+01  0.459E+00    0.32       1.0  T
 208   -209.3906254  0.114200E+01  0.733E-01    0.17       1.0  T
 209   -210.6166165 -0.122599E+01  0.464E+00    0.30       1.0  T
 210   -209.3894131  0.122720E+01  0.762E-01    0.17       1.0  T
 211   -210.7256397 -0.133623E+01  0.470E+00    0.28       1.0  T
 212   -209.3873404  0.133830E+01  0.809E-01    0.17       1.0  T
 213   -210.8351026 -0.144776E+01  0.476E+00    0.26       1.0  T
 214   -209.3842112  0.145089E+01  0.872E-01    0.17       1.0  T
 215   -211.0340310 -0.164982E+01  0.486E+00    0.22       1.0  T
 216   -209.3702761  0.166375E+01  0.109E+00    0.17       1.0  T
 217   -211.3903055 -0.202003E+01  0.502E+00    0.19       1.0  T
 218   -209.2884289  0.210188E+01  0.194E+00    0.16       1.0  T
 219   -212.3310226 -0.304259E+01  0.535E+00    0.11       1.0  T
 220   -209.3545047  0.297652E+01  0.128E+00    0.15       1.0  T
 221   -211.3496809 -0.199518E+01  0.502E+00    0.20       1.0  T
 222   -209.4229715  0.192671E+01  0.204E+00    0.06       1.0  T
 223   -209.3892236  0.337479E-01  0.902E-01    0.17       1.0  T
 224   -210.4829303 -0.109371E+01  0.457E+00    0.27       1.0  T
 225   -209.3902629  0.109267E+01  0.804E-01    0.18       1.0  T
 226   -211.4296167 -0.203935E+01  0.501E+00    0.15       1.0  T
 227   -209.3855935  0.204402E+01  0.844E-01    0.16       1.0  T
 228   -212.0868364 -0.270124E+01  0.520E+00    0.09       1.0  T
 229   -209.3864124  0.270042E+01  0.857E-01    0.17       1.0  T
 230   -212.5110831 -0.312467E+01  0.537E+00    0.06       1.0  T
 231   -209.5158288  0.299525E+01  0.278E+00    0.06       1.0  T
 232   -209.3908890  0.124940E+00  0.749E-01    0.16       1.0  T
 233   -209.4266844 -0.357954E-01  0.208E+00    0.06       1.0  T
 234   -209.4554395 -0.287551E-01  0.235E+00    0.04       1.0  T
 235   -209.3908951  0.645444E-01  0.826E-01    0.18       1.0  T
 236   -210.4938971 -0.110300E+01  0.454E+00    0.22       1.0  T
 237   -209.3880951  0.110580E+01  0.868E-01    0.19       1.0  T
 238   -212.0880775 -0.269998E+01  0.512E+00    0.05       1.0  T
 239   -209.9882716  0.209981E+01  0.409E+00    0.23       1.0  T
 240   -209.3902508  0.598021E+00  0.166E+00    0.10       1.0  T
 241   -211.0874159 -0.169717E+01  0.486E+00    0.18       1.0  T
 242   -209.3811580  0.170626E+01  0.156E+00    0.13       1.0  T
 243   -211.2844282 -0.190327E+01  0.493E+00    0.15       1.0  T
 244   -209.3785565  0.190587E+01  0.141E+00    0.15       1.0  T
 245   -211.8180007 -0.243944E+01  0.508E+00    0.09       1.0  T
 246   -209.4230718  0.239493E+01  0.210E+00    0.06       1.0  T
 247   -210.0722506 -0.649179E+00  0.420E+00    0.27       1.0  T
 248   -209.3786653  0.693585E+00  0.150E+00    0.14       1.0  T
 249   -212.4452582 -0.306659E+01  0.526E+00    0.01       1.0  T
 250   -210.5767879  0.186847E+01  0.455E+00    0.15       1.0  T
 251   -209.5322717  0.104452E+01  0.285E+00    0.06       1.0  T
 252   -209.3793927  0.152879E+00  0.118E+00    0.19       1.0  T
 253   -210.8715582 -0.149217E+01  0.470E+00    0.15       1.0  T
 254   -209.3760035  0.149555E+01  0.121E+00    0.20       1.0  T
 255   -211.8748358 -0.249883E+01  0.498E+00    0.03       1.0  T
 256   -209.3768035  0.249803E+01  0.120E+00    0.19       1.0  T
 257   -211.1024961 -0.172569E+01  0.479E+00    0.13       1.0  T
 258   -209.3710060  0.173149E+01  0.154E+00    0.17       1.0  T
 259   -211.8650015 -0.249400E+01  0.501E+00    0.05       1.0  T
 260   -209.3735926  0.249141E+01  0.158E+00    0.15       1.0  T
 261   -211.1791113 -0.180552E+01  0.484E+00    0.13       1.0  T
 262   -209.4464950  0.173262E+01  0.235E+00    0.07       1.0  T
 263   -210.0764191 -0.629924E+00  0.417E+00    0.23       1.0  T
 264   -209.3748479  0.701571E+00  0.127E+00    0.20       1.0  T
 265   -212.5996524 -0.322480E+01  0.540E+00    0.01       1.0  T
 266   -209.3738343  0.322582E+01  0.119E+00    0.19       1.0  T
 267   -210.8072195 -0.143339E+01  0.456E+00    0.09       1.0  T
 268   -209.3674500  0.143977E+01  0.139E+00    0.21       1.0  T
 269   -210.4235593 -0.105611E+01  0.432E+00    0.10       1.0  T
 270   -209.3705828  0.105298E+01  0.129E+00    0.20       1.0  T
 271   -210.6344188 -0.126384E+01  0.440E+00    0.07       1.0  T
 272   -209.8989812  0.735438E+00  0.375E+00    0.14       1.0  T
 273   -209.3695459  0.529435E+00  0.129E+00    0.19       1.0  T
 274   -210.3296673 -0.960121E+00  0.418E+00    0.08       1.0  T
 275   -209.3618155  0.967852E+00  0.174E+00    0.19       1.0  T
 276   -211.2532313 -0.189142E+01  0.471E+00    0.02       1.0  T
 277   -209.8402536  0.141298E+01  0.362E+00    0.13       1.0  T
 278   -209.3684540  0.471800E+00  0.135E+00    0.20       1.0  T
 279   -209.4790344 -0.110580E+00  0.258E+00    0.08       1.0  T
 280   -210.1291867 -0.650152E+00  0.406E+00    0.11       1.0  T
 281   -209.3695343  0.759652E+00  0.130E+00    0.19       1.0  T
 282   -210.4020390 -0.103250E+01  0.417E+00    0.03       1.0  T
 283   -209.3731450  0.102889E+01  0.199E+00    0.16       1.0  T
 284   -210.4365735 -0.106343E+01  0.419E+00    0.02       1.0  T
 285   -209.4508137  0.985760E+00  0.244E+00    0.09       1.0  T
 286   -209.9120823 -0.461269E+00  0.367E+00    0.08       1.0  T
 287   -209.3619923  0.550090E+00  0.152E+00    0.21       1.0  T
 288   -209.9868517 -0.624859E+00  0.372E+00    0.04       1.0  T
 289   -209.3576401  0.629212E+00  0.159E+00    0.21       1.0  T
 290   -209.5828978 -0.225258E+00  0.293E+00    0.09       1.0  T
 291   -209.3600652  0.222833E+00  0.161E+00    0.21       1.0  T
 292   -209.5067334 -0.146668E+00  0.271E+00    0.09       1.0  T
 293   -209.8507517 -0.344018E+00  0.349E+00    0.05       1.0  T
 294   -209.3625876  0.488164E+00  0.199E+00    0.19       1.0  T
 295   -209.9422517 -0.579664E+00  0.365E+00    0.03       1.0  T
 296   -209.3711524  0.571099E+00  0.207E+00    0.17       1.0  T
 297   -210.0666308 -0.695478E+00  0.387E+00    0.01       1.0  T
 298   -209.6403161  0.426315E+00  0.300E+00    0.06       1.0  T
 299   -209.6437729 -0.345681E-02  0.301E+00    0.08       1.0  T
 300   -209.3629866  0.280786E+00  0.196E+00    0.19       1.0  T
 301   -209.4774051 -0.114418E+00  0.261E+00    0.10       1.0  T
 302   -209.7002241 -0.222819E+00  0.316E+00    0.05       1.0  T
 303   -209.3717637  0.328460E+00  0.213E+00    0.18       1.0  T
 304   -209.5697565 -0.197993E+00  0.285E+00    0.08       1.0  T
 305   -209.5841187 -0.143622E-01  0.287E+00    0.08       1.0  T
 306   -209.3794714  0.204647E+00  0.216E+00    0.16       1.0  T
 307   -209.8492709 -0.469799E+00  0.353E+00    0.01       1.0  T
 308   -209.3841334  0.465137E+00  0.221E+00    0.16       1.0  T
 309   -209.7588681 -0.374735E+00  0.332E+00    0.02       1.0  T
 310   -209.4031310  0.355737E+00  0.236E+00    0.14       1.0  T
 311   -209.7576761 -0.354545E+00  0.332E+00    0.02       1.0  T
 312   -209.5114978  0.246178E+00  0.271E+00    0.10       1.0  T
 313   -209.8255279 -0.314030E+00  0.349E+00    0.00       1.0  T
 314   -209.5318286  0.293699E+00  0.275E+00    0.09       1.0  T
 315   -209.9605654 -0.428737E+00  0.381E+00    0.03       1.0  T
 316   -209.7603813  0.200184E+00  0.334E+00    0.01       1.0  T
 317   -209.4489124  0.311469E+00  0.258E+00    0.13       1.0  T
 318   -209.7565924 -0.307680E+00  0.337E+00    0.01       1.0  T
 319   -209.5271809  0.229412E+00  0.280E+00    0.09       1.0  T
 320   -209.8226707 -0.295490E+00  0.354E+00    0.01       1.0  T
 321   -209.6645210  0.158150E+00  0.312E+00    0.04       1.0  T
 322   -209.9088317 -0.244311E+00  0.372E+00    0.02       1.0  T
 323   -209.6895414  0.219290E+00  0.318E+00    0.04       1.0  T
 324   -209.8829909 -0.193449E+00  0.364E+00    0.01       1.0  T
 325   -209.6467430  0.236248E+00  0.310E+00    0.06       1.0  T
 326   -209.8917080 -0.244965E+00  0.366E+00    0.02       1.0  T
 327   -209.6632840  0.228424E+00  0.314E+00    0.05       1.0  T
 328   -209.9029413 -0.239657E+00  0.369E+00    0.02       1.0  T
 329   -209.6377436  0.265198E+00  0.310E+00    0.07       1.0  T
 330   -209.8733137 -0.235570E+00  0.361E+00    0.01       1.0  T
 331   -209.6478488  0.225465E+00  0.313E+00    0.06       1.0  T
 332   -209.8178650 -0.170016E+00  0.347E+00    0.01       1.0  T
 333   -209.7899845  0.278805E-01  0.340E+00    0.03       1.0  T
 334   -209.7285150  0.614695E-01  0.327E+00    0.05       1.0  T
 335   -209.9092630 -0.180748E+00  0.360E+00    0.01       1.0  T
 336   -209.9628286 -0.535656E-01  0.368E+00    0.01       1.0  T
 337   -209.8319729  0.130856E+00  0.343E+00    0.04       1.0  T
 338   -209.8463136 -0.143406E-01  0.344E+00    0.05       1.0  T
 339   -209.5435694  0.302744E+00  0.297E+00    0.12       1.0  T
 340   -209.4228764  0.120693E+00  0.266E+00    0.16       1.0  T
 341   -209.6283163 -0.205440E+00  0.310E+00    0.11       1.0  T
 342   -209.4556617  0.172655E+00  0.274E+00    0.14       1.0  T
 343   -209.3616208  0.940409E-01  0.226E+00    0.21       1.0  T
 344   -209.3432120  0.184088E-01  0.202E+00    0.21       1.0  T
 345   -209.3424207  0.791369E-03  0.204E+00    0.20       1.0  T
 346   -209.3410312  0.138942E-02  0.209E+00    0.21       1.0  T
 347   -209.3366947  0.433657E-02  0.207E+00    0.20       1.0  T
 348   -209.3364904  0.204228E-03  0.212E+00    0.21       1.0  T
 349   -209.3345484  0.194201E-02  0.202E+00    0.17       1.0  T
 350   -209.3371791 -0.263071E-02  0.199E+00    0.17       1.0  T
 351   -209.3457916 -0.861245E-02  0.192E+00    0.19       1.0  T
 352   -209.3463405 -0.548941E-03  0.231E+00    0.23       1.0  T
 353   -210.2571997 -0.910859E+00  0.402E+00    0.07       1.0  T
 354   -211.5650699 -0.130787E+01  0.511E+00    0.14       1.0  T
 355   -209.8368434  0.172823E+01  0.352E+00    0.11       1.0  T
 356   -210.4811970 -0.644354E+00  0.421E+00    0.06       1.0  T
 357   -210.4886875 -0.749046E-02  0.421E+00    0.05       1.0  T
 358   -210.7652445 -0.276557E+00  0.440E+00    0.01       1.0  T
 359   -211.2338448 -0.468600E+00  0.472E+00    0.03       1.0  T
 360   -211.2982334 -0.643886E-01  0.472E+00    0.02       1.0  T
 361   -211.2065103  0.917231E-01  0.466E+00    0.00       1.0  T
 362   -211.1977148  0.879553E-02  0.465E+00    0.00       1.0  T
 363   -210.1085465  0.108917E+01  0.399E+00    0.14       1.0  T
 364   -210.5970450 -0.488498E+00  0.438E+00    0.08       1.0  T
 365   -210.1619034  0.435142E+00  0.406E+00    0.13       1.0  T
 366   -210.3113626 -0.149459E+00  0.420E+00    0.11       1.0  T
 367   -210.5283525 -0.216990E+00  0.435E+00    0.08       1.0  T
 368   -210.6087382 -0.803857E-01  0.441E+00    0.08       1.0  T
 369   -210.7586705 -0.149932E+00  0.450E+00    0.07       1.0  T
 370   -210.7766007 -0.179302E-01  0.451E+00    0.07       1.0  T
 371   -210.8131735 -0.365728E-01  0.454E+00    0.07       1.0  T
 372   -210.8649169 -0.517433E-01  0.458E+00    0.07       1.0  T
 373   -210.8569627  0.795415E-02  0.462E+00    0.09       1.0  T
 374   -211.1614019 -0.304439E+00  0.479E+00    0.08       1.0  T
 375   -210.9324006  0.229001E+00  0.472E+00    0.10       1.0  T
 376   -211.3288107 -0.396410E+00  0.490E+00    0.08       1.0  T
 377   -211.1999815  0.128829E+00  0.487E+00    0.09       1.0  T
 378   -211.5083592 -0.308378E+00  0.499E+00    0.08       1.0  T
 379   -211.4023190  0.106040E+00  0.497E+00    0.09       1.0  T
 380   -211.6680555 -0.265737E+00  0.507E+00    0.08       1.0  T
 381   -211.6338155  0.342400E-01  0.507E+00    0.09       1.0  T
 382   -211.6848865 -0.510710E-01  0.511E+00    0.10       1.0  T
 383   -211.6590944  0.257921E-01  0.512E+00    0.12       1.0  T
 384   -211.4567153  0.202379E+00  0.507E+00    0.15       1.0  T
 385   -211.4117268  0.449885E-01  0.506E+00    0.16       1.0  T
 386   -211.2195630  0.192164E+00  0.501E+00    0.20       1.0  T
 387   -211.1639566  0.556065E-01  0.500E+00    0.22       1.0  T
 388   -211.0378872  0.126069E+00  0.496E+00    0.25       1.0  T
 389   -210.9788170  0.590701E-01  0.494E+00    0.27       1.0  T
 390   -210.9137514  0.650657E-01  0.491E+00    0.29       1.0  T
 391   -210.7684376  0.145314E+00  0.485E+00    0.32       1.0  T
 392   -210.6245461  0.143891E+00  0.477E+00    0.34       1.0  T
 393   -210.5369091  0.876370E-01  0.471E+00    0.35       1.0  T
 394   -210.5035420  0.333671E-01  0.469E+00    0.35       1.0  T
 395   -210.4746211  0.289209E-01  0.466E+00    0.35       1.0  T
 396   -210.4347133  0.399078E-01  0.462E+00    0.34       1.0  T
 397   -210.4095312  0.251821E-01  0.458E+00    0.33       1.0  T
 398   -210.4098811 -0.349977E-03  0.457E+00    0.33       1.0  T
 399   -210.4551111 -0.452299E-01  0.460E+00    0.34       1.0  T
 400   -210.6284228 -0.173312E+00  0.472E+00    0.38       1.0  T
 401   -210.7585825 -0.130160E+00  0.481E+00    0.41       1.0  T
 402   -210.8041419 -0.455594E-01  0.484E+00    0.42       1.0  T
 403   -210.7840938  0.200481E-01  0.482E+00    0.42       1.0  T
 404   -210.7980285 -0.139347E-01  0.482E+00    0.41       1.0  T
 405   -210.7573295  0.406990E-01  0.480E+00    0.41       1.0  T
 406   -210.7130967  0.442329E-01  0.477E+00    0.40       1.0  T
 407   -210.7691154 -0.560188E-01  0.480E+00    0.41       1.0  T
 408   -210.7633837  0.573178E-02  0.479E+00    0.40       1.0  T
 409   -210.7130285  0.503552E-01  0.476E+00    0.40       1.0  T
 410   -210.6655022  0.475263E-01  0.472E+00    0.39       1.0  T
 411   -210.6395994  0.259028E-01  0.470E+00    0.38       1.0  T
 412   -210.6452472 -0.564776E-02  0.469E+00    0.38       1.0  T
 413   -210.6584026 -0.131554E-01  0.469E+00    0.38       1.0  T
 414   -210.6498737  0.852891E-02  0.468E+00    0.36       1.0  T
 415   -210.5080772  0.141797E+00  0.459E+00    0.32       1.0  T
 416   -210.3789578  0.129119E+00  0.448E+00    0.31       1.0  T
 417   -210.3694900  0.946779E-02  0.445E+00    0.29       1.0  T
 418   -210.3641759  0.531406E-02  0.442E+00    0.27       1.0  T
 419   -210.3726240 -0.844804E-02  0.442E+00    0.24       1.0  T
 420   -210.3356062  0.370178E-01  0.439E+00    0.22       1.0  T
 421   -210.2280437  0.107563E+00  0.427E+00    0.18       1.0  T
 422   -210.2276848  0.358841E-03  0.422E+00    0.14       1.0  T
 423   -210.2287929 -0.110809E-02  0.422E+00    0.14       1.0  T
 424   -210.2660287 -0.372357E-01  0.424E+00    0.14       1.0  T
 425   -210.2359113  0.301174E-01  0.420E+00    0.13       1.0  T
 426   -210.2326279  0.328336E-02  0.420E+00    0.13       1.0  T
 427   -210.2465556 -0.139277E-01  0.419E+00    0.12       1.0  T
 428   -210.1935056  0.530500E-01  0.415E+00    0.12       1.0  T
 429   -210.2179364 -0.244308E-01  0.415E+00    0.11       1.0  T
 430   -210.2172320  0.704465E-03  0.415E+00    0.11       1.0  T
 431   -210.0551837  0.162048E+00  0.402E+00    0.13       1.0  T
 432   -210.0284294  0.267543E-01  0.397E+00    0.12       1.0  T
 433   -209.9189006  0.109529E+00  0.386E+00    0.13       1.0  T
 434   -209.7392359  0.179665E+00  0.358E+00    0.15       1.0  T
 435   -209.5101105  0.229125E+00  0.263E+00    0.05       1.0  T
 436   -209.3932183  0.116892E+00  0.688E-01    0.18       1.0  T
 437   -209.8307698 -0.437552E+00  0.403E+00    0.22       1.0  T
 438   -212.1264085 -0.229564E+01  0.527E+00    0.15       1.0  T
 439   -210.8044786  0.132193E+01  0.446E+00    0.01       1.0  T
 440   -209.7619305  0.104255E+01  0.381E+00    0.20       1.0  T
 441   -209.3958751  0.366055E+00  0.675E-01    0.15       1.0  T
 442   -209.6218098 -0.225935E+00  0.386E+00    0.19       1.0  T
 443   -210.2150913 -0.593281E+00  0.443E+00    0.33       1.0  T
 444   -209.4082193  0.806872E+00  0.161E+00    0.05       1.0  T
 445   -209.3890046  0.192147E-01  0.973E-01    0.11       1.0  T
 446   -210.8679836 -0.147898E+01  0.494E+00    0.47       1.0  T
 447   -209.6671725  0.120081E+01  0.371E+00    0.18       1.0  T
 448   -209.3950574  0.272115E+00  0.108E+00    0.09       1.0  T
 449   -209.4772028 -0.821455E-01  0.346E+00    0.12       1.0  T
 450   -209.5537729 -0.765701E-01  0.340E+00    0.12       1.0  T
 451   -209.4553779  0.983950E-01  0.250E+00    0.04       1.0  T
 452   -209.3943143  0.610635E-01  0.731E-01    0.15       1.0  T
 453   -209.8708117 -0.476497E+00  0.419E+00    0.29       1.0  T
 454   -209.4142029  0.456609E+00  0.173E+00    0.04       1.0  T
 455   -209.4184067 -0.420384E-02  0.246E+00    0.03       1.0  T
 456   -209.7283033 -0.309897E+00  0.382E+00    0.20       1.0  T
 457   -209.5585842  0.169719E+00  0.321E+00    0.10       1.0  T
 458   -209.3957819  0.162802E+00  0.973E-01    0.11       1.0  T
 459   -209.4346582 -0.388763E-01  0.272E+00    0.05       1.0  T
 460   -209.4573240 -0.226658E-01  0.255E+00    0.04       1.0  T
 461   -209.4738101 -0.164861E-01  0.269E+00    0.05       1.0  T
 462   -209.4138447  0.599654E-01  0.173E+00    0.04       1.0  T
 463   -209.4231315 -0.928681E-02  0.222E+00    0.02       1.0  T
 464   -209.6713380 -0.248207E+00  0.371E+00    0.18       1.0  T
 465   -209.5799807  0.913573E-01  0.334E+00    0.12       1.0  T
 466   -209.3997039  0.180277E+00  0.113E+00    0.09       1.0  T
 467   -209.4711184 -0.714145E-01  0.314E+00    0.09       1.0  T
 468   -209.4575672  0.135512E-01  0.256E+00    0.04       1.0  T
 469   -209.3964446  0.611226E-01  0.968E-01    0.10       1.0  T
 470   -209.8224227 -0.425978E+00  0.410E+00    0.28       1.0  T
 471   -209.3994268  0.422996E+00  0.570E-01    0.13       1.0  T
 472   -209.7179466 -0.318520E+00  0.403E+00    0.27       1.0  T
 473   -209.3976330  0.320314E+00  0.131E+00    0.05       1.0  T
 474   -209.4544126 -0.567796E-01  0.330E+00    0.11       1.0  T
 475   -209.4872590 -0.328464E-01  0.312E+00    0.09       1.0  T
 476   -209.3996507  0.876083E-01  0.556E-01    0.15       1.0  T
 477   -209.4596943 -0.600436E-01  0.338E+00    0.12       1.0  T
 478   -209.3994342  0.602601E-01  0.494E-01    0.15       1.0  T
 479   -209.3812747  0.181596E-01  0.236E+00    0.02       1.0  T
 480   -209.3939899 -0.127152E-01  0.165E+00    0.03       1.0  T
 481   -209.6018299 -0.207840E+00  0.374E+00    0.19       1.0  T
 482   -209.3991395  0.202690E+00  0.574E-01    0.13       1.0  T
 483   -209.4844857 -0.853462E-01  0.353E+00    0.15       1.0  T
 484   -209.3969301  0.875556E-01  0.700E-01    0.11       1.0  T
 485   -209.5375791 -0.140649E+00  0.370E+00    0.18       1.0  T
 486   -209.4000714  0.137508E+00  0.457E-01    0.14       1.0  T
 487   -209.3843158  0.157557E-01  0.130E+00    0.04       1.0  T
 488   -209.9698567 -0.585541E+00  0.434E+00    0.36       1.0  T
 489   -209.4013684  0.568488E+00  0.338E-01    0.14       1.0  T
 490   -209.3971759  0.419251E-02  0.497E-01    0.12       1.0  T
 491   -209.4983940 -0.101218E+00  0.365E+00    0.17       1.0  T
 492   -209.4011872  0.972068E-01  0.310E-01    0.15       1.0  T
 493   -209.4003053  0.881899E-03  0.302E-01    0.14       1.0  T
 494   -209.3972766  0.302869E-02  0.471E-01    0.12       1.0  T
 495   -209.3792442  0.180324E-01  0.166E+00    0.02       1.0  T
 496   -209.3877144 -0.847016E-02  0.127E+00    0.05       1.0  T
 497   -209.5758705 -0.188156E+00  0.375E+00    0.19       1.0  T
 498   -209.4010634  0.174807E+00  0.378E-01    0.15       1.0  T
 499   -209.3923546  0.870880E-02  0.787E-01    0.09       1.0  T
 500   -209.5235727 -0.131218E+00  0.367E+00    0.17       1.0  T
     SCC iter.                  ...        0 min, 22.068 sec
     gradient                   ...        0 min,  0.053 sec
================
 final structure:
================
103
 xtb: 6.7.1pre (5071a88)
C           -3.11647300000000        5.40966700000000       10.57000800000000
C           -3.28327400000000        4.41021700000000        9.69358000000000
C           -2.55427800000000        3.10866200000000        9.70920400000000
O           -3.13555500000000        2.12511100000000        9.27017100000000
N           -1.26261200000000        3.19836700000000       10.16468100000000
C           -0.29763000000000        2.17256400000000       10.30676400000000
C           -0.59387600000000        0.81986300000000       10.08220900000000
C            0.37790000000000       -0.18152900000000       10.22884800000000
N            0.12607200000000       -1.54907500000000       10.02224100000000
C           -0.97734600000000       -2.30249800000000        9.64994900000000
N           -2.16755800000000       -1.73941800000000        9.41073600000000
C           -3.17966600000000       -2.54498300000000        9.05311900000000
C           -3.05153900000000       -3.90220600000000        8.92217800000000
C           -1.79729800000000       -4.40517500000000        9.18631300000000
C           -1.51151700000000       -5.83350500000000        9.08933100000000
C           -2.13690700000000       -6.68539500000000        8.19559000000000
N           -1.62035800000000       -7.94294100000000        8.36437000000000
C           -2.01857300000000       -9.10529700000000        7.60197100000000
C           -0.66404400000000       -7.94124700000000        9.35594200000000
C            0.12544200000000       -8.98072700000000        9.87547300000000
C            1.02961400000000       -8.67480800000000       10.89631100000000
C            1.14413400000000       -7.37750000000000       11.38363900000000
C            0.35328600000000       -6.35009000000000       10.85897600000000
C           -0.56892100000000       -6.62640200000000        9.82509500000000
N           -0.76112400000000       -3.62249200000000        9.55254700000000
C            1.68237900000000        0.19525500000000       10.61638100000000
O            2.57820900000000       -0.84431600000000       10.74033200000000
C            3.90162800000000       -0.51514500000000       11.14172500000000
C            1.98594500000000        1.53824100000000       10.84472500000000
C            1.01250800000000        2.54087300000000       10.69840500000000
N            1.43930900000000        3.86143000000000       10.95755600000000
C            0.88986800000000        4.46064400000000       12.17073300000000
C            1.62158300000000        4.68553400000000        9.74670800000000
C            2.31707500000000        6.04355400000000       10.01792800000000
N            1.46378500000000        7.08332700000000       10.64441200000000
C            0.44962700000000        7.58666100000000        9.71526900000000
C            2.29958500000000        8.19468300000000       11.10906000000000
H           -2.41496500000000        5.36027300000000       11.39499900000000
H           -3.72867000000000        6.30358800000000       10.49691900000000
H           -4.05189400000000        4.47103000000000        8.92862100000000
H           -0.91013100000000        4.11931200000000       10.37153400000000
H           -1.59722900000000        0.53163900000000        9.79377000000000
H            0.93621700000000       -2.14331400000000       10.14498000000000
H           -4.12562200000000       -2.04350200000000        8.87243500000000
H           -3.89091200000000       -4.52193400000000        8.64384000000000
H           -2.89248500000000       -6.49641800000000        7.44435700000000
H           -1.14228700000000       -9.48931600000000        7.07349400000000
H           -2.79086700000000       -8.82464500000000        6.88123000000000
H           -2.41367000000000       -9.85374400000000        8.29360300000000
H            0.04398100000000       -9.99591600000000        9.50133600000000
H            1.65206500000000       -9.46233200000000       11.31420800000000
H            1.85212500000000       -7.15522200000000       12.17767900000000
H            0.44955900000000       -5.33937900000000       11.24632600000000
H            4.47478800000000       -1.44576300000000       11.19575800000000
H            3.91126100000000       -0.06132000000000       12.13815800000000
H            4.38851300000000        0.13194000000000       10.40476400000000
H            2.98034500000000        1.85018500000000       11.14545900000000
H           -0.01586500000000        5.04105700000000       11.97599100000000
H            1.63224000000000        5.12557900000000       12.62407100000000
H            0.65570100000000        3.70172700000000       12.92708300000000
H            2.27282100000000        4.13280100000000        9.05560200000000
H            0.67868700000000        4.83819300000000        9.21394600000000
H            3.18049400000000        5.84371900000000       10.66662200000000
H            2.72038300000000        6.42530300000000        9.07040000000000
H           -0.25245800000000        6.79862800000000        9.42772400000000
H            0.89303200000000        8.00675000000000        8.80533500000000
H           -0.15357800000000        8.36712200000000       10.19334900000000
H            1.68742000000000        8.95529500000000       11.60658500000000
H            2.84613600000000        8.67272200000000       10.28801000000000
H            3.02546400000000        7.84603900000000       11.85215900000000
Ti          -2.14186600000000       -3.00881800000000        2.11974800000000
Ti           0.28899100000000       -1.69475900000000        1.43242500000000
Ti           1.90309800000000       -3.06774900000000       -0.72932200000000
Ti          -2.52150200000000       -0.25192800000000        1.30368700000000
Ti           2.14205000000000        0.49953300000000        2.20443400000000
Ti          -0.68144800000000        0.18963500000000        3.68123000000000
Ti          -2.03677000000000       -3.07774000000000       -1.20051200000000
Ti          -0.60534000000000       -0.77090000000000       -2.03513200000000
Ti           1.94548800000000       -1.58731700000000       -3.41240000000000
Ti          -1.87817000000000        1.74657300000000       -1.24003000000000
Ti           2.41251200000000        0.45423100000000       -0.77424700000000
Ti           0.81774200000000        1.83845200000000       -2.94000400000000
C           -3.67841400000000        1.28139800000000        0.60073700000000
C            4.12819300000000        0.48284700000000        0.38729300000000
C            0.45547900000000        2.26720200000000        0.34969500000000
C           -3.66670900000000        2.11883400000000       -0.31392000000000
C            4.11596200000000        0.63223900000000        1.62135400000000
C           -0.63516700000000        2.74104600000000       -0.11892100000000
C            1.63007200000000        1.78099600000000        0.73422400000000
O           -3.09345600000000       -1.95690700000000        1.03794900000000
O           -0.48725000000000       -2.60584900000000        2.70120300000000
O            0.31407900000000       -2.88889000000000        0.14500100000000
O           -0.80078500000000       -0.43593400000000        0.97122700000000
O            1.90286500000000       -1.15833100000000        1.46944900000000
O           -2.32267300000000       -0.11387800000000        3.02480000000000
O            1.01378600000000        0.44159800000000        3.56876100000000
O           -1.77201900000000       -4.58790500000000       -1.65281000000000
O            0.19060500000000       -1.18918900000000       -3.53403000000000
O            2.83142000000000       -2.17024800000000       -1.91804200000000
O           -2.05455800000000       -0.22444500000000       -1.33750500000000
O            0.76851100000000       -0.39057400000000       -1.06366400000000
O           -0.90003900000000        1.64931300000000       -2.81856500000000
O            2.41531300000000        1.35746300000000       -2.26411500000000
 
 Bond Distances (Angstroems)
 ---------------------------
C1-C2=1.3397         C1-H38=1.0840        C1-H39=1.0859        C2-C1=1.3397         C2-C3=1.4919         C2-H40=1.0861        
C3-C2=1.4919         C3-O4=1.2239         C3-N5=1.3726         O4-C3=1.2239         N5-C3=1.3726         N5-C6=1.4155         
N5-H41=1.0076        C6-N5=1.4155         C6-C7=1.4028         C6-C30=1.4162        C7-C6=1.4028         C7-C8=1.4031         
C7-H42=1.0830        C8-C7=1.4031         C8-N9=1.4058         C8-C26=1.4120        N9-C8=1.4058         N9-C10=1.3870        
N9-H43=1.0122        C10-N9=1.3870        C10-N11=1.3382       C10-N25=1.3411       N11-C10=1.3382       N11-C12=1.3421       
C12-N11=1.3421       C12-C13=1.3695       C12-H44=1.0858       C13-C12=1.3695       C13-C14=1.3769       C13-H45=1.0799       
C14-C13=1.3769       C14-C15=1.4599       C14-N25=1.3492       C15-C14=1.4599       C15-C16=1.3841       C15-C24=1.4348       
C16-C15=1.3841       C16-N17=1.3699       C16-H46=1.0821       N17-C16=1.3699       N17-C18=1.4460       N17-C19=1.3776       
C18-N17=1.4460       C18-H47=1.0930       C18-H48=1.0930       C18-H49=1.0930       C19-N17=1.3776       C19-C20=1.4049       
C19-C24=1.3993       C20-C19=1.4049       C20-C21=1.3976       C20-H50=1.0850       C21-C20=1.3976       C21-C22=1.3905       
C21-H51=1.0873       C22-C21=1.3905       C22-C23=1.3987       C22-H52=1.0868       C23-C22=1.3987       C23-C24=1.4127       
C23-H53=1.0867       C24-C15=1.4348       C24-C19=1.3993       C24-C23=1.4127       N25-C10=1.3411       N25-C14=1.3492       
C26-C8=1.4120        C26-O27=1.3779       C26-C29=1.3957       O27-C26=1.3779       O27-C28=1.4216       C28-O27=1.4216       
C28-H54=1.0943       C28-H55=1.0950       C28-H56=1.0949       C29-C26=1.3957       C29-C30=1.4051       C29-H57=1.0847       
C30-C6=1.4162        C30-C29=1.4051       C30-N31=1.4118       N31-C30=1.4118       N31-C32=1.4604       N31-C33=1.4760       
C32-N31=1.4604       C32-H58=1.0932       C32-H59=1.0949       C32-H60=1.0967       C33-N31=1.4760       C33-C34=1.5497       
C33-H61=1.0988       C33-H62=1.0937       C34-C33=1.5497       C34-N35=1.4838       C34-H63=1.0983       C34-H64=1.0983       
N35-C34=1.4838       N35-C36=1.4646       N35-C37=1.4661       C36-N35=1.4646       C36-H65=1.0939       C36-H66=1.0959       
C36-H67=1.0961       C37-N35=1.4661       C37-H68=1.0958       C37-H69=1.0961       C37-H70=1.0957       H38-C1=1.0840        
H39-C1=1.0859        H40-C2=1.0861        H41-N5=1.0076        H42-C7=1.0830        H43-N9=1.0122        H44-C12=1.0858       
H45-C13=1.0799       H46-C16=1.0821       H47-C18=1.0930       H48-C18=1.0930       H49-C18=1.0930       H50-C20=1.0850       
H51-C21=1.0873       H52-C22=1.0868       H53-C23=1.0867       H54-C28=1.0943       H55-C28=1.0950       H56-C28=1.0949       
H57-C29=1.0847       H58-C32=1.0932       H59-C32=1.0949       H60-C32=1.0967       H61-C33=1.0988       H62-C33=1.0937       
H63-C34=1.0983       H64-C34=1.0983       H65-C36=1.0939       H66-C36=1.0959       H67-C36=1.0961       H68-C37=1.0958       
H69-C37=1.0961       H70-C37=1.0957       Ti71-Ti72=2.8475     Ti71-Ti74=2.9001     Ti71-Ti76=3.8472     Ti71-Ti77=3.3226     
Ti71-O90=1.7839      Ti71-O91=1.7995      Ti72-Ti71=2.8475     Ti72-Ti73=3.0271     Ti72-Ti74=3.1618     Ti72-Ti75=2.9740     
Ti72-Ti76=3.0903     Ti72-Ti77=3.7755     Ti72-Ti78=3.6983     Ti72-Ti81=3.7412     Ti72-O91=1.7443      Ti72-O92=1.7561      
Ti72-O93=1.7277      Ti72-O94=1.7011      Ti73-Ti72=3.0271     Ti73-Ti78=3.6432     Ti73-Ti79=3.0647     Ti73-Ti81=3.5589     
Ti73-O92=1.8225      Ti73-O99=1.7551      Ti74-Ti71=2.9001     Ti74-Ti72=3.1618     Ti74-Ti76=3.0387     Ti74-Ti77=3.8067     
Ti74-Ti80=3.2982     Ti74-C83=2.0454      Ti74-O90=1.8179      Ti74-O93=1.7622      Ti74-O95=1.7381      Ti74-O100=2.6823     
Ti75-Ti72=2.9740     Ti75-Ti76=3.2014     Ti75-Ti81=2.9913     Ti75-C84=2.6920      Ti75-C87=2.0625      Ti75-C89=2.0164      
Ti75-O94=1.8292      Ti75-O96=1.7714      Ti76-Ti71=3.8472     Ti76-Ti72=3.0903     Ti76-Ti74=3.0387     Ti76-Ti75=3.2014     
Ti76-O95=1.7935      Ti76-O96=1.7175      Ti77-Ti71=3.3226     Ti77-Ti72=3.7755     Ti77-Ti74=3.8067     Ti77-Ti78=2.8403     
Ti77-O90=2.7173      Ti77-O92=2.7152      Ti77-O97=1.5985      Ti78-Ti72=3.6983     Ti78-Ti73=3.6432     Ti78-Ti77=2.8403     
Ti78-Ti79=3.0117     Ti78-Ti80=2.9309     Ti78-Ti81=3.4926     Ti78-Ti82=3.1069     Ti78-O98=1.7479      Ti78-O100=1.6987     
Ti78-O101=1.7251     Ti78-O102=2.5609     Ti79-Ti73=3.0647     Ti79-Ti78=3.0117     Ti79-Ti81=3.3684     Ti79-Ti82=3.6374     
Ti79-O98=1.8036      Ti79-O99=1.8324      Ti80-Ti74=3.2982     Ti80-Ti78=2.9309     Ti80-Ti82=3.1885     Ti80-C83=2.6164      
Ti80-C85=2.8713      Ti80-C86=2.0482      Ti80-C88=1.9470      Ti80-O100=1.9813     Ti80-O102=1.8596     Ti81-Ti72=3.7412     
Ti81-Ti73=3.5589     Ti81-Ti75=2.9913     Ti81-Ti78=3.4926     Ti81-Ti79=3.3684     Ti81-Ti82=3.0249     Ti81-C84=2.0721      
Ti81-C85=2.8948      Ti81-C89=2.1559      Ti81-O101=1.8709     Ti81-O103=1.7423     Ti82-Ti78=3.1069     Ti82-Ti79=3.6374     
Ti82-Ti80=3.1885     Ti82-Ti81=3.0249     Ti82-O102=1.7324     Ti82-O103=1.8001     C83-Ti74=2.0454      C83-Ti80=2.6164      
C83-C86=1.2402       C84-Ti75=2.6920      C84-Ti81=2.0721      C84-C87=1.2431       C85-Ti80=2.8713      C85-Ti81=2.8948      
C85-C88=1.2781       C85-C89=1.3281       C86-Ti80=2.0482      C86-C83=1.2402       C87-Ti75=2.0625      C87-C84=1.2431       
C88-Ti80=1.9470      C88-C85=1.2781       C89-Ti75=2.0164      C89-Ti81=2.1559      C89-C85=1.3281       O90-Ti71=1.7839      
O90-Ti74=1.8179      O90-Ti77=2.7173      O91-Ti71=1.7995      O91-Ti72=1.7443      O92-Ti72=1.7561      O92-Ti73=1.8225      
O92-Ti77=2.7152      O93-Ti72=1.7277      O93-Ti74=1.7622      O94-Ti72=1.7011      O94-Ti75=1.8292      O95-Ti74=1.7381      
O95-Ti76=1.7935      O96-Ti75=1.7714      O96-Ti76=1.7175      O97-Ti77=1.5985      O98-Ti78=1.7479      O98-Ti79=1.8036      
O99-Ti73=1.7551      O99-Ti79=1.8324      O100-Ti74=2.6823     O100-Ti78=1.6987     O100-Ti80=1.9813     O101-Ti78=1.7251     
O101-Ti81=1.8709     O102-Ti78=2.5609     O102-Ti80=1.8596     O102-Ti82=1.7324     O103-Ti81=1.7423     O103-Ti82=1.8001     
 C  H  Rav=1.0912 sigma=0.0055  Rmin=1.0799  Rmax=1.0988    31
 C  C  Rav=1.3889 sigma=0.0674  Rmin=1.2402  Rmax=1.5497    24
 N  H  Rav=1.0099 sigma=0.0023  Rmin=1.0076  Rmax=1.0122     2
 N  C  Rav=1.4063 sigma=0.0499  Rmin=1.3382  Rmax=1.4838    17
 O  C  Rav=1.3411 sigma=0.0848  Rmin=1.2239  Rmax=1.4216     3
 Ti C  Rav=2.3111 sigma=0.3561  Rmin=1.9470  Rmax=2.8948    11
 Ti O  Rav=1.8899 sigma=0.3075  Rmin=1.5985  Rmax=2.7173    31
 Ti Ti Rav=3.2711 sigma=0.3188  Rmin=2.8403  Rmax=3.8472    28
 
 selected bond angles (degree)
 --------------------
H38-C1-C2=122.99               H39-C1-C2=119.99               H39-C1-H38=116.97              C3-C2-C1=125.67                
H40-C2-C1=120.47               H40-C2-C3=113.70               O4-C3-C2=117.73                N5-C3-C2=113.97                
N5-C3-O4=128.21                C6-N5-C3=128.87                H41-N5-C3=117.20               H41-N5-C6=113.78               
C7-C6-N5=122.60                C30-C6-N5=118.03               C30-C6-C7=119.37               C8-C7-C6=121.68                
H42-C7-C6=119.66               H42-C7-C8=118.66               N9-C8-C7=123.70                C26-C8-C7=118.56               
C26-C8-N9=117.74               C10-N9-C8=135.27               H43-N9-C8=114.20               H43-N9-C10=110.51              
N11-C10-N9=121.80              N25-C10-N9=115.21              N25-C10-N11=122.99             
 
 selected dihedral angles (degree)
 ---------------------------------
C3-C2-C1-H38=  0.00           C3-C2-C1-H39=182.63           H40-C2-C1-H38=175.20          H40-C2-C1-H39=357.85          
O4-C3-C2-C1=149.88            O4-C3-C2-H40=334.38           N5-C3-C2-C1=326.63            N5-C3-C2-H40=151.13           
C6-N5-C3-C2=180.15            C6-N5-C3-O4=356.50            H41-N5-C3-C2=355.37           H41-N5-C3-O4=171.72           
C7-C6-N5-C3=354.49            C7-C6-N5-H41=179.14           C30-C6-N5-C3=174.83           C30-C6-N5-H41=359.48          
C8-C7-C6-N5=180.01            C8-C7-C6-C30=359.66           H42-C7-C6-N5=359.63           H42-C7-C6-C30=179.29          
N9-C8-C7-C6=179.63            N9-C8-C7-H42=  0.00           C26-C8-C7-C6=  0.18           C26-C8-C7-H42=180.55          
C10-N9-C8-C7=  0.56           C10-N9-C8-C26=180.01          H43-N9-C8-C7=178.54           H43-N9-C8-C26=357.99          
N11-C10-N9-C8=358.92          N11-C10-N9-H43=180.88         N25-C10-N9-C8=179.05          N25-C10-N9-H43=  1.01         
 
 CMA Distance (Angstroems)
 ---------------------------
R(CMA): 10.0737
           -------------------------------------------------
          |                Final Singlepoint                |
           -------------------------------------------------

          ...................................................
          :                      SETUP                      :
          :.................................................:
          :  # basis functions                 385          :
          :  # atomic orbitals                 373          :
          :  # shells                          185          :
          :  # electrons                       352          :
          :  max. iterations                   500          :
          :  Hamiltonian                  GFN2-xTB          :
          :  restarted?                      false          :
          :  GBSA solvation                  false          :
          :  PC potential                    false          :
          :  electronic temp.          300.0000000     K    :
          :  accuracy                    1.0000000          :
          :  -> integral cutoff          0.2500000E+02      :
          :  -> integral neglect         0.1000000E-07      :
          :  -> SCF convergence          0.1000000E-05 Eh   :
          :  -> wf. convergence          0.1000000E-03 e    :
          :  Broyden damping             0.4000000          :
          :  net charge                          0          :
          :  unpaired electrons                  0          :
          ...................................................

 iter      E             dE          RMSdq      gap      omega  full diag
   1   -188.2545427 -0.188255E+03  0.157E+01    0.08       0.0  T
   2    -68.6135896  0.119641E+03  0.256E+01    0.04       1.0  T
   3    -92.7854590 -0.241719E+02  0.211E+01    0.21       1.0  T
   4    -44.7016419  0.480838E+02  0.196E+01    0.03       1.0  T
   5   -160.3911909 -0.115690E+03  0.128E+01    0.01       1.0  T
   6   -192.5978858 -0.322067E+02  0.932E+00    0.01       1.0  T
   7   -199.5619112 -0.696403E+01  0.723E+00    0.03       1.0  T
   8   -203.5063983 -0.394449E+01  0.568E+00    0.21       1.0  T
   9   -194.4773812  0.902902E+01  0.576E+00    0.17       1.0  T
  10   -202.7377951 -0.826041E+01  0.489E+00    0.10       1.0  T
  11   -202.2933631  0.444432E+00  0.471E+00    0.48       1.0  T
  12   -202.3340854 -0.407222E-01  0.379E+00    0.06       1.0  T
  13   -203.9918734 -0.165779E+01  0.319E+00    0.44       1.0  T
  14   -204.0573409 -0.654676E-01  0.262E+00    0.33       1.0  T
  15   -204.1435898 -0.862488E-01  0.252E+00    0.23       1.0  T
  16   -204.3157614 -0.172172E+00  0.186E+00    0.11       1.0  T
  17   -204.3332101 -0.174487E-01  0.182E+00    0.07       1.0  T
  18   -204.4113052 -0.780951E-01  0.142E+00    0.04       1.0  T
  19   -204.4201087 -0.880354E-02  0.138E+00    0.06       1.0  T
  20   -203.1571414  0.126297E+01  0.266E+00    0.01       1.0  T
  21   -203.3515675 -0.194426E+00  0.243E+00    0.07       1.0  T
  22   -203.5895771 -0.238010E+00  0.235E+00    0.02       1.0  T
  23   -202.9990384  0.590539E+00  0.237E+00    0.12       1.0  T
  24   -202.9232040  0.758344E-01  0.242E+00    0.15       1.0  T
  25   -203.0313945 -0.108190E+00  0.237E+00    0.07       1.0  T
  26   -204.0039290 -0.972535E+00  0.166E+00    0.08       1.0  T
  27   -204.0638306 -0.599016E-01  0.144E+00    0.06       1.0  T
  28   -204.0917016 -0.278710E-01  0.133E+00    0.05       1.0  T
  29   -204.4786092 -0.386908E+00  0.112E+00    0.03       1.0  T
  30   -204.5077790 -0.291698E-01  0.104E+00    0.03       1.0  T
  31   -204.5265510 -0.187719E-01  0.935E-01    0.04       1.0  T
  32   -204.5272048 -0.653891E-03  0.873E-01    0.04       1.0  T
  33   -204.0999541  0.427251E+00  0.151E+00    0.11       1.0  T
  34   -204.5165451 -0.416591E+00  0.770E-01    0.01       1.0  T
  35   -204.5156499  0.895211E-03  0.699E-01    0.00       1.0  T
  36   -204.5216800 -0.603013E-02  0.611E-01    0.01       1.0  T
  37   -204.5221990 -0.519035E-03  0.596E-01    0.02       1.0  T
  38   -204.5252692 -0.307016E-02  0.548E-01    0.02       1.0  T
  39   -204.5245879  0.681284E-03  0.518E-01    0.00       1.0  T
  40   -204.5306860 -0.609808E-02  0.465E-01    0.02       1.0  T
  41   -204.5259048  0.478118E-02  0.562E-01    0.04       1.0  T
  42   -204.5362245 -0.103197E-01  0.450E-01    0.03       1.0  T
  43   -204.5521470 -0.159225E-01  0.354E-01    0.03       1.0  T
  44   -204.5504623  0.168466E-02  0.355E-01    0.03       1.0  T
  45   -204.5517833 -0.132097E-02  0.310E-01    0.02       1.0  T
  46   -204.5556856 -0.390235E-02  0.242E-01    0.01       1.0  T
  47   -204.5590958 -0.341018E-02  0.199E-01    0.01       1.0  T
  48   -204.5622139 -0.311810E-02  0.166E-01    0.01       1.0  T
  49   -204.5619802  0.233702E-03  0.175E-01    0.01       1.0  T
  50   -204.5662201 -0.423984E-02  0.114E-01    0.01       1.0  T
  51   -204.5659471  0.272981E-03  0.116E-01    0.01       1.0  T
  52   -204.5612127  0.473434E-02  0.164E-01    0.01       1.0  T
  53   -204.5626330 -0.142023E-02  0.143E-01    0.01       1.0  T
  54   -204.5676921 -0.505914E-02  0.401E-02    0.00       1.0  T
  55   -204.5680543 -0.362193E-03  0.204E-02    0.00       1.0  T
  56   -204.5679561  0.981603E-04  0.298E-02    0.00       1.0  T
  57   -204.5679270  0.291809E-04  0.302E-02    0.00       1.0  T
  58   -204.5681352 -0.208215E-03  0.109E-02    0.01       1.0  T
  59   -204.5681556 -0.204703E-04  0.780E-03    0.00       1.3  T
  60   -204.5681655 -0.989824E-05  0.357E-03    0.00       2.8  T
  61   -204.5681592  0.638547E-05  0.601E-03    0.00       1.6  T
  62   -204.5681640 -0.487708E-05  0.484E-03    0.00       2.0  T
  63   -204.5681662 -0.214450E-05  0.346E-03    0.00       2.8  T
  64   -204.5681675 -0.134796E-05  0.151E-03    0.00       6.5  T
  65   -204.5681674  0.120390E-06  0.153E-03    0.00       6.5  T
  66   -204.5681678 -0.410853E-06  0.735E-04    0.00      13.4  T
  67   -204.5681678  0.610555E-09  0.639E-04    0.00      15.4  T

   *** convergence criteria satisfied after 67 iterations ***

         #    Occupation            Energy/Eh            Energy/eV
      -------------------------------------------------------------
         1        2.0000           -2.9100204             -79.1857
       ...           ...                  ...                  ...
       170        1.9991           -0.4163993             -11.3308
       171        1.9975           -0.4154458             -11.3049
       172        1.9900           -0.4141039             -11.2683
       173        1.9529           -0.4126159             -11.2278
       174        1.8418           -0.4114095             -11.1950
       175        1.6329           -0.4104955             -11.1702
       176        1.3101           -0.4096868             -11.1481 (HOMO)
       177        1.2298           -0.4095222             -11.1437 (LUMO)
       178        0.0459           -0.4055140             -11.0346
       179                         -0.3735218             -10.1640
       180                         -0.3696309             -10.0582
       181                         -0.3664461              -9.9715
       ...                                ...                  ...
       373                         13.2869015             361.5550
      -------------------------------------------------------------
                  HL-Gap            0.0001646 Eh            0.0045 eV
             Fermi-level           -0.4090775 Eh          -11.1316 eV

 SCC (total)                   0 d,  0 h,  0 min,  1.943 sec
 SCC setup                      ...        0 min,  0.001 sec (  0.051%)
 Dispersion                     ...        0 min,  0.001 sec (  0.051%)
 classical contributions        ...        0 min,  0.000 sec (  0.000%)
 integral evaluation            ...        0 min,  0.014 sec (  0.721%)
 iterations                     ...        0 min,  1.856 sec ( 95.522%)
 molecular gradient             ...        0 min,  0.068 sec (  3.500%)
 printout                       ...        0 min,  0.003 sec (  0.154%)

         :::::::::::::::::::::::::::::::::::::::::::::::::::::
         ::                     SUMMARY                     ::
         :::::::::::::::::::::::::::::::::::::::::::::::::::::
         :: total energy            -202.400304325307 Eh    ::
         :: gradient norm              0.647112516780 Eh/a0 ::
         :: HOMO-LUMO gap              0.004479396194 eV    ::
         ::.................................................::
         :: SCC energy              -204.565590409450 Eh    ::
         :: -> isotropic ES           -6.422193840033 Eh    ::
         :: -> anisotropic ES         -0.277136995829 Eh    ::
         :: -> anisotropic XC         -0.091260378136 Eh    ::
         :: -> dispersion             -0.159686522262 Eh    ::
         :: repulsion energy           2.165286084144 Eh    ::
         :: add. restraining           0.000000000000 Eh    ::
         :: total charge               0.000000000001 e     ::
         :::::::::::::::::::::::::::::::::::::::::::::::::::::


last geometry written to: xtblast.xyz

########################################################################
[ERROR] Program stopped due to fatal error
-7- Geometry optimization failed
-6- xtb_geoopt: Trying to recover from failed geometry optimization
-5- xtb_geoopt: Geometry optimization did not converge
-4- optimizer_ancopt: Could not relax/optimize structure
-3- optimizer_relax: SCF not converged, aborting...
-2- xtb_calculator_singlepoint: Electronic structure method terminated
-1- scf: Self consistent charge iterator did not converge
########################################################################
