33
Frozen MXene coordinates from Osimertinib relaxed complex
Ti    -0.494457    -3.502654     3.790457
Ti     1.082813    -1.500832     5.387929
Ti     3.127285     0.494909     4.247451
Ti    -2.235857    -1.270050     2.819661
Ti     0.284545     0.989673     7.437061
Ti    -1.997956    -0.474497     6.052566
Ti     1.550397    -1.801318     2.062506
Ti     0.021871     1.016376     2.547141
Ti     2.238126     2.787690     2.229363
Ti    -2.839285     1.487489     3.595077
Ti     0.993489     2.839008     5.175941
Ti    -0.848585     4.056657     3.268986
C     -4.040062    -0.484514     2.128121
C      2.173579     2.812818     6.848165
C     -1.723788     2.254682     5.996938
C     -4.381387     0.639970     2.522970
C      1.903038     2.163218     7.876215
C     -2.825204     1.697976     5.558610
C     -0.617614     2.707536     6.546809
O     -1.726994    -2.924496     2.668682
O      0.874398    -3.204881     4.824188
O      2.684259    -1.143454     4.624264
O     -0.037873    -0.845592     4.321335
O      1.177954    -0.194014     6.563164
O     -2.714378    -0.810054     4.403432
O     -1.272295     0.246441     7.447943
O      1.381632    -0.063347     2.023393
O      0.626493     2.370906     1.577230
O      3.045616     2.188051     3.727211
O     -1.295663     0.004178     2.047596
O      0.318206     1.589979     4.139729
O     -1.926656     2.725840     2.802308
O      0.586828     4.317909     4.261775
