      -----------------------------------------------------------      
     |                   =====================                   |     
     |                           x T B                           |     
     |                   =====================                   |     
     |                         S. Grimme                         |     
     |          Mulliken Center for Theoretical Chemistry        |     
     |                    University of Bonn                     |     
      -----------------------------------------------------------      

   * xtb version 6.7.1pre (5071a88) compiled by 'Marcel@Raven' on 2024-07-23

   xtb is free software: you can redistribute it and/or modify it under
   the terms of the GNU Lesser General Public License as published by
   the Free Software Foundation, either version 3 of the License, or
   (at your option) any later version.
   
   xtb is distributed in the hope that it will be useful,
   but WITHOUT ANY WARRANTY; without even the implied warranty of
   MERCHANTABILITY or FITNESS FOR A PARTICULAR PURPOSE.  See the
   GNU Lesser General Public License for more details.
   
   Cite this work as:
   * C. Bannwarth, E. Caldeweyher, S. Ehlert, A. Hansen, P. Pracht,
     J. Seibert, S. Spicher, S. Grimme, WIREs Comput. Mol. Sci., 2020, 11,
     e01493. DOI: 10.1002/wcms.1493
   
   for GFN2-xTB:
   * C. Bannwarth, S. Ehlert and S. Grimme., J. Chem. Theory Comput., 2019,
     15, 1652-1671. DOI: 10.1021/acs.jctc.8b01176
   for GFN1-xTB:
   * S. Grimme, C. Bannwarth, P. Shushkov, J. Chem. Theory Comput., 2017,
     13, 1989-2009. DOI: 10.1021/acs.jctc.7b00118
   for GFN0-xTB:
   * P. Pracht, E. Caldeweyher, S. Ehlert, S. Grimme, ChemRxiv, 2019, preprint.
     DOI: 10.26434/chemrxiv.8326202.v1
   for GFN-FF:
   * S. Spicher and S. Grimme, Angew. Chem. Int. Ed., 2020, 59, 15665-15673.
     DOI: 10.1002/anie.202004239
   
   for ALPB and GBSA implicit solvation:
   * S. Ehlert, M. Stahn, S. Spicher, S. Grimme, J. Chem. Theory Comput.,
     2021, 17, 4250-4261. DOI: 10.1021/acs.jctc.1c00471
   
   for ddCOSMO and CPCM-X implicit solvation:
   * M. Stahn, S. Ehlert, S. Grimme, J. Phys. Chem. A,
     2023, XX, XXXX-XXXX. DOI: 10.1021/acs.jpca.3c04382
   
   for DFT-D4:
   * E. Caldeweyher, C. Bannwarth and S. Grimme, J. Chem. Phys., 2017,
     147, 034112. DOI: 10.1063/1.4993215
   * E. Caldeweyher, S. Ehlert, A. Hansen, H. Neugebauer, S. Spicher,
     C. Bannwarth and S. Grimme, J. Chem. Phys., 2019, 150, 154122.
     DOI: 10.1063/1.5090222
   * E. Caldeweyher, J.-M. Mewes, S. Ehlert and S. Grimme, Phys. Chem. Chem. Phys.
     2020, 22, 8499-8512. DOI: 10.1039/D0CP00502A
   
   for sTDA-xTB:
   * S. Grimme and C. Bannwarth, J. Chem. Phys., 2016, 145, 054103.
     DOI: 10.1063/1.4959605
   
   in the mass-spec context:
   * V. Asgeirsson, C. Bauer and S. Grimme, Chem. Sci., 2017, 8, 4879.
     DOI: 10.1039/c7sc00601b
   * J. Koopman and S. Grimme, ACS Omega 2019, 4, 12, 15120-15133.
     DOI: 10.1021/acsomega.9b02011
   
   for metadynamics refer to:
   * S. Grimme, J. Chem. Theory Comput., 2019, 155, 2847-2862
     DOI: 10.1021/acs.jctc.9b00143
   
   for SPH calculations refer to:
   * S. Spicher and S. Grimme, J. Chem. Theory Comput., 2021, 17, 1701-1714
     DOI: 10.1021/acs.jctc.0c01306
   
   for ONIOM refer to:
   * C. Plett, A. Katbashev, S. Ehlert, S. Grimme, M. Bursch,
     Phys. Chem. Chem. Phys., 2023, 25, 17860-17868. DOI: 10.1039/D3CP02178E
   
   for DIPRO refer to:
   * J. Kohn, N. Gildemeister, S. Grimme, D. Fazzi, A. Hansen,
     J. Chem. Phys., 2023, just accepted.
   
   for PTB refer to:
   * S. Grimme, M. Mueller, A. Hansen, J. Chem. Phys., 2023, 158, 124111.
     DOI: 10.1063/5.0137838
   
   with help from (in alphabetical order)
   P. Atkinson, C. Bannwarth, F. Bohle, G. Brandenburg, E. Caldeweyher
   M. Checinski, S. Dohm, S. Ehlert, S. Ehrlich, I. Gerasimov, C. Hölzer
   A. Katbashev, J. Kohn, J. Koopman, C. Lavigne, S. Lehtola, F. März, M. Müller,
   F. Musil, H. Neugebauer, J. Pisarek, C. Plett, P. Pracht, F. Pultar,
   J. Seibert, P. Shushkov, S. Spicher, M. Stahn, M. Steiner, T. Strunk,
   J. Stückrath, T. Rose, and J. Unsleber
   
 * started run on 2026/09/02 at 20:12:05.452     
   ID    Z sym.   atoms
    1    6 C      1-3, 6-8, 10, 12-16, 18-24, 26, 28-30, 32-34, 36, 37
    2    8 O      4, 27
    3    7 N      5, 9, 11, 17, 25, 31, 35
    4    1 H      38-70

           -------------------------------------------------
          |                Calculation Setup                |
           -------------------------------------------------

          program call               : "c:\Users\Andre\Proyectos doctorado\nano-qsar-ai-papers\kras-pancreatic-gC3N4-ai\tools\xtb\xtb-6.7.1\bin\xtb.exe" "c:\Users\Andre\Proyectos doctorado\nano-qsar-ai-papers\mxene-glioblastoma-qsar-ai\calculations\gbm\Osimertinib\Osimertinib_drug_frozen_from_opt.xyz" --gfn 2 --chrg 0 --uhf 0 --norestart
          coordinate file            : c:\Users\Andre\Proyectos doctorado\nano-qsar-ai-papers\mxene-glioblastoma-qsar-ai\calculations\gbm\Osimertinib\Osimertinib_drug_frozen_from_opt.xyz
          omp threads                :                     4


           -------------------------------------------------
          |                 G F N 2 - x T B                 |
           -------------------------------------------------

        Reference                      10.1021/acs.jctc.8b01176
      * Hamiltonian:
        H0-scaling (s, p, d)           1.850000    2.230000    2.230000
        zeta-weighting                 0.500000
      * Dispersion:
        s8                             2.700000
        a1                             0.520000
        a2                             5.000000
        s9                             5.000000
      * Repulsion:
        kExp                           1.500000    1.000000
        rExp                           1.000000
      * Coulomb:
        alpha                          2.000000
        third order                    shell-resolved
        anisotropic                    true
        a3                             3.000000
        a5                             4.000000
        cn-shift                       1.200000
        cn-exp                         4.000000
        max-rad                        5.000000


          ...................................................
          :                      SETUP                      :
          :.................................................:
          :  # basis functions                 181          :
          :  # atomic orbitals                 181          :
          :  # shells                          107          :
          :  # electrons                       192          :
          :  max. iterations                   250          :
          :  Hamiltonian                  GFN2-xTB          :
          :  restarted?                      false          :
          :  GBSA solvation                  false          :
          :  PC potential                    false          :
          :  electronic temp.          300.0000000     K    :
          :  accuracy                    1.0000000          :
          :  -> integral cutoff          0.2500000E+02      :
          :  -> integral neglect         0.1000000E-07      :
          :  -> SCF convergence          0.1000000E-05 Eh   :
          :  -> wf. convergence          0.1000000E-03 e    :
          :  Broyden damping             0.4000000          :
          :  net charge                          0          :
          :  unpaired electrons                  0          :
          ...................................................

 iter      E             dE          RMSdq      gap      omega  full diag
   1   -106.6689042 -0.106669E+03  0.392E+00    2.05       0.0  T
   2   -106.8650077 -0.196103E+00  0.245E+00    1.57       1.0  T
   3   -106.8750200 -0.100123E-01  0.137E+00    1.90       1.0  T
   4   -106.8906259 -0.156059E-01  0.539E-01    1.59       1.0  T
   5   -106.9078457 -0.172198E-01  0.153E-01    1.64       1.0  T
   6   -106.9086636 -0.817877E-03  0.674E-02    1.64       1.0  T
   7   -106.9088000 -0.136450E-03  0.322E-02    1.64       1.0  T
   8   -106.9088186 -0.185461E-04  0.170E-02    1.64       1.0  T
   9   -106.9088283 -0.974034E-05  0.493E-03    1.64       2.4  T
  10   -106.9088287 -0.402650E-06  0.198E-03    1.64       6.0  T
  11   -106.9088288 -0.836238E-07  0.861E-04    1.64      13.9  T
  12   -106.9088288 -0.126012E-07  0.420E-04    1.64      28.4  T

   *** convergence criteria satisfied after 12 iterations ***

         #    Occupation            Energy/Eh            Energy/eV
      -------------------------------------------------------------
         1        2.0000           -0.7052017             -19.1895
       ...           ...                  ...                  ...
        90        2.0000           -0.3784930             -10.2993
        91        2.0000           -0.3669748              -9.9859
        92        2.0000           -0.3562684              -9.6946
        93        2.0000           -0.3545032              -9.6465
        94        2.0000           -0.3440851              -9.3630
        95        2.0000           -0.3385815              -9.2133
        96        2.0000           -0.3347671              -9.1095 (HOMO)
        97                         -0.2743571              -7.4656 (LUMO)
        98                         -0.2474196              -6.7326
        99                         -0.2235774              -6.0839
       100                         -0.2196231              -5.9762
       101                         -0.2043244              -5.5599
       ...                                ...                  ...
       181                          0.7284665              19.8226
      -------------------------------------------------------------
                  HL-Gap            0.0604100 Eh            1.6438 eV
             Fermi-level           -0.3045621 Eh           -8.2876 eV

 SCC (total)                   0 d,  0 h,  0 min,  0.123 sec
 SCC setup                      ...        0 min,  0.001 sec (  0.813%)
 Dispersion                     ...        0 min,  0.001 sec (  0.813%)
 classical contributions        ...        0 min,  0.000 sec (  0.000%)
 integral evaluation            ...        0 min,  0.006 sec (  4.878%)
 iterations                     ...        0 min,  0.096 sec ( 78.049%)
 molecular gradient             ...        0 min,  0.018 sec ( 14.634%)
 printout                       ...        0 min,  0.001 sec (  0.813%)

         :::::::::::::::::::::::::::::::::::::::::::::::::::::
         ::                     SUMMARY                     ::
         :::::::::::::::::::::::::::::::::::::::::::::::::::::
         :: total energy            -105.384898431736 Eh    ::
         :: gradient norm              0.137475420025 Eh/a0 ::
         :: HOMO-LUMO gap              1.643838502182 eV    ::
         ::.................................................::
         :: SCC energy              -106.908769638759 Eh    ::
         :: -> isotropic ES            0.097410337260 Eh    ::
         :: -> anisotropic ES          0.014629341848 Eh    ::
         :: -> anisotropic XC          0.062303224430 Eh    ::
         :: -> dispersion             -0.080121551676 Eh    ::
         :: repulsion energy           1.523871207023 Eh    ::
         :: add. restraining           0.000000000000 Eh    ::
         :: total charge               0.000000000000 e     ::
         :::::::::::::::::::::::::::::::::::::::::::::::::::::

           -------------------------------------------------
          |                Property Printout                |
           -------------------------------------------------

    * Orbital Energies and Occupations

         #    Occupation            Energy/Eh            Energy/eV
      -------------------------------------------------------------
         1        2.0000           -0.7052017             -19.1895
       ...           ...                  ...                  ...
        84        2.0000           -0.4110229             -11.1845
        85        2.0000           -0.4087988             -11.1240
        86        2.0000           -0.4021196             -10.9422
        87        2.0000           -0.3967601             -10.7964
        88        2.0000           -0.3800005             -10.3403
        89        2.0000           -0.3791412             -10.3170
        90        2.0000           -0.3784930             -10.2993
        91        2.0000           -0.3669748              -9.9859
        92        2.0000           -0.3562684              -9.6946
        93        2.0000           -0.3545032              -9.6465
        94        2.0000           -0.3440851              -9.3630
        95        2.0000           -0.3385815              -9.2133
        96        2.0000           -0.3347671              -9.1095 (HOMO)
        97                         -0.2743571              -7.4656 (LUMO)
        98                         -0.2474196              -6.7326
        99                         -0.2235774              -6.0839
       100                         -0.2196231              -5.9762
       101                         -0.2043244              -5.5599
       102                         -0.1931940              -5.2571
       103                         -0.1895629              -5.1583
       104                         -0.1655400              -4.5046
       105                         -0.1469205              -3.9979
       106                         -0.0946376              -2.5752
       107                         -0.0795024              -2.1634
       ...                                ...                  ...
       181                          0.7284665              19.8226
      -------------------------------------------------------------
                  HL-Gap            0.0604100 Eh            1.6438 eV
             Fermi-level           -0.3045621 Eh           -8.2876 eV

     #   Z          covCN         q      C6AA      α(0)
     1   6 C        2.838    -0.082    30.034     8.981
     2   6 C        2.890    -0.046    29.142     8.851
     3   6 C        2.768     0.260    22.623     7.790
     4   8 O        0.857    -0.445    22.611     6.375
     5   7 N        2.697    -0.160    24.461     7.345
     6   6 C        2.920     0.055    26.772     8.485
     7   6 C        2.927    -0.057    29.422     8.895
     8   6 C        2.902     0.058    26.703     8.473
     9   7 N        2.715    -0.133    23.882     7.258
    10   6 C        2.866     0.236    23.073     7.874
    11   7 N        1.834    -0.281    28.142     7.861
    12   6 C        2.905     0.074    26.341     8.416
    13   6 C        2.906    -0.079    29.962     8.975
    14   6 C        2.956     0.116    25.440     8.273
    15   6 C        3.068    -0.038    28.870     8.810
    16   6 C        3.033    -0.008    28.176     8.707
    17   7 N        2.817    -0.013    21.505     6.888
    18   6 C        3.691    -0.049    21.638     6.657
    19   6 C        3.100     0.031    27.178     8.543
    20   6 C        2.909    -0.051    29.265     8.870
    21   6 C        2.924    -0.037    28.921     8.819
    22   6 C        2.921    -0.040    28.989     8.829
    23   6 C        2.911    -0.031    28.784     8.797
    24   6 C        3.102    -0.007    28.062     8.680
    25   7 N        1.866    -0.298    28.575     7.924
    26   6 C        2.863     0.115    25.462     8.271
    27   8 O        1.702    -0.286    18.745     5.846
    28   6 C        3.638     0.035    20.358     6.491
    29   6 C        2.922    -0.080    30.001     8.982
    30   6 C        2.924     0.038    27.142     8.544
    31   7 N        2.732    -0.172    24.711     7.383
    32   6 C        3.709    -0.041    21.458     6.621
    33   6 C        3.744     0.013    20.427     6.447
    34   6 C        3.757     0.002    20.602     6.471
    35   7 N        2.723    -0.173    24.733     7.386
    36   6 C        3.714    -0.029    21.221     6.582
    37   6 C        3.713    -0.032    21.284     6.592
    38   1 H        0.926     0.052     2.299     2.371
    39   1 H        0.926     0.054     2.266     2.354
    40   1 H        0.924     0.071     2.075     2.253
    41   1 H        0.860     0.170     1.275     1.768
    42   1 H        0.926     0.095     1.827     2.114
    43   1 H        0.860     0.202     1.098     1.642
    44   1 H        0.925     0.031     2.568     2.506
    45   1 H        0.926     0.022     2.709     2.574
    46   1 H        0.925     0.034     2.528     2.487
    47   1 H        0.924     0.058     2.218     2.329
    48   1 H        0.925     0.061     2.192     2.315
    49   1 H        0.924     0.057     2.233     2.337
    50   1 H        0.926     0.023     2.689     2.565
    51   1 H        0.926     0.026     2.640     2.541
    52   1 H        0.926     0.027     2.625     2.534
    53   1 H        0.926     0.048     2.342     2.393
    54   1 H        0.924     0.063     2.168     2.303
    55   1 H        0.924     0.044     2.402     2.424
    56   1 H        0.923     0.045     2.384     2.415
    57   1 H        0.926     0.055     2.263     2.352
    58   1 H        0.923     0.003     3.010     2.713
    59   1 H        0.925     0.070     2.088     2.260
    60   1 H        0.925     0.039     2.457     2.451
    61   1 H        0.920     0.033     2.549     2.497
    62   1 H        0.923     0.009     2.905     2.666
    63   1 H        0.924     0.051     2.313     2.378
    64   1 H        0.923     0.013     2.835     2.633
    65   1 H        0.925     0.035     2.510     2.478
    66   1 H        0.923     0.012     2.851     2.640
    67   1 H        0.925     0.038     2.475     2.460
    68   1 H        0.925     0.039     2.456     2.451
    69   1 H        0.923     0.013     2.841     2.636
    70   1 H        0.925     0.041     2.434     2.440

 Mol. C6AA /au·bohr⁶  :      56100.145039
 Mol. C8AA /au·bohr⁸  :    1312787.271530
 Mol. α(0) /au        :        370.270973


Wiberg/Mayer (AO) data.
largest (>0.10) Wiberg bond orders for each atom

 ---------------------------------------------------------------------------
     #   Z sym  total        # sym  WBO       # sym  WBO       # sym  WBO
 ---------------------------------------------------------------------------
     1   6 C    3.983 --     2 C    1.904    39 H    0.978    38 H    0.974
     2   6 C    3.986 --     1 C    1.904     3 C    1.067    40 H    0.957
     3   6 C    3.952 --     4 O    1.628     5 N    1.181     2 C    1.067
     4   8 O    1.965 --     3 C    1.628     5 N    0.178
     5   7 N    3.455 --     3 C    1.181     6 C    1.044    41 H    0.924
                             4 O    0.178
     6   6 C    3.958 --     7 C    1.368    30 C    1.348     5 N    1.044
     7   6 C    3.979 --     8 C    1.402     6 C    1.368    42 H    0.947
     8   6 C    3.964 --     7 C    1.402    26 C    1.268     9 N    1.103
     9   7 N    3.491 --    10 C    1.181     8 C    1.103    43 H    0.923
    10   6 C    3.963 --    25 N    1.325    11 N    1.312     9 N    1.181
    11   7 N    3.037 --    12 C    1.416    10 C    1.312
    12   6 C    3.976 --    13 C    1.466    11 N    1.416    44 H    0.963
    13   6 C    3.975 --    12 C    1.466    14 C    1.316    45 H    0.970
    14   6 C    3.973 --    25 N    1.397    13 C    1.316    15 C    1.093
    15   6 C    3.976 --    16 C    1.498    24 C    1.180    14 C    1.093
    16   6 C    3.954 --    15 C    1.498    17 N    1.232    46 H    0.967
    17   7 N    3.605 --    16 C    1.232    19 C    1.147    18 C    1.007
    18   6 C    3.973 --    17 N    1.007    48 H    0.981    47 H    0.975
                            49 H    0.974
    19   6 C    3.955 --    20 C    1.341    24 C    1.257    17 N    1.147
    20   6 C    3.987 --    21 C    1.490    19 C    1.341    50 H    0.968
                            23 C    0.114
    21   6 C    3.989 --    20 C    1.490    22 C    1.375    51 H    0.972
    22   6 C    3.988 --    23 C    1.500    21 C    1.375    52 H    0.972
    23   6 C    3.990 --    22 C    1.500    24 C    1.339    53 H    0.966
                            20 C    0.114
    24   6 C    3.985 --    23 C    1.339    19 C    1.257    15 C    1.180
    25   7 N    3.037 --    14 C    1.397    10 C    1.325
    26   6 C    3.924 --    29 C    1.409     8 C    1.268    27 O    1.039
    27   8 O    2.191 --    26 C    1.039    28 C    0.978
    28   6 C    3.944 --    54 H    0.980    56 H    0.979    27 O    0.978
                            55 H    0.978
    29   6 C    3.982 --    26 C    1.409    30 C    1.385    57 H    0.962
    30   6 C    3.967 --    29 C    1.385     6 C    1.348    31 N    1.009
    31   7 N    3.133 --    30 C    1.009    32 C    1.002    33 C    0.997
    32   6 C    3.980 --    31 N    1.002    60 H    0.984    58 H    0.970
                            59 H    0.969
    33   6 C    3.988 --    31 N    0.997    34 C    0.994    61 H    0.973
                            62 H    0.956
    34   6 C    3.985 --    35 N    1.001    33 C    0.994    63 H    0.972
                            64 H    0.966
    35   7 N    3.135 --    36 C    1.018    37 C    1.016    34 C    1.001
    36   6 C    3.988 --    35 N    1.018    67 H    0.983    65 H    0.980
                            66 H    0.973
    37   6 C    3.986 --    35 N    1.016    68 H    0.982    70 H    0.982
                            69 H    0.975
    38   1 H    0.997 --     1 C    0.974
    39   1 H    0.997 --     1 C    0.978
    40   1 H    0.994 --     2 C    0.957
    41   1 H    0.971 --     5 N    0.924
    42   1 H    0.990 --     7 C    0.947
    43   1 H    0.959 --     9 N    0.923
    44   1 H    0.998 --    12 C    0.963
    45   1 H    0.999 --    13 C    0.970
    46   1 H    0.998 --    16 C    0.967
    47   1 H    0.995 --    18 C    0.975
    48   1 H    0.996 --    18 C    0.981
    49   1 H    0.994 --    18 C    0.974
    50   1 H    0.999 --    20 C    0.968
    51   1 H    0.999 --    21 C    0.972
    52   1 H    0.999 --    22 C    0.972
    53   1 H    0.997 --    23 C    0.966
    54   1 H    0.996 --    28 C    0.980
    55   1 H    0.998 --    28 C    0.978
    56   1 H    0.998 --    28 C    0.979
    57   1 H    0.996 --    29 C    0.962
    58   1 H    1.000 --    32 C    0.970
    59   1 H    0.994 --    32 C    0.969
    60   1 H    0.998 --    32 C    0.984
    61   1 H    0.999 --    33 C    0.973
    62   1 H    1.000 --    33 C    0.956
    63   1 H    0.997 --    34 C    0.972
    64   1 H    1.000 --    34 C    0.966
    65   1 H    0.999 --    36 C    0.980
    66   1 H    1.000 --    36 C    0.973
    67   1 H    0.999 --    36 C    0.983
    68   1 H    0.998 --    37 C    0.982
    69   1 H    1.000 --    37 C    0.975
    70   1 H    0.998 --    37 C    0.982
 ---------------------------------------------------------------------------

Topologies differ in total number of bonds
Writing topology from bond orders to xtbtopo.mol

molecular dipole:
                 x           y           z       tot (Debye)
 q only:       -0.025       0.186       0.717
   full:       -0.239      -0.209       0.153       0.896
molecular quadrupole (traceless):
                xx          xy          yy          xz          yz          zz
 q only:       28.021      -3.969     -21.363     -22.916       7.850      -6.657
  q+dip:       49.608      -6.910     -15.232     -28.367       3.656     -34.376
   full:       47.000      -8.841     -14.885     -27.944      -0.096     -32.115


           -------------------------------------------------
          | TOTAL ENERGY             -105.384898431736 Eh   |
          | GRADIENT NORM               0.137475420025 Eh/α |
          | HOMO-LUMO GAP               1.643838502182 eV   |
           -------------------------------------------------

------------------------------------------------------------------------
 * finished run on 2026/09/02 at 20:12:05.617     
------------------------------------------------------------------------
 total:
 * wall-time:     0 d,  0 h,  0 min,  0.164 sec
 *  cpu-time:     0 d,  0 h,  0 min,  0.391 sec
 * ratio c/w:     2.382 speedup
 SCF:
 * wall-time:     0 d,  0 h,  0 min,  0.124 sec
 *  cpu-time:     0 d,  0 h,  0 min,  0.344 sec
 * ratio c/w:     2.772 speedup

