      -----------------------------------------------------------      
     |                   =====================                   |     
     |                           x T B                           |     
     |                   =====================                   |     
     |                         S. Grimme                         |     
     |          Mulliken Center for Theoretical Chemistry        |     
     |                    University of Bonn                     |     
      -----------------------------------------------------------      

   * xtb version 6.7.1pre (5071a88) compiled by 'Marcel@Raven' on 2024-07-23

   xtb is free software: you can redistribute it and/or modify it under
   the terms of the GNU Lesser General Public License as published by
   the Free Software Foundation, either version 3 of the License, or
   (at your option) any later version.
   
   xtb is distributed in the hope that it will be useful,
   but WITHOUT ANY WARRANTY; without even the implied warranty of
   MERCHANTABILITY or FITNESS FOR A PARTICULAR PURPOSE.  See the
   GNU Lesser General Public License for more details.
   
   Cite this work as:
   * C. Bannwarth, E. Caldeweyher, S. Ehlert, A. Hansen, P. Pracht,
     J. Seibert, S. Spicher, S. Grimme, WIREs Comput. Mol. Sci., 2020, 11,
     e01493. DOI: 10.1002/wcms.1493
   
   for GFN2-xTB:
   * C. Bannwarth, S. Ehlert and S. Grimme., J. Chem. Theory Comput., 2019,
     15, 1652-1671. DOI: 10.1021/acs.jctc.8b01176
   for GFN1-xTB:
   * S. Grimme, C. Bannwarth, P. Shushkov, J. Chem. Theory Comput., 2017,
     13, 1989-2009. DOI: 10.1021/acs.jctc.7b00118
   for GFN0-xTB:
   * P. Pracht, E. Caldeweyher, S. Ehlert, S. Grimme, ChemRxiv, 2019, preprint.
     DOI: 10.26434/chemrxiv.8326202.v1
   for GFN-FF:
   * S. Spicher and S. Grimme, Angew. Chem. Int. Ed., 2020, 59, 15665-15673.
     DOI: 10.1002/anie.202004239
   
   for ALPB and GBSA implicit solvation:
   * S. Ehlert, M. Stahn, S. Spicher, S. Grimme, J. Chem. Theory Comput.,
     2021, 17, 4250-4261. DOI: 10.1021/acs.jctc.1c00471
   
   for ddCOSMO and CPCM-X implicit solvation:
   * M. Stahn, S. Ehlert, S. Grimme, J. Phys. Chem. A,
     2023, XX, XXXX-XXXX. DOI: 10.1021/acs.jpca.3c04382
   
   for DFT-D4:
   * E. Caldeweyher, C. Bannwarth and S. Grimme, J. Chem. Phys., 2017,
     147, 034112. DOI: 10.1063/1.4993215
   * E. Caldeweyher, S. Ehlert, A. Hansen, H. Neugebauer, S. Spicher,
     C. Bannwarth and S. Grimme, J. Chem. Phys., 2019, 150, 154122.
     DOI: 10.1063/1.5090222
   * E. Caldeweyher, J.-M. Mewes, S. Ehlert and S. Grimme, Phys. Chem. Chem. Phys.
     2020, 22, 8499-8512. DOI: 10.1039/D0CP00502A
   
   for sTDA-xTB:
   * S. Grimme and C. Bannwarth, J. Chem. Phys., 2016, 145, 054103.
     DOI: 10.1063/1.4959605
   
   in the mass-spec context:
   * V. Asgeirsson, C. Bauer and S. Grimme, Chem. Sci., 2017, 8, 4879.
     DOI: 10.1039/c7sc00601b
   * J. Koopman and S. Grimme, ACS Omega 2019, 4, 12, 15120-15133.
     DOI: 10.1021/acsomega.9b02011
   
   for metadynamics refer to:
   * S. Grimme, J. Chem. Theory Comput., 2019, 155, 2847-2862
     DOI: 10.1021/acs.jctc.9b00143
   
   for SPH calculations refer to:
   * S. Spicher and S. Grimme, J. Chem. Theory Comput., 2021, 17, 1701-1714
     DOI: 10.1021/acs.jctc.0c01306
   
   for ONIOM refer to:
   * C. Plett, A. Katbashev, S. Ehlert, S. Grimme, M. Bursch,
     Phys. Chem. Chem. Phys., 2023, 25, 17860-17868. DOI: 10.1039/D3CP02178E
   
   for DIPRO refer to:
   * J. Kohn, N. Gildemeister, S. Grimme, D. Fazzi, A. Hansen,
     J. Chem. Phys., 2023, just accepted.
   
   for PTB refer to:
   * S. Grimme, M. Mueller, A. Hansen, J. Chem. Phys., 2023, 158, 124111.
     DOI: 10.1063/5.0137838
   
   with help from (in alphabetical order)
   P. Atkinson, C. Bannwarth, F. Bohle, G. Brandenburg, E. Caldeweyher
   M. Checinski, S. Dohm, S. Ehlert, S. Ehrlich, I. Gerasimov, C. Hölzer
   A. Katbashev, J. Kohn, J. Koopman, C. Lavigne, S. Lehtola, F. März, M. Müller,
   F. Musil, H. Neugebauer, J. Pisarek, C. Plett, P. Pracht, F. Pultar,
   J. Seibert, P. Shushkov, S. Spicher, M. Stahn, M. Steiner, T. Strunk,
   J. Stückrath, T. Rose, and J. Unsleber
   
 * started run on 2026/08/31 at 21:56:29.249     
   ID    Z sym.   atoms
    1    6 C      1-3, 6-8, 10, 12-16, 18-24, 26, 28-30, 32-34, 36, 37, 83-89
    2    8 O      4, 27, 90-103
    3    7 N      5, 9, 11, 17, 25, 31, 35
    4    1 H      38-70
    5   22 Ti     71-82

           -------------------------------------------------
          |                Calculation Setup                |
           -------------------------------------------------

          program call               : "c:\Users\Andre\Proyectos doctorado\kras-pancreatic-gC3N4-ai\tools\xtb\xtb-6.7.1\bin\xtb.exe" "c:\Users\Andre\Proyectos doctorado\mxene-glioblastoma-qsar-ai\calculations\gbm\Osimertinib\Osimertinib_opt_orient_270deg.xyz" --opt vloose --gfn 2 --chrg 0 --uhf 0 --etemp 500 --acc 1.0 --iterations 500 --cycles 25 --norestart
          coordinate file            : c:\Users\Andre\Proyectos doctorado\mxene-glioblastoma-qsar-ai\calculations\gbm\Osimertinib\Osimertinib_opt_orient_270deg.xyz
          omp threads                :                    16


molecular fragmentation (1/2 indicates fragments):
111111111111111111111111111111111111111111111111111111111111111111111122
2222222222222222222222222222222
# atoms in fragment 1/2:    70    33
 fragment masses (1/2) :      499.61      882.47
CMA distance (Bohr)    :  19.037
constraining FC (au)   :  0.0500

           -------------------------------------------------
          |                 G F N 2 - x T B                 |
           -------------------------------------------------

        Reference                      10.1021/acs.jctc.8b01176
      * Hamiltonian:
        H0-scaling (s, p, d)           1.850000    2.230000    2.230000
        zeta-weighting                 0.500000
      * Dispersion:
        s8                             2.700000
        a1                             0.520000
        a2                             5.000000
        s9                             5.000000
      * Repulsion:
        kExp                           1.500000    1.000000
        rExp                           1.000000
      * Coulomb:
        alpha                          2.000000
        third order                    shell-resolved
        anisotropic                    true
        a3                             3.000000
        a5                             4.000000
        cn-shift                       1.200000
        cn-exp                         4.000000
        max-rad                        5.000000


          ...................................................
          :                      SETUP                      :
          :.................................................:
          :  # basis functions                 385          :
          :  # atomic orbitals                 373          :
          :  # shells                          185          :
          :  # electrons                       352          :
          :  max. iterations                   500          :
          :  Hamiltonian                  GFN2-xTB          :
          :  restarted?                      false          :
          :  GBSA solvation                  false          :
          :  PC potential                    false          :
          :  electronic temp.          500.0000000     K    :
          :  accuracy                    1.0000000          :
          :  -> integral cutoff          0.2500000E+02      :
          :  -> integral neglect         0.1000000E-07      :
          :  -> SCF convergence          0.1000000E-05 Eh   :
          :  -> wf. convergence          0.1000000E-03 e    :
          :  Broyden damping             0.4000000          :
          :  net charge                          0          :
          :  unpaired electrons                  0          :
          ...................................................

 iter      E             dE          RMSdq      gap      omega  full diag
   1   -195.3330838 -0.195333E+03  0.128E+01    0.01       0.0  T
   2   -138.9386859  0.563944E+02  0.149E+01    0.06       1.0  T
   3     96.3360348  0.235275E+03  0.275E+01    0.12       1.0  T
   4   -152.6504839 -0.248987E+03  0.134E+01    0.01       1.0  T
   5    -37.1033451  0.115547E+03  0.183E+01    0.03       1.0  T
   6   -195.7646005 -0.158661E+03  0.110E+01    0.34       1.0  T
   7   -195.1679568  0.596644E+00  0.707E+00    0.05       1.0  T
   8   -196.0922049 -0.924248E+00  0.561E+00    0.08       1.0  T
   9   -194.6879633  0.140424E+01  0.628E+00    0.12       1.0  T
  10   -196.1133395 -0.142538E+01  0.615E+00    0.01       1.0  T
  11   -194.5027984  0.161054E+01  0.631E+00    0.10       1.0  T
  12   -196.6209351 -0.211814E+01  0.612E+00    0.14       1.0  T
  13   -195.0382781  0.158266E+01  0.583E+00    0.04       1.0  T
  14   -197.8613202 -0.282304E+01  0.523E+00    0.10       1.0  T
  15   -193.7616177  0.409970E+01  0.597E+00    0.26       1.0  T
  16   -196.5643717 -0.280275E+01  0.466E+00    0.06       1.0  T
  17   -197.0096958 -0.445324E+00  0.374E+00    0.04       1.0  T
  18   -196.9255353  0.841605E-01  0.370E+00    0.13       1.0  T
  19   -196.9582922 -0.327569E-01  0.328E+00    0.08       1.0  T
  20   -199.2337142 -0.227542E+01  0.337E+00    0.15       1.0  T
  21   -199.2655999 -0.318857E-01  0.334E+00    0.17       1.0  T
  22   -199.1693983  0.962016E-01  0.326E+00    0.08       1.0  T
  23   -199.2595767 -0.901784E-01  0.382E+00    0.26       1.0  T
  24   -199.2937274 -0.341508E-01  0.275E+00    0.14       1.0  T
  25   -199.0046830  0.289044E+00  0.208E+00    0.06       1.0  T
  26   -199.4375185 -0.432835E+00  0.210E+00    0.21       1.0  T
  27   -199.4566746 -0.191561E-01  0.197E+00    0.24       1.0  T
  28   -199.4883318 -0.316572E-01  0.178E+00    0.49       1.0  T
  29   -199.4919301 -0.359823E-02  0.171E+00    0.58       1.0  T
  30   -199.5032337 -0.113036E-01  0.155E+00    0.71       1.0  T
  31   -199.5193046 -0.160710E-01  0.135E+00    0.90       1.0  T
  32   -199.5310733 -0.117686E-01  0.117E+00    1.11       1.0  T
  33   -199.5437722 -0.126990E-01  0.935E-01    1.15       1.0  T
  34   -199.5514870 -0.771476E-02  0.798E-01    0.97       1.0  T
  35   -199.5575054 -0.601842E-02  0.664E-01    0.71       1.0  T
  36   -199.5623197 -0.481433E-02  0.586E-01    0.57       1.0  T
  37   -199.5654020 -0.308230E-02  0.527E-01    0.51       1.0  T
  38   -199.5707888 -0.538676E-02  0.459E-01    0.50       1.0  T
  39   -199.5734587 -0.266988E-02  0.407E-01    0.52       1.0  T
  40   -199.5763787 -0.292008E-02  0.356E-01    0.53       1.0  T
  41   -199.5801260 -0.374728E-02  0.285E-01    0.53       1.0  T
  42   -199.5818887 -0.176271E-02  0.244E-01    0.53       1.0  T
  43   -199.5838276 -0.193884E-02  0.201E-01    0.57       1.0  T
  44   -199.5844791 -0.651554E-03  0.188E-01    0.62       1.0  T
  45   -199.5848060 -0.326847E-03  0.178E-01    0.64       1.0  T
  46   -199.5857456 -0.939609E-03  0.153E-01    0.71       1.0  T
  47   -199.5865549 -0.809301E-03  0.124E-01    0.76       1.0  T
  48   -199.5872203 -0.665444E-03  0.992E-02    0.73       1.0  T
  49   -199.5877235 -0.503159E-03  0.776E-02    0.69       1.0  T
  50   -199.5879250 -0.201531E-03  0.681E-02    0.67       1.0  T
  51   -199.5879996 -0.746296E-04  0.628E-02    0.66       1.0  T
  52   -199.5880927 -0.930566E-04  0.550E-02    0.66       1.0  T
  53   -199.5882755 -0.182843E-03  0.365E-02    0.63       1.0  T
  54   -199.5883467 -0.711391E-04  0.279E-02    0.63       1.0  T
  55   -199.5883820 -0.353502E-04  0.218E-02    0.62       1.0  T
  56   -199.5884085 -0.264530E-04  0.170E-02    0.61       1.0  T
  57   -199.5884089 -0.439119E-06  0.165E-02    0.62       1.0  T
  58   -199.5884198 -0.108804E-04  0.137E-02    0.62       1.0  T
  59   -199.5884357 -0.159090E-04  0.836E-03    0.62       1.2  T
  60   -199.5884388 -0.313392E-05  0.606E-03    0.62       1.6  T
  61   -199.5884411 -0.229188E-05  0.369E-03    0.61       2.7  T
  62   -199.5884421 -0.986139E-06  0.240E-03    0.61       4.1  T
  63   -199.5884426 -0.453375E-06  0.158E-03    0.61       6.2  T
  64   -199.5884426 -0.472230E-07  0.136E-03    0.61       7.2  T
  65   -199.5884427 -0.105633E-06  0.750E-04    0.61      13.1  T
  66   -199.5884427 -0.677611E-08  0.656E-04    0.61      15.0  T

   *** convergence criteria satisfied after 66 iterations ***

         #    Occupation            Energy/Eh            Energy/eV
      -------------------------------------------------------------
         1        2.0000           -0.8185146             -22.2729
       ...           ...                  ...                  ...
       170        2.0000           -0.3454989              -9.4015
       171        2.0000           -0.3434353              -9.3454
       172        2.0000           -0.3384716              -9.2103
       173        2.0000           -0.3367515              -9.1635
       174        2.0000           -0.3345989              -9.1049
       175        2.0000           -0.3211926              -8.7401
       176        1.9975           -0.3066067              -8.3432 (HOMO)
       177        0.0011           -0.2840843              -7.7303 (LUMO)
       178        0.0009           -0.2837115              -7.7202
       179        0.0003           -0.2822433              -7.6802
       180        0.0002           -0.2809872              -7.6460
       181        0.0000           -0.2779366              -7.5630
       ...           ...                  ...                  ...
       373                         13.3293614             362.7104
      -------------------------------------------------------------
                  HL-Gap            0.0225224 Eh            0.6129 eV
             Fermi-level           -0.2959943 Eh           -8.0544 eV

 SCC (total)                   0 d,  0 h,  0 min, 12.035 sec
 SCC setup                      ...        0 min,  0.001 sec (  0.008%)
 Dispersion                     ...        0 min,  0.006 sec (  0.050%)
 classical contributions        ...        0 min,  0.000 sec (  0.000%)
 integral evaluation            ...        0 min,  0.015 sec (  0.125%)
 iterations                     ...        0 min, 11.971 sec ( 99.468%)
 molecular gradient             ...        0 min,  0.039 sec (  0.324%)
 printout                       ...        0 min,  0.002 sec (  0.017%)

         :::::::::::::::::::::::::::::::::::::::::::::::::::::
         ::                     SUMMARY                     ::
         :::::::::::::::::::::::::::::::::::::::::::::::::::::
         :: total energy            -197.420579243960 Eh    ::
         :: gradient norm              0.094272546772 Eh/a0 ::
         :: HOMO-LUMO gap              0.612865757486 eV    ::
         ::.................................................::
         :: SCC energy              -199.585865328104 Eh    ::
         :: -> isotropic ES            0.997027844579 Eh    ::
         :: -> anisotropic ES         -0.364244305207 Eh    ::
         :: -> anisotropic XC         -0.001040329296 Eh    ::
         :: -> dispersion             -0.168350721004 Eh    ::
         :: repulsion energy           2.165286084144 Eh    ::
         :: add. restraining           0.000000000000 Eh    ::
         :: total charge              -0.000000000009 e     ::
         :::::::::::::::::::::::::::::::::::::::::::::::::::::

      ----------------------------------------------------------- 
     |                   =====================                   |
     |                        A N C O P T                        |
     |                   =====================                   |
     |               Approximate Normal Coordinate               |
     |                Rational Function Optimizer                |
      ----------------------------------------------------------- 
      ----------------------------------------------------------- 
     |                   =====================                   |
     |                        A N C O P T                        |
     |                   =====================                   |
     |               Approximate Normal Coordinate               |
     |                Rational Function Optimizer                |
      ----------------------------------------------------------- 

          ...................................................
          :                      SETUP                      :
          :.................................................:
          :   optimization level            normal          :
          :   max. optcycles                    25          :
          :   ANC micro-cycles                  20          :
          :   degrees of freedom               303          :
          :.................................................:
          :   RF solver                   davidson          :
          :   write xtbopt.log                true          :
          :   linear?                        false          :
          :   energy convergence         0.5000000E-05 Eh   :
          :   grad. convergence          0.1000000E-02 Eh/α :
          :   maxmium RF displ.          1.0000000          :
          :   Hlow (freq-cutoff)         0.1000000E-01      :
          :   Hmax (freq-cutoff)         5.0000000          :
          :   S6 in model hess.         20.0000000          :
          ...................................................

generating ANC from exact Hessian ...
Using Lindh-Hessian (1995)
 Shifting diagonal of input Hessian by   1.791435002772772E-002
 Lowest  eigenvalues of input Hessian
    0.010000    0.017284    0.017392    0.017427    0.017901    0.000000
    0.000000    0.000000    0.000000    0.000000    0.000000    0.017922
    0.017923    0.017975    0.018052    0.018086    0.018233    0.018289
 Highest eigenvalues
    2.117608    2.126430    2.205806    2.240883    2.262054    2.345284
 

........................................................................
.............................. CYCLE    1 ..............................
........................................................................

 iter      E             dE          RMSdq      gap      omega  full diag
   1   -199.5884428 -0.199588E+03  0.468E-04    0.61       0.0  T
   2   -199.5884428 -0.117711E-07  0.647E-04    0.61      15.2  T
   3   -199.5884428 -0.388079E-08  0.486E-04    0.61      20.3  T
     SCC iter.                  ...        0 min,  0.326 sec
     gradient                   ...        0 min,  0.047 sec
 * total energy  :  -197.4205793 Eh     change       -0.3517340E-07 Eh
   gradient norm :     0.0942776 Eh/α   predicted     0.0000000E+00 (-100.00%)
   displ. norm   :     0.3436731 α      lambda       -0.1750151E-01
   maximum displ.:     0.1301866 α      in ANC's #116, #95, #67, ...

........................................................................
.............................. CYCLE    2 ..............................
........................................................................

 iter      E             dE          RMSdq      gap      omega  full diag
   1   -199.6418544 -0.199642E+03  0.158E-01    0.62       0.0  T
   2   -199.6419719 -0.117439E-03  0.982E-02    0.61       1.0  T
   3   -199.6416527  0.319175E-03  0.855E-02    0.64       1.0  T
   4   -199.6418046 -0.151904E-03  0.611E-02    0.61       1.0  T
   5   -199.6420677 -0.263105E-03  0.129E-02    0.62       1.0  T
   6   -199.6420758 -0.804007E-05  0.757E-03    0.62       1.3  T
   7   -199.6420791 -0.334266E-05  0.334E-03    0.62       3.0  T
   8   -199.6420795 -0.383480E-06  0.175E-03    0.62       5.6  T
   9   -199.6420795 -0.564147E-07  0.122E-03    0.62       8.1  T
  10   -199.6420796 -0.102621E-07  0.918E-04    0.62      10.7  T
  11   -199.6420796 -0.270132E-07  0.588E-04    0.62      16.7  T
     SCC iter.                  ...        0 min,  1.540 sec
     gradient                   ...        0 min,  0.050 sec
 * total energy  :  -197.4327905 Eh     change       -0.1221126E-01 Eh
   gradient norm :     0.0377112 Eh/α   predicted    -0.9789272E-02 ( -19.83%)
   displ. norm   :     0.3134033 α      lambda       -0.5553706E-02
   maximum displ.:     0.1155526 α      in ANC's #67, #95, #116, ...

........................................................................
.............................. CYCLE    3 ..............................
........................................................................

 iter      E             dE          RMSdq      gap      omega  full diag
   1   -199.6724682 -0.199672E+03  0.115E-01    0.61       0.0  T
   2   -199.6725470 -0.788626E-04  0.677E-02    0.62       1.0  T
   3   -199.6725028  0.442366E-04  0.462E-02    0.60       1.0  T
   4   -199.6725388 -0.359765E-04  0.311E-02    0.63       1.0  T
   5   -199.6725940 -0.551824E-04  0.103E-02    0.61       1.0  T
   6   -199.6725963 -0.230522E-05  0.903E-03    0.61       1.1  T
   7   -199.6726017 -0.542827E-05  0.268E-03    0.62       3.7  T
   8   -199.6726018 -0.157379E-06  0.151E-03    0.62       6.5  T
   9   -199.6726019 -0.313038E-07  0.896E-04    0.62      11.0  T
  10   -199.6726019 -0.633054E-08  0.513E-04    0.62      19.2  T
     SCC iter.                  ...        0 min,  3.214 sec
     gradient                   ...        0 min,  0.041 sec
 * total energy  :  -197.4359919 Eh     change       -0.3201362E-02 Eh
   gradient norm :     0.0106538 Eh/α   predicted    -0.3050130E-02 (  -4.72%)
   displ. norm   :     0.2485289 α      lambda       -0.1153033E-02
   maximum displ.:     0.1220864 α      in ANC's #1, #37, #42, ...

........................................................................
.............................. CYCLE    4 ..............................
........................................................................

 iter      E             dE          RMSdq      gap      omega  full diag
   1   -199.6764726 -0.199676E+03  0.187E-01    0.62       0.0  T
   2   -199.6765551 -0.825643E-04  0.906E-02    0.62       1.0  T
   3   -199.6765412  0.139542E-04  0.594E-02    0.63       1.0  T
   4   -199.6765892 -0.479839E-04  0.366E-02    0.62       1.0  T
   5   -199.6766084 -0.192093E-04  0.292E-02    0.63       1.0  T
   6   -199.6766228 -0.143776E-04  0.179E-02    0.62       1.0  T
   7   -199.6766380 -0.152406E-04  0.933E-03    0.62       1.1  T
   8   -199.6766409 -0.294114E-05  0.483E-03    0.63       2.0  T
   9   -199.6766413 -0.349342E-06  0.344E-03    0.62       2.9  T
  10   -199.6766416 -0.305467E-06  0.236E-03    0.63       4.2  T
  11   -199.6766417 -0.117553E-06  0.136E-03    0.62       7.2  T
  12   -199.6766417 -0.332837E-07  0.797E-04    0.62      12.4  T
  13   -199.6766417 -0.156598E-08  0.671E-04    0.62      14.7  T
     SCC iter.                  ...        0 min,  1.611 sec
     gradient                   ...        0 min,  0.035 sec
 * total energy  :  -197.4361848 Eh     change       -0.1929329E-03 Eh
   gradient norm :     0.0144131 Eh/α   predicted    -0.6121477E-03 ( 217.29%)
   displ. norm   :     0.3781500 α      lambda       -0.2154577E-02
   maximum displ.:     0.1644317 α      in ANC's #1, #37, #21, ...

........................................................................
.............................. CYCLE    5 ..............................
........................................................................

 iter      E             dE          RMSdq      gap      omega  full diag
   1   -199.6800594 -0.199680E+03  0.250E-01    0.64       0.0  T
   2   -199.6802434 -0.184023E-03  0.132E-01    0.59       1.0  T
   3   -199.6801836  0.598901E-04  0.890E-02    0.64       1.0  T
   4   -199.6801832  0.356635E-06  0.777E-02    0.60       1.0  T
   5   -199.6804442 -0.261040E-03  0.348E-02    0.62       1.0  T
   6   -199.6804386  0.565320E-05  0.263E-02    0.62       1.0  T
   7   -199.6804704 -0.318599E-04  0.137E-02    0.62       1.0  T
   8   -199.6804788 -0.832497E-05  0.543E-03    0.62       1.8  T
   9   -199.6804790 -0.273895E-06  0.390E-03    0.62       2.5  T
  10   -199.6804793 -0.260228E-06  0.279E-03    0.62       3.5  T
  11   -199.6804795 -0.192558E-06  0.156E-03    0.62       6.3  T
  12   -199.6804796 -0.110308E-06  0.725E-04    0.62      13.6  T
  13   -199.6804796 -0.100763E-08  0.552E-04    0.62      17.9  T
     SCC iter.                  ...        0 min,  1.759 sec
     gradient                   ...        0 min,  0.071 sec
 * total energy  :  -197.4365604 Eh     change       -0.3755263E-03 Eh
   gradient norm :     0.0197063 Eh/α   predicted    -0.1231373E-02 ( 227.91%)
   displ. norm   :     0.2198230 α      lambda       -0.2238441E-02
   maximum displ.:     0.1016750 α      in ANC's #33, #22, #38, ...

........................................................................
.............................. CYCLE    6 ..............................
........................................................................

 iter      E             dE          RMSdq      gap      omega  full diag
   1   -199.6784538 -0.199678E+03  0.242E-01    0.57       0.0  T
   2   -199.6784144  0.393520E-04  0.116E-01    0.63       1.0  T
   3   -199.6780009  0.413510E-03  0.121E-01    0.56       1.0  T
   4   -199.6785823 -0.581400E-03  0.589E-02    0.62       1.0  T
   5   -199.6786718 -0.895178E-04  0.375E-02    0.61       1.0  T
   6   -199.6787187 -0.468425E-04  0.228E-02    0.60       1.0  T
   7   -199.6787368 -0.181573E-04  0.110E-02    0.60       1.0  T
   8   -199.6787410 -0.418882E-05  0.456E-03    0.60       2.2  T
   9   -199.6787410  0.493754E-07  0.330E-03    0.60       3.0  T
  10   -199.6787410 -0.265415E-07  0.263E-03    0.60       3.7  T
  11   -199.6787412 -0.195415E-06  0.163E-03    0.60       6.1  T
  12   -199.6787412 -0.690174E-07  0.117E-03    0.60       8.4  T
  13   -199.6787413 -0.301628E-07  0.744E-04    0.60      13.2  T
  14   -199.6787413  0.929310E-08  0.656E-04    0.60      15.0  T
     SCC iter.                  ...        0 min,  3.399 sec
     gradient                   ...        0 min,  0.040 sec
 * total energy  :  -197.4369965 Eh     change       -0.4360922E-03 Eh
   gradient norm :     0.0122071 Eh/α   predicted    -0.1173302E-02 ( 169.05%)
   displ. norm   :     0.1764044 α      lambda       -0.1312047E-02
   maximum displ.:     0.1071932 α      in ANC's #1, #33, #67, ...

........................................................................
.............................. CYCLE    7 ..............................
........................................................................

 iter      E             dE          RMSdq      gap      omega  full diag
   1   -199.6781231 -0.199678E+03  0.226E-01    0.60       0.0  T
   2   -199.6781584 -0.352957E-04  0.709E-02    0.62       1.0  T
   3   -199.6780605  0.978588E-04  0.584E-02    0.61       1.0  T
   4   -199.6781082 -0.476982E-04  0.428E-02    0.62       1.0  T
   5   -199.6781515 -0.433542E-04  0.304E-02    0.62       1.0  T
   6   -199.6781780 -0.264707E-04  0.198E-02    0.61       1.0  T
   7   -199.6781914 -0.133634E-04  0.859E-03    0.62       1.1  T
   8   -199.6781934 -0.203122E-05  0.375E-03    0.61       2.6  T
   9   -199.6781936 -0.142655E-06  0.278E-03    0.61       3.5  T
  10   -199.6781937 -0.169510E-06  0.189E-03    0.62       5.2  T
  11   -199.6781938 -0.504457E-07  0.133E-03    0.62       7.4  T
  12   -199.6781939 -0.893740E-07  0.645E-04    0.62      15.3  T
  13   -199.6781939 -0.385089E-08  0.480E-04    0.61      20.5  T
     SCC iter.                  ...        0 min,  3.930 sec
     gradient                   ...        0 min,  0.054 sec
 * total energy  :  -197.4373984 Eh     change       -0.4019058E-03 Eh
   gradient norm :     0.0085961 Eh/α   predicted    -0.6764399E-03 (  68.31%)
   displ. norm   :     0.1739429 α      lambda       -0.7462740E-03
   maximum displ.:     0.0640848 α      in ANC's #22, #19, #20, ...

........................................................................
.............................. CYCLE    8 ..............................
........................................................................

 iter      E             dE          RMSdq      gap      omega  full diag
   1   -199.6793460 -0.199679E+03  0.119E-01    0.64       0.0  T
   2   -199.6793282  0.178054E-04  0.539E-02    0.60       1.0  T
   3   -199.6792292  0.990044E-04  0.604E-02    0.64       1.0  T
   4   -199.6794001 -0.170865E-03  0.184E-02    0.61       1.0  T
   5   -199.6794063 -0.625548E-05  0.104E-02    0.62       1.0  T
   6   -199.6794067 -0.432716E-06  0.582E-03    0.62       1.7  T
   7   -199.6794048  0.192775E-05  0.600E-03    0.62       1.6  T
   8   -199.6794077 -0.283524E-05  0.277E-03    0.62       3.6  T
   9   -199.6794078 -0.150614E-06  0.161E-03    0.62       6.1  T
  10   -199.6794078 -0.440009E-07  0.113E-03    0.62       8.7  T
  11   -199.6794079 -0.471712E-08  0.768E-04    0.62      12.8  T
  12   -199.6794079 -0.345898E-07  0.430E-04    0.62      22.9  T
     SCC iter.                  ...        0 min,  1.796 sec
     gradient                   ...        0 min,  0.039 sec
 * total energy  :  -197.4377789 Eh     change       -0.3804959E-03 Eh
   gradient norm :     0.0049254 Eh/α   predicted    -0.3844394E-03 (   1.04%)
   displ. norm   :     0.2043752 α      lambda       -0.3737671E-03
   maximum displ.:     0.0805918 α      in ANC's #19, #20, #21, ...

........................................................................
.............................. CYCLE    9 ..............................
........................................................................

 iter      E             dE          RMSdq      gap      omega  full diag
   1   -199.6815219 -0.199682E+03  0.636E-02    0.62       0.0  T
   2   -199.6815293 -0.742902E-05  0.329E-02    0.62       1.0  T
   3   -199.6815088  0.205445E-04  0.253E-02    0.62       1.0  T
   4   -199.6815150 -0.621699E-05  0.200E-02    0.62       1.0  T
   5   -199.6815406 -0.255884E-04  0.892E-03    0.62       1.1  T
   6   -199.6815413 -0.658463E-06  0.618E-03    0.62       1.6  T
   7   -199.6815429 -0.166227E-05  0.276E-03    0.62       3.6  T
   8   -199.6815431 -0.146429E-06  0.135E-03    0.62       7.3  T
   9   -199.6815431 -0.263239E-08  0.101E-03    0.62       9.7  T
  10   -199.6815431 -0.196821E-07  0.690E-04    0.62      14.3  T
  11   -199.6815431 -0.158631E-07  0.298E-04    0.62      33.0  T
     SCC iter.                  ...        0 min,  1.278 sec
     gradient                   ...        0 min,  0.032 sec
 * total energy  :  -197.4380250 Eh     change       -0.2461568E-03 Eh
   gradient norm :     0.0040547 Eh/α   predicted    -0.1946933E-03 ( -20.91%)
   displ. norm   :     0.2631356 α      lambda       -0.3020094E-03
   maximum displ.:     0.1151065 α      in ANC's #20, #19, #12, ...

........................................................................
.............................. CYCLE   10 ..............................
........................................................................

 iter      E             dE          RMSdq      gap      omega  full diag
   1   -199.6825121 -0.199683E+03  0.433E-02    0.61       0.0  T
   2   -199.6825101  0.195562E-05  0.227E-02    0.62       1.0  T
   3   -199.6824873  0.228672E-04  0.251E-02    0.60       1.0  T
   4   -199.6825125 -0.252498E-04  0.106E-02    0.62       1.0  T
   5   -199.6825141 -0.161723E-05  0.713E-03    0.61       1.4  T
   6   -199.6825160 -0.185315E-05  0.407E-03    0.61       2.4  T
   7   -199.6825172 -0.118020E-05  0.129E-03    0.61       7.6  T
   8   -199.6825172 -0.166583E-07  0.789E-04    0.61      12.5  T
   9   -199.6825172 -0.811769E-08  0.548E-04    0.61      18.0  T
     SCC iter.                  ...        0 min,  3.309 sec
     gradient                   ...        0 min,  0.037 sec
 * total energy  :  -197.4382640 Eh     change       -0.2389866E-03 Eh
   gradient norm :     0.0041165 Eh/α   predicted    -0.1614665E-03 ( -32.44%)
   displ. norm   :     0.4756792 α      lambda       -0.4815375E-03
   maximum displ.:     0.2123813 α      in ANC's #20, #19, #12, ...

........................................................................
.............................. CYCLE   11 ..............................
........................................................................

 iter      E             dE          RMSdq      gap      omega  full diag
   1   -199.6837634 -0.199684E+03  0.788E-02    0.62       0.0  T
   2   -199.6837687 -0.534701E-05  0.346E-02    0.62       1.0  T
   3   -199.6837600  0.869314E-05  0.212E-02    0.62       1.0  T
   4   -199.6837566  0.344966E-05  0.167E-02    0.62       1.0  T
   5   -199.6837707 -0.141098E-04  0.730E-03    0.62       1.3  T
   6   -199.6837730 -0.234648E-05  0.299E-03    0.62       3.3  T
   7   -199.6837727  0.294376E-06  0.316E-03    0.62       3.1  T
   8   -199.6837733 -0.570572E-06  0.151E-03    0.62       6.5  T
   9   -199.6837734 -0.402114E-07  0.961E-04    0.62      10.3  T
  10   -199.6837734 -0.263384E-09  0.669E-04    0.62      14.7  T
     SCC iter.                  ...        0 min,  1.312 sec
     gradient                   ...        0 min,  0.133 sec
 * total energy  :  -197.4385830 Eh     change       -0.3190331E-03 Eh
   gradient norm :     0.0045276 Eh/α   predicted    -0.2952553E-03 (  -7.45%)
   displ. norm   :     0.4301308 α      lambda       -0.3926971E-03
   maximum displ.:     0.1916768 α      in ANC's #20, #19, #12, ...

........................................................................
.............................. CYCLE   12 ..............................
........................................................................

 iter      E             dE          RMSdq      gap      omega  full diag
   1   -199.6833408 -0.199683E+03  0.101E-01    0.59       0.0  T
   2   -199.6833325  0.826337E-05  0.416E-02    0.62       1.0  T
   3   -199.6832664  0.660666E-04  0.457E-02    0.59       1.0  T
   4   -199.6833507 -0.842220E-04  0.202E-02    0.61       1.0  T
   5   -199.6833559 -0.524986E-05  0.139E-02    0.61       1.0  T
   6   -199.6833620 -0.614218E-05  0.651E-03    0.61       1.5  T
   7   -199.6833651 -0.307646E-05  0.289E-03    0.61       3.4  T
   8   -199.6833655 -0.398579E-06  0.152E-03    0.61       6.5  T
   9   -199.6833656 -0.283214E-07  0.113E-03    0.61       8.7  T
  10   -199.6833656 -0.118349E-07  0.824E-04    0.61      12.0  T
  11   -199.6833656 -0.238797E-07  0.447E-04    0.61      22.0  T
     SCC iter.                  ...        0 min,  1.683 sec
     gradient                   ...        0 min,  0.196 sec
 * total energy  :  -197.4388016 Eh     change       -0.2186015E-03 Eh
   gradient norm :     0.0055420 Eh/α   predicted    -0.2326810E-03 (   6.44%)
   displ. norm   :     0.3071954 α      lambda       -0.2822722E-03
   maximum displ.:     0.1321927 α      in ANC's #20, #19, #12, ...

........................................................................
.............................. CYCLE   13 ..............................
........................................................................

 iter      E             dE          RMSdq      gap      omega  full diag
   1   -199.6840929 -0.199684E+03  0.550E-02    0.62       0.0  T
   2   -199.6840879  0.498096E-05  0.283E-02    0.60       1.0  T
   3   -199.6840697  0.181555E-04  0.277E-02    0.62       1.0  T
   4   -199.6840962 -0.264997E-04  0.117E-02    0.61       1.0  T
   5   -199.6841016 -0.534924E-05  0.485E-03    0.61       2.0  T
   6   -199.6841022 -0.619479E-06  0.215E-03    0.61       4.6  T
   7   -199.6841021  0.127516E-06  0.198E-03    0.61       5.0  T
   8   -199.6841023 -0.210120E-06  0.101E-03    0.61       9.8  T
   9   -199.6841023 -0.318968E-08  0.789E-04    0.61      12.5  T
  10   -199.6841023 -0.223640E-07  0.410E-04    0.61      24.1  T
     SCC iter.                  ...        0 min,  0.783 sec
     gradient                   ...        0 min,  0.096 sec
 * total energy  :  -197.4390173 Eh     change       -0.2156550E-03 Eh
   gradient norm :     0.0045577 Eh/α   predicted    -0.1544574E-03 ( -28.38%)
   displ. norm   :     0.4062475 α      lambda       -0.3906687E-03
   maximum displ.:     0.1696855 α      in ANC's #7, #12, #20, ...

........................................................................
.............................. CYCLE   14 ..............................
........................................................................

 iter      E             dE          RMSdq      gap      omega  full diag
   1   -199.6848329 -0.199685E+03  0.696E-02    0.61       0.0  T
   2   -199.6848351 -0.217710E-05  0.329E-02    0.61       1.0  T
   3   -199.6848133  0.217931E-04  0.242E-02    0.62       1.0  T
   4   -199.6848182 -0.484415E-05  0.197E-02    0.61       1.0  T
   5   -199.6848348 -0.166396E-04  0.786E-03    0.61       1.3  T
   6   -199.6848377 -0.286926E-05  0.466E-03    0.61       2.1  T
   7   -199.6848392 -0.149293E-05  0.174E-03    0.61       5.7  T
   8   -199.6848392 -0.229208E-07  0.128E-03    0.61       7.7  T
   9   -199.6848392 -0.585231E-09  0.100E-03    0.61       9.8  T
  10   -199.6848392 -0.374322E-07  0.561E-04    0.61      17.6  T
  11   -199.6848392 -0.647461E-08  0.281E-04    0.61      35.1  T
     SCC iter.                  ...        0 min,  1.187 sec
     gradient                   ...        0 min,  0.346 sec
 * total energy  :  -197.4392914 Eh     change       -0.2741608E-03 Eh
   gradient norm :     0.0041283 Eh/α   predicted    -0.2275752E-03 ( -16.99%)
   displ. norm   :     0.3994069 α      lambda       -0.2698954E-03
   maximum displ.:     0.1811495 α      in ANC's #7, #12, #20, ...

........................................................................
.............................. CYCLE   15 ..............................
........................................................................

 iter      E             dE          RMSdq      gap      omega  full diag
   1   -199.6832724 -0.199683E+03  0.590E-02    0.62       0.0  T
   2   -199.6832729 -0.523094E-06  0.315E-02    0.61       1.0  T
   3   -199.6832444  0.284712E-04  0.265E-02    0.63       1.0  T
   4   -199.6832714 -0.269759E-04  0.109E-02    0.61       1.0  T
   5   -199.6832750 -0.356806E-05  0.561E-03    0.61       1.8  T
   6   -199.6832766 -0.167096E-05  0.401E-03    0.62       2.5  T
   7   -199.6832777 -0.101439E-05  0.128E-03    0.61       7.7  T
   8   -199.6832777 -0.344757E-07  0.705E-04    0.62      14.0  T
   9   -199.6832777 -0.484931E-09  0.547E-04    0.62      18.0  T
     SCC iter.                  ...        0 min,  0.614 sec
     gradient                   ...        0 min,  0.036 sec
 * total energy  :  -197.4394779 Eh     change       -0.1864895E-03 Eh
   gradient norm :     0.0049042 Eh/α   predicted    -0.1564796E-03 ( -16.09%)
   displ. norm   :     0.3997192 α      lambda       -0.2438180E-03
   maximum displ.:     0.1986289 α      in ANC's #7, #12, #20, ...

........................................................................
.............................. CYCLE   16 ..............................
........................................................................

 iter      E             dE          RMSdq      gap      omega  full diag
   1   -199.6822128 -0.199682E+03  0.599E-02    0.61       0.0  T
   2   -199.6822129 -0.980253E-07  0.319E-02    0.62       1.0  T
   3   -199.6821741  0.388271E-04  0.299E-02    0.60       1.0  T
   4   -199.6822084 -0.343068E-04  0.141E-02    0.62       1.0  T
   5   -199.6822147 -0.633920E-05  0.880E-03    0.61       1.1  T
   6   -199.6822176 -0.283881E-05  0.399E-03    0.61       2.5  T
   7   -199.6822187 -0.111428E-05  0.152E-03    0.61       6.5  T
   8   -199.6822188 -0.101202E-06  0.835E-04    0.61      11.8  T
   9   -199.6822188 -0.843568E-08  0.631E-04    0.61      15.6  T
     SCC iter.                  ...        0 min,  0.612 sec
     gradient                   ...        0 min,  0.032 sec
 * total energy  :  -197.4396554 Eh     change       -0.1774763E-03 Eh
   gradient norm :     0.0052652 Eh/α   predicted    -0.1413895E-03 ( -20.33%)
   displ. norm   :     0.3946961 α      lambda       -0.2716382E-03
   maximum displ.:     0.2190783 α      in ANC's #7, #12, #20, ...

........................................................................
.............................. CYCLE   17 ..............................
........................................................................

 iter      E             dE          RMSdq      gap      omega  full diag
   1   -199.6833094 -0.199683E+03  0.546E-02    0.61       0.0  T
   2   -199.6833051  0.434805E-05  0.313E-02    0.62       1.0  T
   3   -199.6832130  0.920138E-04  0.409E-02    0.60       1.0  T
   4   -199.6833089 -0.959070E-04  0.113E-02    0.61       1.0  T
   5   -199.6833117 -0.271161E-05  0.729E-03    0.61       1.4  T
   6   -199.6833142 -0.255324E-05  0.337E-03    0.61       2.9  T
   7   -199.6833150 -0.765066E-06  0.120E-03    0.61       8.2  T
   8   -199.6833150 -0.337477E-07  0.708E-04    0.61      13.9  T
   9   -199.6833150 -0.389943E-08  0.483E-04    0.61      20.4  T
     SCC iter.                  ...        0 min,  0.531 sec
     gradient                   ...        0 min,  0.040 sec
 * total energy  :  -197.4398726 Eh     change       -0.2171602E-03 Eh
   gradient norm :     0.0049511 Eh/α   predicted    -0.1569836E-03 ( -27.71%)
   displ. norm   :     0.5101815 α      lambda       -0.3572573E-03
   maximum displ.:     0.2999247 α      in ANC's #7, #12, #20, ...

........................................................................
.............................. CYCLE   18 ..............................
........................................................................

 iter      E             dE          RMSdq      gap      omega  full diag
   1   -199.6840228 -0.199684E+03  0.685E-02    0.61       0.0  T
   2   -199.6840083  0.144660E-04  0.408E-02    0.62       1.0  T
   3   -199.6837588  0.249498E-03  0.635E-02    0.60       1.0  T
   4   -199.6840293 -0.270457E-03  0.895E-03    0.61       1.1  T
   5   -199.6840273  0.199203E-05  0.753E-03    0.61       1.3  T
   6   -199.6840311 -0.377252E-05  0.290E-03    0.61       3.4  T
   7   -199.6840315 -0.420913E-06  0.149E-03    0.61       6.6  T
   8   -199.6840315 -0.553346E-07  0.908E-04    0.61      10.8  T
   9   -199.6840315  0.431839E-09  0.657E-04    0.61      15.0  T
     SCC iter.                  ...        0 min,  0.640 sec
     gradient                   ...        0 min,  0.073 sec
 * total energy  :  -197.4401695 Eh     change       -0.2969338E-03 Eh
   gradient norm :     0.0057354 Eh/α   predicted    -0.2251279E-03 ( -24.18%)
   displ. norm   :     0.5881978 α      lambda       -0.4447456E-03
   maximum displ.:     0.3631592 α      in ANC's #7, #12, #24, ...

........................................................................
.............................. CYCLE   19 ..............................
........................................................................

 iter      E             dE          RMSdq      gap      omega  full diag
   1   -199.6860671 -0.199686E+03  0.803E-02    0.61       0.0  T
   2   -199.6860511  0.160060E-04  0.466E-02    0.62       1.0  T
   3   -199.6857669  0.284215E-03  0.692E-02    0.60       1.0  T
   4   -199.6860715 -0.304625E-03  0.123E-02    0.61       1.0  T
   5   -199.6860700  0.149441E-05  0.962E-03    0.61       1.0  T
   6   -199.6860776 -0.759621E-05  0.324E-03    0.61       3.0  T
   7   -199.6860781 -0.427256E-06  0.185E-03    0.61       5.3  T
   8   -199.6860781 -0.684677E-07  0.116E-03    0.61       8.5  T
   9   -199.6860781  0.249938E-08  0.932E-04    0.61      10.6  T
  10   -199.6860781 -0.186770E-07  0.611E-04    0.61      16.1  T
     SCC iter.                  ...        0 min,  0.701 sec
     gradient                   ...        0 min,  0.049 sec
 * total energy  :  -197.4405432 Eh     change       -0.3736972E-03 Eh
   gradient norm :     0.0073704 Eh/α   predicted    -0.2993175E-03 ( -19.90%)
   displ. norm   :     0.7127263 α      lambda       -0.5214288E-03
   maximum displ.:     0.4516174 α      in ANC's #7, #12, #11, ...

........................................................................
.............................. CYCLE   20 ..............................
........................................................................

 iter      E             dE          RMSdq      gap      omega  full diag
   1   -199.6840099 -0.199684E+03  0.104E-01    0.62       0.0  T
   2   -199.6839916  0.183249E-04  0.576E-02    0.62       1.0  T
   3   -199.6835875  0.404065E-03  0.782E-02    0.61       1.0  T
   4   -199.6840094 -0.421849E-03  0.189E-02    0.62       1.0  T
   5   -199.6840156 -0.620330E-05  0.139E-02    0.61       1.0  T
   6   -199.6840230 -0.743853E-05  0.568E-03    0.62       1.7  T
   7   -199.6840251 -0.204437E-05  0.212E-03    0.62       4.7  T
   8   -199.6840251 -0.411643E-07  0.146E-03    0.62       6.7  T
   9   -199.6840251 -0.411023E-08  0.114E-03    0.62       8.7  T
  10   -199.6840252 -0.395302E-07  0.600E-04    0.62      16.4  T
  11   -199.6840252  0.403134E-09  0.481E-04    0.62      20.5  T
     SCC iter.                  ...        0 min,  0.733 sec
     gradient                   ...        0 min,  0.030 sec
 * total energy  :  -197.4410143 Eh     change       -0.4711133E-03 Eh
   gradient norm :     0.0085390 Eh/α   predicted    -0.3931581E-03 ( -16.55%)
   displ. norm   :     0.7162557 α      lambda       -0.7475945E-03
   maximum displ.:     0.4633715 α      in ANC's #7, #12, #24, ...
 * RMSD in coord.:     0.5531398 α      energy gain  -0.2043508E-01 Eh

generating ANC from exact Hessian ...
Using Lindh-Hessian (1995)
 Shifting diagonal of input Hessian by   1.809532912972407E-002
 Lowest  eigenvalues of input Hessian
    0.010000    0.017467    0.017575    0.017611    0.018086    0.000000
    0.000000    0.000000    0.000000    0.000000    0.000000    0.018108
    0.018111    0.018160    0.018245    0.018284    0.018456    0.018491
 Highest eigenvalues
    2.186028    2.203380    2.261550    2.310200    2.346350    2.407482
 

........................................................................
.............................. CYCLE   21 ..............................
........................................................................

 iter      E             dE          RMSdq      gap      omega  full diag
   1   -199.6882896 -0.199688E+03  0.107E-01    0.62       0.0  T
   2   -199.6882852  0.440510E-05  0.564E-02    0.62       1.0  T
   3   -199.6880498  0.235321E-03  0.615E-02    0.62       1.0  T
   4   -199.6882759 -0.226103E-03  0.223E-02    0.62       1.0  T
   5   -199.6882945 -0.185692E-04  0.131E-02    0.61       1.0  T
   6   -199.6883020 -0.747287E-05  0.555E-03    0.62       1.8  T
   7   -199.6883036 -0.162536E-05  0.239E-03    0.62       4.1  T
   8   -199.6883037 -0.920110E-07  0.159E-03    0.62       6.2  T
   9   -199.6883037  0.835450E-08  0.123E-03    0.62       8.0  T
  10   -199.6883037 -0.450145E-07  0.685E-04    0.62      14.4  T
  11   -199.6883037 -0.104871E-07  0.461E-04    0.62      21.4  T
     SCC iter.                  ...        0 min,  0.947 sec
     gradient                   ...        0 min,  0.078 sec
 * total energy  :  -197.4415980 Eh     change       -0.5836370E-03 Eh
   gradient norm :     0.0099547 Eh/α   predicted     0.0000000E+00 (-100.00%)
   displ. norm   :     0.1078929 α      lambda       -0.3362242E-03
   maximum displ.:     0.0580518 α      in ANC's #1, #7, #25, ...

........................................................................
.............................. CYCLE   22 ..............................
........................................................................

 iter      E             dE          RMSdq      gap      omega  full diag
   1   -199.6870775 -0.199687E+03  0.902E-02    0.61       0.0  T
   2   -199.6870972 -0.196883E-04  0.506E-02    0.61       1.0  T
   3   -199.6870788  0.184449E-04  0.335E-02    0.61       1.0  T
   4   -199.6870600  0.188079E-04  0.330E-02    0.61       1.0  T
   5   -199.6871319 -0.719109E-04  0.120E-02    0.61       1.0  T
   6   -199.6871315  0.407773E-06  0.861E-03    0.61       1.1  T
   7   -199.6871345 -0.306149E-05  0.450E-03    0.61       2.2  T
   8   -199.6871350 -0.516190E-06  0.210E-03    0.61       4.7  T
   9   -199.6871351 -0.822878E-07  0.145E-03    0.61       6.8  T
  10   -199.6871352 -0.466371E-07  0.101E-03    0.61       9.7  T
  11   -199.6871352 -0.292923E-07  0.456E-04    0.61      21.6  T
  12   -199.6871352 -0.337306E-08  0.229E-04    0.61      43.0  T
     SCC iter.                  ...        0 min,  1.988 sec
     gradient                   ...        0 min,  0.034 sec
 * total energy  :  -197.4416970 Eh     change       -0.9906489E-04 Eh
   gradient norm :     0.0089457 Eh/α   predicted    -0.1700699E-03 (  71.68%)
   displ. norm   :     0.3170444 α      lambda       -0.1091951E-02
   maximum displ.:     0.1606161 α      in ANC's #7, #25, #1, ...

........................................................................
.............................. CYCLE   23 ..............................
........................................................................

 iter      E             dE          RMSdq      gap      omega  full diag
   1   -199.6810531 -0.199681E+03  0.144E-01    0.58       0.0  T
   2   -199.6810673 -0.141436E-04  0.770E-02    0.62       1.0  T
   3   -199.6809519  0.115410E-03  0.664E-02    0.59       1.0  T
   4   -199.6810784 -0.126527E-03  0.407E-02    0.61       1.0  T
   5   -199.6811587 -0.803709E-04  0.237E-02    0.61       1.0  T
   6   -199.6811668 -0.804117E-05  0.199E-02    0.60       1.0  T
   7   -199.6811835 -0.167495E-04  0.649E-03    0.61       1.5  T
   8   -199.6811845 -0.942288E-06  0.352E-03    0.61       2.8  T
   9   -199.6811847 -0.253391E-06  0.245E-03    0.61       4.0  T
  10   -199.6811849 -0.124708E-06  0.161E-03    0.61       6.1  T
  11   -199.6811849 -0.272002E-07  0.115E-03    0.61       8.6  T
  12   -199.6811850 -0.629404E-07  0.577E-04    0.61      17.1  T
  13   -199.6811850 -0.150993E-08  0.448E-04    0.61      22.0  T
     SCC iter.                  ...        0 min, 15.423 sec
     gradient                   ...        0 min,  0.085 sec
 * total energy  :  -197.4419303 Eh     change       -0.2333093E-03 Eh
   gradient norm :     0.0148006 Eh/α   predicted    -0.6008596E-03 ( 157.54%)
   displ. norm   :     0.1016092 α      lambda       -0.6132965E-03
   maximum displ.:     0.0398990 α      in ANC's #7, #1, #47, ...

........................................................................
.............................. CYCLE   24 ..............................
........................................................................

 iter      E             dE          RMSdq      gap      omega  full diag
   1   -199.6836924 -0.199684E+03  0.116E-01    0.64       0.0  T
   2   -199.6836416  0.508519E-04  0.567E-02    0.60       1.0  T
   3   -199.6835958  0.458211E-04  0.551E-02    0.64       1.0  T
   4   -199.6837411 -0.145301E-03  0.187E-02    0.62       1.0  T
   5   -199.6837420 -0.950677E-06  0.158E-02    0.62       1.0  T
   6   -199.6837559 -0.139036E-04  0.105E-02    0.62       1.0  T
   7   -199.6837598 -0.387079E-05  0.425E-03    0.62       2.3  T
   8   -199.6837600 -0.187657E-06  0.233E-03    0.62       4.2  T
   9   -199.6837600 -0.323640E-07  0.172E-03    0.62       5.7  T
  10   -199.6837601 -0.389962E-07  0.122E-03    0.62       8.1  T
  11   -199.6837601 -0.316542E-07  0.795E-04    0.62      12.4  T
  12   -199.6837601 -0.229670E-07  0.399E-04    0.62      24.7  T
     SCC iter.                  ...        0 min,  9.188 sec
     gradient                   ...        0 min,  0.076 sec
 * total energy  :  -197.4422391 Eh     change       -0.3087355E-03 Eh
   gradient norm :     0.0088519 Eh/α   predicted    -0.3098135E-03 (   0.35%)
   displ. norm   :     0.1357541 α      lambda       -0.4494156E-03
   maximum displ.:     0.0841205 α      in ANC's #7, #11, #9, ...

........................................................................
.............................. CYCLE   25 ..............................
........................................................................

 iter      E             dE          RMSdq      gap      omega  full diag
   1   -199.6866875 -0.199687E+03  0.808E-02    0.61       0.0  T
   2   -199.6866953 -0.777050E-05  0.288E-02    0.61       1.0  T
   3   -199.6866890  0.627217E-05  0.213E-02    0.61       1.0  T
   4   -199.6866953 -0.627873E-05  0.148E-02    0.62       1.0  T
   5   -199.6867018 -0.653906E-05  0.892E-03    0.61       1.1  T
   6   -199.6867025 -0.700569E-06  0.544E-03    0.61       1.8  T
   7   -199.6867033 -0.851390E-06  0.345E-03    0.61       2.9  T
   8   -199.6867040 -0.630108E-06  0.146E-03    0.61       6.7  T
   9   -199.6867040 -0.546354E-07  0.964E-04    0.61      10.2  T
  10   -199.6867041 -0.194543E-07  0.566E-04    0.61      17.4  T
     SCC iter.                  ...        0 min,  1.935 sec
     gradient                   ...        0 min,  0.104 sec
 * total energy  :  -197.4424760 Eh     change       -0.2369009E-03 Eh
   gradient norm :     0.0046690 Eh/α   predicted    -0.2288508E-03 (  -3.40%)
   displ. norm   :     0.3018901 α      lambda       -0.4505625E-03
   maximum displ.:     0.2002910 α      in ANC's #7, #11, #25, ...

........................................................................
.............................. CYCLE   26 ..............................
........................................................................

 iter      E             dE          RMSdq      gap      omega  full diag
   1   -199.6872077 -0.199687E+03  0.784E-02    0.59       0.0  T
   2   -199.6871984  0.932204E-05  0.367E-02    0.61       1.0  T
   3   -199.6871509  0.475128E-04  0.395E-02    0.59       1.0  T
   4   -199.6872196 -0.686759E-04  0.144E-02    0.60       1.0  T
   5   -199.6872214 -0.184964E-05  0.827E-03    0.60       1.2  T
   6   -199.6872207  0.690012E-06  0.738E-03    0.60       1.3  T
   7   -199.6872243 -0.360125E-05  0.438E-03    0.60       2.2  T
   8   -199.6872249 -0.553912E-06  0.190E-03    0.60       5.2  T
   9   -199.6872250 -0.647562E-07  0.114E-03    0.60       8.6  T
  10   -199.6872250  0.455111E-08  0.835E-04    0.60      11.8  T
  11   -199.6872250 -0.317628E-07  0.467E-04    0.60      21.1  T
     SCC iter.                  ...        0 min,  2.131 sec
     gradient                   ...        0 min,  0.051 sec
 * total energy  :  -197.4427979 Eh     change       -0.3219302E-03 Eh
   gradient norm :     0.0069066 Eh/α   predicted    -0.2458151E-03 ( -23.64%)
   displ. norm   :     0.6669358 α      lambda       -0.8613004E-03
   maximum displ.:     0.4525770 α      in ANC's #7, #11, #9, ...

........................................................................
.............................. CYCLE   27 ..............................
........................................................................

 iter      E             dE          RMSdq      gap      omega  full diag
   1   -199.6844423 -0.199684E+03  0.127E-01    0.60       0.0  T
   2   -199.6844196  0.227533E-04  0.557E-02    0.61       1.0  T
   3   -199.6840683  0.351267E-03  0.753E-02    0.61       1.0  T
   4   -199.6844517 -0.383385E-03  0.217E-02    0.60       1.0  T
   5   -199.6844579 -0.615586E-05  0.131E-02    0.61       1.0  T
   6   -199.6844632 -0.535809E-05  0.758E-03    0.61       1.3  T
   7   -199.6844660 -0.280891E-05  0.344E-03    0.61       2.9  T
   8   -199.6844666 -0.562792E-06  0.156E-03    0.61       6.3  T
   9   -199.6844666 -0.622009E-08  0.113E-03    0.61       8.7  T
  10   -199.6844666  0.139058E-07  0.887E-04    0.61      11.1  T
  11   -199.6844666 -0.366058E-07  0.408E-04    0.61      24.1  T
     SCC iter.                  ...        0 min,  1.633 sec
     gradient                   ...        0 min,  0.041 sec
 * total energy  :  -197.4435047 Eh     change       -0.7067674E-03 Eh
   gradient norm :     0.0079004 Eh/α   predicted    -0.6222009E-03 ( -11.97%)
   displ. norm   :     0.7626606 α      lambda       -0.9877649E-03
   maximum displ.:     0.5387327 α      in ANC's #7, #11, #9, ...

........................................................................
.............................. CYCLE   28 ..............................
........................................................................

 iter      E             dE          RMSdq      gap      omega  full diag
   1   -199.6795339 -0.199680E+03  0.130E-01    0.61       0.0  T
   2   -199.6795444 -0.105589E-04  0.594E-02    0.60       1.0  T
   3   -199.6794914  0.529700E-04  0.377E-02    0.60       1.0  T
   4   -199.6794949 -0.350170E-05  0.309E-02    0.61       1.0  T
   5   -199.6795391 -0.441701E-04  0.165E-02    0.60       1.0  T
   6   -199.6795516 -0.124673E-04  0.604E-03    0.60       1.6  T
   7   -199.6795530 -0.142658E-05  0.386E-03    0.60       2.6  T
   8   -199.6795539 -0.895474E-06  0.167E-03    0.60       5.9  T
   9   -199.6795539 -0.279592E-07  0.114E-03    0.60       8.6  T
  10   -199.6795539 -0.942111E-08  0.744E-04    0.60      13.2  T
  11   -199.6795540 -0.104029E-07  0.534E-04    0.60      18.4  T
     SCC iter.                  ...        0 min,  4.378 sec
     gradient                   ...        0 min,  0.044 sec
 * total energy  :  -197.4444014 Eh     change       -0.8967245E-03 Eh
   gradient norm :     0.0085719 Eh/α   predicted    -0.7811519E-03 ( -12.89%)
   displ. norm   :     0.7307976 α      lambda       -0.1260404E-02
   maximum displ.:     0.5362937 α      in ANC's #7, #11, #9, ...

........................................................................
.............................. CYCLE   29 ..............................
........................................................................

 iter      E             dE          RMSdq      gap      omega  full diag
   1   -199.6797025 -0.199680E+03  0.134E-01    0.61       0.0  T
   2   -199.6796980  0.450811E-05  0.601E-02    0.61       1.0  T
   3   -199.6794785  0.219530E-03  0.624E-02    0.60       1.0  T
   4   -199.6796749 -0.196395E-03  0.306E-02    0.61       1.0  T
   5   -199.6797162 -0.413463E-04  0.143E-02    0.60       1.0  T
   6   -199.6797210 -0.475036E-05  0.739E-03    0.61       1.3  T
   7   -199.6797237 -0.271666E-05  0.422E-03    0.61       2.3  T
   8   -199.6797246 -0.883791E-06  0.196E-03    0.61       5.0  T
   9   -199.6797246 -0.172140E-07  0.145E-03    0.61       6.8  T
  10   -199.6797246 -0.143457E-07  0.101E-03    0.61       9.8  T
  11   -199.6797246 -0.338503E-07  0.631E-04    0.61      15.6  T
  12   -199.6797247 -0.102821E-07  0.423E-04    0.61      23.3  T
     SCC iter.                  ...        0 min,  1.734 sec
     gradient                   ...        0 min,  0.039 sec
 * total energy  :  -197.4455815 Eh     change       -0.1180158E-02 Eh
   gradient norm :     0.0106153 Eh/α   predicted    -0.9667710E-03 ( -18.08%)
   displ. norm   :     0.7668542 α      lambda       -0.1635385E-02
   maximum displ.:     0.5635279 α      in ANC's #7, #11, #9, ...

........................................................................
.............................. CYCLE   30 ..............................
........................................................................

 iter      E             dE          RMSdq      gap      omega  full diag
   1   -199.6839927 -0.199684E+03  0.149E-01    0.61       0.0  T
   2   -199.6839657  0.270784E-04  0.661E-02    0.61       1.0  T
   3   -199.6834718  0.493811E-03  0.868E-02    0.60       1.0  T
   4   -199.6839892 -0.517364E-03  0.271E-02    0.61       1.0  T
   5   -199.6840095 -0.202865E-04  0.152E-02    0.60       1.0  T
   6   -199.6840159 -0.637755E-05  0.766E-03    0.61       1.3  T
   7   -199.6840185 -0.265350E-05  0.389E-03    0.61       2.5  T
   8   -199.6840189 -0.407776E-06  0.226E-03    0.61       4.4  T
   9   -199.6840189  0.543218E-08  0.177E-03    0.61       5.6  T
  10   -199.6840190 -0.925741E-07  0.112E-03    0.61       8.8  T
  11   -199.6840191 -0.348041E-07  0.657E-04    0.61      15.0  T
  12   -199.6840191 -0.722906E-08  0.478E-04    0.61      20.6  T
     SCC iter.                  ...        0 min,  2.805 sec
     gradient                   ...        0 min,  0.047 sec
 * total energy  :  -197.4471201 Eh     change       -0.1538551E-02 Eh
   gradient norm :     0.0150378 Eh/α   predicted    -0.1298543E-02 ( -15.60%)
   displ. norm   :     0.8561312 α      lambda       -0.2001501E-02
   maximum displ.:     0.6274768 α      in ANC's #7, #11, #9, ...

........................................................................
.............................. CYCLE   31 ..............................
........................................................................

 iter      E             dE          RMSdq      gap      omega  full diag
   1   -199.6879830 -0.199688E+03  0.181E-01    0.60       0.0  T
   2   -199.6879585  0.245488E-04  0.764E-02    0.61       1.0  T
   3   -199.6873531  0.605426E-03  0.998E-02    0.59       1.0  T
   4   -199.6879949 -0.641847E-03  0.265E-02    0.61       1.0  T
   5   -199.6880085 -0.135576E-04  0.131E-02    0.61       1.0  T
   6   -199.6880122 -0.369351E-05  0.854E-03    0.60       1.2  T
   7   -199.6880139 -0.173746E-05  0.582E-03    0.61       1.7  T
   8   -199.6880153 -0.140937E-05  0.271E-03    0.61       3.6  T
   9   -199.6880153  0.868653E-09  0.181E-03    0.61       5.4  T
  10   -199.6880153  0.962501E-09  0.126E-03    0.61       7.8  T
  11   -199.6880154 -0.777415E-07  0.735E-04    0.61      13.4  T
  12   -199.6880154 -0.132984E-07  0.523E-04    0.61      18.8  T
     SCC iter.                  ...        0 min,  7.192 sec
     gradient                   ...        0 min,  0.093 sec
 * total energy  :  -197.4490852 Eh     change       -0.1965115E-02 Eh
   gradient norm :     0.0191964 Eh/α   predicted    -0.1734255E-02 ( -11.75%)
   displ. norm   :     0.8820209 α      lambda       -0.2548414E-02
   maximum displ.:     0.6392672 α      in ANC's #7, #11, #9, ...

........................................................................
.............................. CYCLE   32 ..............................
........................................................................

 iter      E             dE          RMSdq      gap      omega  full diag
   1   -199.6944624 -0.199694E+03  0.202E-01    0.60       0.0  T
   2   -199.6944646 -0.216502E-05  0.828E-02    0.61       1.0  T
   3   -199.6940719  0.392681E-03  0.831E-02    0.59       1.0  T
   4   -199.6944497 -0.377790E-03  0.355E-02    0.61       1.0  T
   5   -199.6944965 -0.468104E-04  0.167E-02    0.61       1.0  T
   6   -199.6945022 -0.566149E-05  0.896E-03    0.60       1.1  T
   7   -199.6945021  0.794855E-07  0.719E-03    0.61       1.4  T
   8   -199.6945049 -0.284689E-05  0.339E-03    0.61       2.9  T
   9   -199.6945051 -0.120334E-06  0.216E-03    0.61       4.6  T
  10   -199.6945051 -0.454533E-07  0.118E-03    0.61       8.4  T
  11   -199.6945051 -0.297037E-07  0.785E-04    0.61      12.6  T
  12   -199.6945052 -0.208281E-07  0.558E-04    0.61      17.7  T
     SCC iter.                  ...        0 min,  3.936 sec
     gradient                   ...        0 min,  0.042 sec
 * total energy  :  -197.4514936 Eh     change       -0.2408386E-02 Eh
   gradient norm :     0.0197659 Eh/α   predicted    -0.2265480E-02 (  -5.93%)
   displ. norm   :     0.8957526 α      lambda       -0.2673152E-02
   maximum displ.:     0.6542100 α      in ANC's #7, #11, #9, ...

........................................................................
.............................. CYCLE   33 ..............................
........................................................................

 iter      E             dE          RMSdq      gap      omega  full diag
   1   -199.6971483 -0.199697E+03  0.228E-01    0.59       0.0  T
   2   -199.6971544 -0.614644E-05  0.910E-02    0.61       1.0  T
   3   -199.6967640  0.390399E-03  0.879E-02    0.58       1.0  T
   4   -199.6971381 -0.374122E-03  0.382E-02    0.61       1.0  T
   5   -199.6971744 -0.362982E-04  0.236E-02    0.61       1.0  T
   6   -199.6971922 -0.177950E-04  0.133E-02    0.60       1.0  T
   7   -199.6971983 -0.602065E-05  0.825E-03    0.61       1.2  T
   8   -199.6972004 -0.215194E-05  0.397E-03    0.60       2.5  T
   9   -199.6972002  0.215436E-06  0.330E-03    0.61       3.0  T
  10   -199.6972006 -0.406380E-06  0.171E-03    0.60       5.8  T
  11   -199.6972007 -0.993028E-07  0.779E-04    0.61      12.6  T
  12   -199.6972007 -0.627398E-08  0.572E-04    0.61      17.2  T
     SCC iter.                  ...        0 min,  3.298 sec
     gradient                   ...        0 min,  0.047 sec
 * total energy  :  -197.4540503 Eh     change       -0.2556673E-02 Eh
   gradient norm :     0.0203449 Eh/α   predicted    -0.2408999E-02 (  -5.78%)
   displ. norm   :     0.8529438 α      lambda       -0.2999462E-02
   maximum displ.:     0.6234868 α      in ANC's #7, #11, #9, ...

........................................................................
.............................. CYCLE   34 ..............................
........................................................................

 iter      E             dE          RMSdq      gap      omega  full diag
   1   -199.7001623 -0.199700E+03  0.232E-01    0.59       0.0  T
   2   -199.7001963 -0.340143E-04  0.888E-02    0.61       1.0  T
   3   -199.7001312  0.650219E-04  0.484E-02    0.59       1.0  T
   4   -199.7001288  0.241429E-05  0.391E-02    0.61       1.0  T
   5   -199.7001794 -0.505911E-04  0.256E-02    0.60       1.0  T
   6   -199.7002064 -0.269336E-04  0.129E-02    0.60       1.0  T
   7   -199.7002123 -0.594780E-05  0.810E-03    0.60       1.2  T
   8   -199.7002150 -0.266115E-05  0.383E-03    0.60       2.6  T
   9   -199.7002150 -0.747121E-07  0.264E-03    0.60       3.7  T
  10   -199.7002151 -0.196696E-07  0.172E-03    0.60       5.7  T
  11   -199.7002152 -0.159469E-06  0.799E-04    0.60      12.3  T
  12   -199.7002152 -0.252191E-07  0.455E-04    0.60      21.7  T
     SCC iter.                  ...        0 min,  7.507 sec
     gradient                   ...        0 min,  0.208 sec
 * total energy  :  -197.4568277 Eh     change       -0.2777474E-02 Eh
   gradient norm :     0.0214561 Eh/α   predicted    -0.2590794E-02 (  -6.72%)
   displ. norm   :     0.8538105 α      lambda       -0.3282859E-02
   maximum displ.:     0.6345333 α      in ANC's #7, #11, #9, ...

........................................................................
.............................. CYCLE   35 ..............................
........................................................................

 iter      E             dE          RMSdq      gap      omega  full diag
   1   -199.6982676 -0.199698E+03  0.229E-01    0.60       0.0  T
   2   -199.6982965 -0.289182E-04  0.846E-02    0.60       1.0  T
   3   -199.6982634  0.330673E-04  0.381E-02    0.60       1.0  T
   4   -199.6982023  0.611321E-04  0.418E-02    0.61       1.0  T
   5   -199.6982900 -0.877553E-04  0.180E-02    0.60       1.0  T
   6   -199.6982970 -0.697281E-05  0.128E-02    0.60       1.0  T
   7   -199.6983067 -0.969970E-05  0.596E-03    0.60       1.7  T
   8   -199.6983075 -0.826470E-06  0.368E-03    0.60       2.7  T
   9   -199.6983078 -0.237137E-06  0.218E-03    0.60       4.5  T
  10   -199.6983078  0.763924E-08  0.139E-03    0.60       7.1  T
  11   -199.6983079 -0.119139E-06  0.643E-04    0.60      15.3  T
  12   -199.6983079 -0.168293E-07  0.378E-04    0.60      26.1  T
     SCC iter.                  ...        0 min, 28.391 sec
     gradient                   ...        0 min,  0.442 sec
 * total energy  :  -197.4599937 Eh     change       -0.3165959E-02 Eh
   gradient norm :     0.0244895 Eh/α   predicted    -0.2838009E-02 ( -10.36%)
   displ. norm   :     0.7495529 α      lambda       -0.4449495E-02
   maximum displ.:     0.5084417 α      in ANC's #7, #11, #9, ...

........................................................................
.............................. CYCLE   36 ..............................
........................................................................

 iter      E             dE          RMSdq      gap      omega  full diag
   1   -199.6962336 -0.199696E+03  0.229E-01    0.63       0.0  T
   2   -199.6962521 -0.185454E-04  0.866E-02    0.59       1.0  T
   3   -199.6959095  0.342599E-03  0.946E-02    0.65       1.0  T
   4   -199.6962818 -0.372277E-03  0.384E-02    0.60       1.0  T
   5   -199.6963063 -0.245014E-04  0.274E-02    0.61       1.0  T
   6   -199.6963303 -0.239840E-04  0.143E-02    0.61       1.0  T
   7   -199.6963426 -0.123275E-04  0.560E-03    0.61       1.8  T
   8   -199.6963438 -0.119274E-05  0.319E-03    0.61       3.1  T
   9   -199.6963442 -0.366929E-06  0.202E-03    0.61       4.9  T
  10   -199.6963442 -0.142822E-07  0.141E-03    0.61       7.0  T
  11   -199.6963442 -0.435605E-07  0.838E-04    0.61      11.8  T
  12   -199.6963443 -0.385151E-07  0.398E-04    0.61      24.8  T
     SCC iter.                  ...        0 min, 30.750 sec
     gradient                   ...        0 min,  0.225 sec
 * total energy  :  -197.4632968 Eh     change       -0.3303045E-02 Eh
   gradient norm :     0.0307212 Eh/α   predicted    -0.3474667E-02 (   5.20%)
   displ. norm   :     0.8335196 α      lambda       -0.3984226E-02
   maximum displ.:     0.6204879 α      in ANC's #7, #11, #9, ...

........................................................................
.............................. CYCLE   37 ..............................
........................................................................

 iter      E             dE          RMSdq      gap      omega  full diag
   1   -199.6851128 -0.199685E+03  0.234E-01    0.60       0.0  T
   2   -199.6851480 -0.352171E-04  0.848E-02    0.61       1.0  T
   3   -199.6850318  0.116176E-03  0.534E-02    0.60       1.0  T
   4   -199.6850341 -0.230164E-05  0.490E-02    0.61       1.0  T
   5   -199.6851594 -0.125271E-03  0.169E-02    0.60       1.0  T
   6   -199.6851655 -0.616608E-05  0.941E-03    0.61       1.0  T
   7   -199.6851663 -0.719400E-06  0.758E-03    0.61       1.3  T
   8   -199.6851693 -0.301603E-05  0.389E-03    0.60       2.5  T
   9   -199.6851694 -0.893628E-07  0.248E-03    0.61       4.0  T
  10   -199.6851694 -0.295914E-07  0.167E-03    0.61       5.9  T
  11   -199.6851695 -0.135058E-06  0.734E-04    0.61      13.4  T
  12   -199.6851695 -0.132617E-07  0.514E-04    0.61      19.2  T
     SCC iter.                  ...        1 min, 11.708 sec
     gradient                   ...        0 min,  0.626 sec
 * total energy  :  -197.4668701 Eh     change       -0.3573351E-02 Eh
   gradient norm :     0.0291062 Eh/α   predicted    -0.3376145E-02 (  -5.52%)
   displ. norm   :     0.7606056 α      lambda       -0.4127110E-02
   maximum displ.:     0.5920127 α      in ANC's #7, #11, #9, ...

........................................................................
.............................. CYCLE   38 ..............................
........................................................................

 iter      E             dE          RMSdq      gap      omega  full diag
   1   -199.6857458 -0.199686E+03  0.199E-01    0.61       0.0  T
   2   -199.6857729 -0.271021E-04  0.658E-02    0.60       1.0  T
   3   -199.6857068  0.660598E-04  0.460E-02    0.62       1.0  T
   4   -199.6857672 -0.603793E-04  0.262E-02    0.60       1.0  T
   5   -199.6857834 -0.162484E-04  0.148E-02    0.61       1.0  T
   6   -199.6857905 -0.704884E-05  0.105E-02    0.61       1.0  T
   7   -199.6857947 -0.421268E-05  0.751E-03    0.60       1.3  T
