103
 energy: -202.400304325307 gnorm: 0.647112516780 xtb: 6.7.1pre (5071a88)
C           -3.11647300000000        5.40966700000000       10.57000800000000
C           -3.28327400000000        4.41021700000000        9.69358000000000
C           -2.55427800000000        3.10866200000000        9.70920400000000
O           -3.13555500000000        2.12511100000000        9.27017100000000
N           -1.26261200000000        3.19836700000000       10.16468100000000
C           -0.29763000000000        2.17256400000000       10.30676400000000
C           -0.59387600000000        0.81986300000000       10.08220900000000
C            0.37790000000000       -0.18152900000000       10.22884800000000
N            0.12607200000000       -1.54907500000000       10.02224100000000
C           -0.97734600000000       -2.30249800000000        9.64994900000000
N           -2.16755800000000       -1.73941800000000        9.41073600000000
C           -3.17966600000000       -2.54498300000000        9.05311900000000
C           -3.05153900000000       -3.90220600000000        8.92217800000000
C           -1.79729800000000       -4.40517500000000        9.18631300000000
C           -1.51151700000000       -5.83350500000000        9.08933100000000
C           -2.13690700000000       -6.68539500000000        8.19559000000000
N           -1.62035800000000       -7.94294100000000        8.36437000000000
C           -2.01857300000000       -9.10529700000000        7.60197100000000
C           -0.66404400000000       -7.94124700000000        9.35594200000000
C            0.12544200000000       -8.98072700000000        9.87547300000000
C            1.02961400000000       -8.67480800000000       10.89631100000000
C            1.14413400000000       -7.37750000000000       11.38363900000000
C            0.35328600000000       -6.35009000000000       10.85897600000000
C           -0.56892100000000       -6.62640200000000        9.82509500000000
N           -0.76112400000000       -3.62249200000000        9.55254700000000
C            1.68237900000000        0.19525500000000       10.61638100000000
O            2.57820900000000       -0.84431600000000       10.74033200000000
C            3.90162800000000       -0.51514500000000       11.14172500000000
C            1.98594500000000        1.53824100000000       10.84472500000000
C            1.01250800000000        2.54087300000000       10.69840500000000
N            1.43930900000000        3.86143000000000       10.95755600000000
C            0.88986800000000        4.46064400000000       12.17073300000000
C            1.62158300000000        4.68553400000000        9.74670800000000
C            2.31707500000000        6.04355400000000       10.01792800000000
N            1.46378500000000        7.08332700000000       10.64441200000000
C            0.44962700000000        7.58666100000000        9.71526900000000
C            2.29958500000000        8.19468300000000       11.10906000000000
H           -2.41496500000000        5.36027300000000       11.39499900000000
H           -3.72867000000000        6.30358800000000       10.49691900000000
H           -4.05189400000000        4.47103000000000        8.92862100000000
H           -0.91013100000000        4.11931200000000       10.37153400000000
H           -1.59722900000000        0.53163900000000        9.79377000000000
H            0.93621700000000       -2.14331400000000       10.14498000000000
H           -4.12562200000000       -2.04350200000000        8.87243500000000
H           -3.89091200000000       -4.52193400000000        8.64384000000000
H           -2.89248500000000       -6.49641800000000        7.44435700000000
H           -1.14228700000000       -9.48931600000000        7.07349400000000
H           -2.79086700000000       -8.82464500000000        6.88123000000000
H           -2.41367000000000       -9.85374400000000        8.29360300000000
H            0.04398100000000       -9.99591600000000        9.50133600000000
H            1.65206500000000       -9.46233200000000       11.31420800000000
H            1.85212500000000       -7.15522200000000       12.17767900000000
H            0.44955900000000       -5.33937900000000       11.24632600000000
H            4.47478800000000       -1.44576300000000       11.19575800000000
H            3.91126100000000       -0.06132000000000       12.13815800000000
H            4.38851300000000        0.13194000000000       10.40476400000000
H            2.98034500000000        1.85018500000000       11.14545900000000
H           -0.01586500000000        5.04105700000000       11.97599100000000
H            1.63224000000000        5.12557900000000       12.62407100000000
H            0.65570100000000        3.70172700000000       12.92708300000000
H            2.27282100000000        4.13280100000000        9.05560200000000
H            0.67868700000000        4.83819300000000        9.21394600000000
H            3.18049400000000        5.84371900000000       10.66662200000000
H            2.72038300000000        6.42530300000000        9.07040000000000
H           -0.25245800000000        6.79862800000000        9.42772400000000
H            0.89303200000000        8.00675000000000        8.80533500000000
H           -0.15357800000000        8.36712200000000       10.19334900000000
H            1.68742000000000        8.95529500000000       11.60658500000000
H            2.84613600000000        8.67272200000000       10.28801000000000
H            3.02546400000000        7.84603900000000       11.85215900000000
Ti          -2.14186600000000       -3.00881800000000        2.11974800000000
Ti           0.28899100000000       -1.69475900000000        1.43242500000000
Ti           1.90309800000000       -3.06774900000000       -0.72932200000000
Ti          -2.52150200000000       -0.25192800000000        1.30368700000000
Ti           2.14205000000000        0.49953300000000        2.20443400000000
Ti          -0.68144800000000        0.18963500000000        3.68123000000000
Ti          -2.03677000000000       -3.07774000000000       -1.20051200000000
Ti          -0.60534000000000       -0.77090000000000       -2.03513200000000
Ti           1.94548800000000       -1.58731700000000       -3.41240000000000
Ti          -1.87817000000000        1.74657300000000       -1.24003000000000
Ti           2.41251200000000        0.45423100000000       -0.77424700000000
Ti           0.81774200000000        1.83845200000000       -2.94000400000000
C           -3.67841400000000        1.28139800000000        0.60073700000000
C            4.12819300000000        0.48284700000000        0.38729300000000
C            0.45547900000000        2.26720200000000        0.34969500000000
C           -3.66670900000000        2.11883400000000       -0.31392000000000
C            4.11596200000000        0.63223900000000        1.62135400000000
C           -0.63516700000000        2.74104600000000       -0.11892100000000
C            1.63007200000000        1.78099600000000        0.73422400000000
O           -3.09345600000000       -1.95690700000000        1.03794900000000
O           -0.48725000000000       -2.60584900000000        2.70120300000000
O            0.31407900000000       -2.88889000000000        0.14500100000000
O           -0.80078500000000       -0.43593400000000        0.97122700000000
O            1.90286500000000       -1.15833100000000        1.46944900000000
O           -2.32267300000000       -0.11387800000000        3.02480000000000
O            1.01378600000000        0.44159800000000        3.56876100000000
O           -1.77201900000000       -4.58790500000000       -1.65281000000000
O            0.19060500000000       -1.18918900000000       -3.53403000000000
O            2.83142000000000       -2.17024800000000       -1.91804200000000
O           -2.05455800000000       -0.22444500000000       -1.33750500000000
O            0.76851100000000       -0.39057400000000       -1.06366400000000
O           -0.90003900000000        1.64931300000000       -2.81856500000000
O            2.41531300000000        1.35746300000000       -2.26411500000000
