103
 energy: -197.491477860896 gnorm: 0.002896435404 xtb: 6.7.1pre (5071a88)
C           -4.86613042936284       -3.79275894897573        7.04216503421953
C           -4.17952983954908       -2.87980489369945        6.32008368525191
C           -3.15528365803138       -1.99931462433775        6.86295687455184
O           -2.36575043797031       -1.31506239053828        6.13310651986277
N           -3.16034688461387       -1.79542631261754        8.21205874000512
C           -2.31252865979971       -0.78865820900602        8.72864735690801
C           -0.94196240744366       -0.99312027139750        8.58595075182182
C           -0.04676382011281        0.03796229444646        8.81808133235378
N            1.33648136660449       -0.10504901846161        8.71154964505421
C            2.03293564389008       -1.03897014584305        8.00523366381191
N            1.45977572324933       -2.19042574443082        7.60932048723806
C            2.26212861216326       -3.08515972659350        7.02138769935089
C            3.60399287033917       -2.84488319476022        6.77182350875103
C            4.12556016006368       -1.60084929651296        7.23380699162570
C            5.53489355026770       -1.28441255558596        7.18839602922412
C            6.48077983698082       -1.79366709302032        6.31169568602787
N            7.70653386252172       -1.31241184562400        6.60955436868470
C            8.92055964413709       -1.59117561514242        5.89648568616737
C            7.60847333580773       -0.48775781512081        7.70441953720154
C            8.59915883087809        0.18911952927690        8.40682245517977
C            8.20720025711880        0.93345351090822        9.49936870576722
C            6.86612825733737        1.00906600228532        9.88471994532880
C            5.87923061728862        0.33964798547922        9.19461672671371
C            6.25028896655941       -0.42393315798050        8.09030171552430
N            3.32774161044165       -0.73998217580240        7.87349853462162
C           -0.55733873633673        1.31280436744277        9.17167397643576
O            0.34394639198535        2.33674464612566        9.21040945245475
C           -0.15917376467664        3.66326322040452        9.08752976949933
C           -1.90852814786262        1.45640489414698        9.44871305974509
C           -2.81058283835811        0.41973419788456        9.22712643146092
N           -4.17692566782357        0.66231508931378        9.53123450515360
C           -4.59937097515031       -0.02542117232128       10.73717140380514
C           -5.10875135874795        0.55645532329625        8.41848452040180
C           -6.29385688337570        1.50927106973888        8.64044012434005
N           -7.23030582042432        1.00262710164931        9.63739910159388
C           -8.17430170601691        0.05734564447990        9.07826766754104
C           -7.91620072228000        2.06375280266317       10.34618889378722
H           -4.56045330143685       -4.09775384779842        8.02888780554217
H           -5.67969124545181       -4.33980047009990        6.60085650437609
H           -4.49272606782337       -2.61814806616179        5.30668329385065
H           -3.96270249039513       -2.10272133017213        8.74322695309813
H           -0.58533760257296       -1.95641409023053        8.24296230621978
H            1.86362547958845        0.75962340107109        8.84734098144766
H            1.79199603936350       -4.03433751735898        6.77640107287616
H            4.24243449336271       -3.61262865769024        6.34858684420618
H            6.32966032032201       -2.44730413611146        5.46468135677764
H            9.40217731261426       -0.65909250460492        5.59721159742464
H            8.69428170509962       -2.17158921153338        5.00490036038768
H            9.61258243352833       -2.15569143903127        6.52655762627415
H            9.63642018798639        0.13097230947089        8.11567809100425
H            8.95042581167066        1.46806561428019       10.07125723401055
H            6.60484465821553        1.60686885563315       10.74466481429733
H            4.84269079362386        0.39586275828719        9.48089684130145
H            0.72181386728007        4.28238325081867        8.91073755420108
H           -0.65910550582099        3.97562274310428       10.00952409006324
H           -0.83996562374306        3.73059891641169        8.22185103810488
H           -2.31459683843177        2.39950714152214        9.77510639692917
H           -4.55365251837121       -1.12190642734720       10.65540456904002
H           -5.62465084443465        0.26804255913036       10.94746361733598
H           -3.95267243224700        0.28268431410040       11.55654866027016
H           -4.57175102211208        0.87385779744856        7.48897164518476
H           -5.49079462797686       -0.46660957840440        8.27919825733199
H           -5.88628335781986        2.45550072217954        8.99813755536137
H           -6.79137813859759        1.69051759769014        7.67429469006106
H           -7.63993944119940       -0.74229483373470        8.57040082559658
H           -8.86433594515885        0.52535139611408        8.35987800723733
H           -8.75937250736439       -0.37880972188855        9.88720718535732
H           -8.54462284410253        1.62107929028218       11.11837229096710
H           -8.55217534527248        2.67695458338075        9.69123015194295
H           -7.18200650877025        2.70783362903031       10.82666126245429
Ti          -1.79028986649922       -3.46278272526354        4.31451377963220
Ti           0.21343057705177       -1.44394377178401        5.18712165842455
Ti           3.14688196416813       -0.85201933007823        4.74296748057872
Ti          -2.44103616473177       -0.80673413128841        3.25999324372275
Ti           0.42605026839324        1.70309432232542        6.12948524109764
Ti          -2.41827384865285        1.24968794915383        5.39584143297959
Ti           0.68064878664556       -3.53881510851559        2.35205177767912
Ti           1.56720973025247       -0.85497391479871        2.05630704100933
Ti           4.28367847482281        0.03342473287371        2.52363487110834
Ti          -0.43258195294111        0.93992829291599        1.11539503122205
Ti           2.78504965288661        2.23603021719091        4.35693438561675
Ti           2.56858977363397        1.97027092802700        1.36444421478594
C           -2.73729254618184       -0.02004112814993        1.36106569269702
C            2.95322168431421        3.27995425876824        6.12141169298312
C            0.01727820180967        2.73377975137351        3.29908102380788
C           -2.31933042620382        0.65223498506835        0.40789074085297
C            2.04045659174834        2.80140995354209        6.81611929200393
C           -0.68787605995562        2.54878518798626        2.24855618847858
C            0.75703734927470        2.82250877251087        4.39328109801392
O           -2.88828306534003       -2.55184934068302        3.31564711923606
O           -0.50886951747674       -3.02670270097231        5.44448037833553
O            1.83369290855795       -2.00011211545977        4.55215877117812
O           -0.82982308034339       -0.84496134962136        3.91310786263268
O            0.70808947831206       -0.03737104429918        6.03106753373185
O           -3.32594840594276        0.32106298634002        4.22835091747184
O           -1.23980540528500        1.95797999843007        6.47791453447974
O            1.33841894766085       -4.97012342830087        2.62670554441102
O            3.32966105985021       -1.04305953658096        1.63185545554315
O            3.41612156939915        0.71602495676941        5.20106210114058
O            0.03819033659764       -0.98780364575855        1.33798087682136
O            1.33092828674122        0.29170121669834        3.25641848683707
O            1.22390121212334        1.28434128917631        0.49668805979968
O            3.19395681250487        2.79112295242142        2.76081940530429
