91
Drug@Ti12C7O14 clean complex
C     -0.497640     -5.205620     12.613845
O     -0.278435     -3.861000     12.200337
C     -1.370052     -3.163431     11.736187
C     -2.669668     -3.671191     11.649999
C     -3.726727     -2.905323     11.173131
N     -4.936930     -3.465984     11.124573
C     -5.931281     -2.707557     10.652370
N     -5.828693     -1.444931     10.231731
C     -4.610050     -0.878141     10.293489
N     -4.445135      0.468018      9.869025
C     -5.343135      1.297580      9.162632
C     -6.309660      0.793885      8.280196
C     -7.142391      1.650185      7.553237
C     -6.998147      3.024802      7.685240
F     -7.805046      3.830481      6.979198
C     -6.023356      3.549843      8.526626
Cl     -5.822473      5.253505      8.681425
C     -5.191949      2.691872      9.252013
C     -3.484409     -1.588195     10.763010
C     -2.165553     -1.071257     10.837691
C     -1.115414     -1.843107     11.331726
N      0.213126     -1.376095     11.449372
C      0.687988     -0.107417     11.203581
O      0.032492      0.865610     10.854305
C      2.157999     -0.013252     11.433826
C      2.810491      1.140667     11.219944
C      4.283341      1.328807     11.430936
N      4.938739      1.856824     10.232205
C      5.027847      0.881056      9.134228
C      6.437648      0.343635      8.893248
C      7.424859      1.470354      8.597408
C      7.069254      2.760760      9.333498
C      6.224481      2.481871     10.574069
H     -0.848953     -5.822380     11.780166
H      0.462216     -5.612114     12.946755
H     -1.189419     -5.249534     13.461378
H     -2.899967     -4.687202     11.955672
H     -6.915711     -3.160640     10.607048
H     -3.923175      0.982628     10.572493
H     -6.422162     -0.278027      8.138607
H     -7.894103      1.248676      6.881230
H     -4.423302      3.117340      9.892472
H     -1.978582     -0.063028     10.483570
H      0.856772     -2.082149     11.791149
H      2.686174     -0.895787     11.770985
H      2.263668      2.018942     10.879112
H      4.768048      0.402307     11.764691
H      4.383142      2.049849     12.253104
H      4.345828      0.034361      9.274660
H      4.686934      1.383791      8.220023
H      6.770301     -0.213683      9.778407
H      6.434132     -0.369408      8.060900
H      8.433047      1.142487      8.877427
H      7.454922      1.671673      7.519852
H      6.516419      3.426512      8.658012
H      7.986435      3.293277      9.609964
H      6.034529      3.428584     11.093569
H      6.800686      1.846271     11.260030
Ti     -2.141866     -3.008818      2.119748
Ti      0.288991     -1.694759      1.432425
Ti      1.903098     -3.067749     -0.729322
Ti     -2.521502     -0.251928      1.303687
Ti      2.142050      0.499533      2.204434
Ti     -0.681448      0.189635      3.681230
Ti     -2.036770     -3.077740     -1.200512
Ti     -0.605340     -0.770900     -2.035132
Ti      1.945488     -1.587317     -3.412400
Ti     -1.878170      1.746573     -1.240030
Ti      2.412512      0.454231     -0.774247
Ti      0.817742      1.838452     -2.940004
C     -3.678414      1.281398      0.600737
C      4.128193      0.482847      0.387293
C      0.455479      2.267202      0.349695
C     -3.666709      2.118834     -0.313920
C      4.115962      0.632239      1.621354
C     -0.635167      2.741046     -0.118921
C      1.630072      1.780996      0.734224
O     -3.093456     -1.956907      1.037949
O     -0.487250     -2.605849      2.701203
O      0.314079     -2.888890      0.145001
O     -0.800785     -0.435934      0.971227
O      1.902865     -1.158331      1.469449
O     -2.322673     -0.113878      3.024800
O      1.013786      0.441598      3.568761
O     -1.772019     -4.587905     -1.652810
O      0.190605     -1.189189     -3.534030
O      2.831420     -2.170248     -1.918042
O     -2.054558     -0.224445     -1.337505
O      0.768511     -0.390574     -1.063664
O     -0.900039      1.649313     -2.818565
O      2.415313      1.357463     -2.264115
