58
Dacomitinib - ETKDG+MMFF conformer
C     -0.306625     -4.701254      0.855488
O     -0.277905     -3.323386      0.499011
C      0.955384     -2.715114      0.449418
C      2.175392     -3.354795      0.687191
C      3.386267     -2.676936      0.613154
N      4.505529     -3.362994      0.853831
C      5.653670     -2.682121      0.783758
N      5.785614     -1.386604      0.490838
C      4.656680     -0.700247      0.236472
N      4.739621      0.680152     -0.090499
C      5.841686      1.556912      0.010751
C      6.868331      1.382323      0.949955
C      7.913619      2.304562      1.059598
C      7.927882      3.427483      0.243127
F      8.937906      4.301629      0.363208
C      6.902775      3.642164     -0.671682
Cl      6.900259      5.042579     -1.674507
C      5.858833      2.719036     -0.779208
C      3.386643     -1.313238      0.293355
C      2.150959     -0.656514      0.060281
C      0.942942     -1.348639      0.126640
N     -0.314103     -0.753996     -0.116659
C     -0.584419      0.542781     -0.480022
O      0.220999      1.454555     -0.623553
C     -2.032570      0.829885     -0.658195
C     -2.913591     -0.021047     -1.213001
C     -4.377136      0.248136     -1.454399
N     -4.916272      1.410234     -0.740727
C     -6.117364      1.953557     -1.392958
C     -7.364001      1.083750     -1.220012
C     -7.646635      0.820667      0.254653
C     -6.408024      0.274818      0.955684
C     -5.178030      1.147449      0.685116
H      0.097734     -4.857632      1.860935
H      0.220930     -5.310701      0.114539
H     -1.353091     -5.020977      0.864518
H      2.219538     -4.410311      0.937471
H      6.565425     -3.234712      0.983178
H      4.177842      0.866717     -0.915911
H      6.863590      0.526001      1.619588
H      8.708365      2.153396      1.783063
H      5.055829      2.909512     -1.486927
H      2.156030      0.406426     -0.156177
H     -1.096115     -1.385961      0.018044
H     -2.323003      1.836631     -0.372665
H     -2.574667     -0.987092     -1.579442
H     -4.471206      0.398757     -2.538182
H     -4.944061     -0.661630     -1.226523
H     -5.928642      2.124663     -2.459933
H     -6.316819      2.948397     -0.973108
H     -8.226853      1.584031     -1.674309
H     -7.236099      0.131188     -1.748072
H     -7.955267      1.755799      0.738184
H     -8.479204      0.116324      0.358987
H     -6.222662     -0.753729      0.625103
H     -6.591472      0.226713      2.035332
H     -4.302783      0.697978      1.168249
H     -5.317652      2.114431      1.186408
