      -----------------------------------------------------------      
     |                   =====================                   |     
     |                           x T B                           |     
     |                   =====================                   |     
     |                         S. Grimme                         |     
     |          Mulliken Center for Theoretical Chemistry        |     
     |                    University of Bonn                     |     
      -----------------------------------------------------------      

   * xtb version 6.7.1pre (5071a88) compiled by 'Marcel@Raven' on 2024-07-23

   xtb is free software: you can redistribute it and/or modify it under
   the terms of the GNU Lesser General Public License as published by
   the Free Software Foundation, either version 3 of the License, or
   (at your option) any later version.
   
   xtb is distributed in the hope that it will be useful,
   but WITHOUT ANY WARRANTY; without even the implied warranty of
   MERCHANTABILITY or FITNESS FOR A PARTICULAR PURPOSE.  See the
   GNU Lesser General Public License for more details.
   
   Cite this work as:
   * C. Bannwarth, E. Caldeweyher, S. Ehlert, A. Hansen, P. Pracht,
     J. Seibert, S. Spicher, S. Grimme, WIREs Comput. Mol. Sci., 2020, 11,
     e01493. DOI: 10.1002/wcms.1493
   
   for GFN2-xTB:
   * C. Bannwarth, S. Ehlert and S. Grimme., J. Chem. Theory Comput., 2019,
     15, 1652-1671. DOI: 10.1021/acs.jctc.8b01176
   for GFN1-xTB:
   * S. Grimme, C. Bannwarth, P. Shushkov, J. Chem. Theory Comput., 2017,
     13, 1989-2009. DOI: 10.1021/acs.jctc.7b00118
   for GFN0-xTB:
   * P. Pracht, E. Caldeweyher, S. Ehlert, S. Grimme, ChemRxiv, 2019, preprint.
     DOI: 10.26434/chemrxiv.8326202.v1
   for GFN-FF:
   * S. Spicher and S. Grimme, Angew. Chem. Int. Ed., 2020, 59, 15665-15673.
     DOI: 10.1002/anie.202004239
   
   for ALPB and GBSA implicit solvation:
   * S. Ehlert, M. Stahn, S. Spicher, S. Grimme, J. Chem. Theory Comput.,
     2021, 17, 4250-4261. DOI: 10.1021/acs.jctc.1c00471
   
   for ddCOSMO and CPCM-X implicit solvation:
   * M. Stahn, S. Ehlert, S. Grimme, J. Phys. Chem. A,
     2023, XX, XXXX-XXXX. DOI: 10.1021/acs.jpca.3c04382
   
   for DFT-D4:
   * E. Caldeweyher, C. Bannwarth and S. Grimme, J. Chem. Phys., 2017,
     147, 034112. DOI: 10.1063/1.4993215
   * E. Caldeweyher, S. Ehlert, A. Hansen, H. Neugebauer, S. Spicher,
     C. Bannwarth and S. Grimme, J. Chem. Phys., 2019, 150, 154122.
     DOI: 10.1063/1.5090222
   * E. Caldeweyher, J.-M. Mewes, S. Ehlert and S. Grimme, Phys. Chem. Chem. Phys.
     2020, 22, 8499-8512. DOI: 10.1039/D0CP00502A
   
   for sTDA-xTB:
   * S. Grimme and C. Bannwarth, J. Chem. Phys., 2016, 145, 054103.
     DOI: 10.1063/1.4959605
   
   in the mass-spec context:
   * V. Asgeirsson, C. Bauer and S. Grimme, Chem. Sci., 2017, 8, 4879.
     DOI: 10.1039/c7sc00601b
   * J. Koopman and S. Grimme, ACS Omega 2019, 4, 12, 15120-15133.
     DOI: 10.1021/acsomega.9b02011
   
   for metadynamics refer to:
   * S. Grimme, J. Chem. Theory Comput., 2019, 155, 2847-2862
     DOI: 10.1021/acs.jctc.9b00143
   
   for SPH calculations refer to:
   * S. Spicher and S. Grimme, J. Chem. Theory Comput., 2021, 17, 1701-1714
     DOI: 10.1021/acs.jctc.0c01306
   
   for ONIOM refer to:
   * C. Plett, A. Katbashev, S. Ehlert, S. Grimme, M. Bursch,
     Phys. Chem. Chem. Phys., 2023, 25, 17860-17868. DOI: 10.1039/D3CP02178E
   
   for DIPRO refer to:
   * J. Kohn, N. Gildemeister, S. Grimme, D. Fazzi, A. Hansen,
     J. Chem. Phys., 2023, just accepted.
   
   for PTB refer to:
   * S. Grimme, M. Mueller, A. Hansen, J. Chem. Phys., 2023, 158, 124111.
     DOI: 10.1063/5.0137838
   
   with help from (in alphabetical order)
   P. Atkinson, C. Bannwarth, F. Bohle, G. Brandenburg, E. Caldeweyher
   M. Checinski, S. Dohm, S. Ehlert, S. Ehrlich, I. Gerasimov, C. Hölzer
   A. Katbashev, J. Kohn, J. Koopman, C. Lavigne, S. Lehtola, F. März, M. Müller,
   F. Musil, H. Neugebauer, J. Pisarek, C. Plett, P. Pracht, F. Pultar,
   J. Seibert, P. Shushkov, S. Spicher, M. Stahn, M. Steiner, T. Strunk,
   J. Stückrath, T. Rose, and J. Unsleber
   
 * started run on 2026/08/31 at 21:18:56.207     
   ID    Z sym.   atoms
    1    6 C      1, 3-5, 7, 9, 11-14, 16, 18-21, 23, 25-27, 29-33, 71-77
    2    8 O      2, 24, 78-91
    3    7 N      6, 8, 10, 22, 28
    4    9 F      15
    5   17 Cl     17
    6    1 H      34-58
    7   22 Ti     59-70

           -------------------------------------------------
          |                Calculation Setup                |
           -------------------------------------------------

          program call               : "c:\Users\Andre\Proyectos doctorado\kras-pancreatic-gC3N4-ai\tools\xtb\xtb-6.7.1\bin\xtb.exe" "c:\Users\Andre\Proyectos doctorado\mxene-glioblastoma-qsar-ai\calculations\gbm\Dacomitinib\Dacomitinib_Ti12C7O14_phys_complex.xyz" --gfn 2 --sp --chrg 0 --uhf 0 --etemp 300 --iterations 500 --norestart
          coordinate file            : c:\Users\Andre\Proyectos doctorado\mxene-glioblastoma-qsar-ai\calculations\gbm\Dacomitinib\Dacomitinib_Ti12C7O14_phys_complex.xyz
          omp threads                :                    16


molecular fragmentation (1/2 indicates fragments):
111111111111111111111111111111111111111111111111111111111122222222222222
2222222222222222222
# atoms in fragment 1/2:    58    33
 fragment masses (1/2) :      469.94      882.47
CMA distance (Bohr)    :  18.681
constraining FC (au)   :  0.0500

           -------------------------------------------------
          |                 G F N 2 - x T B                 |
           -------------------------------------------------

        Reference                      10.1021/acs.jctc.8b01176
      * Hamiltonian:
        H0-scaling (s, p, d)           1.850000    2.230000    2.230000
        zeta-weighting                 0.500000
      * Dispersion:
        s8                             2.700000
        a1                             0.520000
        a2                             5.000000
        s9                             5.000000
      * Repulsion:
        kExp                           1.500000    1.000000
        rExp                           1.000000
      * Coulomb:
        alpha                          2.000000
        third order                    shell-resolved
        anisotropic                    true
        a3                             3.000000
        a5                             4.000000
        cn-shift                       1.200000
        cn-exp                         4.000000
        max-rad                        5.000000


          ...................................................
          :                      SETUP                      :
          :.................................................:
          :  # basis functions                 367          :
          :  # atomic orbitals                 354          :
          :  # shells                          170          :
          :  # electrons                       332          :
          :  max. iterations                   500          :
          :  Hamiltonian                  GFN2-xTB          :
          :  restarted?                      false          :
          :  GBSA solvation                  false          :
          :  PC potential                    false          :
          :  electronic temp.          300.0000000     K    :
          :  accuracy                    1.0000000          :
          :  -> integral cutoff          0.2500000E+02      :
          :  -> integral neglect         0.1000000E-07      :
          :  -> SCF convergence          0.1000000E-05 Eh   :
          :  -> wf. convergence          0.1000000E-03 e    :
          :  Broyden damping             0.4000000          :
          :  net charge                          0          :
          :  unpaired electrons                  0          :
          ...................................................

 iter      E             dE          RMSdq      gap      omega  full diag
   1   -187.1353280 -0.187135E+03  0.133E+01    0.11       0.0  T
   2   -146.1317700  0.410036E+02  0.143E+01    0.07       1.0  T
   3     20.5317360  0.166664E+03  0.274E+01    0.07       1.0  T
   4   -148.8490336 -0.169381E+03  0.137E+01    0.03       1.0  T
   5    -20.8035107  0.128046E+03  0.193E+01    0.04       1.0  T
   6   -187.8751349 -0.167072E+03  0.726E+00    0.04       1.0  T
   7   -186.8009380  0.107420E+01  0.622E+00    0.03       1.0  T
   8   -186.1061211  0.694817E+00  0.680E+00    0.04       1.0  T
   9   -188.5727176 -0.246660E+01  0.612E+00    0.10       1.0  T
  10   -186.8786520  0.169407E+01  0.648E+00    0.11       1.0  T
  11   -187.0226052 -0.143953E+00  0.638E+00    0.13       1.0  T
  12   -188.3365823 -0.131398E+01  0.599E+00    0.05       1.0  T
  13   -188.8202492 -0.483667E+00  0.555E+00    0.36       1.0  T
  14   -189.2753762 -0.455127E+00  0.434E+00    0.05       1.0  T
  15   -189.1091506  0.166226E+00  0.417E+00    0.34       1.0  T
  16   -189.2921610 -0.183010E+00  0.344E+00    0.03       1.0  T
  17   -189.7126922 -0.420531E+00  0.316E+00    0.00       1.0  T
  18   -189.2294251  0.483267E+00  0.324E+00    0.23       1.0  T
  19   -189.2476418 -0.182167E-01  0.310E+00    0.19       1.0  T
  20   -189.9997903 -0.752148E+00  0.221E+00    0.35       1.0  T
  21   -190.0218560 -0.220657E-01  0.199E+00    0.64       1.0  T
  22   -190.0291881 -0.733215E-02  0.184E+00    0.82       1.0  T
  23   -190.0555210 -0.263328E-01  0.159E+00    0.99       1.0  T
  24   -190.0739090 -0.183880E-01  0.136E+00    0.95       1.0  T
  25   -190.0784282 -0.451922E-02  0.121E+00    0.97       1.0  T
  26   -190.0829287 -0.450055E-02  0.116E+00    1.00       1.0  T
  27   -190.0924665 -0.953772E-02  0.104E+00    1.01       1.0  T
  28   -190.1090277 -0.165612E-01  0.764E-01    0.91       1.0  T
  29   -190.1134223 -0.439456E-02  0.605E-01    0.92       1.0  T
  30   -190.1189132 -0.549091E-02  0.493E-01    0.87       1.0  T
  31   -190.1237194 -0.480621E-02  0.413E-01    0.82       1.0  T
  32   -190.1252979 -0.157855E-02  0.352E-01    0.78       1.0  T
  33   -190.1257156 -0.417695E-03  0.308E-01    0.77       1.0  T
  34   -190.1270401 -0.132450E-02  0.265E-01    0.74       1.0  T
  35   -190.1282638 -0.122371E-02  0.228E-01    0.71       1.0  T
  36   -190.1293886 -0.112479E-02  0.189E-01    0.68       1.0  T
  37   -190.1306080 -0.121943E-02  0.140E-01    0.65       1.0  T
  38   -190.1310992 -0.491169E-03  0.119E-01    0.63       1.0  T
  39   -190.1314618 -0.362631E-03  0.100E-01    0.61       1.0  T
  40   -190.1316383 -0.176421E-03  0.877E-02    0.60       1.0  T
  41   -190.1318128 -0.174499E-03  0.665E-02    0.59       1.0  T
  42   -190.1319617 -0.148897E-03  0.491E-02    0.59       1.0  T
  43   -190.1320276 -0.658961E-04  0.402E-02    0.58       1.0  T
  44   -190.1320786 -0.510758E-04  0.321E-02    0.58       1.0  T
  45   -190.1321361 -0.574927E-04  0.225E-02    0.57       1.0  T
  46   -190.1321523 -0.161973E-04  0.182E-02    0.57       1.0  T
  47   -190.1321657 -0.133665E-04  0.143E-02    0.56       1.0  T
  48   -190.1321737 -0.799714E-05  0.748E-03    0.56       1.4  T
  49   -190.1321767 -0.297520E-05  0.342E-03    0.56       3.1  T
  50   -190.1321773 -0.622472E-06  0.215E-03    0.56       4.9  T
  51   -190.1321774 -0.108439E-06  0.164E-03    0.56       6.4  T
  52   -190.1321774 -0.280646E-07  0.115E-03    0.56       9.1  T
  53   -190.1321774 -0.198071E-07  0.693E-04    0.56      15.1  T
  54   -190.1321774 -0.752996E-08  0.533E-04    0.56      19.7  T

   *** convergence criteria satisfied after 54 iterations ***

         #    Occupation            Energy/Eh            Energy/eV
      -------------------------------------------------------------
         1        2.0000           -1.0471627             -28.4947
       ...           ...                  ...                  ...
       160        2.0000           -0.3539579              -9.6317
       161        2.0000           -0.3518926              -9.5755
       162        2.0000           -0.3518351              -9.5739
       163        2.0000           -0.3483806              -9.4799
       164        2.0000           -0.3402736              -9.2593
       165        2.0000           -0.3247526              -8.8370
       166        1.9999           -0.3101896              -8.4407 (HOMO)
       167        0.0000           -0.2895168              -7.8782 (LUMO)
       168        0.0000           -0.2892146              -7.8699
       169        0.0000           -0.2879567              -7.8357
       170        0.0000           -0.2869694              -7.8088
       171        0.0000           -0.2861298              -7.7860
       ...           ...                  ...                  ...
       354                         13.3497063             363.2640
      -------------------------------------------------------------
                  HL-Gap            0.0206728 Eh            0.5625 eV
             Fermi-level           -0.3001868 Eh           -8.1685 eV

 SCC (total)                   0 d,  0 h,  0 min,  1.203 sec
 SCC setup                      ...        0 min,  0.000 sec (  0.000%)
 Dispersion                     ...        0 min,  0.003 sec (  0.249%)
 classical contributions        ...        0 min,  0.000 sec (  0.000%)
 integral evaluation            ...        0 min,  0.009 sec (  0.748%)
 iterations                     ...        0 min,  1.168 sec ( 97.091%)
 molecular gradient             ...        0 min,  0.021 sec (  1.746%)
 printout                       ...        0 min,  0.002 sec (  0.166%)

         :::::::::::::::::::::::::::::::::::::::::::::::::::::
         ::                     SUMMARY                     ::
         :::::::::::::::::::::::::::::::::::::::::::::::::::::
         :: total energy            -188.235621536405 Eh    ::
         :: gradient norm              0.104451317122 Eh/a0 ::
         :: HOMO-LUMO gap              0.562535770014 eV    ::
         ::.................................................::
         :: SCC energy              -190.130324985367 Eh    ::
         :: -> isotropic ES            1.002592510740 Eh    ::
         :: -> anisotropic ES         -0.374197273496 Eh    ::
         :: -> anisotropic XC         -0.021045471686 Eh    ::
         :: -> dispersion             -0.153749764911 Eh    ::
         :: repulsion energy           1.894703448963 Eh    ::
         :: add. restraining           0.000000000000 Eh    ::
         :: total charge              -0.000000000104 e     ::
         :::::::::::::::::::::::::::::::::::::::::::::::::::::

           -------------------------------------------------
          |                Property Printout                |
           -------------------------------------------------

    * Orbital Energies and Occupations

         #    Occupation            Energy/Eh            Energy/eV
      -------------------------------------------------------------
         1        2.0000           -1.0471627             -28.4947
       ...           ...                  ...                  ...
       154        2.0000           -0.3798220             -10.3355
       155        2.0000           -0.3759562             -10.2303
       156        2.0000           -0.3714501             -10.1077
       157        2.0000           -0.3659235              -9.9573
       158        2.0000           -0.3630912              -9.8802
       159        2.0000           -0.3605475              -9.8110
       160        2.0000           -0.3539579              -9.6317
       161        2.0000           -0.3518926              -9.5755
       162        2.0000           -0.3518351              -9.5739
       163        2.0000           -0.3483806              -9.4799
       164        2.0000           -0.3402736              -9.2593
       165        2.0000           -0.3247526              -8.8370
       166        1.9999           -0.3101896              -8.4407 (HOMO)
       167        0.0000           -0.2895168              -7.8782 (LUMO)
       168        0.0000           -0.2892146              -7.8699
       169        0.0000           -0.2879567              -7.8357
       170        0.0000           -0.2869694              -7.8088
       171        0.0000           -0.2861298              -7.7860
       172                         -0.2819913              -7.6734
       173                         -0.2775854              -7.5535
       174                         -0.2761777              -7.5152
       175                         -0.2747443              -7.4762
       176                         -0.2746334              -7.4732
       177                         -0.2738447              -7.4517
       ...                                ...                  ...
       354                         13.3497063             363.2640
      -------------------------------------------------------------
                  HL-Gap            0.0206728 Eh            0.5625 eV
             Fermi-level           -0.3001868 Eh           -8.1685 eV

     #   Z          covCN         q      C6AA      α(0)
     1   6 C        3.640     0.027    20.481     6.508
     2   8 O        1.703    -0.277    18.601     5.823
     3   6 C        2.862     0.126    25.228     8.233
     4   6 C        2.929    -0.085    30.118     9.000
     5   6 C        2.985     0.104    25.685     8.313
     6   7 N        1.845    -0.269    27.843     7.820
     7   6 C        2.881     0.142    24.916     8.183
     8   7 N        1.831    -0.271    27.885     7.825
     9   6 C        2.889     0.161    24.523     8.119
    10   7 N        2.689    -0.160    24.465     7.346
    11   6 C        2.890     0.078    26.257     8.401
    12   6 C        2.917    -0.048    29.193     8.860
    13   6 C        2.912    -0.050    29.238     8.867
    14   6 C        2.806     0.156    24.618     8.129
    15   9 F        0.787    -0.207    11.303     3.971
    16   6 C        2.877     0.080    26.216     8.394
    17  17 Cl       0.962    -0.140   103.517    15.566
    18   6 C        2.955    -0.068    29.701     8.939
    19   6 C        2.978    -0.032    28.795     8.802
    20   6 C        2.915    -0.064    29.582     8.919
    21   6 C        2.895     0.058    26.702     8.472
    22   7 N        2.693    -0.155    24.359     7.330
    23   6 C        2.750     0.270    22.431     7.755
    24   8 O        0.858    -0.418    22.053     6.296
    25   6 C        2.893    -0.081    30.018     8.983
    26   6 C        2.886    -0.037    28.918     8.816
    27   6 C        3.750    -0.000    20.647     6.480
    28   7 N        2.721    -0.172    24.720     7.384
    29   6 C        3.754    -0.003    20.690     6.486
    30   6 C        3.801    -0.062    21.694     6.631
    31   6 C        3.803    -0.054    21.535     6.607
    32   6 C        3.801    -0.060    21.651     6.625
    33   6 C        3.751    -0.001    20.663     6.483
    34   1 H        0.924     0.054     2.266     2.354
    35   1 H        0.924     0.052     2.289     2.366
    36   1 H        0.924     0.064     2.148     2.292
    37   1 H        0.925     0.065     2.139     2.287
    38   1 H        0.925     0.048     2.346     2.395
    39   1 H        0.860     0.190     1.161     1.688
    40   1 H        0.925     0.075     2.030     2.228
    41   1 H        0.925     0.074     2.038     2.232
    42   1 H        0.925     0.067     2.118     2.276
    43   1 H        0.925     0.087     1.910     2.161
    44   1 H        0.860     0.199     1.113     1.652
    45   1 H        0.925     0.092     1.864     2.135
    46   1 H        0.925     0.041     2.434     2.440
    47   1 H        0.923     0.059     2.208     2.324
    48   1 H        0.924     0.038     2.477     2.461
    49   1 H        0.924     0.034     2.529     2.487
    50   1 H        0.923     0.042     2.420     2.433
    51   1 H        0.924     0.030     2.590     2.517
    52   1 H        0.924     0.027     2.624     2.533
    53   1 H        0.924     0.032     2.558     2.501
    54   1 H        0.924     0.027     2.632     2.537
    55   1 H        0.924     0.024     2.668     2.554
    56   1 H        0.924     0.028     2.609     2.526
    57   1 H        0.924     0.033     2.544     2.494
    58   1 H        0.923     0.040     2.444     2.445
    59  22 Ti       3.637     1.048   101.828    24.492
    60  22 Ti       6.855     1.551    84.060    14.885
    61  22 Ti       3.227     1.048   102.639    24.738
    62  22 Ti       5.860     1.379    85.676    15.028
    63  22 Ti       5.627     1.123    88.193    15.247
    64  22 Ti       3.541     1.041   102.464    24.670
    65  22 Ti       2.352     0.880   202.677    34.858
    66  22 Ti       6.011     1.349    85.965    15.053
    67  22 Ti       3.414     1.009   103.046    24.778
    68  22 Ti       5.519     1.095    88.469    15.271
    69  22 Ti       5.687     1.189    87.527    15.189
    70  22 Ti       3.581     1.027   102.465    24.641
    71   6 C        2.246    -0.259    37.674     9.945
    72   6 C        2.142    -0.255    38.317    10.006
    73   6 C        2.248    -0.019    30.602     8.963
    74   6 C        1.838    -0.209    37.295     9.866
    75   6 C        1.894    -0.224    37.724     9.920
    76   6 C        1.821    -0.346    42.137    10.488
    77   6 C        2.631    -0.403    39.886    10.331
    78   8 O        1.554    -0.847    32.006     7.633
    79   8 O        1.464    -0.882    33.255     7.773
    80   8 O        1.557    -0.956    35.593     8.049
    81   8 O        1.523    -1.006    37.469     8.256
    82   8 O        1.523    -0.913    34.188     7.887
    83   8 O        1.458    -0.823    31.400     7.552
    84   8 O        1.455    -0.798    30.655     7.462
    85   8 O        0.727    -0.636    27.088     6.974
    86   8 O        1.453    -0.864    32.700     7.707
    87   8 O        1.476    -0.799    30.665     7.465
    88   8 O        1.603    -0.946    35.197     8.007
    89   8 O        1.547    -0.969    36.073     8.103
    90   8 O        1.700    -0.817    30.973     7.514
    91   8 O        1.453    -0.781    30.165     7.402

 Mol. C6AA /au·bohr⁶  :     195728.654578
 Mol. C8AA /au·bohr⁸  :    8191927.260015
 Mol. α(0) /au        :        744.842115


Wiberg/Mayer (AO) data.
largest (>0.10) Wiberg bond orders for each atom

 ---------------------------------------------------------------------------
     #   Z sym  total        # sym  WBO       # sym  WBO       # sym  WBO
 ---------------------------------------------------------------------------
     1   6 C    3.937 --    36 H    0.979    35 H    0.977    34 H    0.977
                             2 O    0.975
     2   8 O    2.217 --     3 C    1.057     1 C    0.975
     3   6 C    3.933 --     4 C    1.459    21 C    1.231     2 O    1.057
     4   6 C    3.980 --     3 C    1.459     5 C    1.282    37 H    0.961
                            20 C    0.105
     5   6 C    3.978 --     6 N    1.295     4 C    1.282    19 C    1.230
     6   7 N    3.035 --     7 C    1.481     5 C    1.295
     7   6 C    3.956 --     6 N    1.481     8 N    1.372    38 H    0.958
     8   7 N    3.043 --     9 C    1.401     7 C    1.372
     9   6 C    3.959 --     8 N    1.401    19 C    1.235    10 N    1.116
    10   7 N    3.416 --     9 C    1.116    11 C    1.103    39 H    0.923
    11   6 C    3.969 --    12 C    1.360    18 C    1.359    10 N    1.103
    12   6 C    3.978 --    13 C    1.448    11 C    1.360    40 H    0.963
    13   6 C    3.986 --    12 C    1.448    14 C    1.389    41 H    0.965
                            18 C    0.102
    14   6 C    3.883 --    13 C    1.389    16 C    1.349    15 F    0.971
    15   9 F    1.103 --    14 C    0.971
    16   6 C    3.925 --    18 C    1.409    14 C    1.349    17 Cl   0.996
    17  17 Cl   1.140 --    16 C    0.996
    18   6 C    3.973 --    16 C    1.409    11 C    1.359    42 H    0.963
                            13 C    0.102
    19   6 C    3.986 --    20 C    1.286     9 C    1.235     5 C    1.230
    20   6 C    3.981 --    21 C    1.462    19 C    1.286    43 H    0.954
                             4 C    0.105
    21   6 C    3.962 --    20 C    1.462     3 C    1.231    22 N    1.085
    22   7 N    3.493 --    23 C    1.179    21 C    1.085    44 H    0.922
                            24 O    0.159
    23   6 C    3.943 --    24 O    1.680    22 N    1.179    25 C    1.013
    24   8 O    2.009 --    23 C    1.680    22 N    0.159
    25   6 C    3.978 --    26 C    1.871    23 C    1.013    45 H    0.951
    26   6 C    3.978 --    25 C    1.871    27 C    1.024    46 H    0.957
    27   6 C    3.988 --    26 C    1.024    28 N    1.006    48 H    0.948
                            47 H    0.941
    28   7 N    3.125 --    27 C    1.006    29 C    1.001    33 C    1.000
    29   6 C    3.985 --    28 N    1.001    30 C    0.998    49 H    0.972
                            50 H    0.971
    30   6 C    3.998 --    31 C    1.009    29 C    0.998    52 H    0.977
                            51 H    0.976
    31   6 C    3.998 --    30 C    1.009    32 C    1.009    53 H    0.978
                            54 H    0.977
    32   6 C    3.998 --    31 C    1.009    33 C    0.997    56 H    0.976
                            55 H    0.975
    33   6 C    3.986 --    28 N    1.000    32 C    0.997    57 H    0.974
                            58 H    0.972
    34   1 H    0.996 --     1 C    0.977
    35   1 H    0.997 --     1 C    0.977
    36   1 H    0.995 --     1 C    0.979
    37   1 H    0.995 --     4 C    0.961
    38   1 H    0.997 --     7 C    0.958
    39   1 H    0.964 --    10 N    0.923
    40   1 H    0.994 --    12 C    0.963
    41   1 H    0.994 --    13 C    0.965
    42   1 H    0.995 --    18 C    0.963
    43   1 H    0.992 --    20 C    0.954
    44   1 H    0.960 --    22 N    0.922
    45   1 H    0.990 --    25 C    0.951
    46   1 H    0.998 --    26 C    0.957
    47   1 H    0.996 --    27 C    0.941
    48   1 H    0.996 --    27 C    0.948
    49   1 H    0.999 --    29 C    0.972
    50   1 H    0.998 --    29 C    0.971
    51   1 H    0.999 --    30 C    0.976
    52   1 H    0.999 --    30 C    0.977
    53   1 H    0.999 --    31 C    0.978
    54   1 H    0.999 --    31 C    0.977
    55   1 H    0.999 --    32 C    0.975
    56   1 H    0.999 --    32 C    0.976
    57   1 H    0.999 --    33 C    0.974
    58   1 H    0.998 --    33 C    0.972
    59  22 Ti   2.824 --    78 O    0.846    79 O    0.814    65 Ti   0.330
                            60 Ti   0.200    62 Ti   0.197    64 Ti   0.102
    60  22 Ti   3.854 --    79 O    0.750    82 O    0.746    80 O    0.692
                            81 O    0.607    59 Ti   0.200    61 Ti   0.188
                            63 Ti   0.138    64 Ti   0.137
    61  22 Ti   2.723 --    87 O    0.963    80 O    0.599    67 Ti   0.372
                            60 Ti   0.188    65 Ti   0.140    82 O    0.110
    62  22 Ti   3.919 --    83 O    0.934    71 C    0.722    78 O    0.705
                            81 O    0.563    64 Ti   0.211    59 Ti   0.197
                            68 Ti   0.177    88 O    0.124
    63  22 Ti   4.071 --    77 C    0.892    84 O    0.775    75 C    0.743
                            82 O    0.600    69 Ti   0.284    64 Ti   0.172
                            76 C    0.160    72 C    0.152    60 Ti   0.138
    64  22 Ti   2.649 --    84 O    0.970    83 O    0.711    62 Ti   0.211
                            63 Ti   0.172    60 Ti   0.137    79 O    0.124
                            59 Ti   0.102
    65  22 Ti   3.764 --    85 O    1.996    66 Ti   0.605    59 Ti   0.330
                            80 O    0.152    78 O    0.147    61 Ti   0.140
                            88 O    0.112
    66  22 Ti   4.017 --    88 O    0.802    86 O    0.753    89 O    0.716
                            65 Ti   0.605    90 O    0.196    67 Ti   0.166
                            70 Ti   0.148    68 Ti   0.141
    67  22 Ti   2.746 --    86 O    0.835    87 O    0.764    61 Ti   0.372
                            70 Ti   0.221    66 Ti   0.166    69 Ti   0.130
    68  22 Ti   4.013 --    76 C    1.060    74 C    0.724    90 O    0.614
                            88 O    0.440    77 C    0.235    70 Ti   0.200
                            62 Ti   0.177    71 C    0.154    66 Ti   0.141
    69  22 Ti   4.082 --    91 O    0.967    72 C    0.671    77 C    0.653
                            89 O    0.441    63 Ti   0.284    70 Ti   0.210
                            76 C    0.141    67 Ti   0.130    87 O    0.113
    70  22 Ti   2.793 --    90 O    0.900    91 O    0.735    67 Ti   0.221
                            69 Ti   0.210    68 Ti   0.200    66 Ti   0.148
    71   6 C    3.844 --    74 C    2.739    62 Ti   0.722    68 Ti   0.154
    72   6 C    3.782 --    75 C    2.732    69 Ti   0.671    63 Ti   0.152
    73   6 C    3.979 --    76 C    2.007    77 C    1.605
    74   6 C    3.704 --    71 C    2.739    68 Ti   0.724
    75   6 C    3.748 --    72 C    2.732    63 Ti   0.743
    76   6 C    3.769 --    73 C    2.007    68 Ti   1.060    63 Ti   0.160
                            69 Ti   0.141
    77   6 C    3.830 --    73 C    1.605    63 Ti   0.892    69 Ti   0.653
                            68 Ti   0.235
    78   8 O    1.934 --    59 Ti   0.846    62 Ti   0.705    65 Ti   0.147
    79   8 O    1.891 --    59 Ti   0.814    60 Ti   0.750    64 Ti   0.124
    80   8 O    1.783 --    60 Ti   0.692    61 Ti   0.599    65 Ti   0.152
    81   8 O    1.720 --    60 Ti   0.607    62 Ti   0.563
    82   8 O    1.846 --    60 Ti   0.746    63 Ti   0.600    61 Ti   0.110
    83   8 O    1.970 --    62 Ti   0.934    64 Ti   0.711
    84   8 O    2.014 --    64 Ti   0.970    63 Ti   0.775
    85   8 O    2.171 --    65 Ti   1.996
    86   8 O    1.911 --    67 Ti   0.835    66 Ti   0.753
    87   8 O    2.008 --    61 Ti   0.963    67 Ti   0.764    69 Ti   0.113
    88   8 O    1.799 --    66 Ti   0.802    68 Ti   0.440    62 Ti   0.124
                            65 Ti   0.112
    89   8 O    1.772 --    66 Ti   0.716    69 Ti   0.441
    90   8 O    1.987 --    70 Ti   0.900    68 Ti   0.614    66 Ti   0.196
    91   8 O    2.032 --    69 Ti   0.967    70 Ti   0.735
 ---------------------------------------------------------------------------

Topologies differ in total number of bonds
Writing topology from bond orders to xtbtopo.mol

molecular dipole:
                 x           y           z       tot (Debye)
 q only:       -2.158      -3.107      -0.698
   full:       -4.069      -3.454      -0.285      13.586
molecular quadrupole (traceless):
                xx          xy          yy          xz          yz          zz
 q only:      -49.376     -26.333     -10.156    -104.705     -64.455      59.533
  q+dip:      -31.350     -25.529     -20.349     -94.392     -88.471      51.699
   full:      -31.560     -24.447     -21.209     -97.084     -84.480      52.768


           -------------------------------------------------
          | TOTAL ENERGY             -188.235621536405 Eh   |
          | GRADIENT NORM               0.104451317122 Eh/α |
          | HOMO-LUMO GAP               0.562535770014 eV   |
           -------------------------------------------------

------------------------------------------------------------------------
 * finished run on 2026/08/31 at 21:18:57.463     
------------------------------------------------------------------------
 total:
 * wall-time:     0 d,  0 h,  0 min,  1.254 sec
 *  cpu-time:     0 d,  0 h,  0 min, 12.672 sec
 * ratio c/w:    10.105 speedup
 SCF:
 * wall-time:     0 d,  0 h,  0 min,  1.205 sec
 *  cpu-time:     0 d,  0 h,  0 min, 12.359 sec
 * ratio c/w:    10.257 speedup

normal termination of xtb
