      -----------------------------------------------------------      
     |                   =====================                   |     
     |                           x T B                           |     
     |                   =====================                   |     
     |                         S. Grimme                         |     
     |          Mulliken Center for Theoretical Chemistry        |     
     |                    University of Bonn                     |     
      -----------------------------------------------------------      

   * xtb version 6.7.1pre (5071a88) compiled by 'Marcel@Raven' on 2024-07-23

   xtb is free software: you can redistribute it and/or modify it under
   the terms of the GNU Lesser General Public License as published by
   the Free Software Foundation, either version 3 of the License, or
   (at your option) any later version.
   
   xtb is distributed in the hope that it will be useful,
   but WITHOUT ANY WARRANTY; without even the implied warranty of
   MERCHANTABILITY or FITNESS FOR A PARTICULAR PURPOSE.  See the
   GNU Lesser General Public License for more details.
   
   Cite this work as:
   * C. Bannwarth, E. Caldeweyher, S. Ehlert, A. Hansen, P. Pracht,
     J. Seibert, S. Spicher, S. Grimme, WIREs Comput. Mol. Sci., 2020, 11,
     e01493. DOI: 10.1002/wcms.1493
   
   for GFN2-xTB:
   * C. Bannwarth, S. Ehlert and S. Grimme., J. Chem. Theory Comput., 2019,
     15, 1652-1671. DOI: 10.1021/acs.jctc.8b01176
   for GFN1-xTB:
   * S. Grimme, C. Bannwarth, P. Shushkov, J. Chem. Theory Comput., 2017,
     13, 1989-2009. DOI: 10.1021/acs.jctc.7b00118
   for GFN0-xTB:
   * P. Pracht, E. Caldeweyher, S. Ehlert, S. Grimme, ChemRxiv, 2019, preprint.
     DOI: 10.26434/chemrxiv.8326202.v1
   for GFN-FF:
   * S. Spicher and S. Grimme, Angew. Chem. Int. Ed., 2020, 59, 15665-15673.
     DOI: 10.1002/anie.202004239
   
   for ALPB and GBSA implicit solvation:
   * S. Ehlert, M. Stahn, S. Spicher, S. Grimme, J. Chem. Theory Comput.,
     2021, 17, 4250-4261. DOI: 10.1021/acs.jctc.1c00471
   
   for ddCOSMO and CPCM-X implicit solvation:
   * M. Stahn, S. Ehlert, S. Grimme, J. Phys. Chem. A,
     2023, XX, XXXX-XXXX. DOI: 10.1021/acs.jpca.3c04382
   
   for DFT-D4:
   * E. Caldeweyher, C. Bannwarth and S. Grimme, J. Chem. Phys., 2017,
     147, 034112. DOI: 10.1063/1.4993215
   * E. Caldeweyher, S. Ehlert, A. Hansen, H. Neugebauer, S. Spicher,
     C. Bannwarth and S. Grimme, J. Chem. Phys., 2019, 150, 154122.
     DOI: 10.1063/1.5090222
   * E. Caldeweyher, J.-M. Mewes, S. Ehlert and S. Grimme, Phys. Chem. Chem. Phys.
     2020, 22, 8499-8512. DOI: 10.1039/D0CP00502A
   
   for sTDA-xTB:
   * S. Grimme and C. Bannwarth, J. Chem. Phys., 2016, 145, 054103.
     DOI: 10.1063/1.4959605
   
   in the mass-spec context:
   * V. Asgeirsson, C. Bauer and S. Grimme, Chem. Sci., 2017, 8, 4879.
     DOI: 10.1039/c7sc00601b
   * J. Koopman and S. Grimme, ACS Omega 2019, 4, 12, 15120-15133.
     DOI: 10.1021/acsomega.9b02011
   
   for metadynamics refer to:
   * S. Grimme, J. Chem. Theory Comput., 2019, 155, 2847-2862
     DOI: 10.1021/acs.jctc.9b00143
   
   for SPH calculations refer to:
   * S. Spicher and S. Grimme, J. Chem. Theory Comput., 2021, 17, 1701-1714
     DOI: 10.1021/acs.jctc.0c01306
   
   for ONIOM refer to:
   * C. Plett, A. Katbashev, S. Ehlert, S. Grimme, M. Bursch,
     Phys. Chem. Chem. Phys., 2023, 25, 17860-17868. DOI: 10.1039/D3CP02178E
   
   for DIPRO refer to:
   * J. Kohn, N. Gildemeister, S. Grimme, D. Fazzi, A. Hansen,
     J. Chem. Phys., 2023, just accepted.
   
   for PTB refer to:
   * S. Grimme, M. Mueller, A. Hansen, J. Chem. Phys., 2023, 158, 124111.
     DOI: 10.1063/5.0137838
   
   with help from (in alphabetical order)
   P. Atkinson, C. Bannwarth, F. Bohle, G. Brandenburg, E. Caldeweyher
   M. Checinski, S. Dohm, S. Ehlert, S. Ehrlich, I. Gerasimov, C. Hölzer
   A. Katbashev, J. Kohn, J. Koopman, C. Lavigne, S. Lehtola, F. März, M. Müller,
   F. Musil, H. Neugebauer, J. Pisarek, C. Plett, P. Pracht, F. Pultar,
   J. Seibert, P. Shushkov, S. Spicher, M. Stahn, M. Steiner, T. Strunk,
   J. Stückrath, T. Rose, and J. Unsleber
   
 * started run on 2026/08/31 at 21:55:18.343     
   ID    Z sym.   atoms
    1    6 C      1, 3-5, 7, 9, 11-14, 16, 18-21, 23, 25-27, 29-33, 71-77
    2    8 O      2, 24, 78-91
    3    7 N      6, 8, 10, 22, 28
    4    9 F      15
    5   17 Cl     17
    6    1 H      34-58
    7   22 Ti     59-70

           -------------------------------------------------
          |                Calculation Setup                |
           -------------------------------------------------

          program call               : "c:\Users\Andre\Proyectos doctorado\kras-pancreatic-gC3N4-ai\tools\xtb\xtb-6.7.1\bin\xtb.exe" "c:\Users\Andre\Proyectos doctorado\mxene-glioblastoma-qsar-ai\calculations\gbm\Dacomitinib\Dacomitinib_Ti12C7O14_clean_complex.xyz" --gfn 2 --sp --chrg 0 --uhf 0 --etemp 500 --acc 1.0 --iterations 500 --norestart
          coordinate file            : c:\Users\Andre\Proyectos doctorado\mxene-glioblastoma-qsar-ai\calculations\gbm\Dacomitinib\Dacomitinib_Ti12C7O14_clean_complex.xyz
          omp threads                :                    16


molecular fragmentation (1/2 indicates fragments):
111111111111111111111111111111111111111111111111111111111122222222222222
2222222222222222222
# atoms in fragment 1/2:    58    33
 fragment masses (1/2) :      469.94      882.47
CMA distance (Bohr)    :  19.442
constraining FC (au)   :  0.0500

           -------------------------------------------------
          |                 G F N 2 - x T B                 |
           -------------------------------------------------

        Reference                      10.1021/acs.jctc.8b01176
      * Hamiltonian:
        H0-scaling (s, p, d)           1.850000    2.230000    2.230000
        zeta-weighting                 0.500000
      * Dispersion:
        s8                             2.700000
        a1                             0.520000
        a2                             5.000000
        s9                             5.000000
      * Repulsion:
        kExp                           1.500000    1.000000
        rExp                           1.000000
      * Coulomb:
        alpha                          2.000000
        third order                    shell-resolved
        anisotropic                    true
        a3                             3.000000
        a5                             4.000000
        cn-shift                       1.200000
        cn-exp                         4.000000
        max-rad                        5.000000


          ...................................................
          :                      SETUP                      :
          :.................................................:
          :  # basis functions                 367          :
          :  # atomic orbitals                 354          :
          :  # shells                          170          :
          :  # electrons                       332          :
          :  max. iterations                   500          :
          :  Hamiltonian                  GFN2-xTB          :
          :  restarted?                      false          :
          :  GBSA solvation                  false          :
          :  PC potential                    false          :
          :  electronic temp.          500.0000000     K    :
          :  accuracy                    1.0000000          :
          :  -> integral cutoff          0.2500000E+02      :
          :  -> integral neglect         0.1000000E-07      :
          :  -> SCF convergence          0.1000000E-05 Eh   :
          :  -> wf. convergence          0.1000000E-03 e    :
          :  Broyden damping             0.4000000          :
          :  net charge                          0          :
          :  unpaired electrons                  0          :
          ...................................................

 iter      E             dE          RMSdq      gap      omega  full diag
   1   -187.1381597 -0.187138E+03  0.131E+01    0.12       0.0  T
   2   -145.9484823  0.411897E+02  0.142E+01    0.14       1.0  T
   3     23.3019038  0.169250E+03  0.275E+01    0.02       1.0  T
   4   -149.9645623 -0.173266E+03  0.136E+01    0.02       1.0  T
   5    -24.1385366  0.125826E+03  0.190E+01    0.06       1.0  T
   6   -187.6248429 -0.163486E+03  0.809E+00    0.01       1.0  T
   7   -187.6429306 -0.180877E-01  0.618E+00    0.06       1.0  T
   8   -187.2570292  0.385901E+00  0.651E+00    0.10       1.0  T
   9   -182.6707571  0.458627E+01  0.703E+00    0.02       1.0  T
  10   -186.6824902 -0.401173E+01  0.651E+00    0.20       1.0  T
  11   -184.7896315  0.189286E+01  0.664E+00    0.12       1.0  T
  12   -186.4811192 -0.169149E+01  0.605E+00    0.08       1.0  T
  13   -188.2221230 -0.174100E+01  0.519E+00    0.04       1.0  T
  14   -186.8854606  0.133666E+01  0.476E+00    0.04       1.0  T
  15   -187.7158151 -0.830355E+00  0.421E+00    0.08       1.0  T
  16   -188.9083394 -0.119252E+01  0.349E+00    0.15       1.0  T
  17   -188.8806616  0.276778E-01  0.325E+00    0.09       1.0  T
  18   -188.8239787  0.566829E-01  0.286E+00    0.07       1.0  T
  19   -189.4451596 -0.621181E+00  0.248E+00    0.16       1.0  T
  20   -189.4942538 -0.490942E-01  0.239E+00    0.14       1.0  T
  21   -189.4934787  0.775134E-03  0.239E+00    0.14       1.0  T
  22   -189.5194167 -0.259380E-01  0.238E+00    0.12       1.0  T
  23   -189.4956430  0.237737E-01  0.255E+00    0.13       1.0  T
  24   -189.6555890 -0.159946E+00  0.211E+00    0.04       1.0  T
  25   -189.6973510 -0.417620E-01  0.181E+00    0.06       1.0  T
  26   -190.0071586 -0.309808E+00  0.162E+00    0.14       1.0  T
  27   -190.0173688 -0.102102E-01  0.157E+00    0.13       1.0  T
  28   -190.0384056 -0.210368E-01  0.141E+00    0.16       1.0  T
  29   -190.0618079 -0.234023E-01  0.113E+00    0.21       1.0  T
  30   -190.0825043 -0.206963E-01  0.890E-01    0.26       1.0  T
  31   -190.0985844 -0.160801E-01  0.669E-01    0.24       1.0  T
  32   -190.0959977  0.258675E-02  0.586E-01    0.16       1.0  T
  33   -190.0600718  0.359259E-01  0.589E-01    0.08       1.0  T
  34   -190.1071452 -0.470734E-01  0.475E-01    0.23       1.0  T
  35   -190.1097771 -0.263197E-02  0.396E-01    0.21       1.0  T
  36   -190.1130521 -0.327498E-02  0.384E-01    0.27       1.0  T
  37   -190.1135556 -0.503439E-03  0.383E-01    0.31       1.0  T
  38   -190.1148311 -0.127554E-02  0.368E-01    0.38       1.0  T
  39   -190.1165685 -0.173744E-02  0.336E-01    0.45       1.0  T
  40   -190.1185687 -0.200012E-02  0.285E-01    0.51       1.0  T
  41   -190.1204086 -0.183995E-02  0.222E-01    0.58       1.0  T
  42   -190.1215037 -0.109506E-02  0.172E-01    0.61       1.0  T
  43   -190.1220258 -0.522162E-03  0.124E-01    0.63       1.0  T
  44   -190.1224763 -0.450440E-03  0.908E-02    0.62       1.0  T
  45   -190.1226270 -0.150749E-03  0.720E-02    0.61       1.0  T
  46   -190.1228084 -0.181393E-03  0.488E-02    0.60       1.0  T
  47   -190.1228647 -0.562514E-04  0.412E-02    0.58       1.0  T
  48   -190.1229127 -0.479890E-04  0.434E-02    0.57       1.0  T
  49   -190.1229494 -0.367504E-04  0.368E-02    0.57       1.0  T
  50   -190.1229701 -0.206845E-04  0.266E-02    0.58       1.0  T
  51   -190.1229833 -0.132307E-04  0.188E-02    0.58       1.0  T
  52   -190.1229884 -0.510213E-05  0.148E-02    0.58       1.0  T
  53   -190.1229917 -0.331228E-05  0.131E-02    0.58       1.0  T
  54   -190.1229947 -0.296192E-05  0.116E-02    0.58       1.0  T
  55   -190.1229982 -0.344303E-05  0.994E-03    0.57       1.1  T
  56   -190.1230009 -0.270849E-05  0.885E-03    0.57       1.2  T
  57   -190.1230047 -0.380921E-05  0.733E-03    0.56       1.4  T
  58   -190.1230075 -0.287468E-05  0.603E-03    0.55       1.7  T
  59   -190.1230100 -0.248406E-05  0.438E-03    0.54       2.4  T
  60   -190.1230117 -0.167653E-05  0.275E-03    0.53       3.8  T
  61   -190.1230124 -0.658111E-06  0.205E-03    0.52       5.1  T
  62   -190.1230126 -0.220717E-06  0.160E-03    0.52       6.6  T
  63   -190.1230127 -0.903999E-07  0.129E-03    0.52       8.2  T
  64   -190.1230128 -0.107294E-06  0.845E-04    0.52      12.4  T
  65   -190.1230128 -0.572539E-07  0.545E-04    0.52      19.3  T

   *** convergence criteria satisfied after 65 iterations ***

         #    Occupation            Energy/Eh            Energy/eV
      -------------------------------------------------------------
         1        2.0000           -1.0483314             -28.5265
       ...           ...                  ...                  ...
       160        2.0000           -0.3517683              -9.5721
       161        2.0000           -0.3512113              -9.5569
       162        2.0000           -0.3460873              -9.4175
       163        2.0000           -0.3440029              -9.3608
       164        2.0000           -0.3389934              -9.2245
       165        2.0000           -0.3235195              -8.8034
       166        1.9945           -0.3088729              -8.4049 (HOMO)
       167        0.0044           -0.2898482              -7.8872 (LUMO)
       168        0.0004           -0.2862211              -7.7885
       169        0.0004           -0.2858858              -7.7793
       170        0.0002           -0.2846702              -7.7463
       171        0.0001           -0.2839465              -7.7266
       ...           ...                  ...                  ...
       354                         13.3256944             362.6106
      -------------------------------------------------------------
                  HL-Gap            0.0190247 Eh            0.5177 eV
             Fermi-level           -0.2995363 Eh           -8.1508 eV

 SCC (total)                   0 d,  0 h,  0 min,  6.343 sec
 SCC setup                      ...        0 min,  0.001 sec (  0.016%)
 Dispersion                     ...        0 min,  0.004 sec (  0.063%)
 classical contributions        ...        0 min,  0.000 sec (  0.000%)
 integral evaluation            ...        0 min,  0.013 sec (  0.205%)
 iterations                     ...        0 min,  6.289 sec ( 99.149%)
 molecular gradient             ...        0 min,  0.034 sec (  0.536%)
 printout                       ...        0 min,  0.002 sec (  0.032%)

         :::::::::::::::::::::::::::::::::::::::::::::::::::::
         ::                     SUMMARY                     ::
         :::::::::::::::::::::::::::::::::::::::::::::::::::::
         :: total energy            -188.225879367670 Eh    ::
         :: gradient norm              0.102845229508 Eh/a0 ::
         :: HOMO-LUMO gap              0.517688122380 eV    ::
         ::.................................................::
         :: SCC energy              -190.121203908148 Eh    ::
         :: -> isotropic ES            1.000772286841 Eh    ::
         :: -> anisotropic ES         -0.371334049635 Eh    ::
         :: -> anisotropic XC         -0.020052675952 Eh    ::
         :: -> dispersion             -0.151641103441 Eh    ::
         :: repulsion energy           1.895324540478 Eh    ::
         :: add. restraining           0.000000000000 Eh    ::
         :: total charge              -0.000000000011 e     ::
         :::::::::::::::::::::::::::::::::::::::::::::::::::::

           -------------------------------------------------
          |                Property Printout                |
           -------------------------------------------------

    * Orbital Energies and Occupations

         #    Occupation            Energy/Eh            Energy/eV
      -------------------------------------------------------------
         1        2.0000           -1.0483314             -28.5265
       ...           ...                  ...                  ...
       154        2.0000           -0.3780399             -10.2870
       155        2.0000           -0.3763483             -10.2410
       156        2.0000           -0.3689006             -10.0383
       157        2.0000           -0.3660439              -9.9606
       158        2.0000           -0.3617429              -9.8435
       159        2.0000           -0.3594127              -9.7801
       160        2.0000           -0.3517683              -9.5721
       161        2.0000           -0.3512113              -9.5569
       162        2.0000           -0.3460873              -9.4175
       163        2.0000           -0.3440029              -9.3608
       164        2.0000           -0.3389934              -9.2245
       165        2.0000           -0.3235195              -8.8034
       166        1.9945           -0.3088729              -8.4049 (HOMO)
       167        0.0044           -0.2898482              -7.8872 (LUMO)
       168        0.0004           -0.2862211              -7.7885
       169        0.0004           -0.2858858              -7.7793
       170        0.0002           -0.2846702              -7.7463
       171        0.0001           -0.2839465              -7.7266
       172        0.0000           -0.2801016              -7.6220
       173        0.0000           -0.2756793              -7.5016
       174        0.0000           -0.2748316              -7.4785
       175        0.0000           -0.2729560              -7.4275
       176                         -0.2727639              -7.4223
       177                         -0.2716181              -7.3911
       ...                                ...                  ...
       354                         13.3256944             362.6106
      -------------------------------------------------------------
                  HL-Gap            0.0190247 Eh            0.5177 eV
             Fermi-level           -0.2995363 Eh           -8.1508 eV

     #   Z          covCN         q      C6AA      α(0)
     1   6 C        3.640     0.029    20.447     6.503
     2   8 O        1.703    -0.276    18.577     5.819
     3   6 C        2.862     0.127    25.212     8.230
     4   6 C        2.929    -0.084    30.110     8.999
     5   6 C        2.985     0.104    25.686     8.314
     6   7 N        1.845    -0.270    27.849     7.821
     7   6 C        2.881     0.141    24.926     8.185
     8   7 N        1.831    -0.272    27.911     7.829
     9   6 C        2.889     0.160    24.542     8.122
    10   7 N        2.689    -0.161    24.478     7.348
    11   6 C        2.890     0.077    26.274     8.404
    12   6 C        2.917    -0.050    29.234     8.866
    13   6 C        2.912    -0.051    29.267     8.871
    14   6 C        2.806     0.156    24.619     8.129
    15   9 F        0.787    -0.206    11.301     3.971
    16   6 C        2.877     0.079    26.236     8.397
    17  17 Cl       0.962    -0.140   103.514    15.565
    18   6 C        2.955    -0.069    29.712     8.940
    19   6 C        2.979    -0.033    28.808     8.804
    20   6 C        2.915    -0.063    29.575     8.918
    21   6 C        2.895     0.058    26.690     8.470
    22   7 N        2.696    -0.156    24.368     7.332
    23   6 C        2.753     0.271    22.416     7.753
    24   8 O        0.857    -0.423    22.150     6.310
    25   6 C        2.896    -0.082    30.058     8.989
    26   6 C        2.892    -0.012    28.310     8.723
    27   6 C        3.755     0.007    20.510     6.457
    28   7 N        2.724    -0.179    24.867     7.406
    29   6 C        3.745     0.003    20.604     6.475
    30   6 C        3.800    -0.058    21.617     6.620
    31   6 C        3.802    -0.057    21.595     6.616
    32   6 C        3.801    -0.060    21.656     6.626
    33   6 C        3.752     0.011    20.443     6.448
    34   1 H        0.924     0.052     2.294     2.369
    35   1 H        0.924     0.064     2.150     2.293
    36   1 H        0.924     0.053     2.285     2.364
    37   1 H        0.925     0.065     2.147     2.291
    38   1 H        0.925     0.047     2.352     2.398
    39   1 H        0.860     0.189     1.161     1.688
    40   1 H        0.925     0.076     2.022     2.224
    41   1 H        0.925     0.076     2.019     2.222
    42   1 H        0.925     0.067     2.119     2.276
    43   1 H        0.925     0.085     1.926     2.170
    44   1 H        0.860     0.197     1.120     1.658
    45   1 H        0.925     0.038     2.475     2.460
    46   1 H        0.925     0.084     1.934     2.175
    47   1 H        0.924     0.019     2.756     2.596
    48   1 H        0.923     0.053     2.278     2.360
    49   1 H        0.924     0.026     2.637     2.540
    50   1 H        0.924     0.039     2.459     2.452
    51   1 H        0.924     0.028     2.619     2.531
    52   1 H        0.924     0.029     2.595     2.519
    53   1 H        0.924     0.029     2.600     2.522
    54   1 H        0.924     0.033     2.545     2.495
    55   1 H        0.924     0.043     2.409     2.427
    56   1 H        0.924     0.033     2.538     2.491
    57   1 H        0.924     0.032     2.559     2.502
    58   1 H        0.923     0.012     2.851     2.640
    59  22 Ti       3.637     1.050   101.796    24.488
    60  22 Ti       6.855     1.550    84.070    14.886
    61  22 Ti       3.227     1.048   102.642    24.739
    62  22 Ti       5.860     1.379    85.676    15.028
    63  22 Ti       5.627     1.121    88.211    15.249
    64  22 Ti       3.541     1.043   102.436    24.667
    65  22 Ti       2.352     0.881   202.652    34.856
    66  22 Ti       6.011     1.348    85.975    15.054
    67  22 Ti       3.414     1.008   103.051    24.779
    68  22 Ti       5.519     1.098    88.443    15.269
    69  22 Ti       5.687     1.188    87.536    15.190
    70  22 Ti       3.581     1.026   102.469    24.642
    71   6 C        2.246    -0.256    37.598     9.935
    72   6 C        2.142    -0.255    38.322    10.007
    73   6 C        2.248    -0.019    30.609     8.964
    74   6 C        1.838    -0.208    37.273     9.863
    75   6 C        1.894    -0.224    37.738     9.922
    76   6 C        1.821    -0.345    42.107    10.484
    77   6 C        2.631    -0.403    39.896    10.332
    78   8 O        1.554    -0.846    31.981     7.630
    79   8 O        1.464    -0.881    33.218     7.769
    80   8 O        1.557    -0.955    35.570     8.047
    81   8 O        1.523    -1.007    37.482     8.258
    82   8 O        1.523    -0.912    34.152     7.882
    83   8 O        1.458    -0.821    31.339     7.545
    84   8 O        1.455    -0.796    30.597     7.455
    85   8 O        0.727    -0.635    27.069     6.972
    86   8 O        1.453    -0.863    32.674     7.704
    87   8 O        1.476    -0.799    30.643     7.463
    88   8 O        1.603    -0.946    35.191     8.006
    89   8 O        1.547    -0.969    36.079     8.103
    90   8 O        1.700    -0.816    30.955     7.512
    91   8 O        1.453    -0.780    30.148     7.400

 Mol. C6AA /au·bohr⁶  :     195827.827825
 Mol. C8AA /au·bohr⁸  :    8192962.327922
 Mol. α(0) /au        :        745.023043


Wiberg/Mayer (AO) data.
largest (>0.10) Wiberg bond orders for each atom

 ---------------------------------------------------------------------------
     #   Z sym  total        # sym  WBO       # sym  WBO       # sym  WBO
 ---------------------------------------------------------------------------
     1   6 C    3.938 --    35 H    0.979    34 H    0.977    36 H    0.977
                             2 O    0.975
     2   8 O    2.218 --     3 C    1.058     1 C    0.975
     3   6 C    3.931 --     4 C    1.458    21 C    1.230     2 O    1.058
     4   6 C    3.979 --     3 C    1.458     5 C    1.282    37 H    0.961
                            20 C    0.104
     5   6 C    3.978 --     6 N    1.294     4 C    1.282    19 C    1.230
     6   7 N    3.035 --     7 C    1.481     5 C    1.294
     7   6 C    3.956 --     6 N    1.481     8 N    1.371    38 H    0.958
     8   7 N    3.043 --     9 C    1.400     7 C    1.371
     9   6 C    3.957 --     8 N    1.400    19 C    1.236    10 N    1.114
    10   7 N    3.415 --     9 C    1.114    11 C    1.104    39 H    0.923
    11   6 C    3.969 --    12 C    1.360    18 C    1.359    10 N    1.104
    12   6 C    3.978 --    13 C    1.448    11 C    1.360    40 H    0.963
    13   6 C    3.986 --    12 C    1.448    14 C    1.388    41 H    0.964
                            18 C    0.102
    14   6 C    3.883 --    13 C    1.388    16 C    1.350    15 F    0.971
    15   9 F    1.103 --    14 C    0.971
    16   6 C    3.925 --    18 C    1.409    14 C    1.350    17 Cl   0.995
    17  17 Cl   1.139 --    16 C    0.995
    18   6 C    3.973 --    16 C    1.409    11 C    1.359    42 H    0.963
                            13 C    0.102
    19   6 C    3.986 --    20 C    1.285     9 C    1.236     5 C    1.230
    20   6 C    3.975 --    21 C    1.462    19 C    1.285    43 H    0.955
                             4 C    0.104
    21   6 C    3.962 --    20 C    1.462     3 C    1.230    22 N    1.086
    22   7 N    3.491 --    23 C    1.174    21 C    1.086    44 H    0.924
                            24 O    0.159
    23   6 C    3.945 --    24 O    1.677    22 N    1.174    25 C    1.023
    24   8 O    2.010 --    23 C    1.677    22 N    0.159
    25   6 C    3.984 --    26 C    1.859    23 C    1.023    45 H    0.963
    26   6 C    3.966 --    25 C    1.859    27 C    1.027    46 H    0.958
    27   6 C    3.989 --    26 C    1.027    28 N    0.995    47 H    0.963
                            48 H    0.948
    28   7 N    3.107 --    29 C    0.996    33 C    0.995    27 C    0.995
    29   6 C    3.985 --    30 C    1.002    28 N    0.996    49 H    0.973
                            50 H    0.971
    30   6 C    3.998 --    31 C    1.007    29 C    1.002    51 H    0.979
                            52 H    0.977
    31   6 C    3.998 --    30 C    1.007    32 C    1.005    53 H    0.981
                            54 H    0.981
    32   6 C    3.996 --    33 C    1.008    31 C    1.005    55 H    0.979
                            56 H    0.977
    33   6 C    3.987 --    32 C    1.008    28 N    0.995    57 H    0.973
                            58 H    0.968
    34   1 H    0.997 --     1 C    0.977
    35   1 H    0.995 --     1 C    0.979
    36   1 H    0.997 --     1 C    0.977
    37   1 H    0.995 --     4 C    0.961
    38   1 H    0.997 --     7 C    0.958
    39   1 H    0.964 --    10 N    0.923
    40   1 H    0.994 --    12 C    0.963
    41   1 H    0.994 --    13 C    0.964
    42   1 H    0.995 --    18 C    0.963
    43   1 H    0.992 --    20 C    0.955
    44   1 H    0.961 --    22 N    0.924
    45   1 H    0.999 --    25 C    0.963
    46   1 H    0.993 --    26 C    0.958
    47   1 H    1.000 --    27 C    0.963
    48   1 H    0.996 --    27 C    0.948
    49   1 H    0.999 --    29 C    0.973
    50   1 H    0.998 --    29 C    0.971
    51   1 H    0.999 --    30 C    0.979
    52   1 H    0.999 --    30 C    0.977
    53   1 H    0.999 --    31 C    0.981
    54   1 H    0.999 --    31 C    0.981
    55   1 H    0.998 --    32 C    0.979
    56   1 H    0.998 --    32 C    0.977
    57   1 H    0.999 --    33 C    0.973
    58   1 H    1.000 --    33 C    0.968
    59  22 Ti   2.826 --    78 O    0.846    79 O    0.814    65 Ti   0.332
                            60 Ti   0.201    62 Ti   0.198
    60  22 Ti   3.855 --    79 O    0.751    82 O    0.747    80 O    0.693
                            81 O    0.604    59 Ti   0.201    61 Ti   0.189
                            64 Ti   0.138    63 Ti   0.137
    61  22 Ti   2.722 --    87 O    0.964    80 O    0.598    67 Ti   0.371
                            60 Ti   0.189    65 Ti   0.139    82 O    0.110
    62  22 Ti   3.920 --    83 O    0.938    71 C    0.721    78 O    0.706
                            81 O    0.562    64 Ti   0.211    59 Ti   0.198
                            68 Ti   0.178    88 O    0.124
    63  22 Ti   4.072 --    77 C    0.893    84 O    0.773    75 C    0.744
                            82 O    0.600    69 Ti   0.284    64 Ti   0.175
                            76 C    0.161    72 C    0.152    60 Ti   0.137
    64  22 Ti   2.654 --    84 O    0.975    83 O    0.710    62 Ti   0.211
                            63 Ti   0.175    60 Ti   0.138    79 O    0.123
    65  22 Ti   3.767 --    85 O    1.997    66 Ti   0.607    59 Ti   0.332
                            80 O    0.152    78 O    0.147    61 Ti   0.139
                            88 O    0.112
    66  22 Ti   4.017 --    88 O    0.801    86 O    0.754    89 O    0.715
                            65 Ti   0.607    90 O    0.196    67 Ti   0.166
                            70 Ti   0.148    68 Ti   0.141
    67  22 Ti   2.744 --    86 O    0.835    87 O    0.763    61 Ti   0.371
                            70 Ti   0.221    66 Ti   0.166    69 Ti   0.130
    68  22 Ti   4.008 --    76 C    1.054    74 C    0.727    90 O    0.616
                            88 O    0.442    77 C    0.230    70 Ti   0.199
                            62 Ti   0.178    71 C    0.156    66 Ti   0.141
    69  22 Ti   4.081 --    91 O    0.968    72 C    0.669    77 C    0.654
                            89 O    0.441    63 Ti   0.284    70 Ti   0.210
                            76 C    0.142    67 Ti   0.130    87 O    0.113
    70  22 Ti   2.791 --    90 O    0.900    91 O    0.734    67 Ti   0.221
                            69 Ti   0.210    68 Ti   0.199    66 Ti   0.148
    71   6 C    3.843 --    74 C    2.739    62 Ti   0.721    68 Ti   0.156
    72   6 C    3.781 --    75 C    2.732    69 Ti   0.669    63 Ti   0.152
    73   6 C    3.979 --    76 C    2.009    77 C    1.603
    74   6 C    3.707 --    71 C    2.739    68 Ti   0.727
    75   6 C    3.748 --    72 C    2.732    63 Ti   0.744
    76   6 C    3.766 --    73 C    2.009    68 Ti   1.054    63 Ti   0.161
                            69 Ti   0.142
    77   6 C    3.826 --    73 C    1.603    63 Ti   0.893    69 Ti   0.654
                            68 Ti   0.230
    78   8 O    1.935 --    59 Ti   0.846    62 Ti   0.706    65 Ti   0.147
    79   8 O    1.893 --    59 Ti   0.814    60 Ti   0.751    64 Ti   0.123
    80   8 O    1.784 --    60 Ti   0.693    61 Ti   0.598    65 Ti   0.152
    81   8 O    1.720 --    60 Ti   0.604    62 Ti   0.562
    82   8 O    1.848 --    60 Ti   0.747    63 Ti   0.600    61 Ti   0.110
    83   8 O    1.974 --    62 Ti   0.938    64 Ti   0.710
    84   8 O    2.018 --    64 Ti   0.975    63 Ti   0.773
    85   8 O    2.172 --    65 Ti   1.997
    86   8 O    1.912 --    67 Ti   0.835    66 Ti   0.754
    87   8 O    2.009 --    61 Ti   0.964    67 Ti   0.763    69 Ti   0.113
    88   8 O    1.799 --    66 Ti   0.801    68 Ti   0.442    62 Ti   0.124
                            65 Ti   0.112
    89   8 O    1.772 --    66 Ti   0.715    69 Ti   0.441
    90   8 O    1.987 --    70 Ti   0.900    68 Ti   0.616    66 Ti   0.196
    91   8 O    2.033 --    69 Ti   0.968    70 Ti   0.734
 ---------------------------------------------------------------------------

Topologies differ in total number of bonds
Writing topology from bond orders to xtbtopo.mol

molecular dipole:
                 x           y           z       tot (Debye)
 q only:        3.069      -2.986      -0.282
   full:        2.337      -3.283       1.075      10.601
molecular quadrupole (traceless):
                xx          xy          yy          xz          yz          zz
 q only:      -57.873      19.280     -18.046      29.153     -63.507      75.919
  q+dip:      -55.598       5.657     -40.941      82.729     -85.810      96.539
   full:      -55.331       7.318     -42.233      78.678     -80.940      97.564


           -------------------------------------------------
          | TOTAL ENERGY             -188.225879367670 Eh   |
          | GRADIENT NORM               0.102845229508 Eh/α |
          | HOMO-LUMO GAP               0.517688122380 eV   |
           -------------------------------------------------

------------------------------------------------------------------------
 * finished run on 2026/08/31 at 21:55:24.758     
------------------------------------------------------------------------
 total:
 * wall-time:     0 d,  0 h,  0 min,  6.412 sec
 *  cpu-time:     0 d,  0 h,  0 min, 15.922 sec
 * ratio c/w:     2.483 speedup
 SCF:
 * wall-time:     0 d,  0 h,  0 min,  6.346 sec
 *  cpu-time:     0 d,  0 h,  0 min, 15.797 sec
 * ratio c/w:     2.489 speedup

normal termination of xtb
