33
 energy: -92.026933348309 gnorm: 0.000307952615 xtb: 6.7.1pre (5071a88)
Ti          -2.14186646966827       -3.00881767671245        2.11974807900448
Ti           0.28899088321719       -1.69475866997425        1.43242541382983
Ti           1.90309755707905       -3.06774909716924       -0.72932184379836
Ti          -2.52150239774899       -0.25192750250800        1.30368727134521
Ti           2.14204991972362        0.49953261128928        2.20443427171821
Ti          -0.68144789293913        0.18963502970638        3.68122970116810
Ti          -2.03676954665166       -3.07774019293965       -1.20051185656039
Ti          -0.60533958178932       -0.77090020801493       -2.03513246630215
Ti           1.94548833050055       -1.58731658332600       -3.41239962157809
Ti          -1.87817000181679        1.74657329868567       -1.24002952508656
Ti           2.41251213587300        0.45423133863889       -0.77424685666791
Ti           0.81774210428049        1.83845215521746       -2.94000382949728
C           -3.67841380344390        1.28139778952112        0.60073747516770
C            4.12819257113462        0.48284679920522        0.38729303133571
C            0.45547888952759        2.26720187679912        0.34969479853395
C           -3.66670854767102        2.11883381508326       -0.31392008120022
C            4.11596215639934        0.63223860723243        1.62135367870464
C           -0.63516733015210        2.74104561702515       -0.11892053898799
C            1.63007234345323        1.78099628835404        0.73422385148767
O           -3.09345576446705       -1.95690687864566        1.03794909201878
O           -0.48724974583808       -2.60584933574909        2.70120339559884
O            0.31407877686119       -2.88888950980439        0.14500074858982
O           -0.80078477168929       -0.43593399479531        0.97122673451764
O            1.90286453615047       -1.15833143344631        1.46944927929632
O           -2.32267255283179       -0.11387803574869        3.02480001323033
O            1.01378627210150        0.44159823734178        3.56876063297591
O           -1.77201905014346       -4.58790499369252       -1.65280982471073
O            0.19060491876740       -1.18918864665476       -3.53403013735509
O            2.83141966147540       -2.17024832333999       -1.91804215325606
O           -2.05455767066434       -0.22444457843651       -1.33750505535425
O            0.76851083170122       -0.39057427286466       -1.06366357816658
O           -0.90003940936914        1.64931338934390       -2.81856479420775
O            2.41531264863828        1.35746308037206       -2.26411530578933
