      -----------------------------------------------------------      
     |                   =====================                   |     
     |                           x T B                           |     
     |                   =====================                   |     
     |                         S. Grimme                         |     
     |          Mulliken Center for Theoretical Chemistry        |     
     |                    University of Bonn                     |     
      -----------------------------------------------------------      

   * xtb version 6.7.1pre (5071a88) compiled by 'Marcel@Raven' on 2024-07-23

   xtb is free software: you can redistribute it and/or modify it under
   the terms of the GNU Lesser General Public License as published by
   the Free Software Foundation, either version 3 of the License, or
   (at your option) any later version.
   
   xtb is distributed in the hope that it will be useful,
   but WITHOUT ANY WARRANTY; without even the implied warranty of
   MERCHANTABILITY or FITNESS FOR A PARTICULAR PURPOSE.  See the
   GNU Lesser General Public License for more details.
   
   Cite this work as:
   * C. Bannwarth, E. Caldeweyher, S. Ehlert, A. Hansen, P. Pracht,
     J. Seibert, S. Spicher, S. Grimme, WIREs Comput. Mol. Sci., 2020, 11,
     e01493. DOI: 10.1002/wcms.1493
   
   for GFN2-xTB:
   * C. Bannwarth, S. Ehlert and S. Grimme., J. Chem. Theory Comput., 2019,
     15, 1652-1671. DOI: 10.1021/acs.jctc.8b01176
   for GFN1-xTB:
   * S. Grimme, C. Bannwarth, P. Shushkov, J. Chem. Theory Comput., 2017,
     13, 1989-2009. DOI: 10.1021/acs.jctc.7b00118
   for GFN0-xTB:
   * P. Pracht, E. Caldeweyher, S. Ehlert, S. Grimme, ChemRxiv, 2019, preprint.
     DOI: 10.26434/chemrxiv.8326202.v1
   for GFN-FF:
   * S. Spicher and S. Grimme, Angew. Chem. Int. Ed., 2020, 59, 15665-15673.
     DOI: 10.1002/anie.202004239
   
   for ALPB and GBSA implicit solvation:
   * S. Ehlert, M. Stahn, S. Spicher, S. Grimme, J. Chem. Theory Comput.,
     2021, 17, 4250-4261. DOI: 10.1021/acs.jctc.1c00471
   
   for ddCOSMO and CPCM-X implicit solvation:
   * M. Stahn, S. Ehlert, S. Grimme, J. Phys. Chem. A,
     2023, XX, XXXX-XXXX. DOI: 10.1021/acs.jpca.3c04382
   
   for DFT-D4:
   * E. Caldeweyher, C. Bannwarth and S. Grimme, J. Chem. Phys., 2017,
     147, 034112. DOI: 10.1063/1.4993215
   * E. Caldeweyher, S. Ehlert, A. Hansen, H. Neugebauer, S. Spicher,
     C. Bannwarth and S. Grimme, J. Chem. Phys., 2019, 150, 154122.
     DOI: 10.1063/1.5090222
   * E. Caldeweyher, J.-M. Mewes, S. Ehlert and S. Grimme, Phys. Chem. Chem. Phys.
     2020, 22, 8499-8512. DOI: 10.1039/D0CP00502A
   
   for sTDA-xTB:
   * S. Grimme and C. Bannwarth, J. Chem. Phys., 2016, 145, 054103.
     DOI: 10.1063/1.4959605
   
   in the mass-spec context:
   * V. Asgeirsson, C. Bauer and S. Grimme, Chem. Sci., 2017, 8, 4879.
     DOI: 10.1039/c7sc00601b
   * J. Koopman and S. Grimme, ACS Omega 2019, 4, 12, 15120-15133.
     DOI: 10.1021/acsomega.9b02011
   
   for metadynamics refer to:
   * S. Grimme, J. Chem. Theory Comput., 2019, 155, 2847-2862
     DOI: 10.1021/acs.jctc.9b00143
   
   for SPH calculations refer to:
   * S. Spicher and S. Grimme, J. Chem. Theory Comput., 2021, 17, 1701-1714
     DOI: 10.1021/acs.jctc.0c01306
   
   for ONIOM refer to:
   * C. Plett, A. Katbashev, S. Ehlert, S. Grimme, M. Bursch,
     Phys. Chem. Chem. Phys., 2023, 25, 17860-17868. DOI: 10.1039/D3CP02178E
   
   for DIPRO refer to:
   * J. Kohn, N. Gildemeister, S. Grimme, D. Fazzi, A. Hansen,
     J. Chem. Phys., 2023, just accepted.
   
   for PTB refer to:
   * S. Grimme, M. Mueller, A. Hansen, J. Chem. Phys., 2023, 158, 124111.
     DOI: 10.1063/5.0137838
   
   with help from (in alphabetical order)
   P. Atkinson, C. Bannwarth, F. Bohle, G. Brandenburg, E. Caldeweyher
   M. Checinski, S. Dohm, S. Ehlert, S. Ehrlich, I. Gerasimov, C. Hölzer
   A. Katbashev, J. Kohn, J. Koopman, C. Lavigne, S. Lehtola, F. März, M. Müller,
   F. Musil, H. Neugebauer, J. Pisarek, C. Plett, P. Pracht, F. Pultar,
   J. Seibert, P. Shushkov, S. Spicher, M. Stahn, M. Steiner, T. Strunk,
   J. Stückrath, T. Rose, and J. Unsleber
   
 * started run on 2026/08/31 at 20:54:36.819     
   ID    Z sym.   atoms
    1   22 Ti     1-12
    2    6 C      13-19
    3    8 O      20-33

           -------------------------------------------------
          |                Calculation Setup                |
           -------------------------------------------------

          program call               : "c:\Users\Andre\Proyectos doctorado\kras-pancreatic-gC3N4-ai\tools\xtb\xtb-6.7.1\bin\xtb.exe" "c:\Users\Andre\Proyectos doctorado\mxene-glioblastoma-qsar-ai\calculations\gbm\Ti3C2O2_pristine.xyz" --gfn 2 --sp --chrg 0 --uhf 0 --iterations 500 --norestart
          coordinate file            : c:\Users\Andre\Proyectos doctorado\mxene-glioblastoma-qsar-ai\calculations\gbm\Ti3C2O2_pristine.xyz
          omp threads                :                    16


molecular fragmentation (1/2 indicates fragments):
111111111111221221122222222222222
# atoms in fragment 1/2:    15    18
 fragment masses (1/2) :      610.43      272.03
CMA distance (Bohr)    :   0.505
constraining FC (au)   :  0.0500

           -------------------------------------------------
          |                 G F N 2 - x T B                 |
           -------------------------------------------------

        Reference                      10.1021/acs.jctc.8b01176
      * Hamiltonian:
        H0-scaling (s, p, d)           1.850000    2.230000    2.230000
        zeta-weighting                 0.500000
      * Dispersion:
        s8                             2.700000
        a1                             0.520000
        a2                             5.000000
        s9                             5.000000
      * Repulsion:
        kExp                           1.500000    1.000000
        rExp                           1.000000
      * Coulomb:
        alpha                          2.000000
        third order                    shell-resolved
        anisotropic                    true
        a3                             3.000000
        a5                             4.000000
        cn-shift                       1.200000
        cn-exp                         4.000000
        max-rad                        5.000000


          ...................................................
          :                      SETUP                      :
          :.................................................:
          :  # basis functions                 204          :
          :  # atomic orbitals                 192          :
          :  # shells                           78          :
          :  # electrons                       160          :
          :  max. iterations                   500          :
          :  Hamiltonian                  GFN2-xTB          :
          :  restarted?                      false          :
          :  GBSA solvation                  false          :
          :  PC potential                    false          :
          :  electronic temp.          300.0000000     K    :
          :  accuracy                    1.0000000          :
          :  -> integral cutoff          0.2500000E+02      :
          :  -> integral neglect         0.1000000E-07      :
          :  -> SCF convergence          0.1000000E-05 Eh   :
          :  -> wf. convergence          0.1000000E-03 e    :
          :  Broyden damping             0.4000000          :
          :  net charge                          0          :
          :  unpaired electrons                  0          :
          ...................................................

 iter      E             dE          RMSdq      gap      omega  full diag
   1    -88.9494307 -0.889494E+02  0.180E+01    0.09       0.0  T
   2    -70.3446585  0.186048E+02  0.225E+01    0.01       1.0  T
   3    -42.5079982  0.278367E+02  0.295E+01    0.04       1.0  T
   4    -83.3340854 -0.408261E+02  0.135E+01    0.02       1.0  T
   5    -87.0063140 -0.367223E+01  0.133E+01    0.40       1.0  T
   6    -86.1568977  0.849416E+00  0.975E+00    0.08       1.0  T
   7    -89.5099921 -0.335309E+01  0.937E+00    0.26       1.0  T
   8    -90.9552257 -0.144523E+01  0.724E+00    0.22       1.0  T
   9    -91.1559324 -0.200707E+00  0.584E+00    0.09       1.0  T
  10    -91.3823208 -0.226388E+00  0.437E+00    0.18       1.0  T
  11    -91.5485081 -0.166187E+00  0.366E+00    0.01       1.0  T
  12    -91.5643550 -0.158469E-01  0.275E+00    0.24       1.0  T
  13    -91.6254482 -0.610933E-01  0.182E+00    0.12       1.0  T
  14    -91.7160252 -0.905770E-01  0.121E+00    0.19       1.0  T
  15    -91.7186994 -0.267423E-02  0.787E-01    0.17       1.0  T
  16    -91.7186798  0.196162E-04  0.648E-01    0.19       1.0  T
  17    -91.7261680 -0.748826E-02  0.351E-01    0.16       1.0  T
  18    -91.7255721  0.595902E-03  0.308E-01    0.14       1.0  T
  19    -91.7276124 -0.204026E-02  0.216E-01    0.15       1.0  T
  20    -91.7245309  0.308150E-02  0.319E-01    0.15       1.0  T
  21    -91.7274527 -0.292176E-02  0.155E-01    0.15       1.0  T
  22    -91.7275128 -0.601754E-04  0.141E-01    0.16       1.0  T
  23    -91.7275209 -0.801690E-05  0.922E-02    0.15       1.0  T
  24    -91.7277587 -0.237790E-03  0.684E-02    0.15       1.0  T
  25    -91.7279077 -0.149071E-03  0.546E-02    0.15       1.0  T
  26    -91.7279444 -0.367199E-04  0.453E-02    0.15       1.0  T
  27    -91.7279884 -0.439635E-04  0.314E-02    0.15       1.0  T
  28    -91.7279933 -0.489160E-05  0.233E-02    0.15       1.0  T
  29    -91.7280018 -0.854831E-05  0.118E-02    0.15       1.5  T
  30    -91.7280062 -0.430955E-05  0.667E-03    0.15       2.6  T
  31    -91.7280054  0.707312E-06  0.619E-03    0.15       2.8  T
  32    -91.7280062 -0.768441E-06  0.318E-03    0.15       5.5  T
  33    -91.7280065 -0.312150E-06  0.183E-03    0.15       9.5  T
  34    -91.7280066 -0.518732E-07  0.134E-03    0.15      13.0  T
  35    -91.7280066 -0.620697E-07  0.666E-04    0.15      26.1  T
  36    -91.7280066 -0.381480E-08  0.273E-04    0.15      63.8  T

   *** convergence criteria satisfied after 36 iterations ***

         #    Occupation            Energy/Eh            Energy/eV
      -------------------------------------------------------------
         1        2.0000           -0.9448634             -25.7110
       ...           ...                  ...                  ...
        74        2.0000           -0.4358959             -11.8613
        75        2.0000           -0.4326597             -11.7733
        76        2.0000           -0.4279629             -11.6455
        77        2.0000           -0.4231371             -11.5141
        78        2.0000           -0.4219652             -11.4823
        79        1.9997           -0.4183208             -11.3831
        80        1.8838           -0.4127302             -11.2310 (HOMO)
        81        0.0865           -0.4071414             -11.0789 (LUMO)
        82        0.0182           -0.4056275             -11.0377
        83        0.0119           -0.4052208             -11.0266
        84                         -0.3892788             -10.5928
        85                         -0.3851758             -10.4812
       ...                                ...                  ...
       192                         17.9567536             488.6281
      -------------------------------------------------------------
                  HL-Gap            0.0055888 Eh            0.1521 eV
             Fermi-level           -0.4100837 Eh          -11.1589 eV

 SCC (total)                   0 d,  0 h,  0 min,  0.278 sec
 SCC setup                      ...        0 min,  0.001 sec (  0.360%)
 Dispersion                     ...        0 min,  0.001 sec (  0.360%)
 classical contributions        ...        0 min,  0.000 sec (  0.000%)
 integral evaluation            ...        0 min,  0.004 sec (  1.439%)
 iterations                     ...        0 min,  0.264 sec ( 94.964%)
 molecular gradient             ...        0 min,  0.007 sec (  2.518%)
 printout                       ...        0 min,  0.001 sec (  0.360%)

         :::::::::::::::::::::::::::::::::::::::::::::::::::::
         ::                     SUMMARY                     ::
         :::::::::::::::::::::::::::::::::::::::::::::::::::::
         :: total energy             -86.917269216914 Eh    ::
         :: gradient norm              5.391634065518 Eh/a0 ::
         :: HOMO-LUMO gap              0.152078266437 eV    ::
         ::.................................................::
         :: SCC energy               -91.726533121590 Eh    ::
         :: -> isotropic ES            0.710452609558 Eh    ::
         :: -> anisotropic ES          0.041656271344 Eh    ::
         :: -> anisotropic XC         -0.083981682777 Eh    ::
         :: -> dispersion             -0.084833475242 Eh    ::
         :: repulsion energy           4.809263904677 Eh    ::
         :: add. restraining           0.000000000000 Eh    ::
         :: total charge              -0.000000000000 e     ::
         :::::::::::::::::::::::::::::::::::::::::::::::::::::

           -------------------------------------------------
          |                Property Printout                |
           -------------------------------------------------

    * Orbital Energies and Occupations

         #    Occupation            Energy/Eh            Energy/eV
      -------------------------------------------------------------
         1        2.0000           -0.9448634             -25.7110
       ...           ...                  ...                  ...
        68        2.0000           -0.4455809             -12.1249
        69        2.0000           -0.4434173             -12.0660
        70        2.0000           -0.4422254             -12.0336
        71        2.0000           -0.4384857             -11.9318
        72        2.0000           -0.4376263             -11.9084
        73        2.0000           -0.4373638             -11.9013
        74        2.0000           -0.4358959             -11.8613
        75        2.0000           -0.4326597             -11.7733
        76        2.0000           -0.4279629             -11.6455
        77        2.0000           -0.4231371             -11.5141
        78        2.0000           -0.4219652             -11.4823
        79        1.9997           -0.4183208             -11.3831
        80        1.8838           -0.4127302             -11.2310 (HOMO)
        81        0.0865           -0.4071414             -11.0789 (LUMO)
        82        0.0182           -0.4056275             -11.0377
        83        0.0119           -0.4052208             -11.0266
        84                         -0.3892788             -10.5928
        85                         -0.3851758             -10.4812
        86                         -0.3818944             -10.3919
        87                         -0.3805614             -10.3556
        88                         -0.3724203             -10.1341
        89                         -0.3699284             -10.0663
        90                         -0.3693441             -10.0504
        91                         -0.3691415             -10.0449
       ...                                ...                  ...
       192                         17.9567536             488.6281
      -------------------------------------------------------------
                  HL-Gap            0.0055888 Eh            0.1521 eV
             Fermi-level           -0.4100837 Eh          -11.1589 eV

     #   Z          covCN         q      C6AA      α(0)
     1  22 Ti       4.151     0.840    90.889    16.160
     2  22 Ti       6.350     0.788    91.648    15.543
     3  22 Ti       4.151     0.840    90.889    16.160
     4  22 Ti       7.449     1.067    88.750    15.295
     5  22 Ti       7.449     1.067    88.750    15.295
     6  22 Ti       6.519     1.095    88.471    15.271
     7  22 Ti       4.151     0.840    90.889    16.160
     8  22 Ti       6.350     0.788    91.648    15.543
     9  22 Ti       4.151     0.840    90.889    16.160
    10  22 Ti       7.449     1.067    88.750    15.295
    11  22 Ti       7.449     1.067    88.750    15.295
    12  22 Ti       6.519     1.095    88.471    15.271
    13   6 C        5.128    -0.755    40.677     9.058
    14   6 C        5.128    -0.755    40.677     9.058
    15   6 C        5.649    -0.591    34.732     8.370
    16   6 C        2.445    -0.386    39.845    10.299
    17   6 C        2.445    -0.386    39.845    10.299
    18   6 C        2.445    -0.318    37.449     9.985
    19   6 C        2.445    -0.318    37.449     9.985
    20   8 O        0.728    -0.520    24.293     6.605
    21   8 O        0.729    -0.558    25.185     6.725
    22   8 O        0.728    -0.520    24.293     6.605
    23   8 O        0.729    -0.632    27.002     6.963
    24   8 O        0.729    -0.632    27.002     6.963
    25   8 O        0.753    -0.540    24.744     6.667
    26   8 O        0.753    -0.540    24.744     6.667
    27   8 O        0.728    -0.520    24.293     6.605
    28   8 O        0.729    -0.558    25.185     6.725
    29   8 O        0.728    -0.520    24.293     6.605
    30   8 O        0.729    -0.632    27.002     6.963
    31   8 O        0.729    -0.632    27.002     6.963
    32   8 O        0.753    -0.540    24.744     6.667
    33   8 O        0.753    -0.540    24.744     6.667

 Mol. C6AA /au·bohr⁶  :      51484.534408
 Mol. C8AA /au·bohr⁸  :    3185284.832743
 Mol. α(0) /au        :        348.889881


Wiberg/Mayer (AO) data.
largest (>0.10) Wiberg bond orders for each atom

 ---------------------------------------------------------------------------
     #   Z sym  total        # sym  WBO       # sym  WBO       # sym  WBO
 ---------------------------------------------------------------------------
     1  22 Ti   4.005 --    20 O    2.030     7 Ti   0.585     2 Ti   0.316
                            13 C    0.284     4 Ti   0.191    16 C    0.181
                             8 Ti   0.107
     2  22 Ti   4.438 --    21 O    1.929     8 Ti   0.356     3 Ti   0.316
                             1 Ti   0.316    14 C    0.256    13 C    0.256
                             5 Ti   0.123     4 Ti   0.123     9 Ti   0.107
                             7 Ti   0.107    17 C    0.101    16 C    0.101
     3  22 Ti   4.005 --    22 O    2.030     9 Ti   0.585     2 Ti   0.316
                            14 C    0.284     5 Ti   0.191    17 C    0.181
                             8 Ti   0.107
     4  22 Ti   4.408 --    23 O    1.766    16 C    0.635    13 C    0.497
                            25 O    0.235     1 Ti   0.191    10 Ti   0.167
                            15 C    0.157     6 Ti   0.151     2 Ti   0.123
     5  22 Ti   4.408 --    24 O    1.766    17 C    0.635    14 C    0.497
                            26 O    0.235     3 Ti   0.191    11 Ti   0.167
                            15 C    0.157     6 Ti   0.151     2 Ti   0.123
     6  22 Ti   4.416 --    25 O    1.119    26 O    1.119    15 C    0.485
                            19 C    0.417    18 C    0.417    12 Ti   0.258
                             5 Ti   0.151     4 Ti   0.151
     7  22 Ti   4.005 --    27 O    2.030     1 Ti   0.585     8 Ti   0.316
                            13 C    0.284    10 Ti   0.191    16 C    0.181
                             2 Ti   0.107
     8  22 Ti   4.438 --    28 O    1.929     2 Ti   0.356     9 Ti   0.316
                             7 Ti   0.316    14 C    0.256    13 C    0.256
                            11 Ti   0.123    10 Ti   0.123     3 Ti   0.107
                             1 Ti   0.107    17 C    0.101    16 C    0.101
     9  22 Ti   4.005 --    29 O    2.030     3 Ti   0.585     8 Ti   0.316
                            14 C    0.284    11 Ti   0.191    17 C    0.181
                             2 Ti   0.107
    10  22 Ti   4.408 --    30 O    1.766    16 C    0.635    13 C    0.497
                            32 O    0.235     7 Ti   0.191     4 Ti   0.167
                            15 C    0.157    12 Ti   0.151     8 Ti   0.123
    11  22 Ti   4.408 --    31 O    1.766    17 C    0.635    14 C    0.497
                            33 O    0.235     9 Ti   0.191     5 Ti   0.167
                            15 C    0.157    12 Ti   0.151     8 Ti   0.123
    12  22 Ti   4.416 --    32 O    1.119    33 O    1.119    15 C    0.485
                            19 C    0.417    18 C    0.417     6 Ti   0.258
                            11 Ti   0.151    10 Ti   0.151
    13   6 C    3.667 --    16 C    0.877    10 Ti   0.497     4 Ti   0.497
                             7 Ti   0.284     1 Ti   0.284     8 Ti   0.256
                             2 Ti   0.256
    14   6 C    3.667 --    17 C    0.877    11 Ti   0.497     5 Ti   0.497
                             9 Ti   0.284     3 Ti   0.284     8 Ti   0.256
                             2 Ti   0.256
    15   6 C    3.802 --    19 C    0.822    18 C    0.822    12 Ti   0.485
                             6 Ti   0.485    11 Ti   0.157     5 Ti   0.157
                            10 Ti   0.157     4 Ti   0.157
    16   6 C    3.348 --    13 C    0.877    10 Ti   0.635     4 Ti   0.635
                            18 C    0.268     7 Ti   0.181     1 Ti   0.181
                             8 Ti   0.101     2 Ti   0.101
    17   6 C    3.348 --    14 C    0.877    11 Ti   0.635     5 Ti   0.635
                            19 C    0.268     9 Ti   0.181     3 Ti   0.181
                             8 Ti   0.101     2 Ti   0.101
    18   6 C    3.370 --    15 C    0.822    12 Ti   0.417     6 Ti   0.417
                            25 O    0.390    32 O    0.390    16 C    0.268
                            19 C    0.150
    19   6 C    3.370 --    15 C    0.822    12 Ti   0.417     6 Ti   0.417
                            26 O    0.390    33 O    0.390    17 C    0.268
                            18 C    0.150
    20   8 O    2.287 --     1 Ti   2.030
    21   8 O    2.252 --     2 Ti   1.929
    22   8 O    2.287 --     3 Ti   2.030
    23   8 O    2.153 --     4 Ti   1.766
    24   8 O    2.153 --     5 Ti   1.766
    25   8 O    2.189 --     6 Ti   1.119    18 C    0.390     4 Ti   0.235
                            32 O    0.140
    26   8 O    2.189 --     6 Ti   1.119    19 C    0.390     5 Ti   0.235
                            33 O    0.140
    27   8 O    2.287 --     7 Ti   2.030
    28   8 O    2.252 --     8 Ti   1.929
    29   8 O    2.287 --     9 Ti   2.030
    30   8 O    2.153 --    10 Ti   1.766
    31   8 O    2.153 --    11 Ti   1.766
    32   8 O    2.189 --    12 Ti   1.119    18 C    0.390    10 Ti   0.235
                            25 O    0.140
    33   8 O    2.189 --    12 Ti   1.119    19 C    0.390    11 Ti   0.235
                            26 O    0.140
 ---------------------------------------------------------------------------

Topologies differ in total number of bonds
Writing topology from bond orders to xtbtopo.mol

molecular dipole:
                 x           y           z       tot (Debye)
 q only:       -0.000      -9.261       0.000
   full:       -0.000      -4.710       0.000      11.973
molecular quadrupole (traceless):
                xx          xy          yy          xz          yz          zz
 q only:       41.049      -0.000      69.583      -0.000      -0.000    -110.633
  q+dip:       44.007       0.000      76.268      -0.000      -0.000    -120.275
   full:       42.322       0.000      82.759      -0.000      -0.000    -125.082


           -------------------------------------------------
          | TOTAL ENERGY              -86.917269216914 Eh   |
          | GRADIENT NORM               5.391634065518 Eh/α |
          | HOMO-LUMO GAP               0.152078266437 eV   |
           -------------------------------------------------

------------------------------------------------------------------------
 * finished run on 2026/08/31 at 20:54:37.130     
------------------------------------------------------------------------
 total:
 * wall-time:     0 d,  0 h,  0 min,  0.309 sec
 *  cpu-time:     0 d,  0 h,  0 min,  2.719 sec
 * ratio c/w:     8.799 speedup
 SCF:
 * wall-time:     0 d,  0 h,  0 min,  0.278 sec
 *  cpu-time:     0 d,  0 h,  0 min,  2.594 sec
 * ratio c/w:     9.330 speedup

normal termination of xtb
