      -----------------------------------------------------------      
     |                   =====================                   |     
     |                           x T B                           |     
     |                   =====================                   |     
     |                         S. Grimme                         |     
     |          Mulliken Center for Theoretical Chemistry        |     
     |                    University of Bonn                     |     
      -----------------------------------------------------------      

   * xtb version 6.7.1pre (5071a88) compiled by 'Marcel@Raven' on 2024-07-23

   xtb is free software: you can redistribute it and/or modify it under
   the terms of the GNU Lesser General Public License as published by
   the Free Software Foundation, either version 3 of the License, or
   (at your option) any later version.
   
   xtb is distributed in the hope that it will be useful,
   but WITHOUT ANY WARRANTY; without even the implied warranty of
   MERCHANTABILITY or FITNESS FOR A PARTICULAR PURPOSE.  See the
   GNU Lesser General Public License for more details.
   
   Cite this work as:
   * C. Bannwarth, E. Caldeweyher, S. Ehlert, A. Hansen, P. Pracht,
     J. Seibert, S. Spicher, S. Grimme, WIREs Comput. Mol. Sci., 2020, 11,
     e01493. DOI: 10.1002/wcms.1493
   
   for GFN2-xTB:
   * C. Bannwarth, S. Ehlert and S. Grimme., J. Chem. Theory Comput., 2019,
     15, 1652-1671. DOI: 10.1021/acs.jctc.8b01176
   for GFN1-xTB:
   * S. Grimme, C. Bannwarth, P. Shushkov, J. Chem. Theory Comput., 2017,
     13, 1989-2009. DOI: 10.1021/acs.jctc.7b00118
   for GFN0-xTB:
   * P. Pracht, E. Caldeweyher, S. Ehlert, S. Grimme, ChemRxiv, 2019, preprint.
     DOI: 10.26434/chemrxiv.8326202.v1
   for GFN-FF:
   * S. Spicher and S. Grimme, Angew. Chem. Int. Ed., 2020, 59, 15665-15673.
     DOI: 10.1002/anie.202004239
   
   for ALPB and GBSA implicit solvation:
   * S. Ehlert, M. Stahn, S. Spicher, S. Grimme, J. Chem. Theory Comput.,
     2021, 17, 4250-4261. DOI: 10.1021/acs.jctc.1c00471
   
   for ddCOSMO and CPCM-X implicit solvation:
   * M. Stahn, S. Ehlert, S. Grimme, J. Phys. Chem. A,
     2023, XX, XXXX-XXXX. DOI: 10.1021/acs.jpca.3c04382
   
   for DFT-D4:
   * E. Caldeweyher, C. Bannwarth and S. Grimme, J. Chem. Phys., 2017,
     147, 034112. DOI: 10.1063/1.4993215
   * E. Caldeweyher, S. Ehlert, A. Hansen, H. Neugebauer, S. Spicher,
     C. Bannwarth and S. Grimme, J. Chem. Phys., 2019, 150, 154122.
     DOI: 10.1063/1.5090222
   * E. Caldeweyher, J.-M. Mewes, S. Ehlert and S. Grimme, Phys. Chem. Chem. Phys.
     2020, 22, 8499-8512. DOI: 10.1039/D0CP00502A
   
   for sTDA-xTB:
   * S. Grimme and C. Bannwarth, J. Chem. Phys., 2016, 145, 054103.
     DOI: 10.1063/1.4959605
   
   in the mass-spec context:
   * V. Asgeirsson, C. Bauer and S. Grimme, Chem. Sci., 2017, 8, 4879.
     DOI: 10.1039/c7sc00601b
   * J. Koopman and S. Grimme, ACS Omega 2019, 4, 12, 15120-15133.
     DOI: 10.1021/acsomega.9b02011
   
   for metadynamics refer to:
   * S. Grimme, J. Chem. Theory Comput., 2019, 155, 2847-2862
     DOI: 10.1021/acs.jctc.9b00143
   
   for SPH calculations refer to:
   * S. Spicher and S. Grimme, J. Chem. Theory Comput., 2021, 17, 1701-1714
     DOI: 10.1021/acs.jctc.0c01306
   
   for ONIOM refer to:
   * C. Plett, A. Katbashev, S. Ehlert, S. Grimme, M. Bursch,
     Phys. Chem. Chem. Phys., 2023, 25, 17860-17868. DOI: 10.1039/D3CP02178E
   
   for DIPRO refer to:
   * J. Kohn, N. Gildemeister, S. Grimme, D. Fazzi, A. Hansen,
     J. Chem. Phys., 2023, just accepted.
   
   for PTB refer to:
   * S. Grimme, M. Mueller, A. Hansen, J. Chem. Phys., 2023, 158, 124111.
     DOI: 10.1063/5.0137838
   
   with help from (in alphabetical order)
   P. Atkinson, C. Bannwarth, F. Bohle, G. Brandenburg, E. Caldeweyher
   M. Checinski, S. Dohm, S. Ehlert, S. Ehrlich, I. Gerasimov, C. Hölzer
   A. Katbashev, J. Kohn, J. Koopman, C. Lavigne, S. Lehtola, F. März, M. Müller,
   F. Musil, H. Neugebauer, J. Pisarek, C. Plett, P. Pracht, F. Pultar,
   J. Seibert, P. Shushkov, S. Spicher, M. Stahn, M. Steiner, T. Strunk,
   J. Stückrath, T. Rose, and J. Unsleber
   
 * started run on 2026/08/31 at 21:56:37.845     
   ID    Z sym.   atoms
    1    6 C      1, 3, 4, 6-9, 11, 13-16, 18, 19, 21-23, 26, 28-32
    2    7 N      2, 10, 12, 17, 20, 24, 25, 27
    3    8 O      5
    4    1 H      33-62

           -------------------------------------------------
          |                Calculation Setup                |
           -------------------------------------------------

          program call               : "c:\Users\Andre\Proyectos doctorado\kras-pancreatic-gC3N4-ai\tools\xtb\xtb-6.7.1\bin\xtb.exe" "c:\Users\Andre\Proyectos doctorado\mxene-glioblastoma-qsar-ai\calculations\gbm\Ribociclib\Ribociclib_drug.xyz" --gfn 2 --sp --chrg 0 --uhf 0 --etemp 500 --acc 1.0 --iterations 500 --norestart
          coordinate file            : c:\Users\Andre\Proyectos doctorado\mxene-glioblastoma-qsar-ai\calculations\gbm\Ribociclib\Ribociclib_drug.xyz
          omp threads                :                    16


           -------------------------------------------------
          |                 G F N 2 - x T B                 |
           -------------------------------------------------

        Reference                      10.1021/acs.jctc.8b01176
      * Hamiltonian:
        H0-scaling (s, p, d)           1.850000    2.230000    2.230000
        zeta-weighting                 0.500000
      * Dispersion:
        s8                             2.700000
        a1                             0.520000
        a2                             5.000000
        s9                             5.000000
      * Repulsion:
        kExp                           1.500000    1.000000
        rExp                           1.000000
      * Coulomb:
        alpha                          2.000000
        third order                    shell-resolved
        anisotropic                    true
        a3                             3.000000
        a5                             4.000000
        cn-shift                       1.200000
        cn-exp                         4.000000
        max-rad                        5.000000


          ...................................................
          :                      SETUP                      :
          :.................................................:
          :  # basis functions                 158          :
          :  # atomic orbitals                 158          :
          :  # shells                           94          :
          :  # electrons                       168          :
          :  max. iterations                   500          :
          :  Hamiltonian                  GFN2-xTB          :
          :  restarted?                      false          :
          :  GBSA solvation                  false          :
          :  PC potential                    false          :
          :  electronic temp.          500.0000000     K    :
          :  accuracy                    1.0000000          :
          :  -> integral cutoff          0.2500000E+02      :
          :  -> integral neglect         0.1000000E-07      :
          :  -> SCF convergence          0.1000000E-05 Eh   :
          :  -> wf. convergence          0.1000000E-03 e    :
          :  Broyden damping             0.4000000          :
          :  net charge                          0          :
          :  unpaired electrons                  0          :
          ...................................................

 iter      E             dE          RMSdq      gap      omega  full diag
   1    -93.1405376 -0.931405E+02  0.350E+00    2.10       0.0  T
   2    -93.2818834 -0.141346E+00  0.221E+00    2.40       1.0  T
   3    -93.2872638 -0.538038E-02  0.108E+00    2.18       1.0  T
   4    -93.2897233 -0.245953E-02  0.439E-01    2.12       1.0  T
   5    -93.2998032 -0.100799E-01  0.118E-01    2.11       1.0  T
   6    -93.3002507 -0.447432E-03  0.514E-02    2.13       1.0  T
   7    -93.3003077 -0.570653E-04  0.211E-02    2.13       1.0  T
   8    -93.3003125 -0.481958E-05  0.100E-02    2.13       1.3  T
   9    -93.3003154 -0.282999E-05  0.289E-03    2.13       4.4  T
  10    -93.3003155 -0.130085E-06  0.114E-03    2.13      11.1  T
  11    -93.3003155 -0.237721E-07  0.533E-04    2.13      23.8  T
  12    -93.3003155 -0.279168E-08  0.265E-04    2.13      47.8  T

   *** convergence criteria satisfied after 12 iterations ***

         #    Occupation            Energy/Eh            Energy/eV
      -------------------------------------------------------------
         1        2.0000           -0.6926274             -18.8473
       ...           ...                  ...                  ...
        78        2.0000           -0.3910724             -10.6416
        79        2.0000           -0.3869146             -10.5285
        80        2.0000           -0.3736326             -10.1671
        81        2.0000           -0.3688987             -10.0382
        82        2.0000           -0.3640943              -9.9075
        83        2.0000           -0.3529878              -9.6053
        84        2.0000           -0.3454518              -9.4002 (HOMO)
        85                         -0.2671263              -7.2689 (LUMO)
        86                         -0.2429275              -6.6104
        87                         -0.2304053              -6.2696
        88                         -0.2210302              -6.0145
        89                         -0.1963875              -5.3440
       ...                                ...                  ...
       158                          0.7141582              19.4332
      -------------------------------------------------------------
                  HL-Gap            0.0783255 Eh            2.1313 eV
             Fermi-level           -0.3062823 Eh           -8.3344 eV

 SCC (total)                   0 d,  0 h,  0 min,  0.557 sec
 SCC setup                      ...        0 min,  0.001 sec (  0.180%)
 Dispersion                     ...        0 min,  0.001 sec (  0.180%)
 classical contributions        ...        0 min,  0.001 sec (  0.180%)
 integral evaluation            ...        0 min,  0.003 sec (  0.539%)
 iterations                     ...        0 min,  0.538 sec ( 96.589%)
 molecular gradient             ...        0 min,  0.012 sec (  2.154%)
 printout                       ...        0 min,  0.001 sec (  0.180%)

         :::::::::::::::::::::::::::::::::::::::::::::::::::::
         ::                     SUMMARY                     ::
         :::::::::::::::::::::::::::::::::::::::::::::::::::::
         :: total energy             -92.080968318343 Eh    ::
         :: gradient norm              0.121808021999 Eh/a0 ::
         :: HOMO-LUMO gap              2.131346185755 eV    ::
         ::.................................................::
         :: SCC energy               -93.300276808727 Eh    ::
         :: -> isotropic ES            0.089517321126 Eh    ::
         :: -> anisotropic ES          0.014635361516 Eh    ::
         :: -> anisotropic XC          0.058978417179 Eh    ::
         :: -> dispersion             -0.068013335267 Eh    ::
         :: repulsion energy           1.219308490384 Eh    ::
         :: add. restraining           0.000000000000 Eh    ::
         :: total charge               0.000000000000 e     ::
         :::::::::::::::::::::::::::::::::::::::::::::::::::::

           -------------------------------------------------
          |                Property Printout                |
           -------------------------------------------------

    * Orbital Energies and Occupations

         #    Occupation            Energy/Eh            Energy/eV
      -------------------------------------------------------------
         1        2.0000           -0.6926274             -18.8473
       ...           ...                  ...                  ...
        72        2.0000           -0.4241281             -11.5411
        73        2.0000           -0.4213927             -11.4667
        74        2.0000           -0.4206022             -11.4452
        75        2.0000           -0.4089753             -11.1288
        76        2.0000           -0.4004039             -10.8955
        77        2.0000           -0.3923262             -10.6757
        78        2.0000           -0.3910724             -10.6416
        79        2.0000           -0.3869146             -10.5285
        80        2.0000           -0.3736326             -10.1671
        81        2.0000           -0.3688987             -10.0382
        82        2.0000           -0.3640943              -9.9075
        83        2.0000           -0.3529878              -9.6053
        84        2.0000           -0.3454518              -9.4002 (HOMO)
        85                         -0.2671263              -7.2689 (LUMO)
        86                         -0.2429275              -6.6104
        87                         -0.2304053              -6.2696
        88                         -0.2210302              -6.0145
        89                         -0.1963875              -5.3440
        90                         -0.1594212              -4.3381
        91                         -0.1061675              -2.8890
        92                         -0.0881205              -2.3979
        93                         -0.0297942              -0.8107
        94                         -0.0244925              -0.6665
        95                         -0.0057304              -0.1559
       ...                                ...                  ...
       158                          0.7141582              19.4332
      -------------------------------------------------------------
                  HL-Gap            0.0783255 Eh            2.1313 eV
             Fermi-level           -0.3062823 Eh           -8.3344 eV

     #   Z          covCN         q      C6AA      α(0)
     1   6 C        3.695    -0.042    21.501     6.634
     2   7 N        2.728    -0.106    23.312     7.171
     3   6 C        3.689    -0.048    21.624     6.656
     4   6 C        2.757     0.259    22.637     7.791
     5   8 O        0.859    -0.444    22.570     6.370
     6   6 C        3.029     0.012    27.717     8.636
     7   6 C        3.035    -0.075    29.845     8.961
     8   6 C        3.079    -0.037    28.823     8.802
     9   6 C        2.886     0.070    26.440     8.430
    10   7 N        1.836    -0.261    27.642     7.791
    11   6 C        2.860     0.236    23.069     7.873
    12   7 N        2.701    -0.176    24.814     7.398
    13   6 C        2.860     0.151    24.715     8.149
    14   6 C        2.912    -0.062    29.554     8.914
    15   6 C        2.935    -0.035    28.879     8.813
    16   6 C        2.901     0.052    26.837     8.494
    17   7 N        2.728    -0.145    24.141     7.297
    18   6 C        3.739     0.003    20.602     6.476
    19   6 C        3.746     0.005    20.565     6.469
    20   7 N        2.672    -0.258    26.699     7.674
    21   6 C        3.746     0.005    20.570     6.469
    22   6 C        3.743     0.006    20.555     6.468
    23   6 C        2.894     0.029    27.349     8.574
    24   7 N        1.834    -0.242    27.167     7.724
    25   7 N        1.839    -0.317    29.078     7.991
    26   6 C        3.094     0.147    24.702     8.146
    27   7 N        2.838    -0.039    22.001     6.966
    28   6 C        3.806     0.041    19.885     6.348
    29   6 C        3.826    -0.060    21.637     6.619
    30   6 C        3.829    -0.056    21.562     6.607
    31   6 C        3.828    -0.057    21.583     6.610
    32   6 C        3.820    -0.061    21.660     6.623
    33   1 H        0.924     0.049     2.333     2.389
    34   1 H        0.924     0.047     2.355     2.400
    35   1 H        0.924     0.080     1.980     2.200
    36   1 H        0.924     0.052     2.292     2.367
    37   1 H        0.924     0.058     2.219     2.330
    38   1 H        0.924     0.055     2.255     2.349
    39   1 H        0.925     0.032     2.557     2.500
    40   1 H        0.925     0.045     2.379     2.412
    41   1 H        0.860     0.191     1.152     1.681
    42   1 H        0.925     0.036     2.504     2.474
    43   1 H        0.925     0.034     2.528     2.486
    44   1 H        0.924     0.018     2.765     2.601
    45   1 H        0.924     0.042     2.418     2.432
    46   1 H        0.924     0.047     2.354     2.400
    47   1 H        0.924     0.038     2.469     2.457
    48   1 H        0.860     0.139     1.480     1.906
    49   1 H        0.924     0.047     2.360     2.402
    50   1 H        0.924     0.037     2.488     2.467
    51   1 H        0.923     0.015     2.809     2.621
    52   1 H        0.924     0.041     2.434     2.440
    53   1 H        0.925     0.038     2.474     2.460
    54   1 H        0.924     0.057     2.235     2.338
    55   1 H        0.924     0.046     2.366     2.406
    56   1 H        0.924     0.046     2.376     2.411
    57   1 H        0.924     0.034     2.528     2.487
    58   1 H        0.924     0.033     2.541     2.493
    59   1 H        0.924     0.043     2.403     2.424
    60   1 H        0.924     0.030     2.584     2.514
    61   1 H        0.924     0.043     2.415     2.430
    62   1 H        0.924     0.031     2.567     2.505

 Mol. C6AA /au·bohr⁶  :      41289.837891
 Mol. C8AA /au·bohr⁸  :     948754.733764
 Mol. α(0) /au        :        311.725638


Wiberg/Mayer (AO) data.
largest (>0.10) Wiberg bond orders for each atom

 ---------------------------------------------------------------------------
     #   Z sym  total        # sym  WBO       # sym  WBO       # sym  WBO
 ---------------------------------------------------------------------------
     1   6 C    3.968 --     2 N    1.001    33 H    0.979    35 H    0.977
                            34 H    0.975
     2   7 N    3.461 --     4 C    1.202     3 C    1.003     1 C    1.001
                             5 O    0.198
     3   6 C    3.972 --     2 N    1.003    37 H    0.979    36 H    0.977
                            38 H    0.977
     4   6 C    3.955 --     5 O    1.642     2 N    1.202     6 C    1.024
     5   8 O    1.984 --     4 C    1.642     2 N    0.198
     6   6 C    3.944 --     7 C    1.529    27 N    1.156     4 C    1.024
     7   6 C    3.975 --     6 C    1.529     8 C    1.232    39 H    0.972
     8   6 C    3.982 --     9 C    1.336     7 C    1.232    26 C    1.223
     9   6 C    3.969 --    10 N    1.470     8 C    1.336    40 H    0.963
    10   7 N    3.044 --     9 C    1.470    11 C    1.317
    11   6 C    3.957 --    25 N    1.359    10 N    1.317    12 N    1.133
    12   7 N    3.379 --    11 C    1.133    13 C    1.066    41 H    0.923
    13   6 C    3.964 --    24 N    1.386    14 C    1.345    12 N    1.066
    14   6 C    3.985 --    15 C    1.477    13 C    1.345    42 H    0.969
                            23 C    0.109
    15   6 C    3.990 --    14 C    1.477    16 C    1.344    43 H    0.966
    16   6 C    3.969 --    23 C    1.366    15 C    1.344    17 N    1.098
    17   7 N    3.267 --    16 C    1.098    18 C    0.992    22 C    0.979
    18   6 C    3.983 --    17 N    0.992    19 C    0.992    45 H    0.972
                            44 H    0.968
    19   6 C    3.986 --    20 N    1.014    18 C    0.992    46 H    0.974
                            47 H    0.974
    20   7 N    3.063 --    21 C    1.015    19 C    1.014    48 H    0.957
    21   6 C    3.986 --    20 N    1.015    22 C    0.992    49 H    0.974
                            50 H    0.974
    22   6 C    3.981 --    21 C    0.992    17 N    0.979    51 H    0.970
                            52 H    0.970
    23   6 C    3.980 --    24 N    1.417    16 C    1.366    53 H    0.962
                            14 C    0.109
    24   7 N    3.046 --    23 C    1.417    13 C    1.386
    25   7 N    3.014 --    11 C    1.359    26 C    1.327
    26   6 C    3.964 --    25 N    1.327     8 C    1.223    27 N    1.193
    27   7 N    3.596 --    26 C    1.193     6 C    1.156    28 C    0.974
    28   6 C    3.963 --    29 C    0.981    32 C    0.980    27 N    0.974
                            54 H    0.966
    29   6 C    3.993 --    30 C    1.007    28 C    0.981    55 H    0.978
                            56 H    0.977
    30   6 C    3.997 --    31 C    1.008    29 C    1.007    57 H    0.979
                            58 H    0.979
    31   6 C    3.997 --    30 C    1.008    32 C    1.007    60 H    0.980
                            59 H    0.978
    32   6 C    3.995 --    31 C    1.007    62 H    0.982    28 C    0.980
                            61 H    0.978
    33   1 H    0.997 --     1 C    0.979
    34   1 H    0.997 --     1 C    0.975
    35   1 H    0.994 --     1 C    0.977
    36   1 H    0.997 --     3 C    0.977
    37   1 H    0.997 --     3 C    0.979
    38   1 H    0.997 --     3 C    0.977
    39   1 H    0.998 --     7 C    0.972
    40   1 H    0.997 --     9 C    0.963
    41   1 H    0.962 --    12 N    0.923
    42   1 H    0.998 --    14 C    0.969
    43   1 H    0.998 --    15 C    0.966
    44   1 H    0.999 --    18 C    0.968
    45   1 H    0.998 --    18 C    0.972
    46   1 H    0.998 --    19 C    0.974
    47   1 H    0.998 --    19 C    0.974
    48   1 H    0.981 --    20 N    0.957
    49   1 H    0.998 --    21 C    0.974
    50   1 H    0.998 --    21 C    0.974
    51   1 H    0.999 --    22 C    0.970
    52   1 H    0.998 --    22 C    0.970
    53   1 H    0.998 --    23 C    0.962
    54   1 H    0.996 --    28 C    0.966
    55   1 H    0.998 --    29 C    0.978
    56   1 H    0.998 --    29 C    0.977
    57   1 H    0.999 --    30 C    0.979
    58   1 H    0.998 --    30 C    0.979
    59   1 H    0.998 --    31 C    0.978
    60   1 H    0.999 --    31 C    0.980
    61   1 H    0.998 --    32 C    0.978
    62   1 H    0.999 --    32 C    0.982
 ---------------------------------------------------------------------------

Topologies differ in total number of bonds
Writing topology from bond orders to xtbtopo.mol

molecular dipole:
                 x           y           z       tot (Debye)
 q only:        0.147       0.727       0.309
   full:       -0.423       0.602       0.173       1.921
molecular quadrupole (traceless):
                xx          xy          yy          xz          yz          zz
 q only:       24.099      -4.359     -13.344     -24.156      -9.862     -10.755
  q+dip:       14.783      -4.749      -6.032     -33.223     -12.211      -8.751
   full:       12.394      -5.783      -5.651     -34.348     -10.088      -6.743


           -------------------------------------------------
          | TOTAL ENERGY              -92.080968318343 Eh   |
          | GRADIENT NORM               0.121808021999 Eh/α |
          | HOMO-LUMO GAP               2.131346185755 eV   |
           -------------------------------------------------

------------------------------------------------------------------------
 * finished run on 2026/08/31 at 21:56:38.449     
------------------------------------------------------------------------
 total:
 * wall-time:     0 d,  0 h,  0 min,  0.601 sec
 *  cpu-time:     0 d,  0 h,  0 min,  1.609 sec
 * ratio c/w:     2.678 speedup
 SCF:
 * wall-time:     0 d,  0 h,  0 min,  0.558 sec
 *  cpu-time:     0 d,  0 h,  0 min,  1.484 sec
 * ratio c/w:     2.660 speedup

normal termination of xtb
