62
Ribociclib conformer
C     -8.045077     -1.995047      0.950686
N     -6.745872     -1.417500      1.246279
C     -6.623973     -0.740490      2.529261
C     -5.793274     -1.364821      0.227622
O     -6.082320     -1.650053     -0.933283
C     -4.437800     -0.984146      0.587751
C     -3.663304     -1.467101      1.636696
C     -2.380796     -0.881257      1.552174
C     -1.192939     -0.946864      2.266161
N     -0.130620     -0.219669      1.860397
C     -0.227293      0.533145      0.747177
N      0.847305      1.315119      0.320475
C      2.205572      0.961379      0.334094
C      3.133887      1.940328     -0.009201
C      4.499350      1.636900     -0.015544
C      4.955400      0.358637      0.313340
N      6.327891      0.068237      0.321248
C      6.754832     -1.204362      0.942215
C      8.294810     -1.276160      1.053632
N      8.985800     -1.076557     -0.236417
C      8.559612      0.224556     -0.789190
C      7.027539      0.363852     -0.952187
C      3.944865     -0.538717      0.663264
N      2.611295     -0.275494      0.667746
N     -1.341304      0.672872      0.005199
C     -2.381366     -0.055454      0.443767
N     -3.631594     -0.112213     -0.134086
C     -4.038329      0.629725     -1.319520
C     -3.390294      0.107363     -2.610165
C     -3.238126      1.343373     -3.483476
C     -2.865072      2.429088     -2.488108
C     -3.754404      2.146319     -1.281525
H     -8.377412     -2.585315      1.809843
H     -8.755287     -1.183893      0.764993
H     -8.009098     -2.645627      0.072594
H     -6.516446     -1.496488      3.312041
H     -5.779685     -0.049688      2.560367
H     -7.533950     -0.159985      2.712270
H     -3.990972     -2.193838      2.369362
H     -1.053258     -1.555308      3.150980
H      0.570848      1.724186     -0.559972
H      2.808059      2.946867     -0.250089
H      5.203172      2.431715     -0.244143
H      6.400156     -2.053707      0.343900
H      6.339414     -1.292568      1.953471
H      8.650648     -0.525760      1.770661
H      8.580751     -2.254899      1.454439
H      8.679208     -1.808939     -0.876899
H      8.934883      1.026606     -0.141192
H      9.037579      0.361252     -1.765586
H      6.678683     -0.329387     -1.728975
H      6.827325      1.382567     -1.300891
H      4.166282     -1.560115      0.954522
H     -5.125486      0.532175     -1.408909
H     -4.005434     -0.659020     -3.092933
H     -2.405526     -0.336751     -2.422851
H     -4.190887      1.584139     -3.969617
H     -2.479656      1.212063     -4.260353
H     -1.808827      2.338743     -2.210209
H     -3.022896      3.433834     -2.890784
H     -3.305385      2.503480     -0.349932
H     -4.701200      2.688674     -1.401284
