95
Drug@Ti12C7O14 non-overlapping complex
C     -7.938956     -1.752009      9.373439
N     -6.497199     -1.663603      9.223488
C     -5.937275     -2.302520      8.041066
C     -5.790771     -0.811621     10.074878
O     -6.374031     -0.048695     10.840940
C     -4.341207     -0.880904     10.037049
C     -3.557641     -2.024092     10.160848
C     -2.199787     -1.644050     10.116298
C     -0.969669     -2.281262     10.181172
N      0.165608     -1.551515     10.100447
C      0.088883     -0.211884      9.965574
N      1.235024      0.560094      9.880279
C      2.591779      0.305354      9.899825
C      3.155552     -0.952373     10.035793
C      4.549680     -1.097290     10.043555
C      5.398351      0.002476      9.913456
N      6.776229     -0.118867      9.928167
C      7.432130     -1.390107      9.576862
C      8.833970     -1.155082      8.967320
N      9.762814     -0.361858      9.790224
C      9.041383      0.628770     10.611357
C      7.654656      1.053343     10.075815
C      4.725571      1.218697      9.787089
N      3.375740      1.394944      9.775729
N     -1.058863      0.484252      9.898955
C     -2.167279     -0.270397      9.979870
N     -3.468001      0.194727      9.945596
C     -3.791569      1.604694      9.807152
C     -4.750838      1.977440      8.670192
C     -5.297170      3.327409      9.110562
C     -5.506812      3.152397     10.607403
C     -4.345656      2.275175     11.074909
H     -8.409307     -1.113906      8.619470
H     -8.251034     -2.789853      9.223598
H     -8.263660     -1.429294     10.366414
H     -4.931813     -1.949316      7.806537
H     -5.922063     -3.383582      8.205278
H     -6.576547     -2.077763      7.181230
H     -3.943063     -3.028525     10.284692
H     -0.853107     -3.352121     10.293875
H      1.025763      1.539858      9.778578
H      2.541003     -1.837533     10.145593
H      4.949252     -2.097638     10.178994
H      6.844714     -1.944585      8.834970
H      7.519213     -2.010751     10.476737
H      9.299660     -2.120859      8.740557
H      8.716708     -0.637872      8.006550
H     10.276508     -0.980769     10.416815
H      8.906718      0.205546     11.615399
H      9.676709      1.513866     10.723256
H      7.761412      1.561608      9.109812
H      7.232718      1.766809     10.793681
H      5.270132      2.149980      9.665382
H     -2.848357      2.119012      9.575836
H     -4.235098      2.040093      7.706329
H     -5.573215      1.267451      8.551926
H     -4.558749      4.115552      8.921488
H     -6.221617      3.592295      8.589610
H     -6.458522      2.641402     10.792134
H     -5.537732      4.110419     11.134956
H     -3.565314      2.899331     11.527676
H     -4.665959      1.569502     11.847428
Ti     -2.141866     -3.008818      2.119748
Ti      0.288991     -1.694759      1.432425
Ti      1.903098     -3.067749     -0.729322
Ti     -2.521502     -0.251928      1.303687
Ti      2.142050      0.499533      2.204434
Ti     -0.681448      0.189635      3.681230
Ti     -2.036770     -3.077740     -1.200512
Ti     -0.605340     -0.770900     -2.035132
Ti      1.945488     -1.587317     -3.412400
Ti     -1.878170      1.746573     -1.240030
Ti      2.412512      0.454231     -0.774247
Ti      0.817742      1.838452     -2.940004
C     -3.678414      1.281398      0.600737
C      4.128193      0.482847      0.387293
C      0.455479      2.267202      0.349695
C     -3.666709      2.118834     -0.313920
C      4.115962      0.632239      1.621354
C     -0.635167      2.741046     -0.118921
C      1.630072      1.780996      0.734224
O     -3.093456     -1.956907      1.037949
O     -0.487250     -2.605849      2.701203
O      0.314079     -2.888890      0.145001
O     -0.800785     -0.435934      0.971227
O      1.902865     -1.158331      1.469449
O     -2.322673     -0.113878      3.024800
O      1.013786      0.441598      3.568761
O     -1.772019     -4.587905     -1.652810
O      0.190605     -1.189189     -3.534030
O      2.831420     -2.170248     -1.918042
O     -2.054558     -0.224445     -1.337505
O      0.768511     -0.390574     -1.063664
O     -0.900039      1.649313     -2.818565
O      2.415313      1.357463     -2.264115
