95
Drug@Ti3C2O2 complex
C     -7.938956     -1.752009      5.121663
N     -6.497199     -1.663603      4.971712
C     -5.937275     -2.302520      3.789290
C     -5.790771     -0.811621      5.823102
O     -6.374031     -0.048695      6.589164
C     -4.341207     -0.880904      5.785273
C     -3.557641     -2.024092      5.909072
C     -2.199787     -1.644050      5.864522
C     -0.969669     -2.281262      5.929396
N      0.165608     -1.551515      5.848671
C      0.088883     -0.211884      5.713798
N      1.235024      0.560094      5.628503
C      2.591779      0.305354      5.648049
C      3.155552     -0.952373      5.784017
C      4.549680     -1.097290      5.791779
C      5.398351      0.002476      5.661680
N      6.776229     -0.118867      5.676391
C      7.432130     -1.390107      5.325086
C      8.833970     -1.155082      4.715544
N      9.762814     -0.361858      5.538448
C      9.041383      0.628770      6.359581
C      7.654656      1.053343      5.824039
C      4.725571      1.218697      5.535313
N      3.375740      1.394944      5.523953
N     -1.058863      0.484252      5.647179
C     -2.167279     -0.270397      5.728094
N     -3.468001      0.194727      5.693820
C     -3.791569      1.604694      5.555376
C     -4.750838      1.977440      4.418416
C     -5.297170      3.327409      4.858786
C     -5.506812      3.152397      6.355627
C     -4.345656      2.275175      6.823133
H     -8.409307     -1.113906      4.367694
H     -8.251034     -2.789853      4.971822
H     -8.263660     -1.429294      6.114638
H     -4.931813     -1.949316      3.554761
H     -5.922063     -3.383582      3.953502
H     -6.576547     -2.077763      2.929454
H     -3.943063     -3.028525      6.032916
H     -0.853107     -3.352121      6.042099
H      1.025763      1.539858      5.526802
H      2.541003     -1.837533      5.893817
H      4.949252     -2.097638      5.927218
H      6.844714     -1.944585      4.583194
H      7.519213     -2.010751      6.224961
H      9.299660     -2.120859      4.488781
H      8.716708     -0.637872      3.754774
H     10.276508     -0.980769      6.165039
H      8.906718      0.205546      7.363623
H      9.676709      1.513866      6.471480
H      7.761412      1.561608      4.858036
H      7.232718      1.766809      6.541905
H      5.270132      2.149980      5.413606
H     -2.848357      2.119012      5.324060
H     -4.235098      2.040093      3.454553
H     -5.573215      1.267451      4.300150
H     -4.558749      4.115552      4.669712
H     -6.221617      3.592295      4.337834
H     -6.458522      2.641402      6.540358
H     -5.537732      4.110419      6.883180
H     -3.565314      2.899331      7.275900
H     -4.665959      1.569502      7.595652
Ti     -3.000000     -2.600000      1.250000
Ti      0.000000     -2.600000      1.250000
Ti      3.000000     -2.600000      1.250000
Ti     -1.500000      0.000000      1.250000
Ti      1.500000      0.000000      1.250000
Ti      0.000000      2.600000      1.250000
Ti     -3.000000     -2.600000     -1.250000
Ti      0.000000     -2.600000     -1.250000
Ti      3.000000     -2.600000     -1.250000
Ti     -1.500000      0.000000     -1.250000
Ti      1.500000      0.000000     -1.250000
Ti      0.000000      2.600000     -1.250000
C     -1.500000     -1.300000      0.000000
C      1.500000     -1.300000      0.000000
C      0.000000      1.300000      0.000000
C     -3.000000      0.000000      0.000000
C      3.000000      0.000000      0.000000
C     -1.500000      2.600000      0.000000
C      1.500000      2.600000      0.000000
O     -3.000000     -2.600000      2.450000
O      0.000000     -2.600000      2.450000
O      3.000000     -2.600000      2.450000
O     -1.500000      0.000000      2.450000
O      1.500000      0.000000      2.450000
O     -1.500000      2.600000      2.450000
O      1.500000      2.600000      2.450000
O     -3.000000     -2.600000     -2.450000
O      0.000000     -2.600000     -2.450000
O      3.000000     -2.600000     -2.450000
O     -1.500000      0.000000     -2.450000
O      1.500000      0.000000     -2.450000
O     -1.500000      2.600000     -2.450000
O      1.500000      2.600000     -2.450000
