      -----------------------------------------------------------      
     |                   =====================                   |     
     |                           x T B                           |     
     |                   =====================                   |     
     |                         S. Grimme                         |     
     |          Mulliken Center for Theoretical Chemistry        |     
     |                    University of Bonn                     |     
      -----------------------------------------------------------      

   * xtb version 6.7.1pre (5071a88) compiled by 'Marcel@Raven' on 2024-07-23

   xtb is free software: you can redistribute it and/or modify it under
   the terms of the GNU Lesser General Public License as published by
   the Free Software Foundation, either version 3 of the License, or
   (at your option) any later version.
   
   xtb is distributed in the hope that it will be useful,
   but WITHOUT ANY WARRANTY; without even the implied warranty of
   MERCHANTABILITY or FITNESS FOR A PARTICULAR PURPOSE.  See the
   GNU Lesser General Public License for more details.
   
   Cite this work as:
   * C. Bannwarth, E. Caldeweyher, S. Ehlert, A. Hansen, P. Pracht,
     J. Seibert, S. Spicher, S. Grimme, WIREs Comput. Mol. Sci., 2020, 11,
     e01493. DOI: 10.1002/wcms.1493
   
   for GFN2-xTB:
   * C. Bannwarth, S. Ehlert and S. Grimme., J. Chem. Theory Comput., 2019,
     15, 1652-1671. DOI: 10.1021/acs.jctc.8b01176
   for GFN1-xTB:
   * S. Grimme, C. Bannwarth, P. Shushkov, J. Chem. Theory Comput., 2017,
     13, 1989-2009. DOI: 10.1021/acs.jctc.7b00118
   for GFN0-xTB:
   * P. Pracht, E. Caldeweyher, S. Ehlert, S. Grimme, ChemRxiv, 2019, preprint.
     DOI: 10.26434/chemrxiv.8326202.v1
   for GFN-FF:
   * S. Spicher and S. Grimme, Angew. Chem. Int. Ed., 2020, 59, 15665-15673.
     DOI: 10.1002/anie.202004239
   
   for ALPB and GBSA implicit solvation:
   * S. Ehlert, M. Stahn, S. Spicher, S. Grimme, J. Chem. Theory Comput.,
     2021, 17, 4250-4261. DOI: 10.1021/acs.jctc.1c00471
   
   for ddCOSMO and CPCM-X implicit solvation:
   * M. Stahn, S. Ehlert, S. Grimme, J. Phys. Chem. A,
     2023, XX, XXXX-XXXX. DOI: 10.1021/acs.jpca.3c04382
   
   for DFT-D4:
   * E. Caldeweyher, C. Bannwarth and S. Grimme, J. Chem. Phys., 2017,
     147, 034112. DOI: 10.1063/1.4993215
   * E. Caldeweyher, S. Ehlert, A. Hansen, H. Neugebauer, S. Spicher,
     C. Bannwarth and S. Grimme, J. Chem. Phys., 2019, 150, 154122.
     DOI: 10.1063/1.5090222
   * E. Caldeweyher, J.-M. Mewes, S. Ehlert and S. Grimme, Phys. Chem. Chem. Phys.
     2020, 22, 8499-8512. DOI: 10.1039/D0CP00502A
   
   for sTDA-xTB:
   * S. Grimme and C. Bannwarth, J. Chem. Phys., 2016, 145, 054103.
     DOI: 10.1063/1.4959605
   
   in the mass-spec context:
   * V. Asgeirsson, C. Bauer and S. Grimme, Chem. Sci., 2017, 8, 4879.
     DOI: 10.1039/c7sc00601b
   * J. Koopman and S. Grimme, ACS Omega 2019, 4, 12, 15120-15133.
     DOI: 10.1021/acsomega.9b02011
   
   for metadynamics refer to:
   * S. Grimme, J. Chem. Theory Comput., 2019, 155, 2847-2862
     DOI: 10.1021/acs.jctc.9b00143
   
   for SPH calculations refer to:
   * S. Spicher and S. Grimme, J. Chem. Theory Comput., 2021, 17, 1701-1714
     DOI: 10.1021/acs.jctc.0c01306
   
   for ONIOM refer to:
   * C. Plett, A. Katbashev, S. Ehlert, S. Grimme, M. Bursch,
     Phys. Chem. Chem. Phys., 2023, 25, 17860-17868. DOI: 10.1039/D3CP02178E
   
   for DIPRO refer to:
   * J. Kohn, N. Gildemeister, S. Grimme, D. Fazzi, A. Hansen,
     J. Chem. Phys., 2023, just accepted.
   
   for PTB refer to:
   * S. Grimme, M. Mueller, A. Hansen, J. Chem. Phys., 2023, 158, 124111.
     DOI: 10.1063/5.0137838
   
   with help from (in alphabetical order)
   P. Atkinson, C. Bannwarth, F. Bohle, G. Brandenburg, E. Caldeweyher
   M. Checinski, S. Dohm, S. Ehlert, S. Ehrlich, I. Gerasimov, C. Hölzer
   A. Katbashev, J. Kohn, J. Koopman, C. Lavigne, S. Lehtola, F. März, M. Müller,
   F. Musil, H. Neugebauer, J. Pisarek, C. Plett, P. Pracht, F. Pultar,
   J. Seibert, P. Shushkov, S. Spicher, M. Stahn, M. Steiner, T. Strunk,
   J. Stückrath, T. Rose, and J. Unsleber
   
 * started run on 2026/08/31 at 20:40:00.089     
   ID    Z sym.   atoms
    1    6 C      1, 3, 4, 6-9, 11, 13-16, 18, 19, 21-23, 26, 28-32, 75-81
    2    7 N      2, 10, 12, 17, 20, 24, 25, 27
    3    8 O      5, 82-95
    4    1 H      33-62
    5   22 Ti     63-74

           -------------------------------------------------
          |                Calculation Setup                |
           -------------------------------------------------

          program call               : "c:\Users\Andre\Proyectos doctorado\kras-pancreatic-gC3N4-ai\tools\xtb\xtb-6.7.1\bin\xtb.exe" "c:\Users\Andre\Proyectos doctorado\mxene-glioblastoma-qsar-ai\calculations\gbm\Ribociclib\Ribociclib_Ti3C2O2_complex.xyz" --gfn 2 --sp --chrg 0 --uhf 0 --iterations 500 --norestart
          coordinate file            : c:\Users\Andre\Proyectos doctorado\mxene-glioblastoma-qsar-ai\calculations\gbm\Ribociclib\Ribociclib_Ti3C2O2_complex.xyz
          omp threads                :                    16


molecular fragmentation (1/2 indicates fragments):
111111111111111111111111111111111111111111111111111111111111112222222222
22222222222222222222222
# atoms in fragment 1/2:    62    33
 fragment masses (1/2) :      434.54      882.47
CMA distance (Bohr)    :  10.631
constraining FC (au)   :  0.0500

           -------------------------------------------------
          |                 G F N 2 - x T B                 |
           -------------------------------------------------

        Reference                      10.1021/acs.jctc.8b01176
      * Hamiltonian:
        H0-scaling (s, p, d)           1.850000    2.230000    2.230000
        zeta-weighting                 0.500000
      * Dispersion:
        s8                             2.700000
        a1                             0.520000
        a2                             5.000000
        s9                             5.000000
      * Repulsion:
        kExp                           1.500000    1.000000
        rExp                           1.000000
      * Coulomb:
        alpha                          2.000000
        third order                    shell-resolved
        anisotropic                    true
        a3                             3.000000
        a5                             4.000000
        cn-shift                       1.200000
        cn-exp                         4.000000
        max-rad                        5.000000


          ...................................................
          :                      SETUP                      :
          :.................................................:
          :  # basis functions                 362          :
          :  # atomic orbitals                 350          :
          :  # shells                          172          :
          :  # electrons                       328          :
          :  max. iterations                   500          :
          :  Hamiltonian                  GFN2-xTB          :
          :  restarted?                      false          :
          :  GBSA solvation                  false          :
          :  PC potential                    false          :
          :  electronic temp.          300.0000000     K    :
          :  accuracy                    1.0000000          :
          :  -> integral cutoff          0.2500000E+02      :
          :  -> integral neglect         0.1000000E-07      :
          :  -> SCF convergence          0.1000000E-05 Eh   :
          :  -> wf. convergence          0.1000000E-03 e    :
          :  Broyden damping             0.4000000          :
          :  net charge                          0          :
          :  unpaired electrons                  0          :
          ...................................................

 iter      E             dE          RMSdq      gap      omega  full diag
   1   -180.8325172 -0.180833E+03  0.117E+01    0.04       0.0  T
   2   -114.9958415  0.658367E+02  0.174E+01    0.15       1.0  T
   3    -49.1980889  0.657978E+02  0.229E+01    0.11       1.0  T
   4   -174.3748573 -0.125177E+03  0.942E+00    0.23       1.0  T
   5   -165.7637226  0.861113E+01  0.124E+01    0.01       1.0  T
   6   -183.2524766 -0.174888E+02  0.693E+00    0.37       1.0  T
   7   -170.9641242  0.122884E+02  0.863E+00    0.04       1.0  T
   8   -175.4287312 -0.446461E+01  0.836E+00    0.03       1.0  T
   9   -179.0528819 -0.362415E+01  0.612E+00    0.03       1.0  T
  10   -181.5206544 -0.246777E+01  0.539E+00    0.17       1.0  T
  11   -183.0608846 -0.154023E+01  0.435E+00    0.26       1.0  T
  12   -183.2691223 -0.208238E+00  0.421E+00    0.10       1.0  T
  13   -184.2020356 -0.932913E+00  0.373E+00    0.37       1.0  T
  14   -184.4710766 -0.269041E+00  0.329E+00    0.03       1.0  T
  15   -184.4377419  0.333347E-01  0.332E+00    0.13       1.0  T
  16   -184.6565967 -0.218855E+00  0.311E+00    0.18       1.0  T
  17   -184.6396886  0.169082E-01  0.287E+00    0.11       1.0  T
  18   -184.6409904 -0.130184E-02  0.267E+00    0.04       1.0  T
  19   -184.8232343 -0.182244E+00  0.208E+00    0.08       1.0  T
  20   -184.9082542 -0.850199E-01  0.187E+00    0.07       1.0  T
  21   -184.9692274 -0.609732E-01  0.163E+00    0.01       1.0  T
  22   -184.4391865  0.530041E+00  0.200E+00    0.01       1.0  T
  23   -184.7626705 -0.323484E+00  0.167E+00    0.04       1.0  T
  24   -184.8664041 -0.103734E+00  0.160E+00    0.03       1.0  T
  25   -184.7076121  0.158792E+00  0.168E+00    0.02       1.0  T
  26   -184.7222627 -0.146506E-01  0.180E+00    0.03       1.0  T
  27   -184.6489232  0.733395E-01  0.192E+00    0.03       1.0  T
  28   -184.6823670 -0.334438E-01  0.174E+00    0.01       1.0  T
  29   -185.1002627 -0.417896E+00  0.959E-01    0.08       1.0  T
  30   -185.0790427  0.212199E-01  0.914E-01    0.12       1.0  T
  31   -185.1042058 -0.251631E-01  0.814E-01    0.09       1.0  T
  32   -185.0969424  0.726342E-02  0.748E-01    0.13       1.0  T
  33   -185.1121642 -0.152218E-01  0.612E-01    0.11       1.0  T
  34   -185.1208430 -0.867874E-02  0.583E-01    0.07       1.0  T
  35   -185.1231653 -0.232228E-02  0.520E-01    0.07       1.0  T
  36   -185.1254488 -0.228350E-02  0.477E-01    0.08       1.0  T
  37   -185.1273041 -0.185535E-02  0.408E-01    0.03       1.0  T
  38   -185.1337461 -0.644200E-02  0.325E-01    0.04       1.0  T
  39   -185.1351493 -0.140320E-02  0.268E-01    0.05       1.0  T
  40   -185.1361968 -0.104753E-02  0.197E-01    0.04       1.0  T
  41   -185.1376660 -0.146914E-02  0.155E-01    0.05       1.0  T
  42   -185.1370770  0.588978E-03  0.140E-01    0.06       1.0  T
  43   -185.1368490  0.228014E-03  0.121E-01    0.07       1.0  T
  44   -185.1381671 -0.131814E-02  0.782E-02    0.06       1.0  T
  45   -185.1384447 -0.277544E-03  0.691E-02    0.06       1.0  T
  46   -185.1381566  0.288018E-03  0.701E-02    0.06       1.0  T
  47   -185.1383068 -0.150122E-03  0.628E-02    0.06       1.0  T
  48   -185.1387200 -0.413259E-03  0.371E-02    0.06       1.0  T
  49   -185.1385728  0.147192E-03  0.441E-02    0.06       1.0  T
  50   -185.1388078 -0.234962E-03  0.283E-02    0.06       1.0  T
  51   -185.1388349 -0.270964E-04  0.263E-02    0.06       1.0  T
  52   -185.1388325  0.239655E-05  0.248E-02    0.06       1.0  T
  53   -185.1388659 -0.334496E-04  0.202E-02    0.06       1.0  T
  54   -185.1388895 -0.235321E-04  0.158E-02    0.06       1.0  T
  55   -185.1388978 -0.835471E-05  0.137E-02    0.06       1.0  T
  56   -185.1389017 -0.390705E-05  0.123E-02    0.06       1.0  T
  57   -185.1389090 -0.725437E-05  0.102E-02    0.06       1.0  T
  58   -185.1389160 -0.703113E-05  0.814E-03    0.06       1.3  T
  59   -185.1389218 -0.577028E-05  0.576E-03    0.06       1.8  T
  60   -185.1389247 -0.290782E-05  0.402E-03    0.06       2.6  T
  61   -185.1389263 -0.156858E-05  0.269E-03    0.06       3.8  T
  62   -185.1389271 -0.777575E-06  0.156E-03    0.06       6.6  T
  63   -185.1389274 -0.313517E-06  0.881E-04    0.06      11.6  T
  64   -185.1389275 -0.914818E-07  0.350E-04    0.06      29.3  T

   *** convergence criteria satisfied after 64 iterations ***

         #    Occupation            Energy/Eh            Energy/eV
      -------------------------------------------------------------
         1        2.0000           -0.8951884             -24.3593
       ...           ...                  ...                  ...
       158        2.0000           -0.3813909             -10.3782
       159        2.0000           -0.3810904             -10.3700
       160        2.0000           -0.3796000             -10.3294
       161        1.9999           -0.3744641             -10.1897
       162        1.9867           -0.3695948             -10.0572
       163        1.9687           -0.3687728             -10.0348
       164        1.3626           -0.3655611              -9.9474 (HOMO)
       165        0.3697           -0.3634297              -9.8894 (LUMO)
       166        0.2604           -0.3630350              -9.8787
       167        0.0519           -0.3613955              -9.8341
       168                         -0.3454543              -9.4003
       169                         -0.3433091              -9.3419
       ...                                ...                  ...
       350                         18.1628806             494.2371
      -------------------------------------------------------------
                  HL-Gap            0.0021315 Eh            0.0580 eV
             Fermi-level           -0.3648392 Eh           -9.9278 eV

 SCC (total)                   0 d,  0 h,  0 min,  2.374 sec
 SCC setup                      ...        0 min,  0.008 sec (  0.337%)
 Dispersion                     ...        0 min,  0.015 sec (  0.632%)
 classical contributions        ...        0 min,  0.021 sec (  0.885%)
 integral evaluation            ...        0 min,  0.108 sec (  4.549%)
 iterations                     ...        0 min,  2.194 sec ( 92.418%)
 molecular gradient             ...        0 min,  0.026 sec (  1.095%)
 printout                       ...        0 min,  0.002 sec (  0.084%)

         :::::::::::::::::::::::::::::::::::::::::::::::::::::
         ::                     SUMMARY                     ::
         :::::::::::::::::::::::::::::::::::::::::::::::::::::
         :: total energy            -179.094402313240 Eh    ::
         :: gradient norm              5.402340492886 Eh/a0 ::
         :: HOMO-LUMO gap              0.058000467019 eV    ::
         ::.................................................::
         :: SCC energy              -185.133251513539 Eh    ::
         :: -> isotropic ES            0.839671626810 Eh    ::
         :: -> anisotropic ES         -0.019486552532 Eh    ::
         :: -> anisotropic XC         -0.043315291449 Eh    ::
         :: -> dispersion             -0.170711803983 Eh    ::
         :: repulsion energy           6.038849200299 Eh    ::
         :: add. restraining           0.000000000000 Eh    ::
         :: total charge              -0.000000000024 e     ::
         :::::::::::::::::::::::::::::::::::::::::::::::::::::

           -------------------------------------------------
          |                Property Printout                |
           -------------------------------------------------

    * Orbital Energies and Occupations

         #    Occupation            Energy/Eh            Energy/eV
      -------------------------------------------------------------
         1        2.0000           -0.8951884             -24.3593
       ...           ...                  ...                  ...
       152        2.0000           -0.3942255             -10.7274
       153        2.0000           -0.3932477             -10.7008
       154        2.0000           -0.3900469             -10.6137
       155        2.0000           -0.3885520             -10.5730
       156        2.0000           -0.3857273             -10.4962
       157        2.0000           -0.3844016             -10.4601
       158        2.0000           -0.3813909             -10.3782
       159        2.0000           -0.3810904             -10.3700
       160        2.0000           -0.3796000             -10.3294
       161        1.9999           -0.3744641             -10.1897
       162        1.9867           -0.3695948             -10.0572
       163        1.9687           -0.3687728             -10.0348
       164        1.3626           -0.3655611              -9.9474 (HOMO)
       165        0.3697           -0.3634297              -9.8894 (LUMO)
       166        0.2604           -0.3630350              -9.8787
       167        0.0519           -0.3613955              -9.8341
       168                         -0.3454543              -9.4003
       169                         -0.3433091              -9.3419
       170                         -0.3394183              -9.2360
       171                         -0.3383936              -9.2082
       172                         -0.3333807              -9.0718
       173                         -0.3311861              -9.0120
       174                         -0.3299967              -8.9797
       175                         -0.3280742              -8.9274
       ...                                ...                  ...
       350                         18.1628806             494.2371
      -------------------------------------------------------------
                  HL-Gap            0.0021315 Eh            0.0580 eV
             Fermi-level           -0.3648392 Eh           -9.9278 eV

     #   Z          covCN         q      C6AA      α(0)
     1   6 C        3.695    -0.057    21.789     6.678
     2   7 N        2.729    -0.090    23.006     7.124
     3   6 C        3.689    -0.080    22.230     6.748
     4   6 C        2.758     0.262    22.590     7.783
     5   8 O        0.858    -0.418    22.047     6.295
     6   6 C        3.030     0.025    27.423     8.590
     7   6 C        3.038    -0.069    29.687     8.937
     8   6 C        3.076    -0.018    28.367     8.732
     9   6 C        2.885     0.070    26.438     8.430
    10   7 N        1.836    -0.239    27.085     7.712
    11   6 C        2.853     0.233    23.128     7.882
    12   7 N        2.709    -0.090    22.993     7.122
    13   6 C        2.858     0.166    24.420     8.100
    14   6 C        2.908    -0.046    29.134     8.851
    15   6 C        2.939    -0.038    28.948     8.824
    16   6 C        2.891     0.056    26.740     8.478
    17   7 N        2.731    -0.071    22.621     7.064
    18   6 C        3.735    -0.014    20.906     6.525
    19   6 C        3.738     0.001    20.648     6.484
    20   7 N        2.672    -0.256    26.639     7.666
    21   6 C        3.738     0.007    20.534     6.466
    22   6 C        3.735    -0.011    20.864     6.519
    23   6 C        2.896     0.031    27.302     8.567
    24   7 N        1.843    -0.214    26.503     7.629
    25   7 N        1.841    -0.249    27.338     7.749
    26   6 C        3.099     0.150    24.634     8.134
    27   7 N        2.835    -0.003    21.317     6.857
    28   6 C        3.813     0.022    20.196     6.397
    29   6 C        3.825    -0.065    21.727     6.633
    30   6 C        3.829    -0.060    21.631     6.618
    31   6 C        3.826    -0.062    21.678     6.625
    32   6 C        3.817    -0.066    21.756     6.638
    33   1 H        0.924     0.056     2.250     2.346
    34   1 H        0.924     0.056     2.250     2.346
    35   1 H        0.924     0.089     1.885     2.147
    36   1 H        0.924     0.123     1.588     1.970
    37   1 H        0.924     0.077     2.007     2.215
    38   1 H        0.924     0.076     2.020     2.223
    39   1 H        0.925     0.057     2.235     2.338
    40   1 H        0.925     0.072     2.062     2.246
    41   1 H        0.860     0.245     0.904     1.489
    42   1 H        0.925     0.098     1.805     2.101
    43   1 H        0.925     0.054     2.277     2.360
    44   1 H        0.924     0.057     2.229     2.335
    45   1 H        0.924     0.052     2.301     2.372
    46   1 H        0.924     0.046     2.372     2.409
    47   1 H        0.924     0.053     2.285     2.364
    48   1 H        0.860     0.143     1.448     1.885
    49   1 H        0.924     0.029     2.599     2.521
    50   1 H        0.924     0.054     2.272     2.357
    51   1 H        0.924     0.062     2.176     2.307
    52   1 H        0.924     0.062     2.173     2.305
    53   1 H        0.925     0.060     2.199     2.319
    54   1 H        0.923     0.093     1.855     2.130
    55   1 H        0.924     0.059     2.213     2.326
    56   1 H        0.924     0.042     2.422     2.434
    57   1 H        0.924     0.044     2.399     2.422
    58   1 H        0.924     0.038     2.470     2.458
    59   1 H        0.924     0.055     2.255     2.348
    60   1 H        0.924     0.035     2.510     2.478
    61   1 H        0.924     0.038     2.472     2.459
    62   1 H        0.924     0.058     2.217     2.329
    63  22 Ti       4.151     0.754    91.800    16.241
    64  22 Ti       6.350     0.740    92.163    15.586
    65  22 Ti       4.151     0.767    91.658    16.229
    66  22 Ti       7.449     1.031    89.123    15.327
    67  22 Ti       7.449     1.037    89.058    15.322
    68  22 Ti       6.519     1.064    88.785    15.298
    69  22 Ti       4.151     0.789    91.424    16.208
    70  22 Ti       6.350     0.760    91.951    15.568
    71  22 Ti       4.151     0.790    91.412    16.207
    72  22 Ti       7.449     1.053    88.897    15.308
    73  22 Ti       7.449     1.050    88.929    15.310
    74  22 Ti       6.519     1.069    88.734    15.294
    75   6 C        5.128    -0.724    39.447     8.920
    76   6 C        5.128    -0.724    39.451     8.920
    77   6 C        5.649    -0.568    33.987     8.279
    78   6 C        2.445    -0.413    40.818    10.424
    79   6 C        2.445    -0.411    40.751    10.416
    80   6 C        2.445    -0.335    38.045    10.064
    81   6 C        2.445    -0.335    38.039    10.063
    82   8 O        0.728    -0.546    24.897     6.686
    83   8 O        0.729    -0.584    25.798     6.806
    84   8 O        0.728    -0.543    24.816     6.675
    85   8 O        0.729    -0.658    27.662     7.048
    86   8 O        0.729    -0.661    27.754     7.060
    87   8 O        0.753    -0.595    26.047     6.840
    88   8 O        0.753    -0.593    26.012     6.835
    89   8 O        0.728    -0.535    24.648     6.653
    90   8 O        0.729    -0.574    25.549     6.773
    91   8 O        0.728    -0.536    24.673     6.656
    92   8 O        0.729    -0.653    27.545     7.033
    93   8 O        0.729    -0.653    27.532     7.031
    94   8 O        0.753    -0.575    25.574     6.777
    95   8 O        0.753    -0.577    25.609     6.782

 Mol. C6AA /au·bohr⁶  :     183454.890747
 Mol. C8AA /au·bohr⁸  :    7586766.720465
 Mol. α(0) /au        :        657.834129


Wiberg/Mayer (AO) data.
largest (>0.10) Wiberg bond orders for each atom

 ---------------------------------------------------------------------------
     #   Z sym  total        # sym  WBO       # sym  WBO       # sym  WBO
 ---------------------------------------------------------------------------
     1   6 C    3.961 --     2 N    0.998    34 H    0.978    35 H    0.975
                            33 H    0.974
     2   7 N    3.461 --     4 C    1.198     3 C    1.008     1 C    0.998
                             5 O    0.201
     3   6 C    3.945 --     2 N    1.008    37 H    0.958    38 H    0.955
                            36 H    0.895
     4   6 C    3.959 --     5 O    1.657     2 N    1.198     6 C    1.016
     5   8 O    2.000 --     4 C    1.657     2 N    0.201
     6   6 C    3.909 --     7 C    1.481    27 N    1.184     4 C    1.016
     7   6 C    3.926 --     6 C    1.481     8 C    1.249    39 H    0.967
     8   6 C    3.956 --     9 C    1.324     7 C    1.249    26 C    1.203
     9   6 C    3.947 --    10 N    1.469     8 C    1.324    40 H    0.956
    10   7 N    3.030 --     9 C    1.469    11 C    1.295
    11   6 C    3.943 --    25 N    1.334    10 N    1.295    12 N    1.162
    12   7 N    3.445 --    11 C    1.162    13 C    1.160    41 H    0.904
    13   6 C    3.918 --    24 N    1.320    14 C    1.296    12 N    1.160
    14   6 C    3.933 --    15 C    1.498    13 C    1.296    42 H    0.952
    15   6 C    3.962 --    14 C    1.498    16 C    1.303    43 H    0.963
    16   6 C    3.915 --    15 C    1.303    23 C    1.301    17 N    1.178
    17   7 N    3.309 --    16 C    1.178    22 C    0.989    18 C    0.987
    18   6 C    3.966 --    19 C    0.988    17 N    0.987    44 H    0.963
                            45 H    0.962
    19   6 C    3.981 --    20 N    1.017    18 C    0.988    46 H    0.975
                            47 H    0.971
    20   7 N    3.053 --    19 C    1.017    21 C    1.004    48 H    0.961
    21   6 C    3.983 --    20 N    1.004    22 C    1.002    49 H    0.976
                            50 H    0.970
    22   6 C    3.969 --    21 C    1.002    17 N    0.989    52 H    0.967
                            51 H    0.959
    23   6 C    3.908 --    24 N    1.466    16 C    1.301    53 H    0.960
    24   7 N    3.022 --    23 C    1.466    13 C    1.320
    25   7 N    2.982 --    26 C    1.347    11 C    1.334
    26   6 C    3.946 --    25 N    1.347     8 C    1.203    27 N    1.185
    27   7 N    3.603 --    26 C    1.185     6 C    1.184    28 C    0.969
    28   6 C    3.946 --    29 C    0.983    32 C    0.974    27 N    0.969
                            54 H    0.955
    29   6 C    3.989 --    30 C    1.006    28 C    0.983    56 H    0.972
                            55 H    0.958
    30   6 C    3.995 --    31 C    1.007    29 C    1.006    57 H    0.978
                            58 H    0.978
    31   6 C    3.994 --    30 C    1.007    32 C    1.005    60 H    0.980
                            59 H    0.978
    32   6 C    3.987 --    31 C    1.005    61 H    0.981    62 H    0.976
                            28 C    0.974
    33   1 H    0.996 --     1 C    0.974
    34   1 H    0.996 --     1 C    0.978
    35   1 H    0.992 --     1 C    0.975
    36   1 H    0.983 --     3 C    0.895
    37   1 H    0.993 --     3 C    0.958
    38   1 H    0.994 --     3 C    0.955
    39   1 H    0.996 --     7 C    0.967
    40   1 H    0.991 --     9 C    0.956
    41   1 H    0.939 --    12 N    0.904
    42   1 H    0.988 --    14 C    0.952
    43   1 H    0.996 --    15 C    0.963
    44   1 H    0.992 --    18 C    0.963
    45   1 H    0.985 --    18 C    0.962
    46   1 H    0.997 --    19 C    0.975
    47   1 H    0.996 --    19 C    0.971
    48   1 H    0.979 --    20 N    0.961
    49   1 H    0.997 --    21 C    0.976
    50   1 H    0.997 --    21 C    0.970
    51   1 H    0.981 --    22 C    0.959
    52   1 H    0.992 --    22 C    0.967
    53   1 H    0.995 --    23 C    0.960
    54   1 H    0.991 --    28 C    0.955
    55   1 H    0.996 --    29 C    0.958
    56   1 H    0.998 --    29 C    0.972
    57   1 H    0.998 --    30 C    0.978
    58   1 H    0.998 --    30 C    0.978
    59   1 H    0.997 --    31 C    0.978
    60   1 H    0.998 --    31 C    0.980
    61   1 H    0.998 --    32 C    0.981
    62   1 H    0.996 --    32 C    0.976
    63  22 Ti   4.036 --    82 O    2.006    69 Ti   0.570    64 Ti   0.297
                            75 C    0.234    66 Ti   0.193    78 C    0.175
    64  22 Ti   4.409 --    83 O    1.908    70 Ti   0.380    65 Ti   0.305
                            63 Ti   0.297    75 C    0.268    76 C    0.248
                            67 Ti   0.125    66 Ti   0.123    69 Ti   0.115
                            71 Ti   0.109
    65  22 Ti   3.974 --    84 O    2.022    71 Ti   0.587    64 Ti   0.305
                            76 C    0.267    67 Ti   0.196    79 C    0.172
                            70 Ti   0.107
    66  22 Ti   4.457 --    85 O    1.750    78 C    0.662    75 C    0.509
                            87 O    0.225    63 Ti   0.193    72 Ti   0.169
                            68 Ti   0.147    77 C    0.144    64 Ti   0.123
    67  22 Ti   4.456 --    86 O    1.750    79 C    0.651    76 C    0.519
                            88 O    0.225    65 Ti   0.196    73 Ti   0.173
                            77 C    0.151    68 Ti   0.147    64 Ti   0.125
    68  22 Ti   4.456 --    88 O    1.125    87 O    1.122    77 C    0.494
                            80 C    0.423    81 C    0.422    74 Ti   0.269
                            66 Ti   0.147    67 Ti   0.147
    69  22 Ti   3.997 --    89 O    2.023    63 Ti   0.570    70 Ti   0.333
                            75 C    0.279    72 Ti   0.197    78 C    0.174
                            64 Ti   0.115
    70  22 Ti   4.427 --    90 O    1.909    64 Ti   0.380    69 Ti   0.333
                            71 Ti   0.324    75 C    0.269    76 C    0.257
                            72 Ti   0.134    73 Ti   0.127    65 Ti   0.107
    71  22 Ti   4.004 --    91 O    2.023    65 Ti   0.587    70 Ti   0.324
                            76 C    0.275    73 Ti   0.198    79 C    0.176
                            64 Ti   0.109
    72  22 Ti   4.432 --    92 O    1.744    78 C    0.650    75 C    0.517
                            94 O    0.221    69 Ti   0.197    66 Ti   0.169
                            77 C    0.159    74 Ti   0.151    70 Ti   0.134
    73  22 Ti   4.444 --    93 O    1.746    79 C    0.642    76 C    0.520
                            95 O    0.223    71 Ti   0.198    67 Ti   0.173
                            77 C    0.163    74 Ti   0.155    70 Ti   0.127
    74  22 Ti   4.456 --    94 O    1.113    95 O    1.109    77 C    0.502
                            80 C    0.433    81 C    0.430    68 Ti   0.269
                            73 Ti   0.155    72 Ti   0.151
    75   6 C    3.668 --    78 C    0.885    72 Ti   0.517    66 Ti   0.509
                            69 Ti   0.279    70 Ti   0.269    64 Ti   0.268
                            63 Ti   0.234
    76   6 C    3.675 --    79 C    0.892    73 Ti   0.520    67 Ti   0.519
                            71 Ti   0.275    65 Ti   0.267    70 Ti   0.257
                            64 Ti   0.248
    77   6 C    3.802 --    81 C    0.823    80 C    0.822    74 Ti   0.502
                            68 Ti   0.494    73 Ti   0.163    72 Ti   0.159
                            67 Ti   0.151    66 Ti   0.144
    78   6 C    3.296 --    75 C    0.885    66 Ti   0.662    72 Ti   0.650
                            80 C    0.227    63 Ti   0.175    69 Ti   0.174
    79   6 C    3.301 --    76 C    0.892    67 Ti   0.651    73 Ti   0.642
                            81 C    0.239    71 Ti   0.176    65 Ti   0.172
    80   6 C    3.315 --    77 C    0.822    74 Ti   0.433    68 Ti   0.423
                            94 O    0.400    87 O    0.366    78 C    0.227
                            81 C    0.133
    81   6 C    3.323 --    77 C    0.823    74 Ti   0.430    68 Ti   0.422
                            95 O    0.400    88 O    0.368    79 C    0.239
                            80 C    0.133
    82   8 O    2.260 --    63 Ti   2.006
    83   8 O    2.220 --    64 Ti   1.908
    84   8 O    2.263 --    65 Ti   2.022
    85   8 O    2.123 --    66 Ti   1.750
    86   8 O    2.119 --    67 Ti   1.750
    87   8 O    2.137 --    68 Ti   1.122    80 C    0.366    66 Ti   0.225
                            94 O    0.129
    88   8 O    2.138 --    68 Ti   1.125    81 C    0.368    67 Ti   0.225
                            95 O    0.130
    89   8 O    2.269 --    69 Ti   2.023
    90   8 O    2.233 --    70 Ti   1.909
    91   8 O    2.269 --    71 Ti   2.023
    92   8 O    2.126 --    72 Ti   1.744
    93   8 O    2.127 --    73 Ti   1.746
    94   8 O    2.157 --    74 Ti   1.113    80 C    0.400    72 Ti   0.221
                            87 O    0.129
    95   8 O    2.155 --    74 Ti   1.109    81 C    0.400    73 Ti   0.223
                            88 O    0.130
 ---------------------------------------------------------------------------

Topologies differ in total number of bonds
Writing topology from bond orders to xtbtopo.mol

molecular dipole:
                 x           y           z       tot (Debye)
 q only:        1.598      -9.448       7.457
   full:        2.254      -4.794       5.571      19.539
molecular quadrupole (traceless):
                xx          xy          yy          xz          yz          zz
 q only:       89.875      11.268      -1.486      52.089      -9.988     -88.388
  q+dip:       78.058       6.220      18.277      63.832     -20.591     -96.335
   full:       74.094       5.958      22.714      64.401     -19.743     -96.809


           -------------------------------------------------
          | TOTAL ENERGY             -179.094402313240 Eh   |
          | GRADIENT NORM               5.402340492886 Eh/α |
          | HOMO-LUMO GAP               0.058000467019 eV   |
           -------------------------------------------------

------------------------------------------------------------------------
 * finished run on 2026/08/31 at 20:40:02.570     
------------------------------------------------------------------------
 total:
 * wall-time:     0 d,  0 h,  0 min,  2.479 sec
 *  cpu-time:     0 d,  0 h,  0 min, 17.984 sec
 * ratio c/w:     7.255 speedup
 SCF:
 * wall-time:     0 d,  0 h,  0 min,  2.376 sec
 *  cpu-time:     0 d,  0 h,  0 min, 17.547 sec
 * ratio c/w:     7.385 speedup

normal termination of xtb
