72
Drug@Ti3C2O2 complex
O      6.365239      0.650017      7.221047
C      5.792954     -0.212236      6.559776
C      4.333096     -0.167264      6.157454
C      3.633454      1.089187      6.673216
C      2.124038      1.098209      6.412476
C      1.766434      1.095097      4.924215
C      0.281165      1.357455      4.656893
C     -0.640800      0.279089      5.225749
C     -2.096059      0.489720      4.827481
O     -2.450789      1.429992      4.127098
N     -2.908902     -0.500789      5.356773
C     -4.304008     -0.642122      5.204884
C     -5.102792      0.229893      4.463556
C     -6.481847      0.016830      4.363342
C     -7.073606     -1.069386      5.003069
C     -6.286700     -1.945417      5.744919
C     -4.909071     -1.732492      5.844964
N      6.445081     -1.342378      6.115265
O      7.841418     -1.352134      6.355984
H      3.841401     -1.061035      6.558709
H      4.285417     -0.207576      5.063743
H      4.091414      1.978435      6.222200
H      3.794058      1.176505      7.755371
H      1.701293      1.993947      6.883821
H      1.670551      0.232923      6.909500
H      2.347936      1.871156      4.411538
H      2.046926      0.136653      4.472422
H      0.000205      2.336541      5.064690
H      0.136237      1.423335      3.571039
H     -0.590209      0.277508      6.320290
H     -0.326991     -0.706542      4.862185
H     -2.455065     -1.205898      5.922890
H     -4.685655      1.089305      3.948392
H     -7.090879      0.705108      3.782462
H     -8.145343     -1.230758      4.922639
H     -6.744170     -2.794351      6.246188
H     -4.319579     -2.432293      6.431036
H      6.138840     -1.837001      5.284079
H      7.975309     -0.517233      6.858104
Ti     -3.000000     -2.600000      1.250000
Ti      0.000000     -2.600000      1.250000
Ti      3.000000     -2.600000      1.250000
Ti     -1.500000      0.000000      1.250000
Ti      1.500000      0.000000      1.250000
Ti      0.000000      2.600000      1.250000
Ti     -3.000000     -2.600000     -1.250000
Ti      0.000000     -2.600000     -1.250000
Ti      3.000000     -2.600000     -1.250000
Ti     -1.500000      0.000000     -1.250000
Ti      1.500000      0.000000     -1.250000
Ti      0.000000      2.600000     -1.250000
C     -1.500000     -1.300000      0.000000
C      1.500000     -1.300000      0.000000
C      0.000000      1.300000      0.000000
C     -3.000000      0.000000      0.000000
C      3.000000      0.000000      0.000000
C     -1.500000      2.600000      0.000000
C      1.500000      2.600000      0.000000
O     -3.000000     -2.600000      2.450000
O      0.000000     -2.600000      2.450000
O      3.000000     -2.600000      2.450000
O     -1.500000      0.000000      2.450000
O      1.500000      0.000000      2.450000
O     -1.500000      2.600000      2.450000
O      1.500000      2.600000      2.450000
O     -3.000000     -2.600000     -2.450000
O      0.000000     -2.600000     -2.450000
O      3.000000     -2.600000     -2.450000
O     -1.500000      0.000000     -2.450000
O      1.500000      0.000000     -2.450000
O     -1.500000      2.600000     -2.450000
O      1.500000      2.600000     -2.450000
