      -----------------------------------------------------------      
     |                   =====================                   |     
     |                           x T B                           |     
     |                   =====================                   |     
     |                         S. Grimme                         |     
     |          Mulliken Center for Theoretical Chemistry        |     
     |                    University of Bonn                     |     
      -----------------------------------------------------------      

   * xtb version 6.7.1pre (5071a88) compiled by 'Marcel@Raven' on 2024-07-23

   xtb is free software: you can redistribute it and/or modify it under
   the terms of the GNU Lesser General Public License as published by
   the Free Software Foundation, either version 3 of the License, or
   (at your option) any later version.
   
   xtb is distributed in the hope that it will be useful,
   but WITHOUT ANY WARRANTY; without even the implied warranty of
   MERCHANTABILITY or FITNESS FOR A PARTICULAR PURPOSE.  See the
   GNU Lesser General Public License for more details.
   
   Cite this work as:
   * C. Bannwarth, E. Caldeweyher, S. Ehlert, A. Hansen, P. Pracht,
     J. Seibert, S. Spicher, S. Grimme, WIREs Comput. Mol. Sci., 2020, 11,
     e01493. DOI: 10.1002/wcms.1493
   
   for GFN2-xTB:
   * C. Bannwarth, S. Ehlert and S. Grimme., J. Chem. Theory Comput., 2019,
     15, 1652-1671. DOI: 10.1021/acs.jctc.8b01176
   for GFN1-xTB:
   * S. Grimme, C. Bannwarth, P. Shushkov, J. Chem. Theory Comput., 2017,
     13, 1989-2009. DOI: 10.1021/acs.jctc.7b00118
   for GFN0-xTB:
   * P. Pracht, E. Caldeweyher, S. Ehlert, S. Grimme, ChemRxiv, 2019, preprint.
     DOI: 10.26434/chemrxiv.8326202.v1
   for GFN-FF:
   * S. Spicher and S. Grimme, Angew. Chem. Int. Ed., 2020, 59, 15665-15673.
     DOI: 10.1002/anie.202004239
   
   for ALPB and GBSA implicit solvation:
   * S. Ehlert, M. Stahn, S. Spicher, S. Grimme, J. Chem. Theory Comput.,
     2021, 17, 4250-4261. DOI: 10.1021/acs.jctc.1c00471
   
   for ddCOSMO and CPCM-X implicit solvation:
   * M. Stahn, S. Ehlert, S. Grimme, J. Phys. Chem. A,
     2023, XX, XXXX-XXXX. DOI: 10.1021/acs.jpca.3c04382
   
   for DFT-D4:
   * E. Caldeweyher, C. Bannwarth and S. Grimme, J. Chem. Phys., 2017,
     147, 034112. DOI: 10.1063/1.4993215
   * E. Caldeweyher, S. Ehlert, A. Hansen, H. Neugebauer, S. Spicher,
     C. Bannwarth and S. Grimme, J. Chem. Phys., 2019, 150, 154122.
     DOI: 10.1063/1.5090222
   * E. Caldeweyher, J.-M. Mewes, S. Ehlert and S. Grimme, Phys. Chem. Chem. Phys.
     2020, 22, 8499-8512. DOI: 10.1039/D0CP00502A
   
   for sTDA-xTB:
   * S. Grimme and C. Bannwarth, J. Chem. Phys., 2016, 145, 054103.
     DOI: 10.1063/1.4959605
   
   in the mass-spec context:
   * V. Asgeirsson, C. Bauer and S. Grimme, Chem. Sci., 2017, 8, 4879.
     DOI: 10.1039/c7sc00601b
   * J. Koopman and S. Grimme, ACS Omega 2019, 4, 12, 15120-15133.
     DOI: 10.1021/acsomega.9b02011
   
   for metadynamics refer to:
   * S. Grimme, J. Chem. Theory Comput., 2019, 155, 2847-2862
     DOI: 10.1021/acs.jctc.9b00143
   
   for SPH calculations refer to:
   * S. Spicher and S. Grimme, J. Chem. Theory Comput., 2021, 17, 1701-1714
     DOI: 10.1021/acs.jctc.0c01306
   
   for ONIOM refer to:
   * C. Plett, A. Katbashev, S. Ehlert, S. Grimme, M. Bursch,
     Phys. Chem. Chem. Phys., 2023, 25, 17860-17868. DOI: 10.1039/D3CP02178E
   
   for DIPRO refer to:
   * J. Kohn, N. Gildemeister, S. Grimme, D. Fazzi, A. Hansen,
     J. Chem. Phys., 2023, just accepted.
   
   for PTB refer to:
   * S. Grimme, M. Mueller, A. Hansen, J. Chem. Phys., 2023, 158, 124111.
     DOI: 10.1063/5.0137838
   
   with help from (in alphabetical order)
   P. Atkinson, C. Bannwarth, F. Bohle, G. Brandenburg, E. Caldeweyher
   M. Checinski, S. Dohm, S. Ehlert, S. Ehrlich, I. Gerasimov, C. Hölzer
   A. Katbashev, J. Kohn, J. Koopman, C. Lavigne, S. Lehtola, F. März, M. Müller,
   F. Musil, H. Neugebauer, J. Pisarek, C. Plett, P. Pracht, F. Pultar,
   J. Seibert, P. Shushkov, S. Spicher, M. Stahn, M. Steiner, T. Strunk,
   J. Stückrath, T. Rose, and J. Unsleber
   
 * started run on 2026/08/31 at 20:52:57.846     
   ID    Z sym.   atoms
    1    8 O      1, 10, 19, 59-72
    2    6 C      2-9, 12-17, 52-58
    3    7 N      11, 18
    4    1 H      20-39
    5   22 Ti     40-51

           -------------------------------------------------
          |                Calculation Setup                |
           -------------------------------------------------

          program call               : "c:\Users\Andre\Proyectos doctorado\kras-pancreatic-gC3N4-ai\tools\xtb\xtb-6.7.1\bin\xtb.exe" "c:\Users\Andre\Proyectos doctorado\mxene-glioblastoma-qsar-ai\calculations\gbm\Vorinostat\Vorinostat_Ti3C2O2_complex.xyz" --gfn 2 --sp --chrg 0 --uhf 0 --iterations 500 --norestart
          coordinate file            : c:\Users\Andre\Proyectos doctorado\mxene-glioblastoma-qsar-ai\calculations\gbm\Vorinostat\Vorinostat_Ti3C2O2_complex.xyz
          omp threads                :                    16


molecular fragmentation (1/2 indicates fragments):
111111111111111111111111111111111111111222222222222222222222222222222222
# atoms in fragment 1/2:    39    33
 fragment masses (1/2) :      264.32      882.47
CMA distance (Bohr)    :  10.561
constraining FC (au)   :  0.0500

           -------------------------------------------------
          |                 G F N 2 - x T B                 |
           -------------------------------------------------

        Reference                      10.1021/acs.jctc.8b01176
      * Hamiltonian:
        H0-scaling (s, p, d)           1.850000    2.230000    2.230000
        zeta-weighting                 0.500000
      * Dispersion:
        s8                             2.700000
        a1                             0.520000
        a2                             5.000000
        s9                             5.000000
      * Repulsion:
        kExp                           1.500000    1.000000
        rExp                           1.000000
      * Coulomb:
        alpha                          2.000000
        third order                    shell-resolved
        anisotropic                    true
        a3                             3.000000
        a5                             4.000000
        cn-shift                       1.200000
        cn-exp                         4.000000
        max-rad                        5.000000


          ...................................................
          :                      SETUP                      :
          :.................................................:
          :  # basis functions                 300          :
          :  # atomic orbitals                 288          :
          :  # shells                          136          :
          :  # electrons                       264          :
          :  max. iterations                   500          :
          :  Hamiltonian                  GFN2-xTB          :
          :  restarted?                      false          :
          :  GBSA solvation                  false          :
          :  PC potential                    false          :
          :  electronic temp.          300.0000000     K    :
          :  accuracy                    1.0000000          :
          :  -> integral cutoff          0.2500000E+02      :
          :  -> integral neglect         0.1000000E-07      :
          :  -> SCF convergence          0.1000000E-05 Eh   :
          :  -> wf. convergence          0.1000000E-03 e    :
          :  Broyden damping             0.4000000          :
          :  net charge                          0          :
          :  unpaired electrons                  0          :
          ...................................................

 iter      E             dE          RMSdq      gap      omega  full diag
   1   -147.2758458 -0.147276E+03  0.132E+01    0.05       0.0  T
   2   -113.5162937  0.337596E+02  0.172E+01    0.01       1.0  T
   3    -68.4886649  0.450276E+02  0.232E+01    0.10       1.0  T
   4   -135.7835235 -0.672949E+02  0.109E+01    0.09       1.0  T
   5   -139.9811866 -0.419766E+01  0.127E+01    0.16       1.0  T
   6   -142.7116254 -0.273044E+01  0.911E+00    0.30       1.0  T
   7   -145.9737161 -0.326209E+01  0.722E+00    0.06       1.0  T
   8   -145.9717495  0.196660E-02  0.673E+00    0.09       1.0  T
   9   -148.4946656 -0.252292E+01  0.586E+00    0.29       1.0  T
  10   -148.0878921  0.406773E+00  0.540E+00    0.21       1.0  T
  11   -149.6305083 -0.154262E+01  0.444E+00    0.11       1.0  T
  12   -149.6252629  0.524546E-02  0.413E+00    0.13       1.0  T
  13   -149.9450310 -0.319768E+00  0.362E+00    0.15       1.0  T
  14   -149.8467611  0.982699E-01  0.302E+00    0.11       1.0  T
  15   -150.5135944 -0.666833E+00  0.238E+00    0.12       1.0  T
  16   -150.4801888  0.334056E-01  0.228E+00    0.06       1.0  T
  17   -150.5582683 -0.780794E-01  0.161E+00    0.15       1.0  T
  18   -150.4410032  0.117265E+00  0.164E+00    0.03       1.0  T
  19   -150.6386568 -0.197654E+00  0.119E+00    0.13       1.0  T
  20   -150.6330535  0.560334E-02  0.120E+00    0.12       1.0  T
  21   -150.6822494 -0.491959E-01  0.855E-01    0.16       1.0  T
  22   -150.6189529  0.632965E-01  0.858E-01    0.05       1.0  T
  23   -150.6840368 -0.650839E-01  0.713E-01    0.17       1.0  T
  24   -150.6899335 -0.589670E-02  0.570E-01    0.18       1.0  T
  25   -150.6912316 -0.129809E-02  0.509E-01    0.18       1.0  T
  26   -150.6960629 -0.483127E-02  0.459E-01    0.17       1.0  T
  27   -150.6988021 -0.273922E-02  0.417E-01    0.16       1.0  T
  28   -150.7029640 -0.416184E-02  0.329E-01    0.16       1.0  T
  29   -150.7057859 -0.282191E-02  0.279E-01    0.15       1.0  T
  30   -150.7075739 -0.178799E-02  0.228E-01    0.15       1.0  T
  31   -150.7082237 -0.649827E-03  0.194E-01    0.15       1.0  T
  32   -150.7105524 -0.232870E-02  0.147E-01    0.13       1.0  T
  33   -150.7105732 -0.208244E-04  0.141E-01    0.13       1.0  T
  34   -150.7109395 -0.366251E-03  0.129E-01    0.13       1.0  T
  35   -150.7109867 -0.472502E-04  0.120E-01    0.13       1.0  T
  36   -150.7113637 -0.376939E-03  0.105E-01    0.12       1.0  T
  37   -150.7116676 -0.303890E-03  0.847E-02    0.12       1.0  T
  38   -150.7119830 -0.315439E-03  0.630E-02    0.12       1.0  T
  39   -150.7120647 -0.816920E-04  0.528E-02    0.12       1.0  T
  40   -150.7120383  0.263720E-04  0.549E-02    0.12       1.0  T
  41   -150.7120599 -0.216166E-04  0.530E-02    0.12       1.0  T
  42   -150.7121272 -0.672490E-04  0.446E-02    0.12       1.0  T
  43   -150.7121227  0.447148E-05  0.441E-02    0.12       1.0  T
  44   -150.7121389 -0.162053E-04  0.409E-02    0.12       1.0  T
  45   -150.7121511 -0.121500E-04  0.382E-02    0.12       1.0  T
  46   -150.7121584 -0.731242E-05  0.359E-02    0.12       1.0  T
  47   -150.7121734 -0.149738E-04  0.308E-02    0.12       1.0  T
  48   -150.7121938 -0.204611E-04  0.245E-02    0.12       1.0  T
  49   -150.7122002 -0.639905E-05  0.216E-02    0.12       1.0  T
  50   -150.7122100 -0.981162E-05  0.183E-02    0.11       1.0  T
  51   -150.7122174 -0.737655E-05  0.154E-02    0.11       1.0  T
  52   -150.7122243 -0.688048E-05  0.121E-02    0.11       1.0  T
  53   -150.7122279 -0.357504E-05  0.976E-03    0.11       1.2  T
  54   -150.7122313 -0.342919E-05  0.714E-03    0.11       1.7  T
  55   -150.7122345 -0.321673E-05  0.398E-03    0.11       3.0  T
  56   -150.7122353 -0.833881E-06  0.273E-03    0.11       4.3  T
  57   -150.7122359 -0.516669E-06  0.146E-03    0.11       8.0  T
  58   -150.7122360 -0.120739E-06  0.894E-04    0.11      13.2  T
  59   -150.7122360 -0.282250E-07  0.666E-04    0.11      17.7  T

   *** convergence criteria satisfied after 59 iterations ***

         #    Occupation            Energy/Eh            Energy/eV
      -------------------------------------------------------------
         1        2.0000           -0.9224798             -25.1020
       ...           ...                  ...                  ...
       126        2.0000           -0.4015487             -10.9267
       127        2.0000           -0.3990813             -10.8596
       128        1.9998           -0.3968430             -10.7986
       129        1.9972           -0.3940971             -10.7239
       130        1.9831           -0.3923654             -10.6768
       131        1.9757           -0.3920192             -10.6674
       132        1.7539           -0.3897058             -10.6044 (HOMO)
       133        0.1635           -0.3855425             -10.4911 (LUMO)
       134        0.1016           -0.3850591             -10.4780
       135        0.0251           -0.3836933             -10.4408
       136                         -0.3690874             -10.0434
       137                         -0.3644997              -9.9185
       ...                                ...                  ...
       288                         18.1551029             494.0255
      -------------------------------------------------------------
                  HL-Gap            0.0041634 Eh            0.1133 eV
             Fermi-level           -0.3878402 Eh          -10.5537 eV

 SCC (total)                   0 d,  0 h,  0 min,  1.126 sec
 SCC setup                      ...        0 min,  0.001 sec (  0.089%)
 Dispersion                     ...        0 min,  0.001 sec (  0.089%)
 classical contributions        ...        0 min,  0.001 sec (  0.089%)
 integral evaluation            ...        0 min,  0.008 sec (  0.710%)
 iterations                     ...        0 min,  1.094 sec ( 97.158%)
 molecular gradient             ...        0 min,  0.019 sec (  1.687%)
 printout                       ...        0 min,  0.002 sec (  0.178%)

         :::::::::::::::::::::::::::::::::::::::::::::::::::::
         ::                     SUMMARY                     ::
         :::::::::::::::::::::::::::::::::::::::::::::::::::::
         :: total energy            -145.162726249933 Eh    ::
         :: gradient norm              5.388937220928 Eh/a0 ::
         :: HOMO-LUMO gap              0.113291366276 eV    ::
         ::.................................................::
         :: SCC energy              -150.708596191568 Eh    ::
         :: -> isotropic ES            0.802277149567 Eh    ::
         :: -> anisotropic ES          0.012865932318 Eh    ::
         :: -> anisotropic XC         -0.076025121773 Eh    ::
         :: -> dispersion             -0.135225888549 Eh    ::
         :: repulsion energy           5.545869941635 Eh    ::
         :: add. restraining           0.000000000000 Eh    ::
         :: total charge              -0.000000000000 e     ::
         :::::::::::::::::::::::::::::::::::::::::::::::::::::

           -------------------------------------------------
          |                Property Printout                |
           -------------------------------------------------

    * Orbital Energies and Occupations

         #    Occupation            Energy/Eh            Energy/eV
      -------------------------------------------------------------
         1        2.0000           -0.9224798             -25.1020
       ...           ...                  ...                  ...
       120        2.0000           -0.4147875             -11.2869
       121        2.0000           -0.4123034             -11.2193
       122        2.0000           -0.4097241             -11.1492
       123        2.0000           -0.4075065             -11.0888
       124        2.0000           -0.4060534             -11.0493
       125        2.0000           -0.4020847             -10.9413
       126        2.0000           -0.4015487             -10.9267
       127        2.0000           -0.3990813             -10.8596
       128        1.9998           -0.3968430             -10.7986
       129        1.9972           -0.3940971             -10.7239
       130        1.9831           -0.3923654             -10.6768
       131        1.9757           -0.3920192             -10.6674
       132        1.7539           -0.3897058             -10.6044 (HOMO)
       133        0.1635           -0.3855425             -10.4911 (LUMO)
       134        0.1016           -0.3850591             -10.4780
       135        0.0251           -0.3836933             -10.4408
       136                         -0.3690874             -10.0434
       137                         -0.3644997              -9.9185
       138                         -0.3620633              -9.8522
       139                         -0.3609012              -9.8206
       140                         -0.3532531              -9.6125
       141                         -0.3513967              -9.5620
       142                         -0.3501637              -9.5284
       143                         -0.3493681              -9.5068
       ...                                ...                  ...
       288                         18.1551029             494.0255
      -------------------------------------------------------------
                  HL-Gap            0.0041634 Eh            0.1133 eV
             Fermi-level           -0.3878402 Eh          -10.5537 eV

     #   Z          covCN         q      C6AA      α(0)
     1   8 O        0.857    -0.424    22.158     6.311
     2   6 C        2.745     0.260    22.615     7.787
     3   6 C        3.805    -0.105    22.496     6.752
     4   6 C        3.801    -0.063    21.716     6.635
     5   6 C        3.799    -0.076    21.948     6.670
     6   6 C        3.799    -0.088    22.184     6.706
     7   6 C        3.800    -0.076    21.952     6.671
     8   6 C        3.805    -0.107    22.542     6.759
     9   6 C        2.746     0.282    22.223     7.719
    10   8 O        0.857    -0.279    19.410     5.907
    11   7 N        2.693    -0.136    23.955     7.269
    12   6 C        2.895     0.084    26.123     8.380
    13   6 C        2.915    -0.045    29.125     8.850
    14   6 C        2.912    -0.030    28.752     8.793
    15   6 C        2.911    -0.036    28.895     8.814
    16   6 C        2.911    -0.030    28.758     8.794
    17   6 C        2.920    -0.051    29.276     8.873
    18   7 N        2.686    -0.080    22.795     7.091
    19   8 O        1.714    -0.362    20.103     6.054
    20   1 H        0.924     0.070     2.090     2.261
    21   1 H        0.924     0.072     2.068     2.249
    22   1 H        0.924     0.058     2.218     2.329
    23   1 H        0.924     0.059     2.210     2.325
    24   1 H        0.924     0.051     2.304     2.374
    25   1 H        0.924     0.040     2.450     2.448
    26   1 H        0.924     0.099     1.795     2.095
    27   1 H        0.924     0.098     1.803     2.100
    28   1 H        0.924     0.089     1.891     2.150
    29   1 H        0.925     0.139     1.470     1.896
    30   1 H        0.924     0.086     1.921     2.168
    31   1 H        0.924     0.102     1.768     2.079
    32   1 H        0.860     0.201     1.099     1.642
    33   1 H        0.925     0.093     1.846     2.125
    34   1 H        0.925     0.051     2.309     2.376
    35   1 H        0.925     0.043     2.403     2.424
    36   1 H        0.925     0.046     2.372     2.408
    37   1 H        0.925     0.045     2.384     2.415
    38   1 H        0.860     0.188     1.171     1.695
    39   1 H        0.802     0.340     0.613     1.230
    40  22 Ti       4.151     0.794    91.371    16.203
    41  22 Ti       6.350     0.750    92.058    15.578
    42  22 Ti       4.151     0.792    91.388    16.205
    43  22 Ti       7.450     1.038    89.052    15.321
    44  22 Ti       7.449     1.034    89.087    15.324
    45  22 Ti       6.521     1.057    88.851    15.304
    46  22 Ti       4.151     0.816    91.136    16.182
    47  22 Ti       6.350     0.772    91.822    15.557
    48  22 Ti       4.151     0.816    91.136    16.182
    49  22 Ti       7.449     1.065    88.772    15.297
    50  22 Ti       7.449     1.065    88.771    15.297
    51  22 Ti       6.519     1.084    88.585    15.281
    52   6 C        5.128    -0.738    39.990     8.981
    53   6 C        5.128    -0.739    40.023     8.985
    54   6 C        5.649    -0.581    34.419     8.332
    55   6 C        2.445    -0.402    40.407    10.371
    56   6 C        2.445    -0.402    40.431    10.375
    57   6 C        2.445    -0.330    37.866    10.040
    58   6 C        2.445    -0.329    37.826    10.035
    59   8 O        0.728    -0.540    24.767     6.669
    60   8 O        0.729    -0.579    25.689     6.792
    61   8 O        0.728    -0.538    24.719     6.662
    62   8 O        0.729    -0.649    27.428     7.018
    63   8 O        0.729    -0.646    27.361     7.009
    64   8 O        0.753    -0.534    24.601     6.647
    65   8 O        0.753    -0.590    25.943     6.826
    66   8 O        0.728    -0.538    24.710     6.661
    67   8 O        0.729    -0.576    25.603     6.780
    68   8 O        0.728    -0.536    24.666     6.655
    69   8 O        0.729    -0.657    27.645     7.046
    70   8 O        0.729    -0.656    27.601     7.040
    71   8 O        0.753    -0.566    25.358     6.749
    72   8 O        0.753    -0.564    25.307     6.742

 Mol. C6AA /au·bohr⁶  :     120954.583087
 Mol. C8AA /au·bohr⁸  :    5591568.885605
 Mol. α(0) /au        :        533.770040


Wiberg/Mayer (AO) data.
largest (>0.10) Wiberg bond orders for each atom

 ---------------------------------------------------------------------------
     #   Z sym  total        # sym  WBO       # sym  WBO       # sym  WBO
 ---------------------------------------------------------------------------
     1   8 O    2.025 --     2 C    1.685    18 N    0.186
     2   6 C    3.947 --     1 O    1.685    18 N    1.215     3 C    0.977
     3   6 C    3.986 --     4 C    1.007     2 C    0.977    20 H    0.953
                            21 H    0.944
     4   6 C    3.988 --     3 C    1.007     5 C    1.006    22 H    0.974
                            23 H    0.973
     5   6 C    3.986 --     4 C    1.006     6 C    1.005    25 H    0.973
                            24 H    0.973
     6   6 C    3.969 --     5 C    1.005     7 C    0.997    26 H    0.937
                            27 H    0.914
     7   6 C    3.968 --     8 C    1.007     6 C    0.997    28 H    0.957
                            29 H    0.836
     8   6 C    3.962 --     7 C    1.007     9 C    0.955    30 H    0.947
                            31 H    0.929
     9   6 C    3.928 --    10 O    1.671    11 N    1.178     8 C    0.955
    10   8 O    2.137 --     9 C    1.671    11 N    0.135
    11   7 N    3.459 --     9 C    1.178    12 C    1.079    32 H    0.927
                            10 O    0.135
    12   6 C    3.938 --    13 C    1.356    17 C    1.346    11 N    1.079
    13   6 C    3.963 --    14 C    1.444    12 C    1.356    33 H    0.941
                            16 C    0.106
    14   6 C    3.980 --    13 C    1.444    15 C    1.430    34 H    0.969
                            17 C    0.108
    15   6 C    3.955 --    14 C    1.430    16 C    1.425    35 H    0.970
    16   6 C    3.984 --    17 C    1.455    15 C    1.425    36 H    0.970
                            13 C    0.106
    17   6 C    3.966 --    16 C    1.455    12 C    1.346    37 H    0.965
                            14 C    0.108
    18   7 N    3.365 --     2 C    1.215    19 O    0.996    38 H    0.933
                             1 O    0.186
    19   8 O    1.933 --    18 N    0.996    39 H    0.848
    20   1 H    0.995 --     3 C    0.953
    21   1 H    0.994 --     3 C    0.944
    22   1 H    0.996 --     4 C    0.974
    23   1 H    0.994 --     4 C    0.973
    24   1 H    0.994 --     5 C    0.973
    25   1 H    0.996 --     5 C    0.973
    26   1 H    0.987 --     6 C    0.937
    27   1 H    0.987 --     6 C    0.914
    28   1 H    0.990 --     7 C    0.957
    29   1 H    0.973 --     7 C    0.836
    30   1 H    0.987 --     8 C    0.947
    31   1 H    0.988 --     8 C    0.929
    32   1 H    0.958 --    11 N    0.927
    33   1 H    0.988 --    13 C    0.941
    34   1 H    0.996 --    14 C    0.969
    35   1 H    0.997 --    15 C    0.970
    36   1 H    0.996 --    16 C    0.970
    37   1 H    0.997 --    17 C    0.965
    38   1 H    0.965 --    18 N    0.933
    39   1 H    0.885 --    19 O    0.848
    40  22 Ti   4.006 --    59 O    2.017    46 Ti   0.590    41 Ti   0.311
                            52 C    0.285    43 Ti   0.194    55 C    0.174
                            47 Ti   0.104
    41  22 Ti   4.434 --    60 O    1.910    47 Ti   0.369    40 Ti   0.311
                            42 Ti   0.311    53 C    0.261    52 C    0.258
                            44 Ti   0.124    43 Ti   0.116    48 Ti   0.113
                            46 Ti   0.113    56 C    0.101
    42  22 Ti   3.982 --    61 O    2.021    48 Ti   0.585    41 Ti   0.311
                            53 C    0.281    44 Ti   0.195    56 C    0.175
                            47 Ti   0.107
    43  22 Ti   4.457 --    62 O    1.750    55 C    0.633    52 C    0.471
                            64 O    0.199    40 Ti   0.194    45 Ti   0.150
                            49 Ti   0.147    54 C    0.140    41 Ti   0.116
    44  22 Ti   4.451 --    63 O    1.751    56 C    0.641    53 C    0.489
                            65 O    0.207    42 Ti   0.195    50 Ti   0.151
                            45 Ti   0.148    54 C    0.140    41 Ti   0.124
    45  22 Ti   4.461 --    65 O    1.120    64 O    1.087    54 C    0.469
                            58 C    0.408    57 C    0.396    51 Ti   0.248
                            43 Ti   0.150    44 Ti   0.148
    46  22 Ti   4.039 --    66 O    2.019    40 Ti   0.590    47 Ti   0.328
                            52 C    0.290    49 Ti   0.196    55 C    0.187
                            41 Ti   0.113
    47  22 Ti   4.488 --    67 O    1.906    41 Ti   0.369    46 Ti   0.328
                            48 Ti   0.328    53 C    0.275    52 C    0.274
                            49 Ti   0.135    50 Ti   0.134    42 Ti   0.107
                            40 Ti   0.104
    48  22 Ti   4.026 --    68 O    2.020    42 Ti   0.585    47 Ti   0.328
                            53 C    0.282    50 Ti   0.195    56 C    0.186
                            41 Ti   0.113
    49  22 Ti   4.424 --    69 O    1.731    55 C    0.638    52 C    0.504
                            71 O    0.230    46 Ti   0.196    54 C    0.175
                            51 Ti   0.165    43 Ti   0.147    47 Ti   0.135
    50  22 Ti   4.422 --    70 O    1.733    56 C    0.635    53 C    0.507
                            72 O    0.229    48 Ti   0.195    54 C    0.173
                            51 Ti   0.163    44 Ti   0.151    47 Ti   0.134
    51  22 Ti   4.428 --    71 O    1.100    72 O    1.097    54 C    0.504
                            57 C    0.433    58 C    0.431    45 Ti   0.248
                            49 Ti   0.165    50 Ti   0.163
    52   6 C    3.679 --    55 C    0.880    49 Ti   0.504    43 Ti   0.471
                            46 Ti   0.290    40 Ti   0.285    47 Ti   0.274
                            41 Ti   0.258
    53   6 C    3.681 --    56 C    0.881    50 Ti   0.507    44 Ti   0.489
                            48 Ti   0.282    42 Ti   0.281    47 Ti   0.275
                            41 Ti   0.261
    54   6 C    3.794 --    58 C    0.821    57 C    0.817    51 Ti   0.504
                            45 Ti   0.469    49 Ti   0.175    50 Ti   0.173
                            44 Ti   0.140    43 Ti   0.140
    55   6 C    3.342 --    52 C    0.880    49 Ti   0.638    43 Ti   0.633
                            57 C    0.266    46 Ti   0.187    40 Ti   0.174
    56   6 C    3.330 --    53 C    0.881    44 Ti   0.641    50 Ti   0.635
                            58 C    0.256    48 Ti   0.186    42 Ti   0.175
                            41 Ti   0.101
    57   6 C    3.341 --    54 C    0.817    51 Ti   0.433    45 Ti   0.396
                            71 O    0.378    64 O    0.374    55 C    0.266
                            58 C    0.143
    58   6 C    3.342 --    54 C    0.821    51 Ti   0.431    45 Ti   0.408
                            72 O    0.400    65 O    0.364    56 C    0.256
                            57 C    0.143
    59   8 O    2.266 --    40 Ti   2.017
    60   8 O    2.228 --    41 Ti   1.910
    61   8 O    2.269 --    42 Ti   2.021
    62   8 O    2.129 --    43 Ti   1.750
    63   8 O    2.134 --    44 Ti   1.751
    64   8 O    2.131 --    45 Ti   1.087    57 C    0.374    43 Ti   0.199
                            71 O    0.118
    65   8 O    2.135 --    45 Ti   1.120    58 C    0.364    44 Ti   0.207
                            72 O    0.133
    66   8 O    2.267 --    46 Ti   2.019
    67   8 O    2.232 --    47 Ti   1.906
    68   8 O    2.269 --    48 Ti   2.020
    69   8 O    2.122 --    49 Ti   1.731
    70   8 O    2.124 --    50 Ti   1.733
    71   8 O    2.127 --    51 Ti   1.100    57 C    0.378    49 Ti   0.230
                            64 O    0.118
    72   8 O    2.156 --    51 Ti   1.097    58 C    0.400    50 Ti   0.229
                            65 O    0.133
 ---------------------------------------------------------------------------

Topologies differ in total number of bonds
Writing topology from bond orders to xtbtopo.mol

molecular dipole:
                 x           y           z       tot (Debye)
 q only:       -1.976      -9.246       5.152
   full:       -2.082      -5.221       2.256      15.393
molecular quadrupole (traceless):
                xx          xy          yy          xz          yz          zz
 q only:       19.206       3.163      44.647     -43.296     -10.966     -63.853
  q+dip:       17.376       6.570      66.287     -47.722     -17.150     -83.663
   full:       16.097       6.350      72.335     -47.880     -15.563     -88.431


           -------------------------------------------------
          | TOTAL ENERGY             -145.162726249933 Eh   |
          | GRADIENT NORM               5.388937220928 Eh/α |
          | HOMO-LUMO GAP               0.113291366276 eV   |
           -------------------------------------------------

------------------------------------------------------------------------
 * finished run on 2026/08/31 at 20:52:59.020     
------------------------------------------------------------------------
 total:
 * wall-time:     0 d,  0 h,  0 min,  1.172 sec
 *  cpu-time:     0 d,  0 h,  0 min,  8.422 sec
 * ratio c/w:     7.186 speedup
 SCF:
 * wall-time:     0 d,  0 h,  0 min,  1.127 sec
 *  cpu-time:     0 d,  0 h,  0 min,  8.188 sec
 * ratio c/w:     7.265 speedup

normal termination of xtb
