      -----------------------------------------------------------      
     |                   =====================                   |     
     |                           x T B                           |     
     |                   =====================                   |     
     |                         S. Grimme                         |     
     |          Mulliken Center for Theoretical Chemistry        |     
     |                    University of Bonn                     |     
      -----------------------------------------------------------      

   * xtb version 6.7.1pre (5071a88) compiled by 'Marcel@Raven' on 2024-07-23

   xtb is free software: you can redistribute it and/or modify it under
   the terms of the GNU Lesser General Public License as published by
   the Free Software Foundation, either version 3 of the License, or
   (at your option) any later version.
   
   xtb is distributed in the hope that it will be useful,
   but WITHOUT ANY WARRANTY; without even the implied warranty of
   MERCHANTABILITY or FITNESS FOR A PARTICULAR PURPOSE.  See the
   GNU Lesser General Public License for more details.
   
   Cite this work as:
   * C. Bannwarth, E. Caldeweyher, S. Ehlert, A. Hansen, P. Pracht,
     J. Seibert, S. Spicher, S. Grimme, WIREs Comput. Mol. Sci., 2020, 11,
     e01493. DOI: 10.1002/wcms.1493
   
   for GFN2-xTB:
   * C. Bannwarth, S. Ehlert and S. Grimme., J. Chem. Theory Comput., 2019,
     15, 1652-1671. DOI: 10.1021/acs.jctc.8b01176
   for GFN1-xTB:
   * S. Grimme, C. Bannwarth, P. Shushkov, J. Chem. Theory Comput., 2017,
     13, 1989-2009. DOI: 10.1021/acs.jctc.7b00118
   for GFN0-xTB:
   * P. Pracht, E. Caldeweyher, S. Ehlert, S. Grimme, ChemRxiv, 2019, preprint.
     DOI: 10.26434/chemrxiv.8326202.v1
   for GFN-FF:
   * S. Spicher and S. Grimme, Angew. Chem. Int. Ed., 2020, 59, 15665-15673.
     DOI: 10.1002/anie.202004239
   
   for ALPB and GBSA implicit solvation:
   * S. Ehlert, M. Stahn, S. Spicher, S. Grimme, J. Chem. Theory Comput.,
     2021, 17, 4250-4261. DOI: 10.1021/acs.jctc.1c00471
   
   for ddCOSMO and CPCM-X implicit solvation:
   * M. Stahn, S. Ehlert, S. Grimme, J. Phys. Chem. A,
     2023, XX, XXXX-XXXX. DOI: 10.1021/acs.jpca.3c04382
   
   for DFT-D4:
   * E. Caldeweyher, C. Bannwarth and S. Grimme, J. Chem. Phys., 2017,
     147, 034112. DOI: 10.1063/1.4993215
   * E. Caldeweyher, S. Ehlert, A. Hansen, H. Neugebauer, S. Spicher,
     C. Bannwarth and S. Grimme, J. Chem. Phys., 2019, 150, 154122.
     DOI: 10.1063/1.5090222
   * E. Caldeweyher, J.-M. Mewes, S. Ehlert and S. Grimme, Phys. Chem. Chem. Phys.
     2020, 22, 8499-8512. DOI: 10.1039/D0CP00502A
   
   for sTDA-xTB:
   * S. Grimme and C. Bannwarth, J. Chem. Phys., 2016, 145, 054103.
     DOI: 10.1063/1.4959605
   
   in the mass-spec context:
   * V. Asgeirsson, C. Bauer and S. Grimme, Chem. Sci., 2017, 8, 4879.
     DOI: 10.1039/c7sc00601b
   * J. Koopman and S. Grimme, ACS Omega 2019, 4, 12, 15120-15133.
     DOI: 10.1021/acsomega.9b02011
   
   for metadynamics refer to:
   * S. Grimme, J. Chem. Theory Comput., 2019, 155, 2847-2862
     DOI: 10.1021/acs.jctc.9b00143
   
   for SPH calculations refer to:
   * S. Spicher and S. Grimme, J. Chem. Theory Comput., 2021, 17, 1701-1714
     DOI: 10.1021/acs.jctc.0c01306
   
   for ONIOM refer to:
   * C. Plett, A. Katbashev, S. Ehlert, S. Grimme, M. Bursch,
     Phys. Chem. Chem. Phys., 2023, 25, 17860-17868. DOI: 10.1039/D3CP02178E
   
   for DIPRO refer to:
   * J. Kohn, N. Gildemeister, S. Grimme, D. Fazzi, A. Hansen,
     J. Chem. Phys., 2023, just accepted.
   
   for PTB refer to:
   * S. Grimme, M. Mueller, A. Hansen, J. Chem. Phys., 2023, 158, 124111.
     DOI: 10.1063/5.0137838
   
   with help from (in alphabetical order)
   P. Atkinson, C. Bannwarth, F. Bohle, G. Brandenburg, E. Caldeweyher
   M. Checinski, S. Dohm, S. Ehlert, S. Ehrlich, I. Gerasimov, C. Hölzer
   A. Katbashev, J. Kohn, J. Koopman, C. Lavigne, S. Lehtola, F. März, M. Müller,
   F. Musil, H. Neugebauer, J. Pisarek, C. Plett, P. Pracht, F. Pultar,
   J. Seibert, P. Shushkov, S. Spicher, M. Stahn, M. Steiner, T. Strunk,
   J. Stückrath, T. Rose, and J. Unsleber
   
 * started run on 2026/08/31 at 21:59:49.977     
   ID    Z sym.   atoms
    1    8 O      1, 10, 19
    2    6 C      2-9, 12-17
    3    7 N      11, 18
    4    1 H      20-39

           -------------------------------------------------
          |                Calculation Setup                |
           -------------------------------------------------

          program call               : "c:\Users\Andre\Proyectos doctorado\kras-pancreatic-gC3N4-ai\tools\xtb\xtb-6.7.1\bin\xtb.exe" "c:\Users\Andre\Proyectos doctorado\mxene-glioblastoma-qsar-ai\calculations\gbm\Vorinostat\Vorinostat_drug.xyz" --gfn 2 --sp --chrg 0 --uhf 0 --etemp 500 --acc 1.0 --iterations 500 --norestart
          coordinate file            : c:\Users\Andre\Proyectos doctorado\mxene-glioblastoma-qsar-ai\calculations\gbm\Vorinostat\Vorinostat_drug.xyz
          omp threads                :                    16


           -------------------------------------------------
          |                 G F N 2 - x T B                 |
           -------------------------------------------------

        Reference                      10.1021/acs.jctc.8b01176
      * Hamiltonian:
        H0-scaling (s, p, d)           1.850000    2.230000    2.230000
        zeta-weighting                 0.500000
      * Dispersion:
        s8                             2.700000
        a1                             0.520000
        a2                             5.000000
        s9                             5.000000
      * Repulsion:
        kExp                           1.500000    1.000000
        rExp                           1.000000
      * Coulomb:
        alpha                          2.000000
        third order                    shell-resolved
        anisotropic                    true
        a3                             3.000000
        a5                             4.000000
        cn-shift                       1.200000
        cn-exp                         4.000000
        max-rad                        5.000000


          ...................................................
          :                      SETUP                      :
          :.................................................:
          :  # basis functions                  96          :
          :  # atomic orbitals                  96          :
          :  # shells                           58          :
          :  # electrons                       104          :
          :  max. iterations                   500          :
          :  Hamiltonian                  GFN2-xTB          :
          :  restarted?                      false          :
          :  GBSA solvation                  false          :
          :  PC potential                    false          :
          :  electronic temp.          500.0000000     K    :
          :  accuracy                    1.0000000          :
          :  -> integral cutoff          0.2500000E+02      :
          :  -> integral neglect         0.1000000E-07      :
          :  -> SCF convergence          0.1000000E-05 Eh   :
          :  -> wf. convergence          0.1000000E-03 e    :
          :  Broyden damping             0.4000000          :
          :  net charge                          0          :
          :  unpaired electrons                  0          :
          ...................................................

 iter      E             dE          RMSdq      gap      omega  full diag
   1    -58.7798985 -0.587799E+02  0.397E+00    3.31       0.0  T
   2    -58.9149627 -0.135064E+00  0.217E+00    3.90       1.0  T
   3    -58.9208785 -0.591588E-02  0.118E+00    3.93       1.0  T
   4    -58.9237159 -0.283731E-02  0.339E-01    3.81       1.0  T
   5    -58.9264005 -0.268470E-02  0.107E-01    3.86       1.0  T
   6    -58.9264882 -0.876400E-04  0.559E-02    3.86       1.0  T
   7    -58.9265143 -0.261279E-04  0.235E-02    3.86       1.0  T
   8    -58.9265175 -0.313950E-05  0.657E-03    3.86       2.4  T
   9    -58.9265177 -0.237597E-06  0.338E-03    3.86       4.7  T
  10    -58.9265178 -0.136826E-06  0.156E-03    3.86      10.2  T
  11    -58.9265179 -0.405042E-07  0.558E-04    3.86      28.7  T
  12    -58.9265179 -0.345175E-08  0.188E-04    3.86      85.0  T

   *** convergence criteria satisfied after 12 iterations ***

         #    Occupation            Energy/Eh            Energy/eV
      -------------------------------------------------------------
         1        2.0000           -0.7250016             -19.7283
       ...           ...                  ...                  ...
        46        2.0000           -0.4290074             -11.6739
        47        2.0000           -0.4273259             -11.6281
        48        2.0000           -0.4163021             -11.3282
        49        2.0000           -0.4045381             -11.0080
        50        2.0000           -0.3991489             -10.8614
        51        2.0000           -0.3945161             -10.7353
        52        2.0000           -0.3836047             -10.4384 (HOMO)
        53                         -0.2417336              -6.5779 (LUMO)
        54                         -0.2320358              -6.3140
        55                         -0.2287169              -6.2237
        56                         -0.1977566              -5.3812
        57                         -0.1049808              -2.8567
       ...                                ...                  ...
        96                          0.6441996              17.5296
      -------------------------------------------------------------
                  HL-Gap            0.1418712 Eh            3.8605 eV
             Fermi-level           -0.3126692 Eh           -8.5082 eV

 SCC (total)                   0 d,  0 h,  0 min,  8.001 sec
 SCC setup                      ...        0 min,  0.024 sec (  0.300%)
 Dispersion                     ...        0 min,  0.205 sec (  2.562%)
 classical contributions        ...        0 min,  0.056 sec (  0.700%)
 integral evaluation            ...        0 min,  0.104 sec (  1.300%)
 iterations                     ...        0 min,  6.857 sec ( 85.702%)
 molecular gradient             ...        0 min,  0.568 sec (  7.099%)
 printout                       ...        0 min,  0.187 sec (  2.337%)

         :::::::::::::::::::::::::::::::::::::::::::::::::::::
         ::                     SUMMARY                     ::
         :::::::::::::::::::::::::::::::::::::::::::::::::::::
         :: total energy             -58.189898414895 Eh    ::
         :: gradient norm              0.060391860293 Eh/a0 ::
         :: HOMO-LUMO gap              3.860510848537 eV    ::
         ::.................................................::
         :: SCC energy               -58.926731634635 Eh    ::
         :: -> isotropic ES            0.088417477444 Eh    ::
         :: -> anisotropic ES          0.006506402261 Eh    ::
         :: -> anisotropic XC          0.023611354844 Eh    ::
         :: -> dispersion             -0.031967702171 Eh    ::
         :: repulsion energy           0.736833219741 Eh    ::
         :: add. restraining           0.000000000000 Eh    ::
         :: total charge              -0.000000000000 e     ::
         :::::::::::::::::::::::::::::::::::::::::::::::::::::

           -------------------------------------------------
          |                Property Printout                |
           -------------------------------------------------

    * Orbital Energies and Occupations

         #    Occupation            Energy/Eh            Energy/eV
      -------------------------------------------------------------
         1        2.0000           -0.7250016             -19.7283
       ...           ...                  ...                  ...
        40        2.0000           -0.4592788             -12.4976
        41        2.0000           -0.4510204             -12.2729
        42        2.0000           -0.4469779             -12.1629
        43        2.0000           -0.4389450             -11.9443
        44        2.0000           -0.4365693             -11.8797
        45        2.0000           -0.4326855             -11.7740
        46        2.0000           -0.4290074             -11.6739
        47        2.0000           -0.4273259             -11.6281
        48        2.0000           -0.4163021             -11.3282
        49        2.0000           -0.4045381             -11.0080
        50        2.0000           -0.3991489             -10.8614
        51        2.0000           -0.3945161             -10.7353
        52        2.0000           -0.3836047             -10.4384 (HOMO)
        53                         -0.2417336              -6.5779 (LUMO)
        54                         -0.2320358              -6.3140
        55                         -0.2287169              -6.2237
        56                         -0.1977566              -5.3812
        57                         -0.1049808              -2.8567
        58                         -0.0944010              -2.5688
        59                         -0.0144983              -0.3945
        60                          0.0532587               1.4492
        61                          0.0644223               1.7530
        62                          0.0657832               1.7901
        63                          0.0853204               2.3217
       ...                                ...                  ...
        96                          0.6441996              17.5296
      -------------------------------------------------------------
                  HL-Gap            0.1418712 Eh            3.8605 eV
             Fermi-level           -0.3126692 Eh           -8.5082 eV

     #   Z          covCN         q      C6AA      α(0)
     1   8 O        0.857    -0.424    22.158     6.311
     2   6 C        2.745     0.260    22.616     7.787
     3   6 C        3.805    -0.087    22.159     6.701
     4   6 C        3.800    -0.055    21.568     6.612
     5   6 C        3.799    -0.060    21.665     6.627
     6   6 C        3.800    -0.059    21.635     6.623
     7   6 C        3.800    -0.056    21.572     6.613
     8   6 C        3.807    -0.087    22.145     6.699
     9   6 C        2.746     0.272    22.408     7.751
    10   8 O        0.856    -0.408    21.846     6.267
    11   7 N        2.693    -0.169    24.662     7.376
    12   6 C        2.895     0.077    26.275     8.404
    13   6 C        2.920    -0.055    29.359     8.885
    14   6 C        2.911    -0.030    28.744     8.791
    15   6 C        2.911    -0.036    28.896     8.815
    16   6 C        2.912    -0.029    28.719     8.788
    17   6 C        2.915    -0.044    29.103     8.846
    18   7 N        2.686    -0.078    22.769     7.087
    19   8 O        1.714    -0.358    20.042     6.045
    20   1 H        0.924     0.060     2.194     2.317
    21   1 H        0.924     0.050     2.319     2.381
    22   1 H        0.924     0.050     2.317     2.381
    23   1 H        0.924     0.054     2.265     2.354
    24   1 H        0.924     0.030     2.584     2.514
    25   1 H        0.924     0.038     2.471     2.458
    26   1 H        0.924     0.029     2.598     2.521
    27   1 H        0.924     0.027     2.632     2.537
    28   1 H        0.924     0.050     2.321     2.383
    29   1 H        0.924     0.052     2.299     2.371
    30   1 H        0.924     0.045     2.383     2.414
    31   1 H        0.924     0.046     2.375     2.410
    32   1 H        0.860     0.172     1.259     1.758
    33   1 H        0.925     0.024     2.672     2.556
    34   1 H        0.925     0.033     2.547     2.496
    35   1 H        0.925     0.032     2.559     2.502
    36   1 H        0.925     0.039     2.465     2.455
    37   1 H        0.925     0.072     2.064     2.247
    38   1 H        0.860     0.184     1.193     1.711
    39   1 H        0.802     0.339     0.615     1.232

 Mol. C6AA /au·bohr⁶  :      14944.629905
 Mol. C8AA /au·bohr⁸  :     339737.406872
 Mol. α(0) /au        :        187.024029


Wiberg/Mayer (AO) data.
largest (>0.10) Wiberg bond orders for each atom

 ---------------------------------------------------------------------------
     #   Z sym  total        # sym  WBO       # sym  WBO       # sym  WBO
 ---------------------------------------------------------------------------
     1   8 O    2.029 --     2 C    1.687    18 N    0.189
     2   6 C    3.947 --     1 O    1.687    18 N    1.218     3 C    0.972
     3   6 C    3.996 --     4 C    1.007     2 C    0.972    21 H    0.958
                            20 H    0.955
     4   6 C    3.992 --     5 C    1.007     3 C    1.007    22 H    0.974
                            23 H    0.974
     5   6 C    3.995 --     4 C    1.007     6 C    1.007    24 H    0.977
                            25 H    0.976
     6   6 C    3.997 --     7 C    1.008     5 C    1.007    26 H    0.976
                            27 H    0.976
     7   6 C    3.992 --     6 C    1.008     8 C    1.007    28 H    0.975
                            29 H    0.974
     8   6 C    3.996 --     7 C    1.007     9 C    0.968    31 H    0.960
                            30 H    0.960
     9   6 C    3.947 --    10 O    1.723    11 N    1.183     8 C    0.968
    10   8 O    2.026 --     9 C    1.723    11 N    0.165
    11   7 N    3.480 --     9 C    1.183    12 C    1.068    32 H    0.939
                            10 O    0.165
    12   6 C    3.959 --    17 C    1.379    13 C    1.367    11 N    1.068
    13   6 C    3.988 --    14 C    1.451    12 C    1.367    33 H    0.968
                            16 C    0.110
    14   6 C    3.991 --    13 C    1.451    15 C    1.432    34 H    0.971
                            17 C    0.108
    15   6 C    3.982 --    16 C    1.438    14 C    1.432    35 H    0.971
    16   6 C    3.991 --    17 C    1.443    15 C    1.438    36 H    0.971
                            13 C    0.110
    17   6 C    3.986 --    16 C    1.443    12 C    1.379    37 H    0.962
                            14 C    0.108
    18   7 N    3.374 --     2 C    1.218    19 O    0.997    38 H    0.936
                             1 O    0.189
    19   8 O    1.936 --    18 N    0.997    39 H    0.849
    20   1 H    0.996 --     3 C    0.955
    21   1 H    0.997 --     3 C    0.958
    22   1 H    0.997 --     4 C    0.974
    23   1 H    0.997 --     4 C    0.974
    24   1 H    0.999 --     5 C    0.977
    25   1 H    0.998 --     5 C    0.976
    26   1 H    0.999 --     6 C    0.976
    27   1 H    0.999 --     6 C    0.976
    28   1 H    0.997 --     7 C    0.975
    29   1 H    0.997 --     7 C    0.974
    30   1 H    0.998 --     8 C    0.960
    31   1 H    0.998 --     8 C    0.960
    32   1 H    0.970 --    11 N    0.939
    33   1 H    0.999 --    13 C    0.968
    34   1 H    0.998 --    14 C    0.971
    35   1 H    0.998 --    15 C    0.971
    36   1 H    0.998 --    16 C    0.971
    37   1 H    0.995 --    17 C    0.962
    38   1 H    0.966 --    18 N    0.936
    39   1 H    0.885 --    19 O    0.849
 ---------------------------------------------------------------------------

Topologies differ in total number of bonds
Writing topology from bond orders to xtbtopo.mol

molecular dipole:
                 x           y           z       tot (Debye)
 q only:       -0.643       1.726      -1.092
   full:       -0.694       2.261      -1.508       7.130
molecular quadrupole (traceless):
                xx          xy          yy          xz          yz          zz
 q only:       -0.785       5.681       1.307      -8.899       0.323      -0.522
  q+dip:       -0.145       6.022       4.161     -13.341      -2.356      -4.016
   full:       -0.404       6.587       2.826     -12.168      -0.550      -2.422


           -------------------------------------------------
          | TOTAL ENERGY              -58.189898414895 Eh   |
          | GRADIENT NORM               0.060391860293 Eh/α |
          | HOMO-LUMO GAP               3.860510848537 eV   |
           -------------------------------------------------

------------------------------------------------------------------------
 * finished run on 2026/08/31 at 21:59:58.403     
------------------------------------------------------------------------
 total:
 * wall-time:     0 d,  0 h,  0 min,  8.424 sec
 *  cpu-time:     0 d,  0 h,  0 min, 20.766 sec
 * ratio c/w:     2.465 speedup
 SCF:
 * wall-time:     0 d,  0 h,  0 min,  8.002 sec
 *  cpu-time:     0 d,  0 h,  0 min, 19.578 sec
 * ratio c/w:     2.447 speedup

normal termination of xtb
