      -----------------------------------------------------------      
     |                   =====================                   |     
     |                           x T B                           |     
     |                   =====================                   |     
     |                         S. Grimme                         |     
     |          Mulliken Center for Theoretical Chemistry        |     
     |                    University of Bonn                     |     
      -----------------------------------------------------------      

   * xtb version 6.7.1pre (5071a88) compiled by 'Marcel@Raven' on 2024-07-23

   xtb is free software: you can redistribute it and/or modify it under
   the terms of the GNU Lesser General Public License as published by
   the Free Software Foundation, either version 3 of the License, or
   (at your option) any later version.
   
   xtb is distributed in the hope that it will be useful,
   but WITHOUT ANY WARRANTY; without even the implied warranty of
   MERCHANTABILITY or FITNESS FOR A PARTICULAR PURPOSE.  See the
   GNU Lesser General Public License for more details.
   
   Cite this work as:
   * C. Bannwarth, E. Caldeweyher, S. Ehlert, A. Hansen, P. Pracht,
     J. Seibert, S. Spicher, S. Grimme, WIREs Comput. Mol. Sci., 2020, 11,
     e01493. DOI: 10.1002/wcms.1493
   
   for GFN2-xTB:
   * C. Bannwarth, S. Ehlert and S. Grimme., J. Chem. Theory Comput., 2019,
     15, 1652-1671. DOI: 10.1021/acs.jctc.8b01176
   for GFN1-xTB:
   * S. Grimme, C. Bannwarth, P. Shushkov, J. Chem. Theory Comput., 2017,
     13, 1989-2009. DOI: 10.1021/acs.jctc.7b00118
   for GFN0-xTB:
   * P. Pracht, E. Caldeweyher, S. Ehlert, S. Grimme, ChemRxiv, 2019, preprint.
     DOI: 10.26434/chemrxiv.8326202.v1
   for GFN-FF:
   * S. Spicher and S. Grimme, Angew. Chem. Int. Ed., 2020, 59, 15665-15673.
     DOI: 10.1002/anie.202004239
   
   for ALPB and GBSA implicit solvation:
   * S. Ehlert, M. Stahn, S. Spicher, S. Grimme, J. Chem. Theory Comput.,
     2021, 17, 4250-4261. DOI: 10.1021/acs.jctc.1c00471
   
   for ddCOSMO and CPCM-X implicit solvation:
   * M. Stahn, S. Ehlert, S. Grimme, J. Phys. Chem. A,
     2023, XX, XXXX-XXXX. DOI: 10.1021/acs.jpca.3c04382
   
   for DFT-D4:
   * E. Caldeweyher, C. Bannwarth and S. Grimme, J. Chem. Phys., 2017,
     147, 034112. DOI: 10.1063/1.4993215
   * E. Caldeweyher, S. Ehlert, A. Hansen, H. Neugebauer, S. Spicher,
     C. Bannwarth and S. Grimme, J. Chem. Phys., 2019, 150, 154122.
     DOI: 10.1063/1.5090222
   * E. Caldeweyher, J.-M. Mewes, S. Ehlert and S. Grimme, Phys. Chem. Chem. Phys.
     2020, 22, 8499-8512. DOI: 10.1039/D0CP00502A
   
   for sTDA-xTB:
   * S. Grimme and C. Bannwarth, J. Chem. Phys., 2016, 145, 054103.
     DOI: 10.1063/1.4959605
   
   in the mass-spec context:
   * V. Asgeirsson, C. Bauer and S. Grimme, Chem. Sci., 2017, 8, 4879.
     DOI: 10.1039/c7sc00601b
   * J. Koopman and S. Grimme, ACS Omega 2019, 4, 12, 15120-15133.
     DOI: 10.1021/acsomega.9b02011
   
   for metadynamics refer to:
   * S. Grimme, J. Chem. Theory Comput., 2019, 155, 2847-2862
     DOI: 10.1021/acs.jctc.9b00143
   
   for SPH calculations refer to:
   * S. Spicher and S. Grimme, J. Chem. Theory Comput., 2021, 17, 1701-1714
     DOI: 10.1021/acs.jctc.0c01306
   
   for ONIOM refer to:
   * C. Plett, A. Katbashev, S. Ehlert, S. Grimme, M. Bursch,
     Phys. Chem. Chem. Phys., 2023, 25, 17860-17868. DOI: 10.1039/D3CP02178E
   
   for DIPRO refer to:
   * J. Kohn, N. Gildemeister, S. Grimme, D. Fazzi, A. Hansen,
     J. Chem. Phys., 2023, just accepted.
   
   for PTB refer to:
   * S. Grimme, M. Mueller, A. Hansen, J. Chem. Phys., 2023, 158, 124111.
     DOI: 10.1063/5.0137838
   
   with help from (in alphabetical order)
   P. Atkinson, C. Bannwarth, F. Bohle, G. Brandenburg, E. Caldeweyher
   M. Checinski, S. Dohm, S. Ehlert, S. Ehrlich, I. Gerasimov, C. Hölzer
   A. Katbashev, J. Kohn, J. Koopman, C. Lavigne, S. Lehtola, F. März, M. Müller,
   F. Musil, H. Neugebauer, J. Pisarek, C. Plett, P. Pracht, F. Pultar,
   J. Seibert, P. Shushkov, S. Spicher, M. Stahn, M. Steiner, T. Strunk,
   J. Stückrath, T. Rose, and J. Unsleber
   
 * started run on 2026/08/31 at 21:59:59.007     
   ID    Z sym.   atoms
    1    8 O      1, 10, 19, 59-72
    2    6 C      2-9, 12-17, 52-58
    3    7 N      11, 18
    4    1 H      20-39
    5   22 Ti     40-51

           -------------------------------------------------
          |                Calculation Setup                |
           -------------------------------------------------

          program call               : "c:\Users\Andre\Proyectos doctorado\kras-pancreatic-gC3N4-ai\tools\xtb\xtb-6.7.1\bin\xtb.exe" "c:\Users\Andre\Proyectos doctorado\mxene-glioblastoma-qsar-ai\calculations\gbm\Vorinostat\Vorinostat_Ti12C7O14_clean_complex.xyz" --gfn 2 --sp --chrg 0 --uhf 0 --etemp 500 --acc 1.0 --iterations 500 --norestart
          coordinate file            : c:\Users\Andre\Proyectos doctorado\mxene-glioblastoma-qsar-ai\calculations\gbm\Vorinostat\Vorinostat_Ti12C7O14_clean_complex.xyz
          omp threads                :                    16


molecular fragmentation (1/2 indicates fragments):
111111111111111111111111111111111111111222222222222222222222222222222222
# atoms in fragment 1/2:    39    33
 fragment masses (1/2) :      264.32      882.47
CMA distance (Bohr)    :  19.346
constraining FC (au)   :  0.0500

           -------------------------------------------------
          |                 G F N 2 - x T B                 |
           -------------------------------------------------

        Reference                      10.1021/acs.jctc.8b01176
      * Hamiltonian:
        H0-scaling (s, p, d)           1.850000    2.230000    2.230000
        zeta-weighting                 0.500000
      * Dispersion:
        s8                             2.700000
        a1                             0.520000
        a2                             5.000000
        s9                             5.000000
      * Repulsion:
        kExp                           1.500000    1.000000
        rExp                           1.000000
      * Coulomb:
        alpha                          2.000000
        third order                    shell-resolved
        anisotropic                    true
        a3                             3.000000
        a5                             4.000000
        cn-shift                       1.200000
        cn-exp                         4.000000
        max-rad                        5.000000


          ...................................................
          :                      SETUP                      :
          :.................................................:
          :  # basis functions                 300          :
          :  # atomic orbitals                 288          :
          :  # shells                          136          :
          :  # electrons                       264          :
          :  max. iterations                   500          :
          :  Hamiltonian                  GFN2-xTB          :
          :  restarted?                      false          :
          :  GBSA solvation                  false          :
          :  PC potential                    false          :
          :  electronic temp.          500.0000000     K    :
          :  accuracy                    1.0000000          :
          :  -> integral cutoff          0.2500000E+02      :
          :  -> integral neglect         0.1000000E-07      :
          :  -> SCF convergence          0.1000000E-05 Eh   :
          :  -> wf. convergence          0.1000000E-03 e    :
          :  Broyden damping             0.4000000          :
          :  net charge                          0          :
          :  unpaired electrons                  0          :
          ...................................................

 iter      E             dE          RMSdq      gap      omega  full diag
   1   -149.5327875 -0.149533E+03  0.139E+01    0.03       0.0  T
   2   -133.0338881  0.164989E+02  0.122E+01    0.16       1.0  T
   3    -81.5160116  0.515179E+02  0.226E+01    0.03       1.0  T
   4   -149.4519850 -0.679360E+02  0.925E+00    0.01       1.0  T
   5   -151.0570090 -0.160502E+01  0.619E+00    0.29       1.0  T
   6   -150.1505680  0.906441E+00  0.596E+00    0.03       1.0  T
   7   -151.2175791 -0.106701E+01  0.459E+00    1.25       1.0  T
   8   -151.3500366 -0.132458E+00  0.387E+00    0.60       1.0  T
   9   -150.3155194  0.103452E+01  0.675E+00    0.01       1.0  T
  10   -150.8228142 -0.507295E+00  0.509E+00    0.02       1.0  T
  11   -150.2766563  0.546158E+00  0.620E+00    0.01       1.0  T
  12   -150.8714709 -0.594815E+00  0.382E+00    0.11       1.0  T
  13   -150.6413692  0.230102E+00  0.416E+00    0.16       1.0  T
  14   -150.6469164 -0.554714E-02  0.413E+00    0.15       1.0  T
  15   -151.3215579 -0.674642E+00  0.213E+00    0.12       1.0  T
  16   -151.5224151 -0.200857E+00  0.228E+00    0.41       1.0  T
  17   -151.5453610 -0.229459E-01  0.211E+00    0.51       1.0  T
  18   -151.5600900 -0.147290E-01  0.191E+00    0.72       1.0  T
  19   -151.5972982 -0.372082E-01  0.152E+00    0.97       1.0  T
  20   -151.6158425 -0.185443E-01  0.121E+00    1.08       1.0  T
  21   -151.6291174 -0.132749E-01  0.913E-01    0.97       1.0  T
  22   -151.6369313 -0.781384E-02  0.678E-01    0.90       1.0  T
  23   -151.6405167 -0.358539E-02  0.489E-01    0.87       1.0  T
  24   -151.6442656 -0.374893E-02  0.332E-01    0.80       1.0  T
  25   -151.6458498 -0.158421E-02  0.243E-01    0.77       1.0  T
  26   -151.6463961 -0.546327E-03  0.195E-01    0.74       1.0  T
  27   -151.6468012 -0.405120E-03  0.164E-01    0.72       1.0  T
  28   -151.6471175 -0.316264E-03  0.134E-01    0.71       1.0  T
  29   -151.6473003 -0.182777E-03  0.114E-01    0.70       1.0  T
  30   -151.6473941 -0.938145E-04  0.954E-02    0.70       1.0  T
  31   -151.6475838 -0.189651E-03  0.697E-02    0.68       1.0  T
  32   -151.6476416 -0.578827E-04  0.538E-02    0.68       1.0  T
  33   -151.6476741 -0.324830E-04  0.415E-02    0.67       1.0  T
  34   -151.6476867 -0.125743E-04  0.387E-02    0.67       1.0  T
  35   -151.6476911 -0.438974E-05  0.385E-02    0.67       1.0  T
  36   -151.6476934 -0.228744E-05  0.344E-02    0.67       1.0  T
  37   -151.6476978 -0.446000E-05  0.308E-02    0.67       1.0  T
  38   -151.6477037 -0.591220E-05  0.246E-02    0.67       1.0  T
  39   -151.6477101 -0.639243E-05  0.173E-02    0.66       1.0  T
  40   -151.6477140 -0.391025E-05  0.106E-02    0.66       1.1  T
  41   -151.6477154 -0.134295E-05  0.469E-03    0.66       2.5  T
  42   -151.6477155 -0.104388E-06  0.342E-03    0.66       3.4  T
  43   -151.6477156 -0.645423E-07  0.279E-03    0.66       4.2  T
  44   -151.6477157 -0.101139E-06  0.210E-03    0.66       5.6  T
  45   -151.6477157 -0.595276E-07  0.148E-03    0.66       8.0  T
  46   -151.6477158 -0.340264E-07  0.966E-04    0.66      12.2  T
  47   -151.6477158 -0.146771E-07  0.763E-04    0.66      15.4  T

   *** convergence criteria satisfied after 47 iterations ***

         #    Occupation            Energy/Eh            Energy/eV
      -------------------------------------------------------------
         1        2.0000           -0.8229521             -22.3937
       ...           ...                  ...                  ...
       126        2.0000           -0.3610796              -9.8255
       127        2.0000           -0.3548428              -9.6558
       128        2.0000           -0.3533629              -9.6155
       129        2.0000           -0.3468840              -9.4392
       130        2.0000           -0.3395146              -9.2387
       131        2.0000           -0.3259302              -8.8690
       132        1.9986           -0.3112816              -8.4704 (HOMO)
       133        0.0006           -0.2870018              -7.8097 (LUMO)
       134        0.0004           -0.2863302              -7.7914
       135        0.0002           -0.2852014              -7.7607
       136        0.0001           -0.2846667              -7.7462
       137        0.0000           -0.2817890              -7.6679
       ...           ...                  ...                  ...
       288                         13.3511857             363.3043
      -------------------------------------------------------------
                  HL-Gap            0.0242798 Eh            0.6607 eV
             Fermi-level           -0.2997820 Eh           -8.1575 eV

 SCC (total)                   0 d,  0 h,  1 min,  2.889 sec
 SCC setup                      ...        0 min,  0.051 sec (  0.081%)
 Dispersion                     ...        0 min,  0.197 sec (  0.313%)
 classical contributions        ...        0 min,  0.068 sec (  0.108%)
 integral evaluation            ...        0 min,  0.107 sec (  0.170%)
 iterations                     ...        1 min,  1.626 sec ( 97.992%)
 molecular gradient             ...        0 min,  0.772 sec (  1.228%)
 printout                       ...        0 min,  0.068 sec (  0.108%)

         :::::::::::::::::::::::::::::::::::::::::::::::::::::
         ::                     SUMMARY                     ::
         :::::::::::::::::::::::::::::::::::::::::::::::::::::
         :: total energy            -150.235054255381 Eh    ::
         :: gradient norm              0.060689306611 Eh/a0 ::
         :: HOMO-LUMO gap              0.660687271985 eV    ::
         ::.................................................::
         :: SCC energy              -151.646041337476 Eh    ::
         :: -> isotropic ES            0.998127357811 Eh    ::
         :: -> anisotropic ES         -0.383055063627 Eh    ::
         :: -> anisotropic XC         -0.044004207220 Eh    ::
         :: -> dispersion             -0.123090537589 Eh    ::
         :: repulsion energy           1.410987082095 Eh    ::
         :: add. restraining           0.000000000000 Eh    ::
         :: total charge               0.000000000127 e     ::
         :::::::::::::::::::::::::::::::::::::::::::::::::::::

           -------------------------------------------------
          |                Property Printout                |
           -------------------------------------------------

    * Orbital Energies and Occupations

         #    Occupation            Energy/Eh            Energy/eV
      -------------------------------------------------------------
         1        2.0000           -0.8229521             -22.3937
       ...           ...                  ...                  ...
       120        2.0000           -0.3886504             -10.5757
       121        2.0000           -0.3839898             -10.4489
       122        2.0000           -0.3835069             -10.4358
       123        2.0000           -0.3791581             -10.3174
       124        2.0000           -0.3714843             -10.1086
       125        2.0000           -0.3633376              -9.8869
       126        2.0000           -0.3610796              -9.8255
       127        2.0000           -0.3548428              -9.6558
       128        2.0000           -0.3533629              -9.6155
       129        2.0000           -0.3468840              -9.4392
       130        2.0000           -0.3395146              -9.2387
       131        2.0000           -0.3259302              -8.8690
       132        1.9986           -0.3112816              -8.4704 (HOMO)
       133        0.0006           -0.2870018              -7.8097 (LUMO)
       134        0.0004           -0.2863302              -7.7914
       135        0.0002           -0.2852014              -7.7607
       136        0.0001           -0.2846667              -7.7462
       137        0.0000           -0.2817890              -7.6679
       138        0.0000           -0.2766568              -7.5282
       139        0.0000           -0.2757358              -7.5032
       140        0.0000           -0.2737080              -7.4480
       141        0.0000           -0.2733864              -7.4392
       142                         -0.2728476              -7.4246
       143                         -0.2724829              -7.4146
       ...                                ...                  ...
       288                         13.3511857             363.3043
      -------------------------------------------------------------
                  HL-Gap            0.0242798 Eh            0.6607 eV
             Fermi-level           -0.2997820 Eh           -8.1575 eV

     #   Z          covCN         q      C6AA      α(0)
     1   8 O        0.857    -0.424    22.163     6.312
     2   6 C        2.745     0.260    22.625     7.788
     3   6 C        3.805    -0.092    22.258     6.716
     4   6 C        3.800    -0.059    21.643     6.624
     5   6 C        3.799    -0.069    21.814     6.650
     6   6 C        3.800    -0.073    21.900     6.663
     7   6 C        3.800    -0.065    21.753     6.640
     8   6 C        3.807    -0.100    22.400     6.737
     9   6 C        2.746     0.270    22.438     7.756
    10   8 O        0.856    -0.407    21.823     6.263
    11   7 N        2.693    -0.170    24.673     7.377
    12   6 C        2.895     0.076    26.302     8.409
    13   6 C        2.920    -0.057    29.406     8.893
    14   6 C        2.911    -0.031    28.765     8.795
    15   6 C        2.911    -0.037    28.920     8.818
    16   6 C        2.912    -0.030    28.749     8.792
    17   6 C        2.915    -0.046    29.151     8.854
    18   7 N        2.686    -0.079    22.772     7.087
    19   8 O        1.714    -0.359    20.050     6.046
    20   1 H        0.924     0.064     2.156     2.296
    21   1 H        0.924     0.055     2.263     2.353
    22   1 H        0.924     0.055     2.261     2.352
    23   1 H        0.924     0.058     2.222     2.331
    24   1 H        0.924     0.038     2.473     2.459
    25   1 H        0.924     0.041     2.437     2.442
    26   1 H        0.924     0.043     2.404     2.425
    27   1 H        0.924     0.040     2.453     2.449
    28   1 H        0.924     0.055     2.263     2.353
    29   1 H        0.924     0.064     2.148     2.292
    30   1 H        0.924     0.057     2.237     2.339
    31   1 H        0.924     0.055     2.258     2.350
    32   1 H        0.860     0.176     1.237     1.742
    33   1 H        0.925     0.028     2.622     2.532
    34   1 H        0.925     0.035     2.515     2.480
    35   1 H        0.925     0.034     2.537     2.491
    36   1 H        0.925     0.040     2.447     2.446
    37   1 H        0.925     0.074     2.047     2.237
    38   1 H        0.860     0.185     1.184     1.705
    39   1 H        0.802     0.340     0.614     1.231
    40  22 Ti       3.637     1.050   101.802    24.489
    41  22 Ti       6.855     1.551    84.052    14.885
    42  22 Ti       3.227     1.048   102.645    24.739
    43  22 Ti       5.860     1.380    85.671    15.027
    44  22 Ti       5.627     1.118    88.234    15.251
    45  22 Ti       3.541     1.032   102.566    24.683
    46  22 Ti       2.352     0.881   202.668    34.858
    47  22 Ti       6.011     1.348    85.976    15.054
    48  22 Ti       3.414     1.006   103.073    24.782
    49  22 Ti       5.519     1.096    88.459    15.270
    50  22 Ti       5.687     1.190    87.518    15.189
    51  22 Ti       3.581     1.024   102.490    24.644
    52   6 C        2.246    -0.259    37.688     9.946
    53   6 C        2.142    -0.255    38.332    10.008
    54   6 C        2.248    -0.020    30.629     8.967
    55   6 C        1.838    -0.211    37.352     9.873
    56   6 C        1.894    -0.225    37.767     9.925
    57   6 C        1.821    -0.348    42.211    10.497
    58   6 C        2.631    -0.406    39.983    10.343
    59   8 O        1.554    -0.849    32.057     7.639
    60   8 O        1.464    -0.881    33.235     7.771
    61   8 O        1.557    -0.957    35.654     8.056
    62   8 O        1.523    -1.006    37.440     8.253
    63   8 O        1.523    -0.914    34.207     7.889
    64   8 O        1.458    -0.826    31.494     7.564
    65   8 O        1.455    -0.794    30.553     7.450
    66   8 O        0.727    -0.637    27.125     6.979
    67   8 O        1.453    -0.866    32.749     7.713
    68   8 O        1.476    -0.801    30.714     7.471
    69   8 O        1.603    -0.945    35.188     8.006
    70   8 O        1.547    -0.969    36.059     8.101
    71   8 O        1.700    -0.818    31.011     7.519
    72   8 O        1.453    -0.782    30.203     7.407

 Mol. C6AA /au·bohr⁶  :     128879.585733
 Mol. C8AA /au·bohr⁸  :    5907300.897860
 Mol. α(0) /au        :        612.771285


Wiberg/Mayer (AO) data.
largest (>0.10) Wiberg bond orders for each atom

 ---------------------------------------------------------------------------
     #   Z sym  total        # sym  WBO       # sym  WBO       # sym  WBO
 ---------------------------------------------------------------------------
     1   8 O    2.028 --     2 C    1.686    18 N    0.189
     2   6 C    3.947 --     1 O    1.686    18 N    1.218     3 C    0.973
     3   6 C    3.996 --     4 C    1.007     2 C    0.973    21 H    0.957
                            20 H    0.955
     4   6 C    3.991 --     5 C    1.007     3 C    1.007    22 H    0.974
                            23 H    0.973
     5   6 C    3.989 --     4 C    1.007     6 C    1.006    24 H    0.974
                            25 H    0.973
     6   6 C    3.990 --     7 C    1.008     5 C    1.006    27 H    0.975
                            26 H    0.943
     7   6 C    3.991 --     6 C    1.008     8 C    1.007    29 H    0.972
                            28 H    0.971
     8   6 C    3.989 --     7 C    1.007     9 C    0.970    30 H    0.958
                            31 H    0.933
     9   6 C    3.948 --    10 O    1.720    11 N    1.185     8 C    0.970
    10   8 O    2.024 --     9 C    1.720    11 N    0.166
    11   7 N    3.480 --     9 C    1.185    12 C    1.068    32 H    0.937
                            10 O    0.166
    12   6 C    3.959 --    17 C    1.379    13 C    1.367    11 N    1.068
    13   6 C    3.988 --    14 C    1.452    12 C    1.367    33 H    0.968
                            16 C    0.110
    14   6 C    3.991 --    13 C    1.452    15 C    1.432    34 H    0.971
                            17 C    0.108
    15   6 C    3.982 --    16 C    1.438    14 C    1.432    35 H    0.971
    16   6 C    3.991 --    17 C    1.442    15 C    1.438    36 H    0.971
                            13 C    0.110
    17   6 C    3.986 --    16 C    1.442    12 C    1.379    37 H    0.962
                            14 C    0.108
    18   7 N    3.374 --     2 C    1.218    19 O    0.997    38 H    0.935
                             1 O    0.189
    19   8 O    1.936 --    18 N    0.997    39 H    0.849
    20   1 H    0.996 --     3 C    0.955
    21   1 H    0.997 --     3 C    0.957
    22   1 H    0.997 --     4 C    0.974
    23   1 H    0.997 --     4 C    0.973
    24   1 H    0.998 --     5 C    0.974
    25   1 H    0.998 --     5 C    0.973
    26   1 H    0.997 --     6 C    0.943
    27   1 H    0.998 --     6 C    0.975
    28   1 H    0.997 --     7 C    0.971
    29   1 H    0.994 --     7 C    0.972
    30   1 H    0.996 --     8 C    0.958
    31   1 H    0.996 --     8 C    0.933
    32   1 H    0.968 --    11 N    0.937
    33   1 H    0.999 --    13 C    0.968
    34   1 H    0.998 --    14 C    0.971
    35   1 H    0.998 --    15 C    0.971
    36   1 H    0.998 --    16 C    0.971
    37   1 H    0.995 --    17 C    0.962
    38   1 H    0.966 --    18 N    0.935
    39   1 H    0.885 --    19 O    0.849
    40  22 Ti   2.832 --    59 O    0.848    60 O    0.812    46 Ti   0.333
                            41 Ti   0.204    43 Ti   0.202
    41  22 Ti   3.854 --    60 O    0.751    63 O    0.744    61 O    0.686
                            62 O    0.613    40 Ti   0.204    42 Ti   0.186
                            44 Ti   0.138    45 Ti   0.131
    42  22 Ti   2.724 --    68 O    0.960    61 O    0.601    48 Ti   0.372
                            41 Ti   0.186    46 Ti   0.141    63 O    0.110
    43  22 Ti   3.917 --    64 O    0.950    52 C    0.719    59 O    0.699
                            62 O    0.567    40 Ti   0.202    45 Ti   0.196
                            49 Ti   0.179    69 O    0.121
    44  22 Ti   4.073 --    58 C    0.894    65 O    0.765    56 C    0.744
                            63 O    0.601    50 Ti   0.283    45 Ti   0.174
                            57 C    0.163    53 C    0.153    41 Ti   0.138
    45  22 Ti   2.695 --    65 O    0.978    64 O    0.688    43 Ti   0.196
                            44 Ti   0.174    41 Ti   0.131    60 O    0.123
    46  22 Ti   3.773 --    66 O    1.995    47 Ti   0.610    40 Ti   0.333
                            61 O    0.153    59 O    0.148    42 Ti   0.141
                            69 O    0.112
    47  22 Ti   4.018 --    69 O    0.804    67 O    0.750    70 O    0.714
                            46 Ti   0.610    71 O    0.196    48 Ti   0.166
                            51 Ti   0.148    49 Ti   0.142
    48  22 Ti   2.748 --    67 O    0.836    68 O    0.764    42 Ti   0.372
                            51 Ti   0.221    47 Ti   0.166    50 Ti   0.130
    49  22 Ti   4.013 --    57 C    1.056    55 C    0.729    71 O    0.611
                            69 O    0.443    58 C    0.230    51 Ti   0.199
                            43 Ti   0.179    52 C    0.157    47 Ti   0.142
    50  22 Ti   4.082 --    72 O    0.968    53 C    0.667    58 C    0.653
                            70 O    0.443    44 Ti   0.283    51 Ti   0.211
                            57 C    0.140    48 Ti   0.130    68 O    0.114
    51  22 Ti   2.791 --    71 O    0.902    72 O    0.732    48 Ti   0.221
                            50 Ti   0.211    49 Ti   0.199    47 Ti   0.148
    52   6 C    3.840 --    55 C    2.739    43 Ti   0.719    49 Ti   0.157
    53   6 C    3.780 --    56 C    2.732    50 Ti   0.667    44 Ti   0.153
    54   6 C    3.978 --    57 C    2.009    58 C    1.603
    55   6 C    3.706 --    52 C    2.739    49 Ti   0.729
    56   6 C    3.749 --    53 C    2.732    44 Ti   0.744
    57   6 C    3.768 --    54 C    2.009    49 Ti   1.056    44 Ti   0.163
                            50 Ti   0.140
    58   6 C    3.828 --    54 C    1.603    44 Ti   0.894    50 Ti   0.653
                            49 Ti   0.230
    59   8 O    1.932 --    40 Ti   0.848    43 Ti   0.699    46 Ti   0.148
    60   8 O    1.892 --    40 Ti   0.812    41 Ti   0.751    45 Ti   0.123
    61   8 O    1.781 --    41 Ti   0.686    42 Ti   0.601    46 Ti   0.153
    62   8 O    1.719 --    41 Ti   0.613    43 Ti   0.567
    63   8 O    1.845 --    41 Ti   0.744    44 Ti   0.601    42 Ti   0.110
    64   8 O    1.963 --    43 Ti   0.950    45 Ti   0.688
    65   8 O    2.018 --    45 Ti   0.978    44 Ti   0.765
    66   8 O    2.169 --    46 Ti   1.995
    67   8 O    1.909 --    48 Ti   0.836    47 Ti   0.750
    68   8 O    2.006 --    42 Ti   0.960    48 Ti   0.764    50 Ti   0.114
    69   8 O    1.799 --    47 Ti   0.804    49 Ti   0.443    43 Ti   0.121
                            46 Ti   0.112
    70   8 O    1.773 --    47 Ti   0.714    50 Ti   0.443
    71   8 O    1.985 --    51 Ti   0.902    49 Ti   0.611    47 Ti   0.196
    72   8 O    2.030 --    50 Ti   0.968    51 Ti   0.732
 ---------------------------------------------------------------------------

Topologies differ in total number of bonds
Writing topology from bond orders to xtbtopo.mol

molecular dipole:
                 x           y           z       tot (Debye)
 q only:        0.145       0.785      -1.589
   full:       -1.294       0.944      -1.658       5.860
molecular quadrupole (traceless):
                xx          xy          yy          xz          yz          zz
 q only:      -15.186       2.585      14.293     -57.455      39.652       0.893
  q+dip:        9.415      -2.489       9.915     -32.866      34.523     -19.330
   full:       11.615      -0.041       9.875     -32.590      39.124     -21.490


           -------------------------------------------------
          | TOTAL ENERGY             -150.235054255381 Eh   |
          | GRADIENT NORM               0.060689306611 Eh/α |
          | HOMO-LUMO GAP               0.660687271985 eV   |
           -------------------------------------------------

------------------------------------------------------------------------
 * finished run on 2026/08/31 at 22:01:02.362     
------------------------------------------------------------------------
 total:
 * wall-time:     0 d,  0 h,  1 min,  3.354 sec
 *  cpu-time:     0 d,  0 h,  2 min, 31.281 sec
 * ratio c/w:     2.388 speedup
 SCF:
 * wall-time:     0 d,  0 h,  1 min,  2.892 sec
 *  cpu-time:     0 d,  0 h,  2 min, 30.000 sec
 * ratio c/w:     2.385 speedup

normal termination of xtb
