      -----------------------------------------------------------      
     |                   =====================                   |     
     |                           x T B                           |     
     |                   =====================                   |     
     |                         S. Grimme                         |     
     |          Mulliken Center for Theoretical Chemistry        |     
     |                    University of Bonn                     |     
      -----------------------------------------------------------      

   * xtb version 6.7.1pre (5071a88) compiled by 'Marcel@Raven' on 2024-07-23

   xtb is free software: you can redistribute it and/or modify it under
   the terms of the GNU Lesser General Public License as published by
   the Free Software Foundation, either version 3 of the License, or
   (at your option) any later version.
   
   xtb is distributed in the hope that it will be useful,
   but WITHOUT ANY WARRANTY; without even the implied warranty of
   MERCHANTABILITY or FITNESS FOR A PARTICULAR PURPOSE.  See the
   GNU Lesser General Public License for more details.
   
   Cite this work as:
   * C. Bannwarth, E. Caldeweyher, S. Ehlert, A. Hansen, P. Pracht,
     J. Seibert, S. Spicher, S. Grimme, WIREs Comput. Mol. Sci., 2020, 11,
     e01493. DOI: 10.1002/wcms.1493
   
   for GFN2-xTB:
   * C. Bannwarth, S. Ehlert and S. Grimme., J. Chem. Theory Comput., 2019,
     15, 1652-1671. DOI: 10.1021/acs.jctc.8b01176
   for GFN1-xTB:
   * S. Grimme, C. Bannwarth, P. Shushkov, J. Chem. Theory Comput., 2017,
     13, 1989-2009. DOI: 10.1021/acs.jctc.7b00118
   for GFN0-xTB:
   * P. Pracht, E. Caldeweyher, S. Ehlert, S. Grimme, ChemRxiv, 2019, preprint.
     DOI: 10.26434/chemrxiv.8326202.v1
   for GFN-FF:
   * S. Spicher and S. Grimme, Angew. Chem. Int. Ed., 2020, 59, 15665-15673.
     DOI: 10.1002/anie.202004239
   
   for ALPB and GBSA implicit solvation:
   * S. Ehlert, M. Stahn, S. Spicher, S. Grimme, J. Chem. Theory Comput.,
     2021, 17, 4250-4261. DOI: 10.1021/acs.jctc.1c00471
   
   for ddCOSMO and CPCM-X implicit solvation:
   * M. Stahn, S. Ehlert, S. Grimme, J. Phys. Chem. A,
     2023, XX, XXXX-XXXX. DOI: 10.1021/acs.jpca.3c04382
   
   for DFT-D4:
   * E. Caldeweyher, C. Bannwarth and S. Grimme, J. Chem. Phys., 2017,
     147, 034112. DOI: 10.1063/1.4993215
   * E. Caldeweyher, S. Ehlert, A. Hansen, H. Neugebauer, S. Spicher,
     C. Bannwarth and S. Grimme, J. Chem. Phys., 2019, 150, 154122.
     DOI: 10.1063/1.5090222
   * E. Caldeweyher, J.-M. Mewes, S. Ehlert and S. Grimme, Phys. Chem. Chem. Phys.
     2020, 22, 8499-8512. DOI: 10.1039/D0CP00502A
   
   for sTDA-xTB:
   * S. Grimme and C. Bannwarth, J. Chem. Phys., 2016, 145, 054103.
     DOI: 10.1063/1.4959605
   
   in the mass-spec context:
   * V. Asgeirsson, C. Bauer and S. Grimme, Chem. Sci., 2017, 8, 4879.
     DOI: 10.1039/c7sc00601b
   * J. Koopman and S. Grimme, ACS Omega 2019, 4, 12, 15120-15133.
     DOI: 10.1021/acsomega.9b02011
   
   for metadynamics refer to:
   * S. Grimme, J. Chem. Theory Comput., 2019, 155, 2847-2862
     DOI: 10.1021/acs.jctc.9b00143
   
   for SPH calculations refer to:
   * S. Spicher and S. Grimme, J. Chem. Theory Comput., 2021, 17, 1701-1714
     DOI: 10.1021/acs.jctc.0c01306
   
   for ONIOM refer to:
   * C. Plett, A. Katbashev, S. Ehlert, S. Grimme, M. Bursch,
     Phys. Chem. Chem. Phys., 2023, 25, 17860-17868. DOI: 10.1039/D3CP02178E
   
   for DIPRO refer to:
   * J. Kohn, N. Gildemeister, S. Grimme, D. Fazzi, A. Hansen,
     J. Chem. Phys., 2023, just accepted.
   
   for PTB refer to:
   * S. Grimme, M. Mueller, A. Hansen, J. Chem. Phys., 2023, 158, 124111.
     DOI: 10.1063/5.0137838
   
   with help from (in alphabetical order)
   P. Atkinson, C. Bannwarth, F. Bohle, G. Brandenburg, E. Caldeweyher
   M. Checinski, S. Dohm, S. Ehlert, S. Ehrlich, I. Gerasimov, C. Hölzer
   A. Katbashev, J. Kohn, J. Koopman, C. Lavigne, S. Lehtola, F. März, M. Müller,
   F. Musil, H. Neugebauer, J. Pisarek, C. Plett, P. Pracht, F. Pultar,
   J. Seibert, P. Shushkov, S. Spicher, M. Stahn, M. Steiner, T. Strunk,
   J. Stückrath, T. Rose, and J. Unsleber
   
 * started run on 2026/08/31 at 21:19:23.030     
   ID    Z sym.   atoms
    1    8 O      1, 10, 19, 59-72
    2    6 C      2-9, 12-17, 52-58
    3    7 N      11, 18
    4    1 H      20-39
    5   22 Ti     40-51

           -------------------------------------------------
          |                Calculation Setup                |
           -------------------------------------------------

          program call               : "c:\Users\Andre\Proyectos doctorado\kras-pancreatic-gC3N4-ai\tools\xtb\xtb-6.7.1\bin\xtb.exe" "c:\Users\Andre\Proyectos doctorado\mxene-glioblastoma-qsar-ai\calculations\gbm\Vorinostat\Vorinostat_Ti12C7O14_phys_complex.xyz" --gfn 2 --sp --chrg 0 --uhf 0 --etemp 300 --iterations 500 --norestart
          coordinate file            : c:\Users\Andre\Proyectos doctorado\mxene-glioblastoma-qsar-ai\calculations\gbm\Vorinostat\Vorinostat_Ti12C7O14_phys_complex.xyz
          omp threads                :                    16


molecular fragmentation (1/2 indicates fragments):
111111111111111111111111111111111111111222222222222222222222222222222222
# atoms in fragment 1/2:    39    33
 fragment masses (1/2) :      264.32      882.47
CMA distance (Bohr)    :  17.496
constraining FC (au)   :  0.0500

           -------------------------------------------------
          |                 G F N 2 - x T B                 |
           -------------------------------------------------

        Reference                      10.1021/acs.jctc.8b01176
      * Hamiltonian:
        H0-scaling (s, p, d)           1.850000    2.230000    2.230000
        zeta-weighting                 0.500000
      * Dispersion:
        s8                             2.700000
        a1                             0.520000
        a2                             5.000000
        s9                             5.000000
      * Repulsion:
        kExp                           1.500000    1.000000
        rExp                           1.000000
      * Coulomb:
        alpha                          2.000000
        third order                    shell-resolved
        anisotropic                    true
        a3                             3.000000
        a5                             4.000000
        cn-shift                       1.200000
        cn-exp                         4.000000
        max-rad                        5.000000


          ...................................................
          :                      SETUP                      :
          :.................................................:
          :  # basis functions                 300          :
          :  # atomic orbitals                 288          :
          :  # shells                          136          :
          :  # electrons                       264          :
          :  max. iterations                   500          :
          :  Hamiltonian                  GFN2-xTB          :
          :  restarted?                      false          :
          :  GBSA solvation                  false          :
          :  PC potential                    false          :
          :  electronic temp.          300.0000000     K    :
          :  accuracy                    1.0000000          :
          :  -> integral cutoff          0.2500000E+02      :
          :  -> integral neglect         0.1000000E-07      :
          :  -> SCF convergence          0.1000000E-05 Eh   :
          :  -> wf. convergence          0.1000000E-03 e    :
          :  Broyden damping             0.4000000          :
          :  net charge                          0          :
          :  unpaired electrons                  0          :
          ...................................................

 iter      E             dE          RMSdq      gap      omega  full diag
   1   -149.7257604 -0.149726E+03  0.138E+01    0.05       0.0  T
   2   -134.6907318  0.150350E+02  0.118E+01    0.10       1.0  T
   3    -84.0632224  0.506275E+02  0.223E+01    0.06       1.0  T
   4   -149.4027207 -0.653395E+02  0.923E+00    0.02       1.0  T
   5   -151.0899806 -0.168726E+01  0.615E+00    0.34       1.0  T
   6   -150.2234913  0.866489E+00  0.593E+00    0.03       1.0  T
   7   -151.2352020 -0.101171E+01  0.449E+00    1.19       1.0  T
   8   -151.3674306 -0.132229E+00  0.378E+00    0.66       1.0  T
   9   -150.3161330  0.105130E+01  0.670E+00    0.01       1.0  T
  10   -151.3494269 -0.103329E+01  0.327E+00    0.14       1.0  T
  11   -150.2260298  0.112340E+01  0.640E+00    0.01       1.0  T
  12   -150.6495748 -0.423545E+00  0.471E+00    0.14       1.0  T
  13   -150.5796391  0.699356E-01  0.455E+00    0.14       1.0  T
  14   -150.4742282  0.105411E+00  0.466E+00    0.12       1.0  T
  15   -151.4323221 -0.958094E+00  0.188E+00    0.15       1.0  T
  16   -151.5277461 -0.954241E-01  0.184E+00    0.37       1.0  T
  17   -151.5419176 -0.141714E-01  0.171E+00    0.43       1.0  T
  18   -151.5656845 -0.237669E-01  0.141E+00    0.64       1.0  T
  19   -151.5953947 -0.297102E-01  0.112E+00    0.79       1.0  T
  20   -151.6122449 -0.168502E-01  0.897E-01    1.00       1.0  T
  21   -151.6289638 -0.167189E-01  0.569E-01    0.94       1.0  T
  22   -151.6335783 -0.461446E-02  0.430E-01    0.90       1.0  T
  23   -151.6381833 -0.460500E-02  0.309E-01    0.83       1.0  T
  24   -151.6409304 -0.274709E-02  0.265E-01    0.77       1.0  T
  25   -151.6419994 -0.106901E-02  0.255E-01    0.76       1.0  T
  26   -151.6425724 -0.573049E-03  0.233E-01    0.73       1.0  T
  27   -151.6429963 -0.423909E-03  0.212E-01    0.71       1.0  T
  28   -151.6431844 -0.188055E-03  0.186E-01    0.70       1.0  T
  29   -151.6434351 -0.250736E-03  0.174E-01    0.69       1.0  T
  30   -151.6436665 -0.231336E-03  0.150E-01    0.66       1.0  T
  31   -151.6437281 -0.616950E-04  0.140E-01    0.66       1.0  T
  32   -151.6438472 -0.119016E-03  0.130E-01    0.64       1.0  T
  33   -151.6439078 -0.606589E-04  0.118E-01    0.63       1.0  T
  34   -151.6439287 -0.208786E-04  0.115E-01    0.62       1.0  T
  35   -151.6439538 -0.251047E-04  0.110E-01    0.62       1.0  T
  36   -151.6439894 -0.355809E-04  0.946E-02    0.62       1.0  T
  37   -151.6440291 -0.397104E-04  0.814E-02    0.62       1.0  T
  38   -151.6440769 -0.478082E-04  0.635E-02    0.62       1.0  T
  39   -151.6441039 -0.270399E-04  0.511E-02    0.62       1.0  T
  40   -151.6441262 -0.222164E-04  0.391E-02    0.62       1.0  T
  41   -151.6441389 -0.127209E-04  0.268E-02    0.62       1.0  T
  42   -151.6441478 -0.895810E-05  0.170E-02    0.62       1.0  T
  43   -151.6441517 -0.386198E-05  0.970E-03    0.62       1.2  T
  44   -151.6441533 -0.163261E-05  0.436E-03    0.62       2.7  T
  45   -151.6441538 -0.432136E-06  0.199E-03    0.62       5.9  T
  46   -151.6441538  0.751157E-09  0.194E-03    0.61       6.1  T
  47   -151.6441538 -0.102691E-07  0.176E-03    0.61       6.7  T
  48   -151.6441538 -0.543546E-07  0.915E-04    0.61      12.9  T
  49   -151.6441538 -0.151701E-07  0.450E-04    0.61      26.2  T

   *** convergence criteria satisfied after 49 iterations ***

         #    Occupation            Energy/Eh            Energy/eV
      -------------------------------------------------------------
         1        2.0000           -0.8198021             -22.3080
       ...           ...                  ...                  ...
       126        2.0000           -0.3580962              -9.7443
       127        2.0000           -0.3505105              -9.5379
       128        2.0000           -0.3478053              -9.4643
       129        2.0000           -0.3442117              -9.3665
       130        2.0000           -0.3373355              -9.1794
       131        2.0000           -0.3220967              -8.7647
       132        2.0000           -0.3075247              -8.3682 (HOMO)
       133        0.0000           -0.2849545              -7.7540 (LUMO)
       134        0.0000           -0.2845103              -7.7419
       135        0.0000           -0.2833640              -7.7107
       136        0.0000           -0.2827996              -7.6954
       137                         -0.2787204              -7.5844
       ...                                ...                  ...
       288                         13.3560078             363.4355
      -------------------------------------------------------------
                  HL-Gap            0.0225702 Eh            0.6142 eV
             Fermi-level           -0.2965492 Eh           -8.0695 eV

 SCC (total)                   0 d,  0 h,  0 min,  0.671 sec
 SCC setup                      ...        0 min,  0.000 sec (  0.000%)
 Dispersion                     ...        0 min,  0.001 sec (  0.149%)
 classical contributions        ...        0 min,  0.000 sec (  0.000%)
 integral evaluation            ...        0 min,  0.006 sec (  0.894%)
 iterations                     ...        0 min,  0.648 sec ( 96.572%)
 molecular gradient             ...        0 min,  0.015 sec (  2.235%)
 printout                       ...        0 min,  0.001 sec (  0.149%)

         :::::::::::::::::::::::::::::::::::::::::::::::::::::
         ::                     SUMMARY                     ::
         :::::::::::::::::::::::::::::::::::::::::::::::::::::
         :: total energy            -150.231621010092 Eh    ::
         :: gradient norm              0.059719720829 Eh/a0 ::
         :: HOMO-LUMO gap              0.614167131169 eV    ::
         ::.................................................::
         :: SCC energy              -151.642377052454 Eh    ::
         :: -> isotropic ES            0.996412792153 Eh    ::
         :: -> anisotropic ES         -0.378816017389 Eh    ::
         :: -> anisotropic XC         -0.042418208577 Eh    ::
         :: -> dispersion             -0.122667351445 Eh    ::
         :: repulsion energy           1.410756042363 Eh    ::
         :: add. restraining           0.000000000000 Eh    ::
         :: total charge              -0.000000000016 e     ::
         :::::::::::::::::::::::::::::::::::::::::::::::::::::

           -------------------------------------------------
          |                Property Printout                |
           -------------------------------------------------

    * Orbital Energies and Occupations

         #    Occupation            Energy/Eh            Energy/eV
      -------------------------------------------------------------
         1        2.0000           -0.8198021             -22.3080
       ...           ...                  ...                  ...
       120        2.0000           -0.3862754             -10.5111
       121        2.0000           -0.3858619             -10.4998
       122        2.0000           -0.3811641             -10.3720
       123        2.0000           -0.3768777             -10.2554
       124        2.0000           -0.3674247              -9.9981
       125        2.0000           -0.3602858              -9.8039
       126        2.0000           -0.3580962              -9.7443
       127        2.0000           -0.3505105              -9.5379
       128        2.0000           -0.3478053              -9.4643
       129        2.0000           -0.3442117              -9.3665
       130        2.0000           -0.3373355              -9.1794
       131        2.0000           -0.3220967              -8.7647
       132        2.0000           -0.3075247              -8.3682 (HOMO)
       133        0.0000           -0.2849545              -7.7540 (LUMO)
       134        0.0000           -0.2845103              -7.7419
       135        0.0000           -0.2833640              -7.7107
       136        0.0000           -0.2827996              -7.6954
       137                         -0.2787204              -7.5844
       138                         -0.2743849              -7.4664
       139                         -0.2734793              -7.4418
       140                         -0.2717065              -7.3935
       141                         -0.2715873              -7.3903
       142                         -0.2703631              -7.3570
       143                         -0.2700079              -7.3473
       ...                                ...                  ...
       288                         13.3560078             363.4355
      -------------------------------------------------------------
                  HL-Gap            0.0225702 Eh            0.6142 eV
             Fermi-level           -0.2965492 Eh           -8.0695 eV

     #   Z          covCN         q      C6AA      α(0)
     1   8 O        0.857    -0.423    22.153     6.310
     2   6 C        2.745     0.260    22.627     7.789
     3   6 C        3.805    -0.093    22.264     6.717
     4   6 C        3.801    -0.059    21.628     6.621
     5   6 C        3.799    -0.065    21.756     6.641
     6   6 C        3.799    -0.070    21.836     6.653
     7   6 C        3.800    -0.068    21.798     6.647
     8   6 C        3.805    -0.098    22.370     6.733
     9   6 C        2.746     0.266    22.512     7.769
    10   8 O        0.856    -0.404    21.762     6.255
    11   7 N        2.693    -0.167    24.619     7.369
    12   6 C        2.895     0.075    26.329     8.413
    13   6 C        2.915    -0.048    29.194     8.860
    14   6 C        2.912    -0.031    28.763     8.794
    15   6 C        2.911    -0.037    28.932     8.820
    16   6 C        2.911    -0.032    28.789     8.798
    17   6 C        2.920    -0.057    29.419     8.895
    18   7 N        2.686    -0.079    22.786     7.090
    19   8 O        1.714    -0.358    20.038     6.044
    20   1 H        0.924     0.059     2.210     2.325
    21   1 H        0.924     0.056     2.251     2.346
    22   1 H        0.924     0.052     2.295     2.369
    23   1 H        0.924     0.055     2.261     2.352
    24   1 H        0.924     0.044     2.402     2.424
    25   1 H        0.924     0.032     2.554     2.499
    26   1 H        0.924     0.045     2.387     2.416
    27   1 H        0.924     0.032     2.554     2.499
    28   1 H        0.924     0.060     2.195     2.317
    29   1 H        0.924     0.060     2.198     2.318
    30   1 H        0.924     0.062     2.173     2.305
    31   1 H        0.924     0.053     2.288     2.365
    32   1 H        0.860     0.176     1.236     1.741
    33   1 H        0.925     0.077     2.015     2.220
    34   1 H        0.925     0.043     2.406     2.425
    35   1 H        0.925     0.035     2.511     2.478
    36   1 H        0.925     0.036     2.505     2.475
    37   1 H        0.925     0.027     2.628     2.535
    38   1 H        0.860     0.186     1.180     1.702
    39   1 H        0.802     0.340     0.613     1.230
    40  22 Ti       3.637     1.046   101.851    24.495
    41  22 Ti       6.855     1.550    84.070    14.886
    42  22 Ti       3.227     1.045   102.670    24.742
    43  22 Ti       5.860     1.379    85.683    15.028
    44  22 Ti       5.627     1.116    88.254    15.252
    45  22 Ti       3.541     1.041   102.465    24.671
    46  22 Ti       2.352     0.880   202.688    34.859
    47  22 Ti       6.011     1.348    85.979    15.054
    48  22 Ti       3.414     1.006   103.079    24.782
    49  22 Ti       5.519     1.096    88.458    15.270
    50  22 Ti       5.687     1.188    87.541    15.191
    51  22 Ti       3.581     1.024   102.493    24.645
    52   6 C        2.246    -0.257    37.633     9.939
    53   6 C        2.142    -0.256    38.343    10.009
    54   6 C        2.248    -0.019    30.607     8.964
    55   6 C        1.838    -0.211    37.351     9.873
    56   6 C        1.894    -0.226    37.808     9.931
    57   6 C        1.821    -0.345    42.121    10.486
    58   6 C        2.631    -0.404    39.915    10.334
    59   8 O        1.554    -0.848    32.037     7.636
    60   8 O        1.464    -0.883    33.286     7.777
    61   8 O        1.557    -0.956    35.617     8.052
    62   8 O        1.523    -1.005    37.427     8.252
    63   8 O        1.523    -0.914    34.205     7.889
    64   8 O        1.458    -0.821    31.355     7.547
    65   8 O        1.455    -0.797    30.624     7.458
    66   8 O        0.727    -0.638    27.137     6.981
    67   8 O        1.453    -0.865    32.729     7.710
    68   8 O        1.476    -0.800    30.689     7.468
    69   8 O        1.603    -0.945    35.187     8.006
    70   8 O        1.547    -0.968    36.038     8.099
    71   8 O        1.700    -0.818    31.006     7.518
    72   8 O        1.453    -0.782    30.197     7.406

 Mol. C6AA /au·bohr⁶  :     128877.053420
 Mol. C8AA /au·bohr⁸  :    5907201.999262
 Mol. α(0) /au        :        612.772799


Wiberg/Mayer (AO) data.
largest (>0.10) Wiberg bond orders for each atom

 ---------------------------------------------------------------------------
     #   Z sym  total        # sym  WBO       # sym  WBO       # sym  WBO
 ---------------------------------------------------------------------------
     1   8 O    2.029 --     2 C    1.686    18 N    0.189
     2   6 C    3.948 --     1 O    1.686    18 N    1.218     3 C    0.973
     3   6 C    3.996 --     4 C    1.007     2 C    0.973    20 H    0.957
                            21 H    0.957
     4   6 C    3.992 --     3 C    1.007     5 C    1.006    22 H    0.975
                            23 H    0.974
     5   6 C    3.995 --     6 C    1.009     4 C    1.006    25 H    0.976
                            24 H    0.975
     6   6 C    3.993 --     5 C    1.009     7 C    1.006    26 H    0.975
                            27 H    0.973
     7   6 C    3.985 --     8 C    1.009     6 C    1.006    28 H    0.974
                            29 H    0.939
     8   6 C    3.995 --     7 C    1.009     9 C    0.967    30 H    0.957
                            31 H    0.954
     9   6 C    3.946 --    10 O    1.714    11 N    1.187     8 C    0.967
    10   8 O    2.037 --     9 C    1.714    11 N    0.166
    11   7 N    3.480 --     9 C    1.187    12 C    1.066    32 H    0.937
                            10 O    0.166
    12   6 C    3.958 --    13 C    1.379    17 C    1.368    11 N    1.066
    13   6 C    3.985 --    14 C    1.443    12 C    1.379    33 H    0.961
                            16 C    0.109
    14   6 C    3.990 --    13 C    1.443    15 C    1.438    34 H    0.971
                            17 C    0.110
    15   6 C    3.982 --    14 C    1.438    16 C    1.433    35 H    0.971
    16   6 C    3.991 --    17 C    1.451    15 C    1.433    36 H    0.971
                            13 C    0.109
    17   6 C    3.987 --    16 C    1.451    12 C    1.368    37 H    0.968
                            14 C    0.110
    18   7 N    3.374 --     2 C    1.218    19 O    0.997    38 H    0.935
                             1 O    0.189
    19   8 O    1.936 --    18 N    0.997    39 H    0.849
    20   1 H    0.997 --     3 C    0.957
    21   1 H    0.997 --     3 C    0.957
    22   1 H    0.997 --     4 C    0.975
    23   1 H    0.997 --     4 C    0.974
    24   1 H    0.998 --     5 C    0.975
    25   1 H    0.999 --     5 C    0.976
    26   1 H    0.997 --     6 C    0.975
    27   1 H    0.999 --     6 C    0.973
    28   1 H    0.996 --     7 C    0.974
    29   1 H    0.996 --     7 C    0.939
    30   1 H    0.995 --     8 C    0.957
    31   1 H    0.997 --     8 C    0.954
    32   1 H    0.968 --    11 N    0.937
    33   1 H    0.993 --    13 C    0.961
    34   1 H    0.998 --    14 C    0.971
    35   1 H    0.998 --    15 C    0.971
    36   1 H    0.998 --    16 C    0.971
    37   1 H    0.999 --    17 C    0.968
    38   1 H    0.965 --    18 N    0.935
    39   1 H    0.885 --    19 O    0.849
    40  22 Ti   2.833 --    59 O    0.848    60 O    0.813    46 Ti   0.333
                            41 Ti   0.202    43 Ti   0.200
    41  22 Ti   3.855 --    60 O    0.750    63 O    0.746    61 O    0.687
                            62 O    0.612    40 Ti   0.202    42 Ti   0.187
                            44 Ti   0.138    45 Ti   0.135
    42  22 Ti   2.725 --    68 O    0.961    61 O    0.602    48 Ti   0.372
                            41 Ti   0.187    46 Ti   0.140    63 O    0.110
    43  22 Ti   3.922 --    64 O    0.949    52 C    0.717    59 O    0.700
                            62 O    0.567    45 Ti   0.204    40 Ti   0.200
                            49 Ti   0.179    69 O    0.122
    44  22 Ti   4.078 --    58 C    0.895    65 O    0.771    56 C    0.743
                            63 O    0.600    50 Ti   0.284    45 Ti   0.175
                            57 C    0.163    53 C    0.152    41 Ti   0.138
    45  22 Ti   2.702 --    65 O    0.972    64 O    0.695    43 Ti   0.204
                            44 Ti   0.175    41 Ti   0.135    60 O    0.122
    46  22 Ti   3.769 --    66 O    1.994    47 Ti   0.608    40 Ti   0.333
                            61 O    0.153    59 O    0.148    42 Ti   0.140
                            69 O    0.112
    47  22 Ti   4.018 --    69 O    0.803    67 O    0.750    70 O    0.716
                            46 Ti   0.608    71 O    0.195    48 Ti   0.166
                            51 Ti   0.148    49 Ti   0.141
    48  22 Ti   2.748 --    67 O    0.836    68 O    0.764    42 Ti   0.372
                            51 Ti   0.221    47 Ti   0.166    50 Ti   0.130
    49  22 Ti   4.012 --    57 C    1.055    55 C    0.730    71 O    0.612
                            69 O    0.442    58 C    0.230    51 Ti   0.199
                            43 Ti   0.179    52 C    0.158    47 Ti   0.141
    50  22 Ti   4.084 --    72 O    0.967    53 C    0.668    58 C    0.656
                            70 O    0.442    44 Ti   0.284    51 Ti   0.210
                            57 C    0.142    48 Ti   0.130    68 O    0.113
    51  22 Ti   2.793 --    71 O    0.902    72 O    0.733    48 Ti   0.221
                            50 Ti   0.210    49 Ti   0.199    47 Ti   0.148
    52   6 C    3.840 --    55 C    2.739    43 Ti   0.717    49 Ti   0.158
    53   6 C    3.780 --    56 C    2.732    50 Ti   0.668    44 Ti   0.152
    54   6 C    3.979 --    57 C    2.010    58 C    1.603
    55   6 C    3.707 --    52 C    2.739    49 Ti   0.730
    56   6 C    3.747 --    53 C    2.732    44 Ti   0.743
    57   6 C    3.769 --    54 C    2.010    49 Ti   1.055    44 Ti   0.163
                            50 Ti   0.142
    58   6 C    3.829 --    54 C    1.603    44 Ti   0.895    50 Ti   0.656
                            49 Ti   0.230
    59   8 O    1.933 --    40 Ti   0.848    43 Ti   0.700    46 Ti   0.148
    60   8 O    1.889 --    40 Ti   0.813    41 Ti   0.750    45 Ti   0.122
    61   8 O    1.782 --    41 Ti   0.687    42 Ti   0.602    46 Ti   0.153
    62   8 O    1.720 --    41 Ti   0.612    43 Ti   0.567
    63   8 O    1.845 --    41 Ti   0.746    44 Ti   0.600    42 Ti   0.110
    64   8 O    1.971 --    43 Ti   0.949    45 Ti   0.695
    65   8 O    2.015 --    45 Ti   0.972    44 Ti   0.771
    66   8 O    2.169 --    46 Ti   1.994
    67   8 O    1.910 --    48 Ti   0.836    47 Ti   0.750
    68   8 O    2.007 --    42 Ti   0.961    48 Ti   0.764    50 Ti   0.113
    69   8 O    1.799 --    47 Ti   0.803    49 Ti   0.442    43 Ti   0.122
                            46 Ti   0.112
    70   8 O    1.774 --    47 Ti   0.716    50 Ti   0.442
    71   8 O    1.985 --    51 Ti   0.902    49 Ti   0.612    47 Ti   0.195
    72   8 O    2.030 --    50 Ti   0.967    51 Ti   0.733
 ---------------------------------------------------------------------------

Topologies differ in total number of bonds
Writing topology from bond orders to xtbtopo.mol

molecular dipole:
                 x           y           z       tot (Debye)
 q only:        0.068      -2.115      -0.432
   full:       -1.370      -2.590       0.078       7.449
molecular quadrupole (traceless):
                xx          xy          yy          xz          yz          zz
 q only:      -47.129      -0.845      -0.755     -63.202     -39.162      47.883
  q+dip:      -37.621      -3.443     -12.763     -38.759     -64.862      50.384
   full:      -35.305      -1.967     -12.532     -39.875     -60.153      47.837


           -------------------------------------------------
          | TOTAL ENERGY             -150.231621010092 Eh   |
          | GRADIENT NORM               0.059719720829 Eh/α |
          | HOMO-LUMO GAP               0.614167131169 eV   |
           -------------------------------------------------

------------------------------------------------------------------------
 * finished run on 2026/08/31 at 21:19:23.743     
------------------------------------------------------------------------
 total:
 * wall-time:     0 d,  0 h,  0 min,  0.712 sec
 *  cpu-time:     0 d,  0 h,  0 min,  7.297 sec
 * ratio c/w:    10.248 speedup
 SCF:
 * wall-time:     0 d,  0 h,  0 min,  0.673 sec
 *  cpu-time:     0 d,  0 h,  0 min,  6.969 sec
 * ratio c/w:    10.355 speedup

normal termination of xtb
