72
Drug@Ti12C7O14 clean complex
O      5.314438     -1.260640     11.228901
C      4.976421     -0.102726     10.998495
C      4.119317      0.333673      9.827987
C      3.691764     -0.844905      8.955681
C      2.963255     -0.424153      7.676100
C      1.680357      0.389052      7.873365
C      0.610111     -0.347424      8.680425
C     -0.693917      0.449139      8.728412
C     -1.775368     -0.251224      9.539531
O     -1.578097     -1.322542     10.099555
N     -2.951952      0.481706      9.544827
C     -4.164588      0.158333     10.188476
C     -5.225470      1.063012     10.044258
C     -6.460861      0.818108     10.650108
C     -6.647740     -0.334847     11.406934
C     -5.599818     -1.239759     11.556241
C     -4.363219     -0.994543     10.949696
N      5.355587      0.942355     11.813544
O      6.270999      0.592876     12.836931
H      3.240271      0.849433     10.229729
H      4.697646      1.048866      9.231549
H      4.579707     -1.421130      8.664869
H      3.067691     -1.532443      9.538774
H      3.651308      0.162395      7.054405
H      2.725077     -1.327620      7.100854
H      1.278193      0.630334      6.881230
H      1.912423      1.347744      8.351360
H      0.422875     -1.332447      8.235396
H      0.964009     -0.521910      9.703107
H     -0.511454      1.431985      9.179128
H     -1.072567      0.601503      7.710666
H     -2.948003      1.350033      9.025551
H     -5.108122      1.971067      9.459154
H     -7.275839      1.527167     10.530745
H     -7.606601     -0.529622     11.879964
H     -5.739027     -2.142368     12.146167
H     -3.575752     -1.727509     11.093697
H      5.429179      1.890468     11.460787
H      6.347767     -0.381437     12.726726
Ti     -2.141866     -3.008818      2.119748
Ti      0.288991     -1.694759      1.432425
Ti      1.903098     -3.067749     -0.729322
Ti     -2.521502     -0.251928      1.303687
Ti      2.142050      0.499533      2.204434
Ti     -0.681448      0.189635      3.681230
Ti     -2.036770     -3.077740     -1.200512
Ti     -0.605340     -0.770900     -2.035132
Ti      1.945488     -1.587317     -3.412400
Ti     -1.878170      1.746573     -1.240030
Ti      2.412512      0.454231     -0.774247
Ti      0.817742      1.838452     -2.940004
C     -3.678414      1.281398      0.600737
C      4.128193      0.482847      0.387293
C      0.455479      2.267202      0.349695
C     -3.666709      2.118834     -0.313920
C      4.115962      0.632239      1.621354
C     -0.635167      2.741046     -0.118921
C      1.630072      1.780996      0.734224
O     -3.093456     -1.956907      1.037949
O     -0.487250     -2.605849      2.701203
O      0.314079     -2.888890      0.145001
O     -0.800785     -0.435934      0.971227
O      1.902865     -1.158331      1.469449
O     -2.322673     -0.113878      3.024800
O      1.013786      0.441598      3.568761
O     -1.772019     -4.587905     -1.652810
O      0.190605     -1.189189     -3.534030
O      2.831420     -2.170248     -1.918042
O     -2.054558     -0.224445     -1.337505
O      0.768511     -0.390574     -1.063664
O     -0.900039      1.649313     -2.818565
O      2.415313      1.357463     -2.264115
